p cnf 583 2016
1 56 0
-56 57 0
2 -56 58 0
-58 59 0
3 -58 60 0
-60 61 0
4 -60 62 0
-62 63 0
5 -62 64 0
-64 65 0
6 -64 66 0
-66 67 0
7 -66 0
2 57 0
-57 68 0
3 -57 59 0
-59 69 0
4 -59 61 0
-61 70 0
5 -61 63 0
-63 71 0
6 -63 65 0
-65 72 0
7 -65 67 0
-67 73 0
8 -67 0
3 68 0
-68 74 0
4 -68 69 0
-69 75 0
5 -69 70 0
-70 76 0
6 -70 71 0
-71 77 0
7 -71 72 0
-72 78 0
8 -72 73 0
-73 79 0
9 -73 0
4 74 0
5 -74 75 0
6 -75 76 0
7 -76 77 0
8 -77 78 0
9 -78 79 0
10 -79 0
-1 80 0
-80 81 0
-2 -80 82 0
-82 83 0
-3 -82 84 0
-84 85 0
-4 -84 86 0
-86 87 0
-5 -86 0
-2 81 0
-81 88 0
-3 -81 83 0
-83 89 0
-4 -83 85 0
-85 90 0
-5 -85 87 0
-87 91 0
-6 -87 0
-3 88 0
-88 92 0
-4 -88 89 0
-89 93 0
-5 -89 90 0
-90 94 0
-6 -90 91 0
-91 95 0
-7 -91 0
-4 92 0
-92 96 0
-5 -92 93 0
-93 97 0
-6 -93 94 0
-94 98 0
-7 -94 95 0
-95 99 0
-8 -95 0
-5 96 0
-96 100 0
-6 -96 97 0
-97 101 0
-7 -97 98 0
-98 102 0
-8 -98 99 0
-99 103 0
-9 -99 0
-6 100 0
-7 -100 101 0
-8 -101 102 0
-9 -102 103 0
-10 -103 0
1 104 0
-104 105 0
11 -104 106 0
-106 107 0
12 -106 108 0
-108 109 0
13 -108 110 0
-110 111 0
14 -110 112 0
-112 113 0
15 -112 114 0
-114 115 0
16 -114 0
11 105 0
-105 116 0
12 -105 107 0
-107 117 0
13 -107 109 0
-109 118 0
14 -109 111 0
-111 119 0
15 -111 113 0
-113 120 0
16 -113 115 0
-115 121 0
17 -115 0
12 116 0
-116 122 0
13 -116 117 0
-117 123 0
14 -117 118 0
-118 124 0
15 -118 119 0
-119 125 0
16 -119 120 0
-120 126 0
17 -120 121 0
-121 127 0
18 -121 0
13 122 0
14 -122 123 0
15 -123 124 0
16 -124 125 0
17 -125 126 0
18 -126 127 0
19 -127 0
-1 128 0
-128 129 0
-11 -128 130 0
-130 131 0
-12 -130 132 0
-132 133 0
-13 -132 134 0
-134 135 0
-14 -134 0
-11 129 0
-129 136 0
-12 -129 131 0
-131 137 0
-13 -131 133 0
-133 138 0
-14 -133 135 0
-135 139 0
-15 -135 0
-12 136 0
-136 140 0
-13 -136 137 0
-137 141 0
-14 -137 138 0
-138 142 0
-15 -138 139 0
-139 143 0
-16 -139 0
-13 140 0
-140 144 0
-14 -140 141 0
-141 145 0
-15 -141 142 0
-142 146 0
-16 -142 143 0
-143 147 0
-17 -143 0
-14 144 0
-144 148 0
-15 -144 145 0
-145 149 0
-16 -145 146 0
-146 150 0
-17 -146 147 0
-147 151 0
-18 -147 0
-15 148 0
-16 -148 149 0
-17 -149 150 0
-18 -150 151 0
-19 -151 0
2 152 0
-152 153 0
11 -152 154 0
-154 155 0
20 -154 156 0
-156 157 0
21 -156 158 0
-158 159 0
22 -158 160 0
-160 161 0
23 -160 162 0
-162 163 0
24 -162 0
11 153 0
-153 164 0
20 -153 155 0
-155 165 0
21 -155 157 0
-157 166 0
22 -157 159 0
-159 167 0
23 -159 161 0
-161 168 0
24 -161 163 0
-163 169 0
25 -163 0
20 164 0
-164 170 0
21 -164 165 0
-165 171 0
22 -165 166 0
-166 172 0
23 -166 167 0
-167 173 0
24 -167 168 0
-168 174 0
25 -168 169 0
-169 175 0
26 -169 0
21 170 0
22 -170 171 0
23 -171 172 0
24 -172 173 0
25 -173 174 0
26 -174 175 0
27 -175 0
-2 176 0
-176 177 0
-11 -176 178 0
-178 179 0
-20 -178 180 0
-180 181 0
-21 -180 182 0
-182 183 0
-22 -182 0
-11 177 0
-177 184 0
-20 -177 179 0
-179 185 0
-21 -179 181 0
-181 186 0
-22 -181 183 0
-183 187 0
-23 -183 0
-20 184 0
-184 188 0
-21 -184 185 0
-185 189 0
-22 -185 186 0
-186 190 0
-23 -186 187 0
-187 191 0
-24 -187 0
-21 188 0
-188 192 0
-22 -188 189 0
-189 193 0
-23 -189 190 0
-190 194 0
-24 -190 191 0
-191 195 0
-25 -191 0
-22 192 0
-192 196 0
-23 -192 193 0
-193 197 0
-24 -193 194 0
-194 198 0
-25 -194 195 0
-195 199 0
-26 -195 0
-23 196 0
-24 -196 197 0
-25 -197 198 0
-26 -198 199 0
-27 -199 0
3 200 0
-200 201 0
12 -200 202 0
-202 203 0
20 -202 204 0
-204 205 0
28 -204 206 0
-206 207 0
29 -206 208 0
-208 209 0
30 -208 210 0
-210 211 0
31 -210 0
12 201 0
-201 212 0
20 -201 203 0
-203 213 0
28 -203 205 0
-205 214 0
29 -205 207 0
-207 215 0
30 -207 209 0
-209 216 0
31 -209 211 0
-211 217 0
32 -211 0
20 212 0
-212 218 0
28 -212 213 0
-213 219 0
29 -213 214 0
-214 220 0
30 -214 215 0
-215 221 0
31 -215 216 0
-216 222 0
32 -216 217 0
-217 223 0
33 -217 0
28 218 0
29 -218 219 0
30 -219 220 0
31 -220 221 0
32 -221 222 0
33 -222 223 0
34 -223 0
-3 224 0
-224 225 0
-12 -224 226 0
-226 227 0
-20 -226 228 0
-228 229 0
-28 -228 230 0
-230 231 0
-29 -230 0
-12 225 0
-225 232 0
-20 -225 227 0
-227 233 0
-28 -227 229 0
-229 234 0
-29 -229 231 0
-231 235 0
-30 -231 0
-20 232 0
-232 236 0
-28 -232 233 0
-233 237 0
-29 -233 234 0
-234 238 0
-30 -234 235 0
-235 239 0
-31 -235 0
-28 236 0
-236 240 0
-29 -236 237 0
-237 241 0
-30 -237 238 0
-238 242 0
-31 -238 239 0
-239 243 0
-32 -239 0
-29 240 0
-240 244 0
-30 -240 241 0
-241 245 0
-31 -241 242 0
-242 246 0
-32 -242 243 0
-243 247 0
-33 -243 0
-30 244 0
-31 -244 245 0
-32 -245 246 0
-33 -246 247 0
-34 -247 0
4 248 0
-248 249 0
13 -248 250 0
-250 251 0
21 -250 252 0
-252 253 0
28 -252 254 0
-254 255 0
35 -254 256 0
-256 257 0
36 -256 258 0
-258 259 0
37 -258 0
13 249 0
-249 260 0
21 -249 251 0
-251 261 0
28 -251 253 0
-253 262 0
35 -253 255 0
-255 263 0
36 -255 257 0
-257 264 0
37 -257 259 0
-259 265 0
38 -259 0
21 260 0
-260 266 0
28 -260 261 0
-261 267 0
35 -261 262 0
-262 268 0
36 -262 263 0
-263 269 0
37 -263 264 0
-264 270 0
38 -264 265 0
-265 271 0
39 -265 0
28 266 0
35 -266 267 0
36 -267 268 0
37 -268 269 0
38 -269 270 0
39 -270 271 0
40 -271 0
-4 272 0
-272 273 0
-13 -272 274 0
-274 275 0
-21 -274 276 0
-276 277 0
-28 -276 278 0
-278 279 0
-35 -278 0
-13 273 0
-273 280 0
-21 -273 275 0
-275 281 0
-28 -275 277 0
-277 282 0
-35 -277 279 0
-279 283 0
-36 -279 0
-21 280 0
-280 284 0
-28 -280 281 0
-281 285 0
-35 -281 282 0
-282 286 0
-36 -282 283 0
-283 287 0
-37 -283 0
-28 284 0
-284 288 0
-35 -284 285 0
-285 289 0
-36 -285 286 0
-286 290 0
-37 -286 287 0
-287 291 0
-38 -287 0
-35 288 0
-288 292 0
-36 -288 289 0
-289 293 0
-37 -289 290 0
-290 294 0
-38 -290 291 0
-291 295 0
-39 -291 0
-36 292 0
-37 -292 293 0
-38 -293 294 0
-39 -294 295 0
-40 -295 0
5 296 0
-296 297 0
14 -296 298 0
-298 299 0
22 -298 300 0
-300 301 0
29 -300 302 0
-302 303 0
35 -302 304 0
-304 305 0
41 -304 306 0
-306 307 0
42 -306 0
14 297 0
-297 308 0
22 -297 299 0
-299 309 0
29 -299 301 0
-301 310 0
35 -301 303 0
-303 311 0
41 -303 305 0
-305 312 0
42 -305 307 0
-307 313 0
43 -307 0
22 308 0
-308 314 0
29 -308 309 0
-309 315 0
35 -309 310 0
-310 316 0
41 -310 311 0
-311 317 0
42 -311 312 0
-312 318 0
43 -312 313 0
-313 319 0
44 -313 0
29 314 0
35 -314 315 0
41 -315 316 0
42 -316 317 0
43 -317 318 0
44 -318 319 0
45 -319 0
-5 320 0
-320 321 0
-14 -320 322 0
-322 323 0
-22 -322 324 0
-324 325 0
-29 -324 326 0
-326 327 0
-35 -326 0
-14 321 0
-321 328 0
-22 -321 323 0
-323 329 0
-29 -323 325 0
-325 330 0
-35 -325 327 0
-327 331 0
-41 -327 0
-22 328 0
-328 332 0
-29 -328 329 0
-329 333 0
-35 -329 330 0
-330 334 0
-41 -330 331 0
-331 335 0
-42 -331 0
-29 332 0
-332 336 0
-35 -332 333 0
-333 337 0
-41 -333 334 0
-334 338 0
-42 -334 335 0
-335 339 0
-43 -335 0
-35 336 0
-336 340 0
-41 -336 337 0
-337 341 0
-42 -337 338 0
-338 342 0
-43 -338 339 0
-339 343 0
-44 -339 0
-41 340 0
-42 -340 341 0
-43 -341 342 0
-44 -342 343 0
-45 -343 0
6 344 0
-344 345 0
15 -344 346 0
-346 347 0
23 -346 348 0
-348 349 0
30 -348 350 0
-350 351 0
36 -350 352 0
-352 353 0
41 -352 354 0
-354 355 0
46 -354 0
15 345 0
-345 356 0
23 -345 347 0
-347 357 0
30 -347 349 0
-349 358 0
36 -349 351 0
-351 359 0
41 -351 353 0
-353 360 0
46 -353 355 0
-355 361 0
47 -355 0
23 356 0
-356 362 0
30 -356 357 0
-357 363 0
36 -357 358 0
-358 364 0
41 -358 359 0
-359 365 0
46 -359 360 0
-360 366 0
47 -360 361 0
-361 367 0
48 -361 0
30 362 0
36 -362 363 0
41 -363 364 0
46 -364 365 0
47 -365 366 0
48 -366 367 0
49 -367 0
-6 368 0
-368 369 0
-15 -368 370 0
-370 371 0
-23 -370 372 0
-372 373 0
-30 -372 374 0
-374 375 0
-36 -374 0
-15 369 0
-369 376 0
-23 -369 371 0
-371 377 0
-30 -371 373 0
-373 378 0
-36 -373 375 0
-375 379 0
-41 -375 0
-23 376 0
-376 380 0
-30 -376 377 0
-377 381 0
-36 -377 378 0
-378 382 0
-41 -378 379 0
-379 383 0
-46 -379 0
-30 380 0
-380 384 0
-36 -380 381 0
-381 385 0
-41 -381 382 0
-382 386 0
-46 -382 383 0
-383 387 0
-47 -383 0
-36 384 0
-384 388 0
-41 -384 385 0
-385 389 0
-46 -385 386 0
-386 390 0
-47 -386 387 0
-387 391 0
-48 -387 0
-41 388 0
-46 -388 389 0
-47 -389 390 0
-48 -390 391 0
-49 -391 0
7 392 0
-392 393 0
16 -392 394 0
-394 395 0
24 -394 396 0
-396 397 0
31 -396 398 0
-398 399 0
37 -398 400 0
-400 401 0
42 -400 402 0
-402 403 0
46 -402 0
16 393 0
-393 404 0
24 -393 395 0
-395 405 0
31 -395 397 0
-397 406 0
37 -397 399 0
-399 407 0
42 -399 401 0
-401 408 0
46 -401 403 0
-403 409 0
50 -403 0
24 404 0
-404 410 0
31 -404 405 0
-405 411 0
37 -405 406 0
-406 412 0
42 -406 407 0
-407 413 0
46 -407 408 0
-408 414 0
50 -408 409 0
-409 415 0
51 -409 0
31 410 0
37 -410 411 0
42 -411 412 0
46 -412 413 0
50 -413 414 0
51 -414 415 0
52 -415 0
-7 416 0
-416 417 0
-16 -416 418 0
-418 419 0
-24 -418 420 0
-420 421 0
-31 -420 422 0
-422 423 0
-37 -422 0
-16 417 0
-417 424 0
-24 -417 419 0
-419 425 0
-31 -419 421 0
-421 426 0
-37 -421 423 0
-423 427 0
-42 -423 0
-24 424 0
-424 428 0
-31 -424 425 0
-425 429 0
-37 -425 426 0
-426 430 0
-42 -426 427 0
-427 431 0
-46 -427 0
-31 428 0
-428 432 0
-37 -428 429 0
-429 433 0
-42 -429 430 0
-430 434 0
-46 -430 431 0
-431 435 0
-50 -431 0
-37 432 0
-432 436 0
-42 -432 433 0
-433 437 0
-46 -433 434 0
-434 438 0
-50 -434 435 0
-435 439 0
-51 -435 0
-42 436 0
-46 -436 437 0
-50 -437 438 0
-51 -438 439 0
-52 -439 0
8 440 0
-440 441 0
17 -440 442 0
-442 443 0
25 -442 444 0
-444 445 0
32 -444 446 0
-446 447 0
38 -446 448 0
-448 449 0
43 -448 450 0
-450 451 0
47 -450 0
17 441 0
-441 452 0
25 -441 443 0
-443 453 0
32 -443 445 0
-445 454 0
38 -445 447 0
-447 455 0
43 -447 449 0
-449 456 0
47 -449 451 0
-451 457 0
50 -451 0
25 452 0
-452 458 0
32 -452 453 0
-453 459 0
38 -453 454 0
-454 460 0
43 -454 455 0
-455 461 0
47 -455 456 0
-456 462 0
50 -456 457 0
-457 463 0
53 -457 0
32 458 0
38 -458 459 0
43 -459 460 0
47 -460 461 0
50 -461 462 0
53 -462 463 0
54 -463 0
-8 464 0
-464 465 0
-17 -464 466 0
-466 467 0
-25 -466 468 0
-468 469 0
-32 -468 470 0
-470 471 0
-38 -470 0
-17 465 0
-465 472 0
-25 -465 467 0
-467 473 0
-32 -467 469 0
-469 474 0
-38 -469 471 0
-471 475 0
-43 -471 0
-25 472 0
-472 476 0
-32 -472 473 0
-473 477 0
-38 -473 474 0
-474 478 0
-43 -474 475 0
-475 479 0
-47 -475 0
-32 476 0
-476 480 0
-38 -476 477 0
-477 481 0
-43 -477 478 0
-478 482 0
-47 -478 479 0
-479 483 0
-50 -479 0
-38 480 0
-480 484 0
-43 -480 481 0
-481 485 0
-47 -481 482 0
-482 486 0
-50 -482 483 0
-483 487 0
-53 -483 0
-43 484 0
-47 -484 485 0
-50 -485 486 0
-53 -486 487 0
-54 -487 0
9 488 0
-488 489 0
18 -488 490 0
-490 491 0
26 -490 492 0
-492 493 0
33 -492 494 0
-494 495 0
39 -494 496 0
-496 497 0
44 -496 498 0
-498 499 0
48 -498 0
18 489 0
-489 500 0
26 -489 491 0
-491 501 0
33 -491 493 0
-493 502 0
39 -493 495 0
-495 503 0
44 -495 497 0
-497 504 0
48 -497 499 0
-499 505 0
51 -499 0
26 500 0
-500 506 0
33 -500 501 0
-501 507 0
39 -501 502 0
-502 508 0
44 -502 503 0
-503 509 0
48 -503 504 0
-504 510 0
51 -504 505 0
-505 511 0
53 -505 0
33 506 0
39 -506 507 0
44 -507 508 0
48 -508 509 0
51 -509 510 0
53 -510 511 0
55 -511 0
-9 512 0
-512 513 0
-18 -512 514 0
-514 515 0
-26 -514 516 0
-516 517 0
-33 -516 518 0
-518 519 0
-39 -518 0
-18 513 0
-513 520 0
-26 -513 515 0
-515 521 0
-33 -515 517 0
-517 522 0
-39 -517 519 0
-519 523 0
-44 -519 0
-26 520 0
-520 524 0
-33 -520 521 0
-521 525 0
-39 -521 522 0
-522 526 0
-44 -522 523 0
-523 527 0
-48 -523 0
-33 524 0
-524 528 0
-39 -524 525 0
-525 529 0
-44 -525 526 0
-526 530 0
-48 -526 527 0
-527 531 0
-51 -527 0
-39 528 0
-528 532 0
-44 -528 529 0
-529 533 0
-48 -529 530 0
-530 534 0
-51 -530 531 0
-531 535 0
-53 -531 0
-44 532 0
-48 -532 533 0
-51 -533 534 0
-53 -534 535 0
-55 -535 0
10 536 0
-536 537 0
19 -536 538 0
-538 539 0
27 -538 540 0
-540 541 0
34 -540 542 0
-542 543 0
40 -542 544 0
-544 545 0
45 -544 546 0
-546 547 0
49 -546 0
19 537 0
-537 548 0
27 -537 539 0
-539 549 0
34 -539 541 0
-541 550 0
40 -541 543 0
-543 551 0
45 -543 545 0
-545 552 0
49 -545 547 0
-547 553 0
52 -547 0
27 548 0
-548 554 0
34 -548 549 0
-549 555 0
40 -549 550 0
-550 556 0
45 -550 551 0
-551 557 0
49 -551 552 0
-552 558 0
52 -552 553 0
-553 559 0
54 -553 0
34 554 0
40 -554 555 0
45 -555 556 0
49 -556 557 0
52 -557 558 0
54 -558 559 0
55 -559 0
-10 560 0
-560 561 0
-19 -560 562 0
-562 563 0
-27 -562 564 0
-564 565 0
-34 -564 566 0
-566 567 0
-40 -566 0
-19 561 0
-561 568 0
-27 -561 563 0
-563 569 0
-34 -563 565 0
-565 570 0
-40 -565 567 0
-567 571 0
-45 -567 0
-27 568 0
-568 572 0
-34 -568 569 0
-569 573 0
-40 -569 570 0
-570 574 0
-45 -570 571 0
-571 575 0
-49 -571 0
-34 572 0
-572 576 0
-40 -572 573 0
-573 577 0
-45 -573 574 0
-574 578 0
-49 -574 575 0
-575 579 0
-52 -575 0
-40 576 0
-576 580 0
-45 -576 577 0
-577 581 0
-49 -577 578 0
-578 582 0
-52 -578 579 0
-579 583 0
-54 -579 0
-45 580 0
-49 -580 581 0
-52 -581 582 0
-54 -582 583 0
-55 -583 0
1 0
20 0
-2 0
-3 0
-11 0
-12 0
-2 -12 1 3 11 20 0
-2 -13 1 4 11 21 0
-2 -14 1 5 11 22 0
-2 -15 1 6 11 23 0
-2 -16 1 7 11 24 0
-2 -17 1 8 11 25 0
-2 -18 1 9 11 26 0
-2 -19 1 10 11 27 0
-2 -28 3 4 20 21 0
-2 -29 3 5 20 22 0
-2 -30 3 6 20 23 0
-2 -31 3 7 20 24 0
-2 -32 3 8 20 25 0
-2 -33 3 9 20 26 0
-2 -34 3 10 20 27 0
-2 -35 4 5 21 22 0
-2 -36 4 6 21 23 0
-2 -37 4 7 21 24 0
-2 -38 4 8 21 25 0
-2 -39 4 9 21 26 0
-2 -40 4 10 21 27 0
-2 -41 5 6 22 23 0
-2 -42 5 7 22 24 0
-2 -43 5 8 22 25 0
-2 -44 5 9 22 26 0
-2 -45 5 10 22 27 0
-2 -46 6 7 23 24 0
-2 -47 6 8 23 25 0
-2 -48 6 9 23 26 0
-2 -49 6 10 23 27 0
-2 -50 7 8 24 25 0
-2 -51 7 9 24 26 0
-2 -52 7 10 24 27 0
-2 -53 8 9 25 26 0
-2 -54 8 10 25 27 0
-2 -55 9 10 26 27 0
-3 -11 1 2 12 20 0
-3 -13 1 4 12 28 0
-3 -14 1 5 12 29 0
-3 -15 1 6 12 30 0
-3 -16 1 7 12 31 0
-3 -17 1 8 12 32 0
-3 -18 1 9 12 33 0
-3 -19 1 10 12 34 0
-3 -21 2 4 20 28 0
-3 -22 2 5 20 29 0
-3 -23 2 6 20 30 0
-3 -24 2 7 20 31 0
-3 -25 2 8 20 32 0
-3 -26 2 9 20 33 0
-3 -27 2 10 20 34 0
-3 -35 4 5 28 29 0
-3 -36 4 6 28 30 0
-3 -37 4 7 28 31 0
-3 -38 4 8 28 32 0
-3 -39 4 9 28 33 0
-3 -40 4 10 28 34 0
-3 -41 5 6 29 30 0
-3 -42 5 7 29 31 0
-3 -43 5 8 29 32 0
-3 -44 5 9 29 33 0
-3 -45 5 10 29 34 0
-3 -46 6 7 30 31 0
-3 -47 6 8 30 32 0
-3 -48 6 9 30 33 0
-3 -49 6 10 30 34 0
-3 -50 7 8 31 32 0
-3 -51 7 9 31 33 0
-3 -52 7 10 31 34 0
-3 -53 8 9 32 33 0
-3 -54 8 10 32 34 0
-3 -55 9 10 33 34 0
-4 -11 1 2 13 21 0
-4 -12 1 3 13 28 0
-4 -14 1 5 13 35 0
-4 -15 1 6 13 36 0
-4 -16 1 7 13 37 0
-4 -17 1 8 13 38 0
-4 -18 1 9 13 39 0
-4 -19 1 10 13 40 0
-4 -20 2 3 21 28 0
-4 -22 2 5 21 35 0
-4 -23 2 6 21 36 0
-4 -24 2 7 21 37 0
-4 -25 2 8 21 38 0
-4 -26 2 9 21 39 0
-4 -27 2 10 21 40 0
-4 -29 3 5 28 35 0
-4 -30 3 6 28 36 0
-4 -31 3 7 28 37 0
-4 -32 3 8 28 38 0
-4 -33 3 9 28 39 0
-4 -34 3 10 28 40 0
-4 -41 5 6 35 36 0
-4 -42 5 7 35 37 0
-4 -43 5 8 35 38 0
-4 -44 5 9 35 39 0
-4 -45 5 10 35 40 0
-4 -46 6 7 36 37 0
-4 -47 6 8 36 38 0
-4 -48 6 9 36 39 0
-4 -49 6 10 36 40 0
-4 -50 7 8 37 38 0
-4 -51 7 9 37 39 0
-4 -52 7 10 37 40 0
-4 -53 8 9 38 39 0
-4 -54 8 10 38 40 0
-4 -55 9 10 39 40 0
-5 -11 1 2 14 22 0
-5 -12 1 3 14 29 0
-5 -13 1 4 14 35 0
-5 -15 1 6 14 41 0
-5 -16 1 7 14 42 0
-5 -17 1 8 14 43 0
-5 -18 1 9 14 44 0
-5 -19 1 10 14 45 0
-5 -20 2 3 22 29 0
-5 -21 2 4 22 35 0
-5 -23 2 6 22 41 0
-5 -24 2 7 22 42 0
-5 -25 2 8 22 43 0
-5 -26 2 9 22 44 0
-5 -27 2 10 22 45 0
-5 -28 3 4 29 35 0
-5 -30 3 6 29 41 0
-5 -31 3 7 29 42 0
-5 -32 3 8 29 43 0
-5 -33 3 9 29 44 0
-5 -34 3 10 29 45 0
-5 -36 4 6 35 41 0
-5 -37 4 7 35 42 0
-5 -38 4 8 35 43 0
-5 -39 4 9 35 44 0
-5 -40 4 10 35 45 0
-5 -46 6 7 41 42 0
-5 -47 6 8 41 43 0
-5 -48 6 9 41 44 0
-5 -49 6 10 41 45 0
-5 -50 7 8 42 43 0
-5 -51 7 9 42 44 0
-5 -52 7 10 42 45 0
-5 -53 8 9 43 44 0
-5 -54 8 10 43 45 0
-5 -55 9 10 44 45 0
-6 -11 1 2 15 23 0
-6 -12 1 3 15 30 0
-6 -13 1 4 15 36 0
-6 -14 1 5 15 41 0
-6 -16 1 7 15 46 0
-6 -17 1 8 15 47 0
-6 -18 1 9 15 48 0
-6 -19 1 10 15 49 0
-6 -20 2 3 23 30 0
-6 -21 2 4 23 36 0
-6 -22 2 5 23 41 0
-6 -24 2 7 23 46 0
-6 -25 2 8 23 47 0
-6 -26 2 9 23 48 0
-6 -27 2 10 23 49 0
-6 -28 3 4 30 36 0
-6 -29 3 5 30 41 0
-6 -31 3 7 30 46 0
-6 -32 3 8 30 47 0
-6 -33 3 9 30 48 0
-6 -34 3 10 30 49 0
-6 -35 4 5 36 41 0
-6 -37 4 7 36 46 0
-6 -38 4 8 36 47 0
-6 -39 4 9 36 48 0
-6 -40 4 10 36 49 0
-6 -42 5 7 41 46 0
-6 -43 5 8 41 47 0
-6 -44 5 9 41 48 0
-6 -45 5 10 41 49 0
-6 -50 7 8 46 47 0
-6 -51 7 9 46 48 0
-6 -52 7 10 46 49 0
-6 -53 8 9 47 48 0
-6 -54 8 10 47 49 0
-6 -55 9 10 48 49 0
-7 -11 1 2 16 24 0
-7 -12 1 3 16 31 0
-7 -13 1 4 16 37 0
-7 -14 1 5 16 42 0
-7 -15 1 6 16 46 0
-7 -17 1 8 16 50 0
-7 -18 1 9 16 51 0
-7 -19 1 10 16 52 0
-7 -20 2 3 24 31 0
-7 -21 2 4 24 37 0
-7 -22 2 5 24 42 0
-7 -23 2 6 24 46 0
-7 -25 2 8 24 50 0
-7 -26 2 9 24 51 0
-7 -27 2 10 24 52 0
-7 -28 3 4 31 37 0
-7 -29 3 5 31 42 0
-7 -30 3 6 31 46 0
-7 -32 3 8 31 50 0
-7 -33 3 9 31 51 0
-7 -34 3 10 31 52 0
-7 -35 4 5 37 42 0
-7 -36 4 6 37 46 0
-7 -38 4 8 37 50 0
-7 -39 4 9 37 51 0
-7 -40 4 10 37 52 0
-7 -41 5 6 42 46 0
-7 -43 5 8 42 50 0
-7 -44 5 9 42 51 0
-7 -45 5 10 42 52 0
-7 -47 6 8 46 50 0
-7 -48 6 9 46 51 0
-7 -49 6 10 46 52 0
-7 -53 8 9 50 51 0
-7 -54 8 10 50 52 0
-7 -55 9 10 51 52 0
-8 -11 1 2 17 25 0
-8 -12 1 3 17 32 0
-8 -13 1 4 17 38 0
-8 -14 1 5 17 43 0
-8 -15 1 6 17 47 0
-8 -16 1 7 17 50 0
-8 -18 1 9 17 53 0
-8 -19 1 10 17 54 0
-8 -20 2 3 25 32 0
-8 -21 2 4 25 38 0
-8 -22 2 5 25 43 0
-8 -23 2 6 25 47 0
-8 -24 2 7 25 50 0
-8 -26 2 9 25 53 0
-8 -27 2 10 25 54 0
-8 -28 3 4 32 38 0
-8 -29 3 5 32 43 0
-8 -30 3 6 32 47 0
-8 -31 3 7 32 50 0
-8 -33 3 9 32 53 0
-8 -34 3 10 32 54 0
-8 -35 4 5 38 43 0
-8 -36 4 6 38 47 0
-8 -37 4 7 38 50 0
-8 -39 4 9 38 53 0
-8 -40 4 10 38 54 0
-8 -41 5 6 43 47 0
-8 -42 5 7 43 50 0
-8 -44 5 9 43 53 0
-8 -45 5 10 43 54 0
-8 -46 6 7 47 50 0
-8 -48 6 9 47 53 0
-8 -49 6 10 47 54 0
-8 -51 7 9 50 53 0
-8 -52 7 10 50 54 0
-8 -55 9 10 53 54 0
-9 -11 1 2 18 26 0
-9 -12 1 3 18 33 0
-9 -13 1 4 18 39 0
-9 -14 1 5 18 44 0
-9 -15 1 6 18 48 0
-9 -16 1 7 18 51 0
-9 -17 1 8 18 53 0
-9 -19 1 10 18 55 0
-9 -20 2 3 26 33 0
-9 -21 2 4 26 39 0
-9 -22 2 5 26 44 0
-9 -23 2 6 26 48 0
-9 -24 2 7 26 51 0
-9 -25 2 8 26 53 0
-9 -27 2 10 26 55 0
-9 -28 3 4 33 39 0
-9 -29 3 5 33 44 0
-9 -30 3 6 33 48 0
-9 -31 3 7 33 51 0
-9 -32 3 8 33 53 0
-9 -34 3 10 33 55 0
-9 -35 4 5 39 44 0
-9 -36 4 6 39 48 0
-9 -37 4 7 39 51 0
-9 -38 4 8 39 53 0
-9 -40 4 10 39 55 0
-9 -41 5 6 44 48 0
-9 -42 5 7 44 51 0
-9 -43 5 8 44 53 0
-9 -45 5 10 44 55 0
-9 -46 6 7 48 51 0
-9 -47 6 8 48 53 0
-9 -49 6 10 48 55 0
-9 -50 7 8 51 53 0
-9 -52 7 10 51 55 0
-9 -54 8 10 53 55 0
-10 -11 1 2 19 27 0
-10 -12 1 3 19 34 0
-10 -13 1 4 19 40 0
-10 -14 1 5 19 45 0
-10 -15 1 6 19 49 0
-10 -16 1 7 19 52 0
-10 -17 1 8 19 54 0
-10 -18 1 9 19 55 0
-10 -20 2 3 27 34 0
-10 -21 2 4 27 40 0
-10 -22 2 5 27 45 0
-10 -23 2 6 27 49 0
-10 -24 2 7 27 52 0
-10 -25 2 8 27 54 0
-10 -26 2 9 27 55 0
-10 -28 3 4 34 40 0
-10 -29 3 5 34 45 0
-10 -30 3 6 34 49 0
-10 -31 3 7 34 52 0
-10 -32 3 8 34 54 0
-10 -33 3 9 34 55 0
-10 -35 4 5 40 45 0
-10 -36 4 6 40 49 0
-10 -37 4 7 40 52 0
-10 -38 4 8 40 54 0
-10 -39 4 9 40 55 0
-10 -41 5 6 45 49 0
-10 -42 5 7 45 52 0
-10 -43 5 8 45 54 0
-10 -44 5 9 45 55 0
-10 -46 6 7 49 52 0
-10 -47 6 8 49 54 0
-10 -48 6 9 49 55 0
-10 -50 7 8 52 54 0
-10 -51 7 9 52 55 0
-10 -53 8 9 54 55 0
-11 -28 12 13 20 21 0
-11 -29 12 14 20 22 0
-11 -30 12 15 20 23 0
-11 -31 12 16 20 24 0
-11 -32 12 17 20 25 0
-11 -33 12 18 20 26 0
-11 -34 12 19 20 27 0
-11 -35 13 14 21 22 0
-11 -36 13 15 21 23 0
-11 -37 13 16 21 24 0
-11 -38 13 17 21 25 0
-11 -39 13 18 21 26 0
-11 -40 13 19 21 27 0
-11 -41 14 15 22 23 0
-11 -42 14 16 22 24 0
-11 -43 14 17 22 25 0
-11 -44 14 18 22 26 0
-11 -45 14 19 22 27 0
-11 -46 15 16 23 24 0
-11 -47 15 17 23 25 0
-11 -48 15 18 23 26 0
-11 -49 15 19 23 27 0
-11 -50 16 17 24 25 0
-11 -51 16 18 24 26 0
-11 -52 16 19 24 27 0
-11 -53 17 18 25 26 0
-11 -54 17 19 25 27 0
-11 -55 18 19 26 27 0
-12 -21 11 13 20 28 0
-12 -22 11 14 20 29 0
-12 -23 11 15 20 30 0
-12 -24 11 16 20 31 0
-12 -25 11 17 20 32 0
-12 -26 11 18 20 33 0
-12 -27 11 19 20 34 0
-12 -35 13 14 28 29 0
-12 -36 13 15 28 30 0
-12 -37 13 16 28 31 0
-12 -38 13 17 28 32 0
-12 -39 13 18 28 33 0
-12 -40 13 19 28 34 0
-12 -41 14 15 29 30 0
-12 -42 14 16 29 31 0
-12 -43 14 17 29 32 0
-12 -44 14 18 29 33 0
-12 -45 14 19 29 34 0
-12 -46 15 16 30 31 0
-12 -47 15 17 30 32 0
-12 -48 15 18 30 33 0
-12 -49 15 19 30 34 0
-12 -50 16 17 31 32 0
-12 -51 16 18 31 33 0
-12 -52 16 19 31 34 0
-12 -53 17 18 32 33 0
-12 -54 17 19 32 34 0
-12 -55 18 19 33 34 0
-13 -20 11 12 21 28 0
-13 -22 11 14 21 35 0
-13 -23 11 15 21 36 0
-13 -24 11 16 21 37 0
-13 -25 11 17 21 38 0
-13 -26 11 18 21 39 0
-13 -27 11 19 21 40 0
-13 -29 12 14 28 35 0
-13 -30 12 15 28 36 0
-13 -31 12 16 28 37 0
-13 -32 12 17 28 38 0
-13 -33 12 18 28 39 0
-13 -34 12 19 28 40 0
-13 -41 14 15 35 36 0
-13 -42 14 16 35 37 0
-13 -43 14 17 35 38 0
-13 -44 14 18 35 39 0
-13 -45 14 19 35 40 0
-13 -46 15 16 36 37 0
-13 -47 15 17 36 38 0
-13 -48 15 18 36 39 0
-13 -49 15 19 36 40 0
-13 -50 16 17 37 38 0
-13 -51 16 18 37 39 0
-13 -52 16 19 37 40 0
-13 -53 17 18 38 39 0
-13 -54 17 19 38 40 0
-13 -55 18 19 39 40 0
-14 -20 11 12 22 29 0
-14 -21 11 13 22 35 0
-14 -23 11 15 22 41 0
-14 -24 11 16 22 42 0
-14 -25 11 17 22 43 0
-14 -26 11 18 22 44 0
-14 -27 11 19 22 45 0
-14 -28 12 13 29 35 0
-14 -30 12 15 29 41 0
-14 -31 12 16 29 42 0
-14 -32 12 17 29 43 0
-14 -33 12 18 29 44 0
-14 -34 12 19 29 45 0
-14 -36 13 15 35 41 0
-14 -37 13 16 35 42 0
-14 -38 13 17 35 43 0
-14 -39 13 18 35 44 0
-14 -40 13 19 35 45 0
-14 -46 15 16 41 42 0
-14 -47 15 17 41 43 0
-14 -48 15 18 41 44 0
-14 -49 15 19 41 45 0
-14 -50 16 17 42 43 0
-14 -51 16 18 42 44 0
-14 -52 16 19 42 45 0
-14 -53 17 18 43 44 0
-14 -54 17 19 43 45 0
-14 -55 18 19 44 45 0
-15 -20 11 12 23 30 0
-15 -21 11 13 23 36 0
-15 -22 11 14 23 41 0
-15 -24 11 16 23 46 0
-15 -25 11 17 23 47 0
-15 -26 11 18 23 48 0
-15 -27 11 19 23 49 0
-15 -28 12 13 30 36 0
-15 -29 12 14 30 41 0
-15 -31 12 16 30 46 0
-15 -32 12 17 30 47 0
-15 -33 12 18 30 48 0
-15 -34 12 19 30 49 0
-15 -35 13 14 36 41 0
-15 -37 13 16 36 46 0
-15 -38 13 17 36 47 0
-15 -39 13 18 36 48 0
-15 -40 13 19 36 49 0
-15 -42 14 16 41 46 0
-15 -43 14 17 41 47 0
-15 -44 14 18 41 48 0
-15 -45 14 19 41 49 0
-15 -50 16 17 46 47 0
-15 -51 16 18 46 48 0
-15 -52 16 19 46 49 0
-15 -53 17 18 47 48 0
-15 -54 17 19 47 49 0
-15 -55 18 19 48 49 0
-16 -20 11 12 24 31 0
-16 -21 11 13 24 37 0
-16 -22 11 14 24 42 0
-16 -23 11 15 24 46 0
-16 -25 11 17 24 50 0
-16 -26 11 18 24 51 0
-16 -27 11 19 24 52 0
-16 -28 12 13 31 37 0
-16 -29 12 14 31 42 0
-16 -30 12 15 31 46 0
-16 -32 12 17 31 50 0
-16 -33 12 18 31 51 0
-16 -34 12 19 31 52 0
-16 -35 13 14 37 42 0
-16 -36 13 15 37 46 0
-16 -38 13 17 37 50 0
-16 -39 13 18 37 51 0
-16 -40 13 19 37 52 0
-16 -41 14 15 42 46 0
-16 -43 14 17 42 50 0
-16 -44 14 18 42 51 0
-16 -45 14 19 42 52 0
-16 -47 15 17 46 50 0
-16 -48 15 18 46 51 0
-16 -49 15 19 46 52 0
-16 -53 17 18 50 51 0
-16 -54 17 19 50 52 0
-16 -55 18 19 51 52 0
-17 -20 11 12 25 32 0
-17 -21 11 13 25 38 0
-17 -22 11 14 25 43 0
-17 -23 11 15 25 47 0
-17 -24 11 16 25 50 0
-17 -26 11 18 25 53 0
-17 -27 11 19 25 54 0
-17 -28 12 13 32 38 0
-17 -29 12 14 32 43 0
-17 -30 12 15 32 47 0
-17 -31 12 16 32 50 0
-17 -33 12 18 32 53 0
-17 -34 12 19 32 54 0
-17 -35 13 14 38 43 0
-17 -36 13 15 38 47 0
-17 -37 13 16 38 50 0
-17 -39 13 18 38 53 0
-17 -40 13 19 38 54 0
-17 -41 14 15 43 47 0
-17 -42 14 16 43 50 0
-17 -44 14 18 43 53 0
-17 -45 14 19 43 54 0
-17 -46 15 16 47 50 0
-17 -48 15 18 47 53 0
-17 -49 15 19 47 54 0
-17 -51 16 18 50 53 0
-17 -52 16 19 50 54 0
-17 -55 18 19 53 54 0
-18 -20 11 12 26 33 0
-18 -21 11 13 26 39 0
-18 -22 11 14 26 44 0
-18 -23 11 15 26 48 0
-18 -24 11 16 26 51 0
-18 -25 11 17 26 53 0
-18 -27 11 19 26 55 0
-18 -28 12 13 33 39 0
-18 -29 12 14 33 44 0
-18 -30 12 15 33 48 0
-18 -31 12 16 33 51 0
-18 -32 12 17 33 53 0
-18 -34 12 19 33 55 0
-18 -35 13 14 39 44 0
-18 -36 13 15 39 48 0
-18 -37 13 16 39 51 0
-18 -38 13 17 39 53 0
-18 -40 13 19 39 55 0
-18 -41 14 15 44 48 0
-18 -42 14 16 44 51 0
-18 -43 14 17 44 53 0
-18 -45 14 19 44 55 0
-18 -46 15 16 48 51 0
-18 -47 15 17 48 53 0
-18 -49 15 19 48 55 0
-18 -50 16 17 51 53 0
-18 -52 16 19 51 55 0
-18 -54 17 19 53 55 0
-19 -20 11 12 27 34 0
-19 -21 11 13 27 40 0
-19 -22 11 14 27 45 0
-19 -23 11 15 27 49 0
-19 -24 11 16 27 52 0
-19 -25 11 17 27 54 0
-19 -26 11 18 27 55 0
-19 -28 12 13 34 40 0
-19 -29 12 14 34 45 0
-19 -30 12 15 34 49 0
-19 -31 12 16 34 52 0
-19 -32 12 17 34 54 0
-19 -33 12 18 34 55 0
-19 -35 13 14 40 45 0
-19 -36 13 15 40 49 0
-19 -37 13 16 40 52 0
-19 -38 13 17 40 54 0
-19 -39 13 18 40 55 0
-19 -41 14 15 45 49 0
-19 -42 14 16 45 52 0
-19 -43 14 17 45 54 0
-19 -44 14 18 45 55 0
-19 -46 15 16 49 52 0
-19 -47 15 17 49 54 0
-19 -48 15 18 49 55 0
-19 -50 16 17 52 54 0
-19 -51 16 18 52 55 0
-19 -53 17 18 54 55 0
-20 -35 21 22 28 29 0
-20 -36 21 23 28 30 0
-20 -37 21 24 28 31 0
-20 -38 21 25 28 32 0
-20 -39 21 26 28 33 0
-20 -40 21 27 28 34 0
-20 -41 22 23 29 30 0
-20 -42 22 24 29 31 0
-20 -43 22 25 29 32 0
-20 -44 22 26 29 33 0
-20 -45 22 27 29 34 0
-20 -46 23 24 30 31 0
-20 -47 23 25 30 32 0
-20 -48 23 26 30 33 0
-20 -49 23 27 30 34 0
-20 -50 24 25 31 32 0
-20 -51 24 26 31 33 0
-20 -52 24 27 31 34 0
-20 -53 25 26 32 33 0
-20 -54 25 27 32 34 0
-20 -55 26 27 33 34 0
-21 -29 20 22 28 35 0
-21 -30 20 23 28 36 0
-21 -31 20 24 28 37 0
-21 -32 20 25 28 38 0
-21 -33 20 26 28 39 0
-21 -34 20 27 28 40 0
-21 -41 22 23 35 36 0
-21 -42 22 24 35 37 0
-21 -43 22 25 35 38 0
-21 -44 22 26 35 39 0
-21 -45 22 27 35 40 0
-21 -46 23 24 36 37 0
-21 -47 23 25 36 38 0
-21 -48 23 26 36 39 0
-21 -49 23 27 36 40 0
-21 -50 24 25 37 38 0
-21 -51 24 26 37 39 0
-21 -52 24 27 37 40 0
-21 -53 25 26 38 39 0
-21 -54 25 27 38 40 0
-21 -55 26 27 39 40 0
-22 -28 20 21 29 35 0
-22 -30 20 23 29 41 0
-22 -31 20 24 29 42 0
-22 -32 20 25 29 43 0
-22 -33 20 26 29 44 0
-22 -34 20 27 29 45 0
-22 -36 21 23 35 41 0
-22 -37 21 24 35 42 0
-22 -38 21 25 35 43 0
-22 -39 21 26 35 44 0
-22 -40 21 27 35 45 0
-22 -46 23 24 41 42 0
-22 -47 23 25 41 43 0
-22 -48 23 26 41 44 0
-22 -49 23 27 41 45 0
-22 -50 24 25 42 43 0
-22 -51 24 26 42 44 0
-22 -52 24 27 42 45 0
-22 -53 25 26 43 44 0
-22 -54 25 27 43 45 0
-22 -55 26 27 44 45 0
-23 -28 20 21 30 36 0
-23 -29 20 22 30 41 0
-23 -31 20 24 30 46 0
-23 -32 20 25 30 47 0
-23 -33 20 26 30 48 0
-23 -34 20 27 30 49 0
-23 -35 21 22 36 41 0
-23 -37 21 24 36 46 0
-23 -38 21 25 36 47 0
-23 -39 21 26 36 48 0
-23 -40 21 27 36 49 0
-23 -42 22 24 41 46 0
-23 -43 22 25 41 47 0
-23 -44 22 26 41 48 0
-23 -45 22 27 41 49 0
-23 -50 24 25 46 47 0
-23 -51 24 26 46 48 0
-23 -52 24 27 46 49 0
-23 -53 25 26 47 48 0
-23 -54 25 27 47 49 0
-23 -55 26 27 48 49 0
-24 -28 20 21 31 37 0
-24 -29 20 22 31 42 0
-24 -30 20 23 31 46 0
-24 -32 20 25 31 50 0
-24 -33 20 26 31 51 0
-24 -34 20 27 31 52 0
-24 -35 21 22 37 42 0
-24 -36 21 23 37 46 0
-24 -38 21 25 37 50 0
-24 -39 21 26 37 51 0
-24 -40 21 27 37 52 0
-24 -41 22 23 42 46 0
-24 -43 22 25 42 50 0
-24 -44 22 26 42 51 0
-24 -45 22 27 42 52 0
-24 -47 23 25 46 50 0
-24 -48 23 26 46 51 0
-24 -49 23 27 46 52 0
-24 -53 25 26 50 51 0
-24 -54 25 27 50 52 0
-24 -55 26 27 51 52 0
-25 -28 20 21 32 38 0
-25 -29 20 22 32 43 0
-25 -30 20 23 32 47 0
-25 -31 20 24 32 50 0
-25 -33 20 26 32 53 0
-25 -34 20 27 32 54 0
-25 -35 21 22 38 43 0
-25 -36 21 23 38 47 0
-25 -37 21 24 38 50 0
-25 -39 21 26 38 53 0
-25 -40 21 27 38 54 0
-25 -41 22 23 43 47 0
-25 -42 22 24 43 50 0
-25 -44 22 26 43 53 0
-25 -45 22 27 43 54 0
-25 -46 23 24 47 50 0
-25 -48 23 26 47 53 0
-25 -49 23 27 47 54 0
-25 -51 24 26 50 53 0
-25 -52 24 27 50 54 0
-25 -55 26 27 53 54 0
-26 -28 20 21 33 39 0
-26 -29 20 22 33 44 0
-26 -30 20 23 33 48 0
-26 -31 20 24 33 51 0
-26 -32 20 25 33 53 0
-26 -34 20 27 33 55 0
-26 -35 21 22 39 44 0
-26 -36 21 23 39 48 0
-26 -37 21 24 39 51 0
-26 -38 21 25 39 53 0
-26 -40 21 27 39 55 0
-26 -41 22 23 44 48 0
-26 -42 22 24 44 51 0
-26 -43 22 25 44 53 0
-26 -45 22 27 44 55 0
-26 -46 23 24 48 51 0
-26 -47 23 25 48 53 0
-26 -49 23 27 48 55 0
-26 -50 24 25 51 53 0
-26 -52 24 27 51 55 0
-26 -54 25 27 53 55 0
-27 -28 20 21 34 40 0
-27 -29 20 22 34 45 0
-27 -30 20 23 34 49 0
-27 -31 20 24 34 52 0
-27 -32 20 25 34 54 0
-27 -33 20 26 34 55 0
-27 -35 21 22 40 45 0
-27 -36 21 23 40 49 0
-27 -37 21 24 40 52 0
-27 -38 21 25 40 54 0
-27 -39 21 26 40 55 0
-27 -41 22 23 45 49 0
-27 -42 22 24 45 52 0
-27 -43 22 25 45 54 0
-27 -44 22 26 45 55 0
-27 -46 23 24 49 52 0
-27 -47 23 25 49 54 0
-27 -48 23 26 49 55 0
-27 -50 24 25 52 54 0
-27 -51 24 26 52 55 0
-27 -53 25 26 54 55 0
-28 -41 29 30 35 36 0
-28 -42 29 31 35 37 0
-28 -43 29 32 35 38 0
-28 -44 29 33 35 39 0
-28 -45 29 34 35 40 0
-28 -46 30 31 36 37 0
-28 -47 30 32 36 38 0
-28 -48 30 33 36 39 0
-28 -49 30 34 36 40 0
-28 -50 31 32 37 38 0
-28 -51 31 33 37 39 0
-28 -52 31 34 37 40 0
-28 -53 32 33 38 39 0
-28 -54 32 34 38 40 0
-28 -55 33 34 39 40 0
-29 -36 28 30 35 41 0
-29 -37 28 31 35 42 0
-29 -38 28 32 35 43 0
-29 -39 28 33 35 44 0
-29 -40 28 34 35 45 0
-29 -46 30 31 41 42 0
-29 -47 30 32 41 43 0
-29 -48 30 33 41 44 0
-29 -49 30 34 41 45 0
-29 -50 31 32 42 43 0
-29 -51 31 33 42 44 0
-29 -52 31 34 42 45 0
-29 -53 32 33 43 44 0
-29 -54 32 34 43 45 0
-29 -55 33 34 44 45 0
-30 -35 28 29 36 41 0
-30 -37 28 31 36 46 0
-30 -38 28 32 36 47 0
-30 -39 28 33 36 48 0
-30 -40 28 34 36 49 0
-30 -42 29 31 41 46 0
-30 -43 29 32 41 47 0
-30 -44 29 33 41 48 0
-30 -45 29 34 41 49 0
-30 -50 31 32 46 47 0
-30 -51 31 33 46 48 0
-30 -52 31 34 46 49 0
-30 -53 32 33 47 48 0
-30 -54 32 34 47 49 0
-30 -55 33 34 48 49 0
-31 -35 28 29 37 42 0
-31 -36 28 30 37 46 0
-31 -38 28 32 37 50 0
-31 -39 28 33 37 51 0
-31 -40 28 34 37 52 0
-31 -41 29 30 42 46 0
-31 -43 29 32 42 50 0
-31 -44 29 33 42 51 0
-31 -45 29 34 42 52 0
-31 -47 30 32 46 50 0
-31 -48 30 33 46 51 0
-31 -49 30 34 46 52 0
-31 -53 32 33 50 51 0
-31 -54 32 34 50 52 0
-31 -55 33 34 51 52 0
-32 -35 28 29 38 43 0
-32 -36 28 30 38 47 0
-32 -37 28 31 38 50 0
-32 -39 28 33 38 53 0
-32 -40 28 34 38 54 0
-32 -41 29 30 43 47 0
-32 -42 29 31 43 50 0
-32 -44 29 33 43 53 0
-32 -45 29 34 43 54 0
-32 -46 30 31 47 50 0
-32 -48 30 33 47 53 0
-32 -49 30 34 47 54 0
-32 -51 31 33 50 53 0
-32 -52 31 34 50 54 0
-32 -55 33 34 53 54 0
-33 -35 28 29 39 44 0
-33 -36 28 30 39 48 0
-33 -37 28 31 39 51 0
-33 -38 28 32 39 53 0
-33 -40 28 34 39 55 0
-33 -41 29 30 44 48 0
-33 -42 29 31 44 51 0
-33 -43 29 32 44 53 0
-33 -45 29 34 44 55 0
-33 -46 30 31 48 51 0
-33 -47 30 32 48 53 0
-33 -49 30 34 48 55 0
-33 -50 31 32 51 53 0
-33 -52 31 34 51 55 0
-33 -54 32 34 53 55 0
-34 -35 28 29 40 45 0
-34 -36 28 30 40 49 0
-34 -37 28 31 40 52 0
-34 -38 28 32 40 54 0
-34 -39 28 33 40 55 0
-34 -41 29 30 45 49 0
-34 -42 29 31 45 52 0
-34 -43 29 32 45 54 0
-34 -44 29 33 45 55 0
-34 -46 30 31 49 52 0
-34 -47 30 32 49 54 0
-34 -48 30 33 49 55 0
-34 -50 31 32 52 54 0
-34 -51 31 33 52 55 0
-34 -53 32 33 54 55 0
-35 -46 36 37 41 42 0
-35 -47 36 38 41 43 0
-35 -48 36 39 41 44 0
-35 -49 36 40 41 45 0
-35 -50 37 38 42 43 0
-35 -51 37 39 42 44 0
-35 -52 37 40 42 45 0
-35 -53 38 39 43 44 0
-35 -54 38 40 43 45 0
-35 -55 39 40 44 45 0
-36 -42 35 37 41 46 0
-36 -43 35 38 41 47 0
-36 -44 35 39 41 48 0
-36 -45 35 40 41 49 0
-36 -50 37 38 46 47 0
-36 -51 37 39 46 48 0
-36 -52 37 40 46 49 0
-36 -53 38 39 47 48 0
-36 -54 38 40 47 49 0
-36 -55 39 40 48 49 0
-37 -41 35 36 42 46 0
-37 -43 35 38 42 50 0
-37 -44 35 39 42 51 0
-37 -45 35 40 42 52 0
-37 -47 36 38 46 50 0
-37 -48 36 39 46 51 0
-37 -49 36 40 46 52 0
-37 -53 38 39 50 51 0
-37 -54 38 40 50 52 0
-37 -55 39 40 51 52 0
-38 -41 35 36 43 47 0
-38 -42 35 37 43 50 0
-38 -44 35 39 43 53 0
-38 -45 35 40 43 54 0
-38 -46 36 37 47 50 0
-38 -48 36 39 47 53 0
-38 -49 36 40 47 54 0
-38 -51 37 39 50 53 0
-38 -52 37 40 50 54 0
-38 -55 39 40 53 54 0
-39 -41 35 36 44 48 0
-39 -42 35 37 44 51 0
-39 -43 35 38 44 53 0
-39 -45 35 40 44 55 0
-39 -46 36 37 48 51 0
-39 -47 36 38 48 53 0
-39 -49 36 40 48 55 0
-39 -50 37 38 51 53 0
-39 -52 37 40 51 55 0
-39 -54 38 40 53 55 0
-40 -41 35 36 45 49 0
-40 -42 35 37 45 52 0
-40 -43 35 38 45 54 0
-40 -44 35 39 45 55 0
-40 -46 36 37 49 52 0
-40 -47 36 38 49 54 0
-40 -48 36 39 49 55 0
-40 -50 37 38 52 54 0
-40 -51 37 39 52 55 0
-40 -53 38 39 54 55 0
-41 -50 42 43 46 47 0
-41 -51 42 44 46 48 0
-41 -52 42 45 46 49 0
-41 -53 43 44 47 48 0
-41 -54 43 45 47 49 0
-41 -55 44 45 48 49 0
-42 -47 41 43 46 50 0
-42 -48 41 44 46 51 0
-42 -49 41 45 46 52 0
-42 -53 43 44 50 51 0
-42 -54 43 45 50 52 0
-42 -55 44 45 51 52 0
-43 -46 41 42 47 50 0
-43 -48 41 44 47 53 0
-43 -49 41 45 47 54 0
-43 -51 42 44 50 53 0
-43 -52 42 45 50 54 0
-43 -55 44 45 53 54 0
-44 -46 41 42 48 51 0
-44 -47 41 43 48 53 0
-44 -49 41 45 48 55 0
-44 -50 42 43 51 53 0
-44 -52 42 45 51 55 0
-44 -54 43 45 53 55 0
-45 -46 41 42 49 52 0
-45 -47 41 43 49 54 0
-45 -48 41 44 49 55 0
-45 -50 42 43 52 54 0
-45 -51 42 44 52 55 0
-45 -53 43 44 54 55 0
-46 -53 47 48 50 51 0
-46 -54 47 49 50 52 0
-46 -55 48 49 51 52 0
-47 -51 46 48 50 53 0
-47 -52 46 49 50 54 0
-47 -55 48 49 53 54 0
-48 -50 46 47 51 53 0
-48 -52 46 49 51 55 0
-48 -54 47 49 53 55 0
-49 -50 46 47 52 54 0
-49 -51 46 48 52 55 0
-49 -53 47 48 54 55 0
-50 -55 51 52 53 54 0
-51 -54 50 52 53 55 0
-52 -53 50 51 54 55 0
