p cnf 200 627
-1 16 0
-4 16 0
-7 16 0
-10 16 0
-13 16 0
-2 17 0
-5 17 0
-8 17 0
-11 17 0
-14 17 0
-3 18 0
-6 18 0
-9 18 0
-12 18 0
-15 18 0
-17 16 0
-18 17 0
16 99 0
-99 -16 0
16 100 0
-100 -16 0
16 101 0
-101 -16 0
1 102 0
-102 103 0
4 -102 104 0
-104 105 0
7 -104 106 0
-106 107 0
10 -106 108 0
-108 109 0
13 -108 110 0
-110 111 0
99 -110 0
4 103 0
-103 112 0
7 -103 105 0
-105 113 0
10 -105 107 0
-107 114 0
13 -107 109 0
-109 115 0
99 -109 111 0
-111 116 0
100 -111 0
7 112 0
10 -112 113 0
13 -113 114 0
99 -114 115 0
100 -115 116 0
101 -116 0
17 117 0
-117 -17 0
17 118 0
-118 -17 0
17 119 0
-119 -17 0
2 120 0
-120 121 0
5 -120 122 0
-122 123 0
8 -122 124 0
-124 125 0
11 -124 126 0
-126 127 0
14 -126 128 0
-128 129 0
117 -128 0
5 121 0
-121 130 0
8 -121 123 0
-123 131 0
11 -123 125 0
-125 132 0
14 -125 127 0
-127 133 0
117 -127 129 0
-129 134 0
118 -129 0
8 130 0
11 -130 131 0
14 -131 132 0
117 -132 133 0
118 -133 134 0
119 -134 0
18 135 0
-135 -18 0
18 136 0
-136 -18 0
18 137 0
-137 -18 0
3 138 0
-138 139 0
6 -138 140 0
-140 141 0
9 -140 142 0
-142 143 0
12 -142 144 0
-144 145 0
15 -144 146 0
-146 147 0
135 -146 0
6 139 0
-139 148 0
9 -139 141 0
-141 149 0
12 -141 143 0
-143 150 0
15 -143 145 0
-145 151 0
135 -145 147 0
-147 152 0
136 -147 0
9 148 0
12 -148 149 0
15 -149 150 0
135 -150 151 0
136 -151 152 0
137 -152 0
1 0
2 0
3 0
4 0
5 0
6 0
7 0
8 0
9 0
10 0
11 0
12 0
13 0
14 0
15 0
-19 1 0
-19 4 0
-1 -4 19 0
-20 2 0
-20 5 0
-2 -5 20 0
-21 3 0
-21 6 0
-3 -6 21 0
-19 153 0
-153 154 0
-20 -153 0
-20 154 0
-21 -154 0
-19 49 0
-20 49 0
-21 49 0
-49 19 20 21 0
-22 1 0
-22 7 0
-1 -7 22 0
-23 2 0
-23 8 0
-2 -8 23 0
-24 3 0
-24 9 0
-3 -9 24 0
-22 155 0
-155 156 0
-23 -155 0
-23 156 0
-24 -156 0
-22 50 0
-23 50 0
-24 50 0
-50 22 23 24 0
-25 1 0
-25 10 0
-1 -10 25 0
-26 2 0
-26 11 0
-2 -11 26 0
-27 3 0
-27 12 0
-3 -12 27 0
-25 157 0
-157 158 0
-26 -157 0
-26 158 0
-27 -158 0
-25 51 0
-26 51 0
-27 51 0
-51 25 26 27 0
-28 1 0
-28 13 0
-1 -13 28 0
-29 2 0
-29 14 0
-2 -14 29 0
-30 3 0
-30 15 0
-3 -15 30 0
-28 159 0
-159 160 0
-29 -159 0
-29 160 0
-30 -160 0
-28 52 0
-29 52 0
-30 52 0
-52 28 29 30 0
-31 4 0
-31 7 0
-4 -7 31 0
-32 5 0
-32 8 0
-5 -8 32 0
-33 6 0
-33 9 0
-6 -9 33 0
-31 161 0
-161 162 0
-32 -161 0
-32 162 0
-33 -162 0
-31 53 0
-32 53 0
-33 53 0
-53 31 32 33 0
-34 4 0
-34 10 0
-4 -10 34 0
-35 5 0
-35 11 0
-5 -11 35 0
-36 6 0
-36 12 0
-6 -12 36 0
-34 163 0
-163 164 0
-35 -163 0
-35 164 0
-36 -164 0
-34 54 0
-35 54 0
-36 54 0
-54 34 35 36 0
-37 4 0
-37 13 0
-4 -13 37 0
-38 5 0
-38 14 0
-5 -14 38 0
-39 6 0
-39 15 0
-6 -15 39 0
-37 165 0
-165 166 0
-38 -165 0
-38 166 0
-39 -166 0
-37 55 0
-38 55 0
-39 55 0
-55 37 38 39 0
-40 7 0
-40 10 0
-7 -10 40 0
-41 8 0
-41 11 0
-8 -11 41 0
-42 9 0
-42 12 0
-9 -12 42 0
-40 167 0
-167 168 0
-41 -167 0
-41 168 0
-42 -168 0
-40 56 0
-41 56 0
-42 56 0
-56 40 41 42 0
-43 7 0
-43 13 0
-7 -13 43 0
-44 8 0
-44 14 0
-8 -14 44 0
-45 9 0
-45 15 0
-9 -15 45 0
-43 169 0
-169 170 0
-44 -169 0
-44 170 0
-45 -170 0
-43 57 0
-44 57 0
-45 57 0
-57 43 44 45 0
-46 10 0
-46 13 0
-10 -13 46 0
-47 11 0
-47 14 0
-11 -14 47 0
-48 12 0
-48 15 0
-12 -15 48 0
-46 171 0
-171 172 0
-47 -171 0
-47 172 0
-48 -172 0
-46 58 0
-47 58 0
-48 58 0
-58 46 47 48 0
-59 1 0
-59 4 0
-59 7 0
-1 -4 -7 59 0
-60 2 0
-60 5 0
-60 8 0
-2 -5 -8 60 0
-61 3 0
-61 6 0
-61 9 0
-3 -6 -9 61 0
-59 89 0
-60 89 0
-61 89 0
-89 59 60 61 0
-62 1 0
-62 4 0
-62 10 0
-1 -4 -10 62 0
-63 2 0
-63 5 0
-63 11 0
-2 -5 -11 63 0
-64 3 0
-64 6 0
-64 12 0
-3 -6 -12 64 0
-62 90 0
-63 90 0
-64 90 0
-90 62 63 64 0
-65 1 0
-65 4 0
-65 13 0
-1 -4 -13 65 0
-66 2 0
-66 5 0
-66 14 0
-2 -5 -14 66 0
-67 3 0
-67 6 0
-67 15 0
-3 -6 -15 67 0
-65 91 0
-66 91 0
-67 91 0
-91 65 66 67 0
-68 1 0
-68 7 0
-68 10 0
-1 -7 -10 68 0
-69 2 0
-69 8 0
-69 11 0
-2 -8 -11 69 0
-70 3 0
-70 9 0
-70 12 0
-3 -9 -12 70 0
-68 92 0
-69 92 0
-70 92 0
-92 68 69 70 0
-71 1 0
-71 7 0
-71 13 0
-1 -7 -13 71 0
-72 2 0
-72 8 0
-72 14 0
-2 -8 -14 72 0
-73 3 0
-73 9 0
-73 15 0
-3 -9 -15 73 0
-71 93 0
-72 93 0
-73 93 0
-93 71 72 73 0
-74 1 0
-74 10 0
-74 13 0
-1 -10 -13 74 0
-75 2 0
-75 11 0
-75 14 0
-2 -11 -14 75 0
-76 3 0
-76 12 0
-76 15 0
-3 -12 -15 76 0
-74 94 0
-75 94 0
-76 94 0
-94 74 75 76 0
-77 4 0
-77 7 0
-77 10 0
-4 -7 -10 77 0
-78 5 0
-78 8 0
-78 11 0
-5 -8 -11 78 0
-79 6 0
-79 9 0
-79 12 0
-6 -9 -12 79 0
-77 95 0
-78 95 0
-79 95 0
-95 77 78 79 0
-80 4 0
-80 7 0
-80 13 0
-4 -7 -13 80 0
-81 5 0
-81 8 0
-81 14 0
-5 -8 -14 81 0
-82 6 0
-82 9 0
-82 15 0
-6 -9 -15 82 0
-80 96 0
-81 96 0
-82 96 0
-96 80 81 82 0
-83 4 0
-83 10 0
-83 13 0
-4 -10 -13 83 0
-84 5 0
-84 11 0
-84 14 0
-5 -11 -14 84 0
-85 6 0
-85 12 0
-85 15 0
-6 -12 -15 85 0
-83 97 0
-84 97 0
-85 97 0
-97 83 84 85 0
-86 7 0
-86 10 0
-86 13 0
-7 -10 -13 86 0
-87 8 0
-87 11 0
-87 14 0
-8 -11 -14 87 0
-88 9 0
-88 12 0
-88 15 0
-9 -12 -15 88 0
-86 98 0
-87 98 0
-88 98 0
-98 86 87 88 0
-49 -53 -56 -51 89 95 92 90 0
-49 -54 -56 -50 90 95 92 89 0
-50 -53 -54 -51 89 95 90 92 0
-49 -53 -57 -52 89 96 93 91 0
-49 -55 -57 -50 91 96 93 89 0
-50 -53 -55 -52 89 96 91 93 0
-49 -54 -58 -52 90 97 94 91 0
-49 -55 -58 -51 91 97 94 90 0
-51 -54 -55 -52 90 97 91 94 0
-50 -56 -58 -52 92 98 94 93 0
-50 -57 -58 -51 93 98 94 92 0
-51 -56 -57 -52 92 98 93 94 0
-53 -56 -58 -55 95 98 97 96 0
-53 -57 -58 -54 96 98 97 95 0
-54 -56 -57 -55 95 98 96 97 0
173 0
-173 1 -2 0
-174 173 0
-174 1 -2 0
-174 -1 2 0
-173 -1 -2 174 0
-173 1 2 174 0
-174 4 -5 0
-175 174 0
-175 4 -5 0
-175 -4 5 0
-174 -4 -5 175 0
-174 4 5 175 0
-175 7 -8 0
-176 175 0
-176 7 -8 0
-176 -7 8 0
-175 -7 -8 176 0
-175 7 8 176 0
-176 10 -11 0
-177 176 0
-177 10 -11 0
-177 -10 11 0
-176 -10 -11 177 0
-176 10 11 177 0
-177 13 -14 0
-178 177 0
-178 13 -14 0
-178 -13 14 0
-177 -13 -14 178 0
-177 13 14 178 0
179 0
-179 2 -3 0
-180 179 0
-180 2 -3 0
-180 -2 3 0
-179 -2 -3 180 0
-179 2 3 180 0
-180 5 -6 0
-181 180 0
-181 5 -6 0
-181 -5 6 0
-180 -5 -6 181 0
-180 5 6 181 0
-181 8 -9 0
-182 181 0
-182 8 -9 0
-182 -8 9 0
-181 -8 -9 182 0
-181 8 9 182 0
-182 11 -12 0
-183 182 0
-183 11 -12 0
-183 -11 12 0
-182 -11 -12 183 0
-182 11 12 183 0
-183 14 -15 0
-184 183 0
-184 14 -15 0
-184 -14 15 0
-183 -14 -15 184 0
-183 14 15 184 0
185 0
-185 1 -4 0
-186 185 0
-186 1 -4 0
-186 -1 4 0
-185 -1 -4 186 0
-185 1 4 186 0
-186 2 -5 0
-187 186 0
-187 2 -5 0
-187 -2 5 0
-186 -2 -5 187 0
-186 2 5 187 0
-187 3 -6 0
-188 187 0
-188 3 -6 0
-188 -3 6 0
-187 -3 -6 188 0
-187 3 6 188 0
189 0
-189 4 -7 0
-190 189 0
-190 4 -7 0
-190 -4 7 0
-189 -4 -7 190 0
-189 4 7 190 0
-190 5 -8 0
-191 190 0
-191 5 -8 0
-191 -5 8 0
-190 -5 -8 191 0
-190 5 8 191 0
-191 6 -9 0
-192 191 0
-192 6 -9 0
-192 -6 9 0
-191 -6 -9 192 0
-191 6 9 192 0
193 0
-193 7 -10 0
-194 193 0
-194 7 -10 0
-194 -7 10 0
-193 -7 -10 194 0
-193 7 10 194 0
-194 8 -11 0
-195 194 0
-195 8 -11 0
-195 -8 11 0
-194 -8 -11 195 0
-194 8 11 195 0
-195 9 -12 0
-196 195 0
-196 9 -12 0
-196 -9 12 0
-195 -9 -12 196 0
-195 9 12 196 0
197 0
-197 10 -13 0
-198 197 0
-198 10 -13 0
-198 -10 13 0
-197 -10 -13 198 0
-197 10 13 198 0
-198 11 -14 0
-199 198 0
-199 11 -14 0
-199 -11 14 0
-198 -11 -14 199 0
-198 11 14 199 0
-199 12 -15 0
-200 199 0
-200 12 -15 0
-200 -12 15 0
-199 -12 -15 200 0
-199 12 15 200 0
