p cnf 2893 10806
-1 109 0
-13 109 0
-25 109 0
-37 109 0
-49 109 0
-61 109 0
-73 109 0
-85 109 0
-97 109 0
-2 110 0
-14 110 0
-26 110 0
-38 110 0
-50 110 0
-62 110 0
-74 110 0
-86 110 0
-98 110 0
-3 111 0
-15 111 0
-27 111 0
-39 111 0
-51 111 0
-63 111 0
-75 111 0
-87 111 0
-99 111 0
-4 112 0
-16 112 0
-28 112 0
-40 112 0
-52 112 0
-64 112 0
-76 112 0
-88 112 0
-100 112 0
-5 113 0
-17 113 0
-29 113 0
-41 113 0
-53 113 0
-65 113 0
-77 113 0
-89 113 0
-101 113 0
-6 114 0
-18 114 0
-30 114 0
-42 114 0
-54 114 0
-66 114 0
-78 114 0
-90 114 0
-102 114 0
-7 115 0
-19 115 0
-31 115 0
-43 115 0
-55 115 0
-67 115 0
-79 115 0
-91 115 0
-103 115 0
-8 116 0
-20 116 0
-32 116 0
-44 116 0
-56 116 0
-68 116 0
-80 116 0
-92 116 0
-104 116 0
-9 117 0
-21 117 0
-33 117 0
-45 117 0
-57 117 0
-69 117 0
-81 117 0
-93 117 0
-105 117 0
-10 118 0
-22 118 0
-34 118 0
-46 118 0
-58 118 0
-70 118 0
-82 118 0
-94 118 0
-106 118 0
-11 119 0
-23 119 0
-35 119 0
-47 119 0
-59 119 0
-71 119 0
-83 119 0
-95 119 0
-107 119 0
-12 120 0
-24 120 0
-36 120 0
-48 120 0
-60 120 0
-72 120 0
-84 120 0
-96 120 0
-108 120 0
-110 109 0
-111 110 0
-112 111 0
-113 112 0
-114 113 0
-115 114 0
-116 115 0
-117 116 0
-118 117 0
-119 118 0
-120 119 0
109 1681 0
-1681 -109 0
109 1682 0
-1682 -109 0
109 1683 0
-1683 -109 0
1 1684 0
-1684 1685 0
13 -1684 1686 0
-1686 1687 0
25 -1686 1688 0
-1688 1689 0
37 -1688 1690 0
-1690 1691 0
49 -1690 1692 0
-1692 1693 0
61 -1692 1694 0
-1694 1695 0
73 -1694 1696 0
-1696 1697 0
85 -1696 1698 0
-1698 1699 0
97 -1698 1700 0
-1700 1701 0
1681 -1700 0
13 1685 0
-1685 1702 0
25 -1685 1687 0
-1687 1703 0
37 -1687 1689 0
-1689 1704 0
49 -1689 1691 0
-1691 1705 0
61 -1691 1693 0
-1693 1706 0
73 -1693 1695 0
-1695 1707 0
85 -1695 1697 0
-1697 1708 0
97 -1697 1699 0
-1699 1709 0
1681 -1699 1701 0
-1701 1710 0
1682 -1701 0
25 1702 0
37 -1702 1703 0
49 -1703 1704 0
61 -1704 1705 0
73 -1705 1706 0
85 -1706 1707 0
97 -1707 1708 0
1681 -1708 1709 0
1682 -1709 1710 0
1683 -1710 0
110 1711 0
-1711 -110 0
110 1712 0
-1712 -110 0
110 1713 0
-1713 -110 0
2 1714 0
-1714 1715 0
14 -1714 1716 0
-1716 1717 0
26 -1716 1718 0
-1718 1719 0
38 -1718 1720 0
-1720 1721 0
50 -1720 1722 0
-1722 1723 0
62 -1722 1724 0
-1724 1725 0
74 -1724 1726 0
-1726 1727 0
86 -1726 1728 0
-1728 1729 0
98 -1728 1730 0
-1730 1731 0
1711 -1730 0
14 1715 0
-1715 1732 0
26 -1715 1717 0
-1717 1733 0
38 -1717 1719 0
-1719 1734 0
50 -1719 1721 0
-1721 1735 0
62 -1721 1723 0
-1723 1736 0
74 -1723 1725 0
-1725 1737 0
86 -1725 1727 0
-1727 1738 0
98 -1727 1729 0
-1729 1739 0
1711 -1729 1731 0
-1731 1740 0
1712 -1731 0
26 1732 0
38 -1732 1733 0
50 -1733 1734 0
62 -1734 1735 0
74 -1735 1736 0
86 -1736 1737 0
98 -1737 1738 0
1711 -1738 1739 0
1712 -1739 1740 0
1713 -1740 0
111 1741 0
-1741 -111 0
111 1742 0
-1742 -111 0
111 1743 0
-1743 -111 0
3 1744 0
-1744 1745 0
15 -1744 1746 0
-1746 1747 0
27 -1746 1748 0
-1748 1749 0
39 -1748 1750 0
-1750 1751 0
51 -1750 1752 0
-1752 1753 0
63 -1752 1754 0
-1754 1755 0
75 -1754 1756 0
-1756 1757 0
87 -1756 1758 0
-1758 1759 0
99 -1758 1760 0
-1760 1761 0
1741 -1760 0
15 1745 0
-1745 1762 0
27 -1745 1747 0
-1747 1763 0
39 -1747 1749 0
-1749 1764 0
51 -1749 1751 0
-1751 1765 0
63 -1751 1753 0
-1753 1766 0
75 -1753 1755 0
-1755 1767 0
87 -1755 1757 0
-1757 1768 0
99 -1757 1759 0
-1759 1769 0
1741 -1759 1761 0
-1761 1770 0
1742 -1761 0
27 1762 0
39 -1762 1763 0
51 -1763 1764 0
63 -1764 1765 0
75 -1765 1766 0
87 -1766 1767 0
99 -1767 1768 0
1741 -1768 1769 0
1742 -1769 1770 0
1743 -1770 0
112 1771 0
-1771 -112 0
112 1772 0
-1772 -112 0
112 1773 0
-1773 -112 0
4 1774 0
-1774 1775 0
16 -1774 1776 0
-1776 1777 0
28 -1776 1778 0
-1778 1779 0
40 -1778 1780 0
-1780 1781 0
52 -1780 1782 0
-1782 1783 0
64 -1782 1784 0
-1784 1785 0
76 -1784 1786 0
-1786 1787 0
88 -1786 1788 0
-1788 1789 0
100 -1788 1790 0
-1790 1791 0
1771 -1790 0
16 1775 0
-1775 1792 0
28 -1775 1777 0
-1777 1793 0
40 -1777 1779 0
-1779 1794 0
52 -1779 1781 0
-1781 1795 0
64 -1781 1783 0
-1783 1796 0
76 -1783 1785 0
-1785 1797 0
88 -1785 1787 0
-1787 1798 0
100 -1787 1789 0
-1789 1799 0
1771 -1789 1791 0
-1791 1800 0
1772 -1791 0
28 1792 0
40 -1792 1793 0
52 -1793 1794 0
64 -1794 1795 0
76 -1795 1796 0
88 -1796 1797 0
100 -1797 1798 0
1771 -1798 1799 0
1772 -1799 1800 0
1773 -1800 0
113 1801 0
-1801 -113 0
113 1802 0
-1802 -113 0
113 1803 0
-1803 -113 0
5 1804 0
-1804 1805 0
17 -1804 1806 0
-1806 1807 0
29 -1806 1808 0
-1808 1809 0
41 -1808 1810 0
-1810 1811 0
53 -1810 1812 0
-1812 1813 0
65 -1812 1814 0
-1814 1815 0
77 -1814 1816 0
-1816 1817 0
89 -1816 1818 0
-1818 1819 0
101 -1818 1820 0
-1820 1821 0
1801 -1820 0
17 1805 0
-1805 1822 0
29 -1805 1807 0
-1807 1823 0
41 -1807 1809 0
-1809 1824 0
53 -1809 1811 0
-1811 1825 0
65 -1811 1813 0
-1813 1826 0
77 -1813 1815 0
-1815 1827 0
89 -1815 1817 0
-1817 1828 0
101 -1817 1819 0
-1819 1829 0
1801 -1819 1821 0
-1821 1830 0
1802 -1821 0
29 1822 0
41 -1822 1823 0
53 -1823 1824 0
65 -1824 1825 0
77 -1825 1826 0
89 -1826 1827 0
101 -1827 1828 0
1801 -1828 1829 0
1802 -1829 1830 0
1803 -1830 0
114 1831 0
-1831 -114 0
114 1832 0
-1832 -114 0
114 1833 0
-1833 -114 0
6 1834 0
-1834 1835 0
18 -1834 1836 0
-1836 1837 0
30 -1836 1838 0
-1838 1839 0
42 -1838 1840 0
-1840 1841 0
54 -1840 1842 0
-1842 1843 0
66 -1842 1844 0
-1844 1845 0
78 -1844 1846 0
-1846 1847 0
90 -1846 1848 0
-1848 1849 0
102 -1848 1850 0
-1850 1851 0
1831 -1850 0
18 1835 0
-1835 1852 0
30 -1835 1837 0
-1837 1853 0
42 -1837 1839 0
-1839 1854 0
54 -1839 1841 0
-1841 1855 0
66 -1841 1843 0
-1843 1856 0
78 -1843 1845 0
-1845 1857 0
90 -1845 1847 0
-1847 1858 0
102 -1847 1849 0
-1849 1859 0
1831 -1849 1851 0
-1851 1860 0
1832 -1851 0
30 1852 0
42 -1852 1853 0
54 -1853 1854 0
66 -1854 1855 0
78 -1855 1856 0
90 -1856 1857 0
102 -1857 1858 0
1831 -1858 1859 0
1832 -1859 1860 0
1833 -1860 0
115 1861 0
-1861 -115 0
115 1862 0
-1862 -115 0
115 1863 0
-1863 -115 0
7 1864 0
-1864 1865 0
19 -1864 1866 0
-1866 1867 0
31 -1866 1868 0
-1868 1869 0
43 -1868 1870 0
-1870 1871 0
55 -1870 1872 0
-1872 1873 0
67 -1872 1874 0
-1874 1875 0
79 -1874 1876 0
-1876 1877 0
91 -1876 1878 0
-1878 1879 0
103 -1878 1880 0
-1880 1881 0
1861 -1880 0
19 1865 0
-1865 1882 0
31 -1865 1867 0
-1867 1883 0
43 -1867 1869 0
-1869 1884 0
55 -1869 1871 0
-1871 1885 0
67 -1871 1873 0
-1873 1886 0
79 -1873 1875 0
-1875 1887 0
91 -1875 1877 0
-1877 1888 0
103 -1877 1879 0
-1879 1889 0
1861 -1879 1881 0
-1881 1890 0
1862 -1881 0
31 1882 0
43 -1882 1883 0
55 -1883 1884 0
67 -1884 1885 0
79 -1885 1886 0
91 -1886 1887 0
103 -1887 1888 0
1861 -1888 1889 0
1862 -1889 1890 0
1863 -1890 0
116 1891 0
-1891 -116 0
116 1892 0
-1892 -116 0
116 1893 0
-1893 -116 0
8 1894 0
-1894 1895 0
20 -1894 1896 0
-1896 1897 0
32 -1896 1898 0
-1898 1899 0
44 -1898 1900 0
-1900 1901 0
56 -1900 1902 0
-1902 1903 0
68 -1902 1904 0
-1904 1905 0
80 -1904 1906 0
-1906 1907 0
92 -1906 1908 0
-1908 1909 0
104 -1908 1910 0
-1910 1911 0
1891 -1910 0
20 1895 0
-1895 1912 0
32 -1895 1897 0
-1897 1913 0
44 -1897 1899 0
-1899 1914 0
56 -1899 1901 0
-1901 1915 0
68 -1901 1903 0
-1903 1916 0
80 -1903 1905 0
-1905 1917 0
92 -1905 1907 0
-1907 1918 0
104 -1907 1909 0
-1909 1919 0
1891 -1909 1911 0
-1911 1920 0
1892 -1911 0
32 1912 0
44 -1912 1913 0
56 -1913 1914 0
68 -1914 1915 0
80 -1915 1916 0
92 -1916 1917 0
104 -1917 1918 0
1891 -1918 1919 0
1892 -1919 1920 0
1893 -1920 0
117 1921 0
-1921 -117 0
117 1922 0
-1922 -117 0
117 1923 0
-1923 -117 0
9 1924 0
-1924 1925 0
21 -1924 1926 0
-1926 1927 0
33 -1926 1928 0
-1928 1929 0
45 -1928 1930 0
-1930 1931 0
57 -1930 1932 0
-1932 1933 0
69 -1932 1934 0
-1934 1935 0
81 -1934 1936 0
-1936 1937 0
93 -1936 1938 0
-1938 1939 0
105 -1938 1940 0
-1940 1941 0
1921 -1940 0
21 1925 0
-1925 1942 0
33 -1925 1927 0
-1927 1943 0
45 -1927 1929 0
-1929 1944 0
57 -1929 1931 0
-1931 1945 0
69 -1931 1933 0
-1933 1946 0
81 -1933 1935 0
-1935 1947 0
93 -1935 1937 0
-1937 1948 0
105 -1937 1939 0
-1939 1949 0
1921 -1939 1941 0
-1941 1950 0
1922 -1941 0
33 1942 0
45 -1942 1943 0
57 -1943 1944 0
69 -1944 1945 0
81 -1945 1946 0
93 -1946 1947 0
105 -1947 1948 0
1921 -1948 1949 0
1922 -1949 1950 0
1923 -1950 0
118 1951 0
-1951 -118 0
118 1952 0
-1952 -118 0
118 1953 0
-1953 -118 0
10 1954 0
-1954 1955 0
22 -1954 1956 0
-1956 1957 0
34 -1956 1958 0
-1958 1959 0
46 -1958 1960 0
-1960 1961 0
58 -1960 1962 0
-1962 1963 0
70 -1962 1964 0
-1964 1965 0
82 -1964 1966 0
-1966 1967 0
94 -1966 1968 0
-1968 1969 0
106 -1968 1970 0
-1970 1971 0
1951 -1970 0
22 1955 0
-1955 1972 0
34 -1955 1957 0
-1957 1973 0
46 -1957 1959 0
-1959 1974 0
58 -1959 1961 0
-1961 1975 0
70 -1961 1963 0
-1963 1976 0
82 -1963 1965 0
-1965 1977 0
94 -1965 1967 0
-1967 1978 0
106 -1967 1969 0
-1969 1979 0
1951 -1969 1971 0
-1971 1980 0
1952 -1971 0
34 1972 0
46 -1972 1973 0
58 -1973 1974 0
70 -1974 1975 0
82 -1975 1976 0
94 -1976 1977 0
106 -1977 1978 0
1951 -1978 1979 0
1952 -1979 1980 0
1953 -1980 0
119 1981 0
-1981 -119 0
119 1982 0
-1982 -119 0
119 1983 0
-1983 -119 0
11 1984 0
-1984 1985 0
23 -1984 1986 0
-1986 1987 0
35 -1986 1988 0
-1988 1989 0
47 -1988 1990 0
-1990 1991 0
59 -1990 1992 0
-1992 1993 0
71 -1992 1994 0
-1994 1995 0
83 -1994 1996 0
-1996 1997 0
95 -1996 1998 0
-1998 1999 0
107 -1998 2000 0
-2000 2001 0
1981 -2000 0
23 1985 0
-1985 2002 0
35 -1985 1987 0
-1987 2003 0
47 -1987 1989 0
-1989 2004 0
59 -1989 1991 0
-1991 2005 0
71 -1991 1993 0
-1993 2006 0
83 -1993 1995 0
-1995 2007 0
95 -1995 1997 0
-1997 2008 0
107 -1997 1999 0
-1999 2009 0
1981 -1999 2001 0
-2001 2010 0
1982 -2001 0
35 2002 0
47 -2002 2003 0
59 -2003 2004 0
71 -2004 2005 0
83 -2005 2006 0
95 -2006 2007 0
107 -2007 2008 0
1981 -2008 2009 0
1982 -2009 2010 0
1983 -2010 0
120 2011 0
-2011 -120 0
120 2012 0
-2012 -120 0
120 2013 0
-2013 -120 0
12 2014 0
-2014 2015 0
24 -2014 2016 0
-2016 2017 0
36 -2016 2018 0
-2018 2019 0
48 -2018 2020 0
-2020 2021 0
60 -2020 2022 0
-2022 2023 0
72 -2022 2024 0
-2024 2025 0
84 -2024 2026 0
-2026 2027 0
96 -2026 2028 0
-2028 2029 0
108 -2028 2030 0
-2030 2031 0
2011 -2030 0
24 2015 0
-2015 2032 0
36 -2015 2017 0
-2017 2033 0
48 -2017 2019 0
-2019 2034 0
60 -2019 2021 0
-2021 2035 0
72 -2021 2023 0
-2023 2036 0
84 -2023 2025 0
-2025 2037 0
96 -2025 2027 0
-2027 2038 0
108 -2027 2029 0
-2029 2039 0
2011 -2029 2031 0
-2031 2040 0
2012 -2031 0
36 2032 0
48 -2032 2033 0
60 -2033 2034 0
72 -2034 2035 0
84 -2035 2036 0
96 -2036 2037 0
108 -2037 2038 0
2011 -2038 2039 0
2012 -2039 2040 0
2013 -2040 0
1 2041 0
-2041 2042 0
2 -2041 2043 0
-2043 2044 0
3 -2043 2045 0
-2045 2046 0
4 -2045 2047 0
-2047 2048 0
5 -2047 2049 0
-2049 2050 0
6 -2049 2051 0
-2051 2052 0
7 -2051 2053 0
-2053 2054 0
8 -2053 2055 0
-2055 2056 0
9 -2055 2057 0
-2057 2058 0
10 -2057 0
2 2042 0
-2042 2059 0
3 -2042 2044 0
-2044 2060 0
4 -2044 2046 0
-2046 2061 0
5 -2046 2048 0
-2048 2062 0
6 -2048 2050 0
-2050 2063 0
7 -2050 2052 0
-2052 2064 0
8 -2052 2054 0
-2054 2065 0
9 -2054 2056 0
-2056 2066 0
10 -2056 2058 0
-2058 2067 0
11 -2058 0
3 2059 0
4 -2059 2060 0
5 -2060 2061 0
6 -2061 2062 0
7 -2062 2063 0
8 -2063 2064 0
9 -2064 2065 0
10 -2065 2066 0
11 -2066 2067 0
12 -2067 0
13 2068 0
-2068 2069 0
14 -2068 2070 0
-2070 2071 0
15 -2070 2072 0
-2072 2073 0
16 -2072 2074 0
-2074 2075 0
17 -2074 2076 0
-2076 2077 0
18 -2076 2078 0
-2078 2079 0
19 -2078 2080 0
-2080 2081 0
20 -2080 2082 0
-2082 2083 0
21 -2082 2084 0
-2084 2085 0
22 -2084 0
14 2069 0
-2069 2086 0
15 -2069 2071 0
-2071 2087 0
16 -2071 2073 0
-2073 2088 0
17 -2073 2075 0
-2075 2089 0
18 -2075 2077 0
-2077 2090 0
19 -2077 2079 0
-2079 2091 0
20 -2079 2081 0
-2081 2092 0
21 -2081 2083 0
-2083 2093 0
22 -2083 2085 0
-2085 2094 0
23 -2085 0
15 2086 0
16 -2086 2087 0
17 -2087 2088 0
18 -2088 2089 0
19 -2089 2090 0
20 -2090 2091 0
21 -2091 2092 0
22 -2092 2093 0
23 -2093 2094 0
24 -2094 0
25 2095 0
-2095 2096 0
26 -2095 2097 0
-2097 2098 0
27 -2097 2099 0
-2099 2100 0
28 -2099 2101 0
-2101 2102 0
29 -2101 2103 0
-2103 2104 0
30 -2103 2105 0
-2105 2106 0
31 -2105 2107 0
-2107 2108 0
32 -2107 2109 0
-2109 2110 0
33 -2109 2111 0
-2111 2112 0
34 -2111 0
26 2096 0
-2096 2113 0
27 -2096 2098 0
-2098 2114 0
28 -2098 2100 0
-2100 2115 0
29 -2100 2102 0
-2102 2116 0
30 -2102 2104 0
-2104 2117 0
31 -2104 2106 0
-2106 2118 0
32 -2106 2108 0
-2108 2119 0
33 -2108 2110 0
-2110 2120 0
34 -2110 2112 0
-2112 2121 0
35 -2112 0
27 2113 0
28 -2113 2114 0
29 -2114 2115 0
30 -2115 2116 0
31 -2116 2117 0
32 -2117 2118 0
33 -2118 2119 0
34 -2119 2120 0
35 -2120 2121 0
36 -2121 0
37 2122 0
-2122 2123 0
38 -2122 2124 0
-2124 2125 0
39 -2124 2126 0
-2126 2127 0
40 -2126 2128 0
-2128 2129 0
41 -2128 2130 0
-2130 2131 0
42 -2130 2132 0
-2132 2133 0
43 -2132 2134 0
-2134 2135 0
44 -2134 2136 0
-2136 2137 0
45 -2136 2138 0
-2138 2139 0
46 -2138 0
38 2123 0
-2123 2140 0
39 -2123 2125 0
-2125 2141 0
40 -2125 2127 0
-2127 2142 0
41 -2127 2129 0
-2129 2143 0
42 -2129 2131 0
-2131 2144 0
43 -2131 2133 0
-2133 2145 0
44 -2133 2135 0
-2135 2146 0
45 -2135 2137 0
-2137 2147 0
46 -2137 2139 0
-2139 2148 0
47 -2139 0
39 2140 0
40 -2140 2141 0
41 -2141 2142 0
42 -2142 2143 0
43 -2143 2144 0
44 -2144 2145 0
45 -2145 2146 0
46 -2146 2147 0
47 -2147 2148 0
48 -2148 0
49 2149 0
-2149 2150 0
50 -2149 2151 0
-2151 2152 0
51 -2151 2153 0
-2153 2154 0
52 -2153 2155 0
-2155 2156 0
53 -2155 2157 0
-2157 2158 0
54 -2157 2159 0
-2159 2160 0
55 -2159 2161 0
-2161 2162 0
56 -2161 2163 0
-2163 2164 0
57 -2163 2165 0
-2165 2166 0
58 -2165 0
50 2150 0
-2150 2167 0
51 -2150 2152 0
-2152 2168 0
52 -2152 2154 0
-2154 2169 0
53 -2154 2156 0
-2156 2170 0
54 -2156 2158 0
-2158 2171 0
55 -2158 2160 0
-2160 2172 0
56 -2160 2162 0
-2162 2173 0
57 -2162 2164 0
-2164 2174 0
58 -2164 2166 0
-2166 2175 0
59 -2166 0
51 2167 0
52 -2167 2168 0
53 -2168 2169 0
54 -2169 2170 0
55 -2170 2171 0
56 -2171 2172 0
57 -2172 2173 0
58 -2173 2174 0
59 -2174 2175 0
60 -2175 0
61 2176 0
-2176 2177 0
62 -2176 2178 0
-2178 2179 0
63 -2178 2180 0
-2180 2181 0
64 -2180 2182 0
-2182 2183 0
65 -2182 2184 0
-2184 2185 0
66 -2184 2186 0
-2186 2187 0
67 -2186 2188 0
-2188 2189 0
68 -2188 2190 0
-2190 2191 0
69 -2190 2192 0
-2192 2193 0
70 -2192 0
62 2177 0
-2177 2194 0
63 -2177 2179 0
-2179 2195 0
64 -2179 2181 0
-2181 2196 0
65 -2181 2183 0
-2183 2197 0
66 -2183 2185 0
-2185 2198 0
67 -2185 2187 0
-2187 2199 0
68 -2187 2189 0
-2189 2200 0
69 -2189 2191 0
-2191 2201 0
70 -2191 2193 0
-2193 2202 0
71 -2193 0
63 2194 0
64 -2194 2195 0
65 -2195 2196 0
66 -2196 2197 0
67 -2197 2198 0
68 -2198 2199 0
69 -2199 2200 0
70 -2200 2201 0
71 -2201 2202 0
72 -2202 0
73 2203 0
-2203 2204 0
74 -2203 2205 0
-2205 2206 0
75 -2205 2207 0
-2207 2208 0
76 -2207 2209 0
-2209 2210 0
77 -2209 2211 0
-2211 2212 0
78 -2211 2213 0
-2213 2214 0
79 -2213 2215 0
-2215 2216 0
80 -2215 2217 0
-2217 2218 0
81 -2217 2219 0
-2219 2220 0
82 -2219 0
74 2204 0
-2204 2221 0
75 -2204 2206 0
-2206 2222 0
76 -2206 2208 0
-2208 2223 0
77 -2208 2210 0
-2210 2224 0
78 -2210 2212 0
-2212 2225 0
79 -2212 2214 0
-2214 2226 0
80 -2214 2216 0
-2216 2227 0
81 -2216 2218 0
-2218 2228 0
82 -2218 2220 0
-2220 2229 0
83 -2220 0
75 2221 0
76 -2221 2222 0
77 -2222 2223 0
78 -2223 2224 0
79 -2224 2225 0
80 -2225 2226 0
81 -2226 2227 0
82 -2227 2228 0
83 -2228 2229 0
84 -2229 0
85 2230 0
-2230 2231 0
86 -2230 2232 0
-2232 2233 0
87 -2232 2234 0
-2234 2235 0
88 -2234 2236 0
-2236 2237 0
89 -2236 2238 0
-2238 2239 0
90 -2238 2240 0
-2240 2241 0
91 -2240 2242 0
-2242 2243 0
92 -2242 2244 0
-2244 2245 0
93 -2244 2246 0
-2246 2247 0
94 -2246 0
86 2231 0
-2231 2248 0
87 -2231 2233 0
-2233 2249 0
88 -2233 2235 0
-2235 2250 0
89 -2235 2237 0
-2237 2251 0
90 -2237 2239 0
-2239 2252 0
91 -2239 2241 0
-2241 2253 0
92 -2241 2243 0
-2243 2254 0
93 -2243 2245 0
-2245 2255 0
94 -2245 2247 0
-2247 2256 0
95 -2247 0
87 2248 0
88 -2248 2249 0
89 -2249 2250 0
90 -2250 2251 0
91 -2251 2252 0
92 -2252 2253 0
93 -2253 2254 0
94 -2254 2255 0
95 -2255 2256 0
96 -2256 0
97 2257 0
-2257 2258 0
98 -2257 2259 0
-2259 2260 0
99 -2259 2261 0
-2261 2262 0
100 -2261 2263 0
-2263 2264 0
101 -2263 2265 0
-2265 2266 0
102 -2265 2267 0
-2267 2268 0
103 -2267 2269 0
-2269 2270 0
104 -2269 2271 0
-2271 2272 0
105 -2271 2273 0
-2273 2274 0
106 -2273 0
98 2258 0
-2258 2275 0
99 -2258 2260 0
-2260 2276 0
100 -2260 2262 0
-2262 2277 0
101 -2262 2264 0
-2264 2278 0
102 -2264 2266 0
-2266 2279 0
103 -2266 2268 0
-2268 2280 0
104 -2268 2270 0
-2270 2281 0
105 -2270 2272 0
-2272 2282 0
106 -2272 2274 0
-2274 2283 0
107 -2274 0
99 2275 0
100 -2275 2276 0
101 -2276 2277 0
102 -2277 2278 0
103 -2278 2279 0
104 -2279 2280 0
105 -2280 2281 0
106 -2281 2282 0
107 -2282 2283 0
108 -2283 0
-121 1 0
-121 13 0
-1 -13 121 0
-122 2 0
-122 14 0
-2 -14 122 0
-123 3 0
-123 15 0
-3 -15 123 0
-124 4 0
-124 16 0
-4 -16 124 0
-125 5 0
-125 17 0
-5 -17 125 0
-126 6 0
-126 18 0
-6 -18 126 0
-127 7 0
-127 19 0
-7 -19 127 0
-128 8 0
-128 20 0
-8 -20 128 0
-129 9 0
-129 21 0
-9 -21 129 0
-130 10 0
-130 22 0
-10 -22 130 0
-131 11 0
-131 23 0
-11 -23 131 0
-132 12 0
-132 24 0
-12 -24 132 0
-121 2284 0
-2284 2285 0
-122 -2284 0
-122 2285 0
-2285 2286 0
-123 -2285 0
-123 2286 0
-2286 2287 0
-124 -2286 0
-124 2287 0
-2287 2288 0
-125 -2287 0
-125 2288 0
-2288 2289 0
-126 -2288 0
-126 2289 0
-2289 2290 0
-127 -2289 0
-127 2290 0
-2290 2291 0
-128 -2290 0
-128 2291 0
-2291 2292 0
-129 -2291 0
-129 2292 0
-2292 2293 0
-130 -2292 0
-130 2293 0
-2293 2294 0
-131 -2293 0
-131 2294 0
-132 -2294 0
-121 553 0
-122 553 0
-123 553 0
-124 553 0
-125 553 0
-126 553 0
-127 553 0
-128 553 0
-129 553 0
-130 553 0
-131 553 0
-132 553 0
-553 121 122 123 124 125 126 127 128 129 130 131 132 0
-133 1 0
-133 25 0
-1 -25 133 0
-134 2 0
-134 26 0
-2 -26 134 0
-135 3 0
-135 27 0
-3 -27 135 0
-136 4 0
-136 28 0
-4 -28 136 0
-137 5 0
-137 29 0
-5 -29 137 0
-138 6 0
-138 30 0
-6 -30 138 0
-139 7 0
-139 31 0
-7 -31 139 0
-140 8 0
-140 32 0
-8 -32 140 0
-141 9 0
-141 33 0
-9 -33 141 0
-142 10 0
-142 34 0
-10 -34 142 0
-143 11 0
-143 35 0
-11 -35 143 0
-144 12 0
-144 36 0
-12 -36 144 0
-133 2295 0
-2295 2296 0
-134 -2295 0
-134 2296 0
-2296 2297 0
-135 -2296 0
-135 2297 0
-2297 2298 0
-136 -2297 0
-136 2298 0
-2298 2299 0
-137 -2298 0
-137 2299 0
-2299 2300 0
-138 -2299 0
-138 2300 0
-2300 2301 0
-139 -2300 0
-139 2301 0
-2301 2302 0
-140 -2301 0
-140 2302 0
-2302 2303 0
-141 -2302 0
-141 2303 0
-2303 2304 0
-142 -2303 0
-142 2304 0
-2304 2305 0
-143 -2304 0
-143 2305 0
-144 -2305 0
-133 554 0
-134 554 0
-135 554 0
-136 554 0
-137 554 0
-138 554 0
-139 554 0
-140 554 0
-141 554 0
-142 554 0
-143 554 0
-144 554 0
-554 133 134 135 136 137 138 139 140 141 142 143 144 0
-145 1 0
-145 37 0
-1 -37 145 0
-146 2 0
-146 38 0
-2 -38 146 0
-147 3 0
-147 39 0
-3 -39 147 0
-148 4 0
-148 40 0
-4 -40 148 0
-149 5 0
-149 41 0
-5 -41 149 0
-150 6 0
-150 42 0
-6 -42 150 0
-151 7 0
-151 43 0
-7 -43 151 0
-152 8 0
-152 44 0
-8 -44 152 0
-153 9 0
-153 45 0
-9 -45 153 0
-154 10 0
-154 46 0
-10 -46 154 0
-155 11 0
-155 47 0
-11 -47 155 0
-156 12 0
-156 48 0
-12 -48 156 0
-145 2306 0
-2306 2307 0
-146 -2306 0
-146 2307 0
-2307 2308 0
-147 -2307 0
-147 2308 0
-2308 2309 0
-148 -2308 0
-148 2309 0
-2309 2310 0
-149 -2309 0
-149 2310 0
-2310 2311 0
-150 -2310 0
-150 2311 0
-2311 2312 0
-151 -2311 0
-151 2312 0
-2312 2313 0
-152 -2312 0
-152 2313 0
-2313 2314 0
-153 -2313 0
-153 2314 0
-2314 2315 0
-154 -2314 0
-154 2315 0
-2315 2316 0
-155 -2315 0
-155 2316 0
-156 -2316 0
-145 555 0
-146 555 0
-147 555 0
-148 555 0
-149 555 0
-150 555 0
-151 555 0
-152 555 0
-153 555 0
-154 555 0
-155 555 0
-156 555 0
-555 145 146 147 148 149 150 151 152 153 154 155 156 0
-157 1 0
-157 49 0
-1 -49 157 0
-158 2 0
-158 50 0
-2 -50 158 0
-159 3 0
-159 51 0
-3 -51 159 0
-160 4 0
-160 52 0
-4 -52 160 0
-161 5 0
-161 53 0
-5 -53 161 0
-162 6 0
-162 54 0
-6 -54 162 0
-163 7 0
-163 55 0
-7 -55 163 0
-164 8 0
-164 56 0
-8 -56 164 0
-165 9 0
-165 57 0
-9 -57 165 0
-166 10 0
-166 58 0
-10 -58 166 0
-167 11 0
-167 59 0
-11 -59 167 0
-168 12 0
-168 60 0
-12 -60 168 0
-157 2317 0
-2317 2318 0
-158 -2317 0
-158 2318 0
-2318 2319 0
-159 -2318 0
-159 2319 0
-2319 2320 0
-160 -2319 0
-160 2320 0
-2320 2321 0
-161 -2320 0
-161 2321 0
-2321 2322 0
-162 -2321 0
-162 2322 0
-2322 2323 0
-163 -2322 0
-163 2323 0
-2323 2324 0
-164 -2323 0
-164 2324 0
-2324 2325 0
-165 -2324 0
-165 2325 0
-2325 2326 0
-166 -2325 0
-166 2326 0
-2326 2327 0
-167 -2326 0
-167 2327 0
-168 -2327 0
-157 556 0
-158 556 0
-159 556 0
-160 556 0
-161 556 0
-162 556 0
-163 556 0
-164 556 0
-165 556 0
-166 556 0
-167 556 0
-168 556 0
-556 157 158 159 160 161 162 163 164 165 166 167 168 0
-169 1 0
-169 61 0
-1 -61 169 0
-170 2 0
-170 62 0
-2 -62 170 0
-171 3 0
-171 63 0
-3 -63 171 0
-172 4 0
-172 64 0
-4 -64 172 0
-173 5 0
-173 65 0
-5 -65 173 0
-174 6 0
-174 66 0
-6 -66 174 0
-175 7 0
-175 67 0
-7 -67 175 0
-176 8 0
-176 68 0
-8 -68 176 0
-177 9 0
-177 69 0
-9 -69 177 0
-178 10 0
-178 70 0
-10 -70 178 0
-179 11 0
-179 71 0
-11 -71 179 0
-180 12 0
-180 72 0
-12 -72 180 0
-169 2328 0
-2328 2329 0
-170 -2328 0
-170 2329 0
-2329 2330 0
-171 -2329 0
-171 2330 0
-2330 2331 0
-172 -2330 0
-172 2331 0
-2331 2332 0
-173 -2331 0
-173 2332 0
-2332 2333 0
-174 -2332 0
-174 2333 0
-2333 2334 0
-175 -2333 0
-175 2334 0
-2334 2335 0
-176 -2334 0
-176 2335 0
-2335 2336 0
-177 -2335 0
-177 2336 0
-2336 2337 0
-178 -2336 0
-178 2337 0
-2337 2338 0
-179 -2337 0
-179 2338 0
-180 -2338 0
-169 557 0
-170 557 0
-171 557 0
-172 557 0
-173 557 0
-174 557 0
-175 557 0
-176 557 0
-177 557 0
-178 557 0
-179 557 0
-180 557 0
-557 169 170 171 172 173 174 175 176 177 178 179 180 0
-181 1 0
-181 73 0
-1 -73 181 0
-182 2 0
-182 74 0
-2 -74 182 0
-183 3 0
-183 75 0
-3 -75 183 0
-184 4 0
-184 76 0
-4 -76 184 0
-185 5 0
-185 77 0
-5 -77 185 0
-186 6 0
-186 78 0
-6 -78 186 0
-187 7 0
-187 79 0
-7 -79 187 0
-188 8 0
-188 80 0
-8 -80 188 0
-189 9 0
-189 81 0
-9 -81 189 0
-190 10 0
-190 82 0
-10 -82 190 0
-191 11 0
-191 83 0
-11 -83 191 0
-192 12 0
-192 84 0
-12 -84 192 0
-181 2339 0
-2339 2340 0
-182 -2339 0
-182 2340 0
-2340 2341 0
-183 -2340 0
-183 2341 0
-2341 2342 0
-184 -2341 0
-184 2342 0
-2342 2343 0
-185 -2342 0
-185 2343 0
-2343 2344 0
-186 -2343 0
-186 2344 0
-2344 2345 0
-187 -2344 0
-187 2345 0
-2345 2346 0
-188 -2345 0
-188 2346 0
-2346 2347 0
-189 -2346 0
-189 2347 0
-2347 2348 0
-190 -2347 0
-190 2348 0
-2348 2349 0
-191 -2348 0
-191 2349 0
-192 -2349 0
-181 558 0
-182 558 0
-183 558 0
-184 558 0
-185 558 0
-186 558 0
-187 558 0
-188 558 0
-189 558 0
-190 558 0
-191 558 0
-192 558 0
-558 181 182 183 184 185 186 187 188 189 190 191 192 0
-193 1 0
-193 85 0
-1 -85 193 0
-194 2 0
-194 86 0
-2 -86 194 0
-195 3 0
-195 87 0
-3 -87 195 0
-196 4 0
-196 88 0
-4 -88 196 0
-197 5 0
-197 89 0
-5 -89 197 0
-198 6 0
-198 90 0
-6 -90 198 0
-199 7 0
-199 91 0
-7 -91 199 0
-200 8 0
-200 92 0
-8 -92 200 0
-201 9 0
-201 93 0
-9 -93 201 0
-202 10 0
-202 94 0
-10 -94 202 0
-203 11 0
-203 95 0
-11 -95 203 0
-204 12 0
-204 96 0
-12 -96 204 0
-193 2350 0
-2350 2351 0
-194 -2350 0
-194 2351 0
-2351 2352 0
-195 -2351 0
-195 2352 0
-2352 2353 0
-196 -2352 0
-196 2353 0
-2353 2354 0
-197 -2353 0
-197 2354 0
-2354 2355 0
-198 -2354 0
-198 2355 0
-2355 2356 0
-199 -2355 0
-199 2356 0
-2356 2357 0
-200 -2356 0
-200 2357 0
-2357 2358 0
-201 -2357 0
-201 2358 0
-2358 2359 0
-202 -2358 0
-202 2359 0
-2359 2360 0
-203 -2359 0
-203 2360 0
-204 -2360 0
-193 559 0
-194 559 0
-195 559 0
-196 559 0
-197 559 0
-198 559 0
-199 559 0
-200 559 0
-201 559 0
-202 559 0
-203 559 0
-204 559 0
-559 193 194 195 196 197 198 199 200 201 202 203 204 0
-205 1 0
-205 97 0
-1 -97 205 0
-206 2 0
-206 98 0
-2 -98 206 0
-207 3 0
-207 99 0
-3 -99 207 0
-208 4 0
-208 100 0
-4 -100 208 0
-209 5 0
-209 101 0
-5 -101 209 0
-210 6 0
-210 102 0
-6 -102 210 0
-211 7 0
-211 103 0
-7 -103 211 0
-212 8 0
-212 104 0
-8 -104 212 0
-213 9 0
-213 105 0
-9 -105 213 0
-214 10 0
-214 106 0
-10 -106 214 0
-215 11 0
-215 107 0
-11 -107 215 0
-216 12 0
-216 108 0
-12 -108 216 0
-205 2361 0
-2361 2362 0
-206 -2361 0
-206 2362 0
-2362 2363 0
-207 -2362 0
-207 2363 0
-2363 2364 0
-208 -2363 0
-208 2364 0
-2364 2365 0
-209 -2364 0
-209 2365 0
-2365 2366 0
-210 -2365 0
-210 2366 0
-2366 2367 0
-211 -2366 0
-211 2367 0
-2367 2368 0
-212 -2367 0
-212 2368 0
-2368 2369 0
-213 -2368 0
-213 2369 0
-2369 2370 0
-214 -2369 0
-214 2370 0
-2370 2371 0
-215 -2370 0
-215 2371 0
-216 -2371 0
-205 560 0
-206 560 0
-207 560 0
-208 560 0
-209 560 0
-210 560 0
-211 560 0
-212 560 0
-213 560 0
-214 560 0
-215 560 0
-216 560 0
-560 205 206 207 208 209 210 211 212 213 214 215 216 0
-217 13 0
-217 25 0
-13 -25 217 0
-218 14 0
-218 26 0
-14 -26 218 0
-219 15 0
-219 27 0
-15 -27 219 0
-220 16 0
-220 28 0
-16 -28 220 0
-221 17 0
-221 29 0
-17 -29 221 0
-222 18 0
-222 30 0
-18 -30 222 0
-223 19 0
-223 31 0
-19 -31 223 0
-224 20 0
-224 32 0
-20 -32 224 0
-225 21 0
-225 33 0
-21 -33 225 0
-226 22 0
-226 34 0
-22 -34 226 0
-227 23 0
-227 35 0
-23 -35 227 0
-228 24 0
-228 36 0
-24 -36 228 0
-217 2372 0
-2372 2373 0
-218 -2372 0
-218 2373 0
-2373 2374 0
-219 -2373 0
-219 2374 0
-2374 2375 0
-220 -2374 0
-220 2375 0
-2375 2376 0
-221 -2375 0
-221 2376 0
-2376 2377 0
-222 -2376 0
-222 2377 0
-2377 2378 0
-223 -2377 0
-223 2378 0
-2378 2379 0
-224 -2378 0
-224 2379 0
-2379 2380 0
-225 -2379 0
-225 2380 0
-2380 2381 0
-226 -2380 0
-226 2381 0
-2381 2382 0
-227 -2381 0
-227 2382 0
-228 -2382 0
-217 561 0
-218 561 0
-219 561 0
-220 561 0
-221 561 0
-222 561 0
-223 561 0
-224 561 0
-225 561 0
-226 561 0
-227 561 0
-228 561 0
-561 217 218 219 220 221 222 223 224 225 226 227 228 0
-229 13 0
-229 37 0
-13 -37 229 0
-230 14 0
-230 38 0
-14 -38 230 0
-231 15 0
-231 39 0
-15 -39 231 0
-232 16 0
-232 40 0
-16 -40 232 0
-233 17 0
-233 41 0
-17 -41 233 0
-234 18 0
-234 42 0
-18 -42 234 0
-235 19 0
-235 43 0
-19 -43 235 0
-236 20 0
-236 44 0
-20 -44 236 0
-237 21 0
-237 45 0
-21 -45 237 0
-238 22 0
-238 46 0
-22 -46 238 0
-239 23 0
-239 47 0
-23 -47 239 0
-240 24 0
-240 48 0
-24 -48 240 0
-229 2383 0
-2383 2384 0
-230 -2383 0
-230 2384 0
-2384 2385 0
-231 -2384 0
-231 2385 0
-2385 2386 0
-232 -2385 0
-232 2386 0
-2386 2387 0
-233 -2386 0
-233 2387 0
-2387 2388 0
-234 -2387 0
-234 2388 0
-2388 2389 0
-235 -2388 0
-235 2389 0
-2389 2390 0
-236 -2389 0
-236 2390 0
-2390 2391 0
-237 -2390 0
-237 2391 0
-2391 2392 0
-238 -2391 0
-238 2392 0
-2392 2393 0
-239 -2392 0
-239 2393 0
-240 -2393 0
-229 562 0
-230 562 0
-231 562 0
-232 562 0
-233 562 0
-234 562 0
-235 562 0
-236 562 0
-237 562 0
-238 562 0
-239 562 0
-240 562 0
-562 229 230 231 232 233 234 235 236 237 238 239 240 0
-241 13 0
-241 49 0
-13 -49 241 0
-242 14 0
-242 50 0
-14 -50 242 0
-243 15 0
-243 51 0
-15 -51 243 0
-244 16 0
-244 52 0
-16 -52 244 0
-245 17 0
-245 53 0
-17 -53 245 0
-246 18 0
-246 54 0
-18 -54 246 0
-247 19 0
-247 55 0
-19 -55 247 0
-248 20 0
-248 56 0
-20 -56 248 0
-249 21 0
-249 57 0
-21 -57 249 0
-250 22 0
-250 58 0
-22 -58 250 0
-251 23 0
-251 59 0
-23 -59 251 0
-252 24 0
-252 60 0
-24 -60 252 0
-241 2394 0
-2394 2395 0
-242 -2394 0
-242 2395 0
-2395 2396 0
-243 -2395 0
-243 2396 0
-2396 2397 0
-244 -2396 0
-244 2397 0
-2397 2398 0
-245 -2397 0
-245 2398 0
-2398 2399 0
-246 -2398 0
-246 2399 0
-2399 2400 0
-247 -2399 0
-247 2400 0
-2400 2401 0
-248 -2400 0
-248 2401 0
-2401 2402 0
-249 -2401 0
-249 2402 0
-2402 2403 0
-250 -2402 0
-250 2403 0
-2403 2404 0
-251 -2403 0
-251 2404 0
-252 -2404 0
-241 563 0
-242 563 0
-243 563 0
-244 563 0
-245 563 0
-246 563 0
-247 563 0
-248 563 0
-249 563 0
-250 563 0
-251 563 0
-252 563 0
-563 241 242 243 244 245 246 247 248 249 250 251 252 0
-253 13 0
-253 61 0
-13 -61 253 0
-254 14 0
-254 62 0
-14 -62 254 0
-255 15 0
-255 63 0
-15 -63 255 0
-256 16 0
-256 64 0
-16 -64 256 0
-257 17 0
-257 65 0
-17 -65 257 0
-258 18 0
-258 66 0
-18 -66 258 0
-259 19 0
-259 67 0
-19 -67 259 0
-260 20 0
-260 68 0
-20 -68 260 0
-261 21 0
-261 69 0
-21 -69 261 0
-262 22 0
-262 70 0
-22 -70 262 0
-263 23 0
-263 71 0
-23 -71 263 0
-264 24 0
-264 72 0
-24 -72 264 0
-253 2405 0
-2405 2406 0
-254 -2405 0
-254 2406 0
-2406 2407 0
-255 -2406 0
-255 2407 0
-2407 2408 0
-256 -2407 0
-256 2408 0
-2408 2409 0
-257 -2408 0
-257 2409 0
-2409 2410 0
-258 -2409 0
-258 2410 0
-2410 2411 0
-259 -2410 0
-259 2411 0
-2411 2412 0
-260 -2411 0
-260 2412 0
-2412 2413 0
-261 -2412 0
-261 2413 0
-2413 2414 0
-262 -2413 0
-262 2414 0
-2414 2415 0
-263 -2414 0
-263 2415 0
-264 -2415 0
-253 564 0
-254 564 0
-255 564 0
-256 564 0
-257 564 0
-258 564 0
-259 564 0
-260 564 0
-261 564 0
-262 564 0
-263 564 0
-264 564 0
-564 253 254 255 256 257 258 259 260 261 262 263 264 0
-265 13 0
-265 73 0
-13 -73 265 0
-266 14 0
-266 74 0
-14 -74 266 0
-267 15 0
-267 75 0
-15 -75 267 0
-268 16 0
-268 76 0
-16 -76 268 0
-269 17 0
-269 77 0
-17 -77 269 0
-270 18 0
-270 78 0
-18 -78 270 0
-271 19 0
-271 79 0
-19 -79 271 0
-272 20 0
-272 80 0
-20 -80 272 0
-273 21 0
-273 81 0
-21 -81 273 0
-274 22 0
-274 82 0
-22 -82 274 0
-275 23 0
-275 83 0
-23 -83 275 0
-276 24 0
-276 84 0
-24 -84 276 0
-265 2416 0
-2416 2417 0
-266 -2416 0
-266 2417 0
-2417 2418 0
-267 -2417 0
-267 2418 0
-2418 2419 0
-268 -2418 0
-268 2419 0
-2419 2420 0
-269 -2419 0
-269 2420 0
-2420 2421 0
-270 -2420 0
-270 2421 0
-2421 2422 0
-271 -2421 0
-271 2422 0
-2422 2423 0
-272 -2422 0
-272 2423 0
-2423 2424 0
-273 -2423 0
-273 2424 0
-2424 2425 0
-274 -2424 0
-274 2425 0
-2425 2426 0
-275 -2425 0
-275 2426 0
-276 -2426 0
-265 565 0
-266 565 0
-267 565 0
-268 565 0
-269 565 0
-270 565 0
-271 565 0
-272 565 0
-273 565 0
-274 565 0
-275 565 0
-276 565 0
-565 265 266 267 268 269 270 271 272 273 274 275 276 0
-277 13 0
-277 85 0
-13 -85 277 0
-278 14 0
-278 86 0
-14 -86 278 0
-279 15 0
-279 87 0
-15 -87 279 0
-280 16 0
-280 88 0
-16 -88 280 0
-281 17 0
-281 89 0
-17 -89 281 0
-282 18 0
-282 90 0
-18 -90 282 0
-283 19 0
-283 91 0
-19 -91 283 0
-284 20 0
-284 92 0
-20 -92 284 0
-285 21 0
-285 93 0
-21 -93 285 0
-286 22 0
-286 94 0
-22 -94 286 0
-287 23 0
-287 95 0
-23 -95 287 0
-288 24 0
-288 96 0
-24 -96 288 0
-277 2427 0
-2427 2428 0
-278 -2427 0
-278 2428 0
-2428 2429 0
-279 -2428 0
-279 2429 0
-2429 2430 0
-280 -2429 0
-280 2430 0
-2430 2431 0
-281 -2430 0
-281 2431 0
-2431 2432 0
-282 -2431 0
-282 2432 0
-2432 2433 0
-283 -2432 0
-283 2433 0
-2433 2434 0
-284 -2433 0
-284 2434 0
-2434 2435 0
-285 -2434 0
-285 2435 0
-2435 2436 0
-286 -2435 0
-286 2436 0
-2436 2437 0
-287 -2436 0
-287 2437 0
-288 -2437 0
-277 566 0
-278 566 0
-279 566 0
-280 566 0
-281 566 0
-282 566 0
-283 566 0
-284 566 0
-285 566 0
-286 566 0
-287 566 0
-288 566 0
-566 277 278 279 280 281 282 283 284 285 286 287 288 0
-289 13 0
-289 97 0
-13 -97 289 0
-290 14 0
-290 98 0
-14 -98 290 0
-291 15 0
-291 99 0
-15 -99 291 0
-292 16 0
-292 100 0
-16 -100 292 0
-293 17 0
-293 101 0
-17 -101 293 0
-294 18 0
-294 102 0
-18 -102 294 0
-295 19 0
-295 103 0
-19 -103 295 0
-296 20 0
-296 104 0
-20 -104 296 0
-297 21 0
-297 105 0
-21 -105 297 0
-298 22 0
-298 106 0
-22 -106 298 0
-299 23 0
-299 107 0
-23 -107 299 0
-300 24 0
-300 108 0
-24 -108 300 0
-289 2438 0
-2438 2439 0
-290 -2438 0
-290 2439 0
-2439 2440 0
-291 -2439 0
-291 2440 0
-2440 2441 0
-292 -2440 0
-292 2441 0
-2441 2442 0
-293 -2441 0
-293 2442 0
-2442 2443 0
-294 -2442 0
-294 2443 0
-2443 2444 0
-295 -2443 0
-295 2444 0
-2444 2445 0
-296 -2444 0
-296 2445 0
-2445 2446 0
-297 -2445 0
-297 2446 0
-2446 2447 0
-298 -2446 0
-298 2447 0
-2447 2448 0
-299 -2447 0
-299 2448 0
-300 -2448 0
-289 567 0
-290 567 0
-291 567 0
-292 567 0
-293 567 0
-294 567 0
-295 567 0
-296 567 0
-297 567 0
-298 567 0
-299 567 0
-300 567 0
-567 289 290 291 292 293 294 295 296 297 298 299 300 0
-301 25 0
-301 37 0
-25 -37 301 0
-302 26 0
-302 38 0
-26 -38 302 0
-303 27 0
-303 39 0
-27 -39 303 0
-304 28 0
-304 40 0
-28 -40 304 0
-305 29 0
-305 41 0
-29 -41 305 0
-306 30 0
-306 42 0
-30 -42 306 0
-307 31 0
-307 43 0
-31 -43 307 0
-308 32 0
-308 44 0
-32 -44 308 0
-309 33 0
-309 45 0
-33 -45 309 0
-310 34 0
-310 46 0
-34 -46 310 0
-311 35 0
-311 47 0
-35 -47 311 0
-312 36 0
-312 48 0
-36 -48 312 0
-301 2449 0
-2449 2450 0
-302 -2449 0
-302 2450 0
-2450 2451 0
-303 -2450 0
-303 2451 0
-2451 2452 0
-304 -2451 0
-304 2452 0
-2452 2453 0
-305 -2452 0
-305 2453 0
-2453 2454 0
-306 -2453 0
-306 2454 0
-2454 2455 0
-307 -2454 0
-307 2455 0
-2455 2456 0
-308 -2455 0
-308 2456 0
-2456 2457 0
-309 -2456 0
-309 2457 0
-2457 2458 0
-310 -2457 0
-310 2458 0
-2458 2459 0
-311 -2458 0
-311 2459 0
-312 -2459 0
-301 568 0
-302 568 0
-303 568 0
-304 568 0
-305 568 0
-306 568 0
-307 568 0
-308 568 0
-309 568 0
-310 568 0
-311 568 0
-312 568 0
-568 301 302 303 304 305 306 307 308 309 310 311 312 0
-313 25 0
-313 49 0
-25 -49 313 0
-314 26 0
-314 50 0
-26 -50 314 0
-315 27 0
-315 51 0
-27 -51 315 0
-316 28 0
-316 52 0
-28 -52 316 0
-317 29 0
-317 53 0
-29 -53 317 0
-318 30 0
-318 54 0
-30 -54 318 0
-319 31 0
-319 55 0
-31 -55 319 0
-320 32 0
-320 56 0
-32 -56 320 0
-321 33 0
-321 57 0
-33 -57 321 0
-322 34 0
-322 58 0
-34 -58 322 0
-323 35 0
-323 59 0
-35 -59 323 0
-324 36 0
-324 60 0
-36 -60 324 0
-313 2460 0
-2460 2461 0
-314 -2460 0
-314 2461 0
-2461 2462 0
-315 -2461 0
-315 2462 0
-2462 2463 0
-316 -2462 0
-316 2463 0
-2463 2464 0
-317 -2463 0
-317 2464 0
-2464 2465 0
-318 -2464 0
-318 2465 0
-2465 2466 0
-319 -2465 0
-319 2466 0
-2466 2467 0
-320 -2466 0
-320 2467 0
-2467 2468 0
-321 -2467 0
-321 2468 0
-2468 2469 0
-322 -2468 0
-322 2469 0
-2469 2470 0
-323 -2469 0
-323 2470 0
-324 -2470 0
-313 569 0
-314 569 0
-315 569 0
-316 569 0
-317 569 0
-318 569 0
-319 569 0
-320 569 0
-321 569 0
-322 569 0
-323 569 0
-324 569 0
-569 313 314 315 316 317 318 319 320 321 322 323 324 0
-325 25 0
-325 61 0
-25 -61 325 0
-326 26 0
-326 62 0
-26 -62 326 0
-327 27 0
-327 63 0
-27 -63 327 0
-328 28 0
-328 64 0
-28 -64 328 0
-329 29 0
-329 65 0
-29 -65 329 0
-330 30 0
-330 66 0
-30 -66 330 0
-331 31 0
-331 67 0
-31 -67 331 0
-332 32 0
-332 68 0
-32 -68 332 0
-333 33 0
-333 69 0
-33 -69 333 0
-334 34 0
-334 70 0
-34 -70 334 0
-335 35 0
-335 71 0
-35 -71 335 0
-336 36 0
-336 72 0
-36 -72 336 0
-325 2471 0
-2471 2472 0
-326 -2471 0
-326 2472 0
-2472 2473 0
-327 -2472 0
-327 2473 0
-2473 2474 0
-328 -2473 0
-328 2474 0
-2474 2475 0
-329 -2474 0
-329 2475 0
-2475 2476 0
-330 -2475 0
-330 2476 0
-2476 2477 0
-331 -2476 0
-331 2477 0
-2477 2478 0
-332 -2477 0
-332 2478 0
-2478 2479 0
-333 -2478 0
-333 2479 0
-2479 2480 0
-334 -2479 0
-334 2480 0
-2480 2481 0
-335 -2480 0
-335 2481 0
-336 -2481 0
-325 570 0
-326 570 0
-327 570 0
-328 570 0
-329 570 0
-330 570 0
-331 570 0
-332 570 0
-333 570 0
-334 570 0
-335 570 0
-336 570 0
-570 325 326 327 328 329 330 331 332 333 334 335 336 0
-337 25 0
-337 73 0
-25 -73 337 0
-338 26 0
-338 74 0
-26 -74 338 0
-339 27 0
-339 75 0
-27 -75 339 0
-340 28 0
-340 76 0
-28 -76 340 0
-341 29 0
-341 77 0
-29 -77 341 0
-342 30 0
-342 78 0
-30 -78 342 0
-343 31 0
-343 79 0
-31 -79 343 0
-344 32 0
-344 80 0
-32 -80 344 0
-345 33 0
-345 81 0
-33 -81 345 0
-346 34 0
-346 82 0
-34 -82 346 0
-347 35 0
-347 83 0
-35 -83 347 0
-348 36 0
-348 84 0
-36 -84 348 0
-337 2482 0
-2482 2483 0
-338 -2482 0
-338 2483 0
-2483 2484 0
-339 -2483 0
-339 2484 0
-2484 2485 0
-340 -2484 0
-340 2485 0
-2485 2486 0
-341 -2485 0
-341 2486 0
-2486 2487 0
-342 -2486 0
-342 2487 0
-2487 2488 0
-343 -2487 0
-343 2488 0
-2488 2489 0
-344 -2488 0
-344 2489 0
-2489 2490 0
-345 -2489 0
-345 2490 0
-2490 2491 0
-346 -2490 0
-346 2491 0
-2491 2492 0
-347 -2491 0
-347 2492 0
-348 -2492 0
-337 571 0
-338 571 0
-339 571 0
-340 571 0
-341 571 0
-342 571 0
-343 571 0
-344 571 0
-345 571 0
-346 571 0
-347 571 0
-348 571 0
-571 337 338 339 340 341 342 343 344 345 346 347 348 0
-349 25 0
-349 85 0
-25 -85 349 0
-350 26 0
-350 86 0
-26 -86 350 0
-351 27 0
-351 87 0
-27 -87 351 0
-352 28 0
-352 88 0
-28 -88 352 0
-353 29 0
-353 89 0
-29 -89 353 0
-354 30 0
-354 90 0
-30 -90 354 0
-355 31 0
-355 91 0
-31 -91 355 0
-356 32 0
-356 92 0
-32 -92 356 0
-357 33 0
-357 93 0
-33 -93 357 0
-358 34 0
-358 94 0
-34 -94 358 0
-359 35 0
-359 95 0
-35 -95 359 0
-360 36 0
-360 96 0
-36 -96 360 0
-349 2493 0
-2493 2494 0
-350 -2493 0
-350 2494 0
-2494 2495 0
-351 -2494 0
-351 2495 0
-2495 2496 0
-352 -2495 0
-352 2496 0
-2496 2497 0
-353 -2496 0
-353 2497 0
-2497 2498 0
-354 -2497 0
-354 2498 0
-2498 2499 0
-355 -2498 0
-355 2499 0
-2499 2500 0
-356 -2499 0
-356 2500 0
-2500 2501 0
-357 -2500 0
-357 2501 0
-2501 2502 0
-358 -2501 0
-358 2502 0
-2502 2503 0
-359 -2502 0
-359 2503 0
-360 -2503 0
-349 572 0
-350 572 0
-351 572 0
-352 572 0
-353 572 0
-354 572 0
-355 572 0
-356 572 0
-357 572 0
-358 572 0
-359 572 0
-360 572 0
-572 349 350 351 352 353 354 355 356 357 358 359 360 0
-361 25 0
-361 97 0
-25 -97 361 0
-362 26 0
-362 98 0
-26 -98 362 0
-363 27 0
-363 99 0
-27 -99 363 0
-364 28 0
-364 100 0
-28 -100 364 0
-365 29 0
-365 101 0
-29 -101 365 0
-366 30 0
-366 102 0
-30 -102 366 0
-367 31 0
-367 103 0
-31 -103 367 0
-368 32 0
-368 104 0
-32 -104 368 0
-369 33 0
-369 105 0
-33 -105 369 0
-370 34 0
-370 106 0
-34 -106 370 0
-371 35 0
-371 107 0
-35 -107 371 0
-372 36 0
-372 108 0
-36 -108 372 0
-361 2504 0
-2504 2505 0
-362 -2504 0
-362 2505 0
-2505 2506 0
-363 -2505 0
-363 2506 0
-2506 2507 0
-364 -2506 0
-364 2507 0
-2507 2508 0
-365 -2507 0
-365 2508 0
-2508 2509 0
-366 -2508 0
-366 2509 0
-2509 2510 0
-367 -2509 0
-367 2510 0
-2510 2511 0
-368 -2510 0
-368 2511 0
-2511 2512 0
-369 -2511 0
-369 2512 0
-2512 2513 0
-370 -2512 0
-370 2513 0
-2513 2514 0
-371 -2513 0
-371 2514 0
-372 -2514 0
-361 573 0
-362 573 0
-363 573 0
-364 573 0
-365 573 0
-366 573 0
-367 573 0
-368 573 0
-369 573 0
-370 573 0
-371 573 0
-372 573 0
-573 361 362 363 364 365 366 367 368 369 370 371 372 0
-373 37 0
-373 49 0
-37 -49 373 0
-374 38 0
-374 50 0
-38 -50 374 0
-375 39 0
-375 51 0
-39 -51 375 0
-376 40 0
-376 52 0
-40 -52 376 0
-377 41 0
-377 53 0
-41 -53 377 0
-378 42 0
-378 54 0
-42 -54 378 0
-379 43 0
-379 55 0
-43 -55 379 0
-380 44 0
-380 56 0
-44 -56 380 0
-381 45 0
-381 57 0
-45 -57 381 0
-382 46 0
-382 58 0
-46 -58 382 0
-383 47 0
-383 59 0
-47 -59 383 0
-384 48 0
-384 60 0
-48 -60 384 0
-373 2515 0
-2515 2516 0
-374 -2515 0
-374 2516 0
-2516 2517 0
-375 -2516 0
-375 2517 0
-2517 2518 0
-376 -2517 0
-376 2518 0
-2518 2519 0
-377 -2518 0
-377 2519 0
-2519 2520 0
-378 -2519 0
-378 2520 0
-2520 2521 0
-379 -2520 0
-379 2521 0
-2521 2522 0
-380 -2521 0
-380 2522 0
-2522 2523 0
-381 -2522 0
-381 2523 0
-2523 2524 0
-382 -2523 0
-382 2524 0
-2524 2525 0
-383 -2524 0
-383 2525 0
-384 -2525 0
-373 574 0
-374 574 0
-375 574 0
-376 574 0
-377 574 0
-378 574 0
-379 574 0
-380 574 0
-381 574 0
-382 574 0
-383 574 0
-384 574 0
-574 373 374 375 376 377 378 379 380 381 382 383 384 0
-385 37 0
-385 61 0
-37 -61 385 0
-386 38 0
-386 62 0
-38 -62 386 0
-387 39 0
-387 63 0
-39 -63 387 0
-388 40 0
-388 64 0
-40 -64 388 0
-389 41 0
-389 65 0
-41 -65 389 0
-390 42 0
-390 66 0
-42 -66 390 0
-391 43 0
-391 67 0
-43 -67 391 0
-392 44 0
-392 68 0
-44 -68 392 0
-393 45 0
-393 69 0
-45 -69 393 0
-394 46 0
-394 70 0
-46 -70 394 0
-395 47 0
-395 71 0
-47 -71 395 0
-396 48 0
-396 72 0
-48 -72 396 0
-385 2526 0
-2526 2527 0
-386 -2526 0
-386 2527 0
-2527 2528 0
-387 -2527 0
-387 2528 0
-2528 2529 0
-388 -2528 0
-388 2529 0
-2529 2530 0
-389 -2529 0
-389 2530 0
-2530 2531 0
-390 -2530 0
-390 2531 0
-2531 2532 0
-391 -2531 0
-391 2532 0
-2532 2533 0
-392 -2532 0
-392 2533 0
-2533 2534 0
-393 -2533 0
-393 2534 0
-2534 2535 0
-394 -2534 0
-394 2535 0
-2535 2536 0
-395 -2535 0
-395 2536 0
-396 -2536 0
-385 575 0
-386 575 0
-387 575 0
-388 575 0
-389 575 0
-390 575 0
-391 575 0
-392 575 0
-393 575 0
-394 575 0
-395 575 0
-396 575 0
-575 385 386 387 388 389 390 391 392 393 394 395 396 0
-397 37 0
-397 73 0
-37 -73 397 0
-398 38 0
-398 74 0
-38 -74 398 0
-399 39 0
-399 75 0
-39 -75 399 0
-400 40 0
-400 76 0
-40 -76 400 0
-401 41 0
-401 77 0
-41 -77 401 0
-402 42 0
-402 78 0
-42 -78 402 0
-403 43 0
-403 79 0
-43 -79 403 0
-404 44 0
-404 80 0
-44 -80 404 0
-405 45 0
-405 81 0
-45 -81 405 0
-406 46 0
-406 82 0
-46 -82 406 0
-407 47 0
-407 83 0
-47 -83 407 0
-408 48 0
-408 84 0
-48 -84 408 0
-397 2537 0
-2537 2538 0
-398 -2537 0
-398 2538 0
-2538 2539 0
-399 -2538 0
-399 2539 0
-2539 2540 0
-400 -2539 0
-400 2540 0
-2540 2541 0
-401 -2540 0
-401 2541 0
-2541 2542 0
-402 -2541 0
-402 2542 0
-2542 2543 0
-403 -2542 0
-403 2543 0
-2543 2544 0
-404 -2543 0
-404 2544 0
-2544 2545 0
-405 -2544 0
-405 2545 0
-2545 2546 0
-406 -2545 0
-406 2546 0
-2546 2547 0
-407 -2546 0
-407 2547 0
-408 -2547 0
-397 576 0
-398 576 0
-399 576 0
-400 576 0
-401 576 0
-402 576 0
-403 576 0
-404 576 0
-405 576 0
-406 576 0
-407 576 0
-408 576 0
-576 397 398 399 400 401 402 403 404 405 406 407 408 0
-409 37 0
-409 85 0
-37 -85 409 0
-410 38 0
-410 86 0
-38 -86 410 0
-411 39 0
-411 87 0
-39 -87 411 0
-412 40 0
-412 88 0
-40 -88 412 0
-413 41 0
-413 89 0
-41 -89 413 0
-414 42 0
-414 90 0
-42 -90 414 0
-415 43 0
-415 91 0
-43 -91 415 0
-416 44 0
-416 92 0
-44 -92 416 0
-417 45 0
-417 93 0
-45 -93 417 0
-418 46 0
-418 94 0
-46 -94 418 0
-419 47 0
-419 95 0
-47 -95 419 0
-420 48 0
-420 96 0
-48 -96 420 0
-409 2548 0
-2548 2549 0
-410 -2548 0
-410 2549 0
-2549 2550 0
-411 -2549 0
-411 2550 0
-2550 2551 0
-412 -2550 0
-412 2551 0
-2551 2552 0
-413 -2551 0
-413 2552 0
-2552 2553 0
-414 -2552 0
-414 2553 0
-2553 2554 0
-415 -2553 0
-415 2554 0
-2554 2555 0
-416 -2554 0
-416 2555 0
-2555 2556 0
-417 -2555 0
-417 2556 0
-2556 2557 0
-418 -2556 0
-418 2557 0
-2557 2558 0
-419 -2557 0
-419 2558 0
-420 -2558 0
-409 577 0
-410 577 0
-411 577 0
-412 577 0
-413 577 0
-414 577 0
-415 577 0
-416 577 0
-417 577 0
-418 577 0
-419 577 0
-420 577 0
-577 409 410 411 412 413 414 415 416 417 418 419 420 0
-421 37 0
-421 97 0
-37 -97 421 0
-422 38 0
-422 98 0
-38 -98 422 0
-423 39 0
-423 99 0
-39 -99 423 0
-424 40 0
-424 100 0
-40 -100 424 0
-425 41 0
-425 101 0
-41 -101 425 0
-426 42 0
-426 102 0
-42 -102 426 0
-427 43 0
-427 103 0
-43 -103 427 0
-428 44 0
-428 104 0
-44 -104 428 0
-429 45 0
-429 105 0
-45 -105 429 0
-430 46 0
-430 106 0
-46 -106 430 0
-431 47 0
-431 107 0
-47 -107 431 0
-432 48 0
-432 108 0
-48 -108 432 0
-421 2559 0
-2559 2560 0
-422 -2559 0
-422 2560 0
-2560 2561 0
-423 -2560 0
-423 2561 0
-2561 2562 0
-424 -2561 0
-424 2562 0
-2562 2563 0
-425 -2562 0
-425 2563 0
-2563 2564 0
-426 -2563 0
-426 2564 0
-2564 2565 0
-427 -2564 0
-427 2565 0
-2565 2566 0
-428 -2565 0
-428 2566 0
-2566 2567 0
-429 -2566 0
-429 2567 0
-2567 2568 0
-430 -2567 0
-430 2568 0
-2568 2569 0
-431 -2568 0
-431 2569 0
-432 -2569 0
-421 578 0
-422 578 0
-423 578 0
-424 578 0
-425 578 0
-426 578 0
-427 578 0
-428 578 0
-429 578 0
-430 578 0
-431 578 0
-432 578 0
-578 421 422 423 424 425 426 427 428 429 430 431 432 0
-433 49 0
-433 61 0
-49 -61 433 0
-434 50 0
-434 62 0
-50 -62 434 0
-435 51 0
-435 63 0
-51 -63 435 0
-436 52 0
-436 64 0
-52 -64 436 0
-437 53 0
-437 65 0
-53 -65 437 0
-438 54 0
-438 66 0
-54 -66 438 0
-439 55 0
-439 67 0
-55 -67 439 0
-440 56 0
-440 68 0
-56 -68 440 0
-441 57 0
-441 69 0
-57 -69 441 0
-442 58 0
-442 70 0
-58 -70 442 0
-443 59 0
-443 71 0
-59 -71 443 0
-444 60 0
-444 72 0
-60 -72 444 0
-433 2570 0
-2570 2571 0
-434 -2570 0
-434 2571 0
-2571 2572 0
-435 -2571 0
-435 2572 0
-2572 2573 0
-436 -2572 0
-436 2573 0
-2573 2574 0
-437 -2573 0
-437 2574 0
-2574 2575 0
-438 -2574 0
-438 2575 0
-2575 2576 0
-439 -2575 0
-439 2576 0
-2576 2577 0
-440 -2576 0
-440 2577 0
-2577 2578 0
-441 -2577 0
-441 2578 0
-2578 2579 0
-442 -2578 0
-442 2579 0
-2579 2580 0
-443 -2579 0
-443 2580 0
-444 -2580 0
-433 579 0
-434 579 0
-435 579 0
-436 579 0
-437 579 0
-438 579 0
-439 579 0
-440 579 0
-441 579 0
-442 579 0
-443 579 0
-444 579 0
-579 433 434 435 436 437 438 439 440 441 442 443 444 0
-445 49 0
-445 73 0
-49 -73 445 0
-446 50 0
-446 74 0
-50 -74 446 0
-447 51 0
-447 75 0
-51 -75 447 0
-448 52 0
-448 76 0
-52 -76 448 0
-449 53 0
-449 77 0
-53 -77 449 0
-450 54 0
-450 78 0
-54 -78 450 0
-451 55 0
-451 79 0
-55 -79 451 0
-452 56 0
-452 80 0
-56 -80 452 0
-453 57 0
-453 81 0
-57 -81 453 0
-454 58 0
-454 82 0
-58 -82 454 0
-455 59 0
-455 83 0
-59 -83 455 0
-456 60 0
-456 84 0
-60 -84 456 0
-445 2581 0
-2581 2582 0
-446 -2581 0
-446 2582 0
-2582 2583 0
-447 -2582 0
-447 2583 0
-2583 2584 0
-448 -2583 0
-448 2584 0
-2584 2585 0
-449 -2584 0
-449 2585 0
-2585 2586 0
-450 -2585 0
-450 2586 0
-2586 2587 0
-451 -2586 0
-451 2587 0
-2587 2588 0
-452 -2587 0
-452 2588 0
-2588 2589 0
-453 -2588 0
-453 2589 0
-2589 2590 0
-454 -2589 0
-454 2590 0
-2590 2591 0
-455 -2590 0
-455 2591 0
-456 -2591 0
-445 580 0
-446 580 0
-447 580 0
-448 580 0
-449 580 0
-450 580 0
-451 580 0
-452 580 0
-453 580 0
-454 580 0
-455 580 0
-456 580 0
-580 445 446 447 448 449 450 451 452 453 454 455 456 0
-457 49 0
-457 85 0
-49 -85 457 0
-458 50 0
-458 86 0
-50 -86 458 0
-459 51 0
-459 87 0
-51 -87 459 0
-460 52 0
-460 88 0
-52 -88 460 0
-461 53 0
-461 89 0
-53 -89 461 0
-462 54 0
-462 90 0
-54 -90 462 0
-463 55 0
-463 91 0
-55 -91 463 0
-464 56 0
-464 92 0
-56 -92 464 0
-465 57 0
-465 93 0
-57 -93 465 0
-466 58 0
-466 94 0
-58 -94 466 0
-467 59 0
-467 95 0
-59 -95 467 0
-468 60 0
-468 96 0
-60 -96 468 0
-457 2592 0
-2592 2593 0
-458 -2592 0
-458 2593 0
-2593 2594 0
-459 -2593 0
-459 2594 0
-2594 2595 0
-460 -2594 0
-460 2595 0
-2595 2596 0
-461 -2595 0
-461 2596 0
-2596 2597 0
-462 -2596 0
-462 2597 0
-2597 2598 0
-463 -2597 0
-463 2598 0
-2598 2599 0
-464 -2598 0
-464 2599 0
-2599 2600 0
-465 -2599 0
-465 2600 0
-2600 2601 0
-466 -2600 0
-466 2601 0
-2601 2602 0
-467 -2601 0
-467 2602 0
-468 -2602 0
-457 581 0
-458 581 0
-459 581 0
-460 581 0
-461 581 0
-462 581 0
-463 581 0
-464 581 0
-465 581 0
-466 581 0
-467 581 0
-468 581 0
-581 457 458 459 460 461 462 463 464 465 466 467 468 0
-469 49 0
-469 97 0
-49 -97 469 0
-470 50 0
-470 98 0
-50 -98 470 0
-471 51 0
-471 99 0
-51 -99 471 0
-472 52 0
-472 100 0
-52 -100 472 0
-473 53 0
-473 101 0
-53 -101 473 0
-474 54 0
-474 102 0
-54 -102 474 0
-475 55 0
-475 103 0
-55 -103 475 0
-476 56 0
-476 104 0
-56 -104 476 0
-477 57 0
-477 105 0
-57 -105 477 0
-478 58 0
-478 106 0
-58 -106 478 0
-479 59 0
-479 107 0
-59 -107 479 0
-480 60 0
-480 108 0
-60 -108 480 0
-469 2603 0
-2603 2604 0
-470 -2603 0
-470 2604 0
-2604 2605 0
-471 -2604 0
-471 2605 0
-2605 2606 0
-472 -2605 0
-472 2606 0
-2606 2607 0
-473 -2606 0
-473 2607 0
-2607 2608 0
-474 -2607 0
-474 2608 0
-2608 2609 0
-475 -2608 0
-475 2609 0
-2609 2610 0
-476 -2609 0
-476 2610 0
-2610 2611 0
-477 -2610 0
-477 2611 0
-2611 2612 0
-478 -2611 0
-478 2612 0
-2612 2613 0
-479 -2612 0
-479 2613 0
-480 -2613 0
-469 582 0
-470 582 0
-471 582 0
-472 582 0
-473 582 0
-474 582 0
-475 582 0
-476 582 0
-477 582 0
-478 582 0
-479 582 0
-480 582 0
-582 469 470 471 472 473 474 475 476 477 478 479 480 0
-481 61 0
-481 73 0
-61 -73 481 0
-482 62 0
-482 74 0
-62 -74 482 0
-483 63 0
-483 75 0
-63 -75 483 0
-484 64 0
-484 76 0
-64 -76 484 0
-485 65 0
-485 77 0
-65 -77 485 0
-486 66 0
-486 78 0
-66 -78 486 0
-487 67 0
-487 79 0
-67 -79 487 0
-488 68 0
-488 80 0
-68 -80 488 0
-489 69 0
-489 81 0
-69 -81 489 0
-490 70 0
-490 82 0
-70 -82 490 0
-491 71 0
-491 83 0
-71 -83 491 0
-492 72 0
-492 84 0
-72 -84 492 0
-481 2614 0
-2614 2615 0
-482 -2614 0
-482 2615 0
-2615 2616 0
-483 -2615 0
-483 2616 0
-2616 2617 0
-484 -2616 0
-484 2617 0
-2617 2618 0
-485 -2617 0
-485 2618 0
-2618 2619 0
-486 -2618 0
-486 2619 0
-2619 2620 0
-487 -2619 0
-487 2620 0
-2620 2621 0
-488 -2620 0
-488 2621 0
-2621 2622 0
-489 -2621 0
-489 2622 0
-2622 2623 0
-490 -2622 0
-490 2623 0
-2623 2624 0
-491 -2623 0
-491 2624 0
-492 -2624 0
-481 583 0
-482 583 0
-483 583 0
-484 583 0
-485 583 0
-486 583 0
-487 583 0
-488 583 0
-489 583 0
-490 583 0
-491 583 0
-492 583 0
-583 481 482 483 484 485 486 487 488 489 490 491 492 0
-493 61 0
-493 85 0
-61 -85 493 0
-494 62 0
-494 86 0
-62 -86 494 0
-495 63 0
-495 87 0
-63 -87 495 0
-496 64 0
-496 88 0
-64 -88 496 0
-497 65 0
-497 89 0
-65 -89 497 0
-498 66 0
-498 90 0
-66 -90 498 0
-499 67 0
-499 91 0
-67 -91 499 0
-500 68 0
-500 92 0
-68 -92 500 0
-501 69 0
-501 93 0
-69 -93 501 0
-502 70 0
-502 94 0
-70 -94 502 0
-503 71 0
-503 95 0
-71 -95 503 0
-504 72 0
-504 96 0
-72 -96 504 0
-493 2625 0
-2625 2626 0
-494 -2625 0
-494 2626 0
-2626 2627 0
-495 -2626 0
-495 2627 0
-2627 2628 0
-496 -2627 0
-496 2628 0
-2628 2629 0
-497 -2628 0
-497 2629 0
-2629 2630 0
-498 -2629 0
-498 2630 0
-2630 2631 0
-499 -2630 0
-499 2631 0
-2631 2632 0
-500 -2631 0
-500 2632 0
-2632 2633 0
-501 -2632 0
-501 2633 0
-2633 2634 0
-502 -2633 0
-502 2634 0
-2634 2635 0
-503 -2634 0
-503 2635 0
-504 -2635 0
-493 584 0
-494 584 0
-495 584 0
-496 584 0
-497 584 0
-498 584 0
-499 584 0
-500 584 0
-501 584 0
-502 584 0
-503 584 0
-504 584 0
-584 493 494 495 496 497 498 499 500 501 502 503 504 0
-505 61 0
-505 97 0
-61 -97 505 0
-506 62 0
-506 98 0
-62 -98 506 0
-507 63 0
-507 99 0
-63 -99 507 0
-508 64 0
-508 100 0
-64 -100 508 0
-509 65 0
-509 101 0
-65 -101 509 0
-510 66 0
-510 102 0
-66 -102 510 0
-511 67 0
-511 103 0
-67 -103 511 0
-512 68 0
-512 104 0
-68 -104 512 0
-513 69 0
-513 105 0
-69 -105 513 0
-514 70 0
-514 106 0
-70 -106 514 0
-515 71 0
-515 107 0
-71 -107 515 0
-516 72 0
-516 108 0
-72 -108 516 0
-505 2636 0
-2636 2637 0
-506 -2636 0
-506 2637 0
-2637 2638 0
-507 -2637 0
-507 2638 0
-2638 2639 0
-508 -2638 0
-508 2639 0
-2639 2640 0
-509 -2639 0
-509 2640 0
-2640 2641 0
-510 -2640 0
-510 2641 0
-2641 2642 0
-511 -2641 0
-511 2642 0
-2642 2643 0
-512 -2642 0
-512 2643 0
-2643 2644 0
-513 -2643 0
-513 2644 0
-2644 2645 0
-514 -2644 0
-514 2645 0
-2645 2646 0
-515 -2645 0
-515 2646 0
-516 -2646 0
-505 585 0
-506 585 0
-507 585 0
-508 585 0
-509 585 0
-510 585 0
-511 585 0
-512 585 0
-513 585 0
-514 585 0
-515 585 0
-516 585 0
-585 505 506 507 508 509 510 511 512 513 514 515 516 0
-517 73 0
-517 85 0
-73 -85 517 0
-518 74 0
-518 86 0
-74 -86 518 0
-519 75 0
-519 87 0
-75 -87 519 0
-520 76 0
-520 88 0
-76 -88 520 0
-521 77 0
-521 89 0
-77 -89 521 0
-522 78 0
-522 90 0
-78 -90 522 0
-523 79 0
-523 91 0
-79 -91 523 0
-524 80 0
-524 92 0
-80 -92 524 0
-525 81 0
-525 93 0
-81 -93 525 0
-526 82 0
-526 94 0
-82 -94 526 0
-527 83 0
-527 95 0
-83 -95 527 0
-528 84 0
-528 96 0
-84 -96 528 0
-517 2647 0
-2647 2648 0
-518 -2647 0
-518 2648 0
-2648 2649 0
-519 -2648 0
-519 2649 0
-2649 2650 0
-520 -2649 0
-520 2650 0
-2650 2651 0
-521 -2650 0
-521 2651 0
-2651 2652 0
-522 -2651 0
-522 2652 0
-2652 2653 0
-523 -2652 0
-523 2653 0
-2653 2654 0
-524 -2653 0
-524 2654 0
-2654 2655 0
-525 -2654 0
-525 2655 0
-2655 2656 0
-526 -2655 0
-526 2656 0
-2656 2657 0
-527 -2656 0
-527 2657 0
-528 -2657 0
-517 586 0
-518 586 0
-519 586 0
-520 586 0
-521 586 0
-522 586 0
-523 586 0
-524 586 0
-525 586 0
-526 586 0
-527 586 0
-528 586 0
-586 517 518 519 520 521 522 523 524 525 526 527 528 0
-529 73 0
-529 97 0
-73 -97 529 0
-530 74 0
-530 98 0
-74 -98 530 0
-531 75 0
-531 99 0
-75 -99 531 0
-532 76 0
-532 100 0
-76 -100 532 0
-533 77 0
-533 101 0
-77 -101 533 0
-534 78 0
-534 102 0
-78 -102 534 0
-535 79 0
-535 103 0
-79 -103 535 0
-536 80 0
-536 104 0
-80 -104 536 0
-537 81 0
-537 105 0
-81 -105 537 0
-538 82 0
-538 106 0
-82 -106 538 0
-539 83 0
-539 107 0
-83 -107 539 0
-540 84 0
-540 108 0
-84 -108 540 0
-529 2658 0
-2658 2659 0
-530 -2658 0
-530 2659 0
-2659 2660 0
-531 -2659 0
-531 2660 0
-2660 2661 0
-532 -2660 0
-532 2661 0
-2661 2662 0
-533 -2661 0
-533 2662 0
-2662 2663 0
-534 -2662 0
-534 2663 0
-2663 2664 0
-535 -2663 0
-535 2664 0
-2664 2665 0
-536 -2664 0
-536 2665 0
-2665 2666 0
-537 -2665 0
-537 2666 0
-2666 2667 0
-538 -2666 0
-538 2667 0
-2667 2668 0
-539 -2667 0
-539 2668 0
-540 -2668 0
-529 587 0
-530 587 0
-531 587 0
-532 587 0
-533 587 0
-534 587 0
-535 587 0
-536 587 0
-537 587 0
-538 587 0
-539 587 0
-540 587 0
-587 529 530 531 532 533 534 535 536 537 538 539 540 0
-541 85 0
-541 97 0
-85 -97 541 0
-542 86 0
-542 98 0
-86 -98 542 0
-543 87 0
-543 99 0
-87 -99 543 0
-544 88 0
-544 100 0
-88 -100 544 0
-545 89 0
-545 101 0
-89 -101 545 0
-546 90 0
-546 102 0
-90 -102 546 0
-547 91 0
-547 103 0
-91 -103 547 0
-548 92 0
-548 104 0
-92 -104 548 0
-549 93 0
-549 105 0
-93 -105 549 0
-550 94 0
-550 106 0
-94 -106 550 0
-551 95 0
-551 107 0
-95 -107 551 0
-552 96 0
-552 108 0
-96 -108 552 0
-541 2669 0
-2669 2670 0
-542 -2669 0
-542 2670 0
-2670 2671 0
-543 -2670 0
-543 2671 0
-2671 2672 0
-544 -2671 0
-544 2672 0
-2672 2673 0
-545 -2672 0
-545 2673 0
-2673 2674 0
-546 -2673 0
-546 2674 0
-2674 2675 0
-547 -2674 0
-547 2675 0
-2675 2676 0
-548 -2675 0
-548 2676 0
-2676 2677 0
-549 -2676 0
-549 2677 0
-2677 2678 0
-550 -2677 0
-550 2678 0
-2678 2679 0
-551 -2678 0
-551 2679 0
-552 -2679 0
-541 588 0
-542 588 0
-543 588 0
-544 588 0
-545 588 0
-546 588 0
-547 588 0
-548 588 0
-549 588 0
-550 588 0
-551 588 0
-552 588 0
-588 541 542 543 544 545 546 547 548 549 550 551 552 0
-589 1 0
-589 13 0
-589 25 0
-1 -13 -25 589 0
-590 2 0
-590 14 0
-590 26 0
-2 -14 -26 590 0
-591 3 0
-591 15 0
-591 27 0
-3 -15 -27 591 0
-592 4 0
-592 16 0
-592 28 0
-4 -16 -28 592 0
-593 5 0
-593 17 0
-593 29 0
-5 -17 -29 593 0
-594 6 0
-594 18 0
-594 30 0
-6 -18 -30 594 0
-595 7 0
-595 19 0
-595 31 0
-7 -19 -31 595 0
-596 8 0
-596 20 0
-596 32 0
-8 -20 -32 596 0
-597 9 0
-597 21 0
-597 33 0
-9 -21 -33 597 0
-598 10 0
-598 22 0
-598 34 0
-10 -22 -34 598 0
-599 11 0
-599 23 0
-599 35 0
-11 -23 -35 599 0
-600 12 0
-600 24 0
-600 36 0
-12 -24 -36 600 0
-589 1597 0
-590 1597 0
-591 1597 0
-592 1597 0
-593 1597 0
-594 1597 0
-595 1597 0
-596 1597 0
-597 1597 0
-598 1597 0
-599 1597 0
-600 1597 0
-1597 589 590 591 592 593 594 595 596 597 598 599 600 0
-601 1 0
-601 13 0
-601 37 0
-1 -13 -37 601 0
-602 2 0
-602 14 0
-602 38 0
-2 -14 -38 602 0
-603 3 0
-603 15 0
-603 39 0
-3 -15 -39 603 0
-604 4 0
-604 16 0
-604 40 0
-4 -16 -40 604 0
-605 5 0
-605 17 0
-605 41 0
-5 -17 -41 605 0
-606 6 0
-606 18 0
-606 42 0
-6 -18 -42 606 0
-607 7 0
-607 19 0
-607 43 0
-7 -19 -43 607 0
-608 8 0
-608 20 0
-608 44 0
-8 -20 -44 608 0
-609 9 0
-609 21 0
-609 45 0
-9 -21 -45 609 0
-610 10 0
-610 22 0
-610 46 0
-10 -22 -46 610 0
-611 11 0
-611 23 0
-611 47 0
-11 -23 -47 611 0
-612 12 0
-612 24 0
-612 48 0
-12 -24 -48 612 0
-601 1598 0
-602 1598 0
-603 1598 0
-604 1598 0
-605 1598 0
-606 1598 0
-607 1598 0
-608 1598 0
-609 1598 0
-610 1598 0
-611 1598 0
-612 1598 0
-1598 601 602 603 604 605 606 607 608 609 610 611 612 0
-613 1 0
-613 13 0
-613 49 0
-1 -13 -49 613 0
-614 2 0
-614 14 0
-614 50 0
-2 -14 -50 614 0
-615 3 0
-615 15 0
-615 51 0
-3 -15 -51 615 0
-616 4 0
-616 16 0
-616 52 0
-4 -16 -52 616 0
-617 5 0
-617 17 0
-617 53 0
-5 -17 -53 617 0
-618 6 0
-618 18 0
-618 54 0
-6 -18 -54 618 0
-619 7 0
-619 19 0
-619 55 0
-7 -19 -55 619 0
-620 8 0
-620 20 0
-620 56 0
-8 -20 -56 620 0
-621 9 0
-621 21 0
-621 57 0
-9 -21 -57 621 0
-622 10 0
-622 22 0
-622 58 0
-10 -22 -58 622 0
-623 11 0
-623 23 0
-623 59 0
-11 -23 -59 623 0
-624 12 0
-624 24 0
-624 60 0
-12 -24 -60 624 0
-613 1599 0
-614 1599 0
-615 1599 0
-616 1599 0
-617 1599 0
-618 1599 0
-619 1599 0
-620 1599 0
-621 1599 0
-622 1599 0
-623 1599 0
-624 1599 0
-1599 613 614 615 616 617 618 619 620 621 622 623 624 0
-625 1 0
-625 13 0
-625 61 0
-1 -13 -61 625 0
-626 2 0
-626 14 0
-626 62 0
-2 -14 -62 626 0
-627 3 0
-627 15 0
-627 63 0
-3 -15 -63 627 0
-628 4 0
-628 16 0
-628 64 0
-4 -16 -64 628 0
-629 5 0
-629 17 0
-629 65 0
-5 -17 -65 629 0
-630 6 0
-630 18 0
-630 66 0
-6 -18 -66 630 0
-631 7 0
-631 19 0
-631 67 0
-7 -19 -67 631 0
-632 8 0
-632 20 0
-632 68 0
-8 -20 -68 632 0
-633 9 0
-633 21 0
-633 69 0
-9 -21 -69 633 0
-634 10 0
-634 22 0
-634 70 0
-10 -22 -70 634 0
-635 11 0
-635 23 0
-635 71 0
-11 -23 -71 635 0
-636 12 0
-636 24 0
-636 72 0
-12 -24 -72 636 0
-625 1600 0
-626 1600 0
-627 1600 0
-628 1600 0
-629 1600 0
-630 1600 0
-631 1600 0
-632 1600 0
-633 1600 0
-634 1600 0
-635 1600 0
-636 1600 0
-1600 625 626 627 628 629 630 631 632 633 634 635 636 0
-637 1 0
-637 13 0
-637 73 0
-1 -13 -73 637 0
-638 2 0
-638 14 0
-638 74 0
-2 -14 -74 638 0
-639 3 0
-639 15 0
-639 75 0
-3 -15 -75 639 0
-640 4 0
-640 16 0
-640 76 0
-4 -16 -76 640 0
-641 5 0
-641 17 0
-641 77 0
-5 -17 -77 641 0
-642 6 0
-642 18 0
-642 78 0
-6 -18 -78 642 0
-643 7 0
-643 19 0
-643 79 0
-7 -19 -79 643 0
-644 8 0
-644 20 0
-644 80 0
-8 -20 -80 644 0
-645 9 0
-645 21 0
-645 81 0
-9 -21 -81 645 0
-646 10 0
-646 22 0
-646 82 0
-10 -22 -82 646 0
-647 11 0
-647 23 0
-647 83 0
-11 -23 -83 647 0
-648 12 0
-648 24 0
-648 84 0
-12 -24 -84 648 0
-637 1601 0
-638 1601 0
-639 1601 0
-640 1601 0
-641 1601 0
-642 1601 0
-643 1601 0
-644 1601 0
-645 1601 0
-646 1601 0
-647 1601 0
-648 1601 0
-1601 637 638 639 640 641 642 643 644 645 646 647 648 0
-649 1 0
-649 13 0
-649 85 0
-1 -13 -85 649 0
-650 2 0
-650 14 0
-650 86 0
-2 -14 -86 650 0
-651 3 0
-651 15 0
-651 87 0
-3 -15 -87 651 0
-652 4 0
-652 16 0
-652 88 0
-4 -16 -88 652 0
-653 5 0
-653 17 0
-653 89 0
-5 -17 -89 653 0
-654 6 0
-654 18 0
-654 90 0
-6 -18 -90 654 0
-655 7 0
-655 19 0
-655 91 0
-7 -19 -91 655 0
-656 8 0
-656 20 0
-656 92 0
-8 -20 -92 656 0
-657 9 0
-657 21 0
-657 93 0
-9 -21 -93 657 0
-658 10 0
-658 22 0
-658 94 0
-10 -22 -94 658 0
-659 11 0
-659 23 0
-659 95 0
-11 -23 -95 659 0
-660 12 0
-660 24 0
-660 96 0
-12 -24 -96 660 0
-649 1602 0
-650 1602 0
-651 1602 0
-652 1602 0
-653 1602 0
-654 1602 0
-655 1602 0
-656 1602 0
-657 1602 0
-658 1602 0
-659 1602 0
-660 1602 0
-1602 649 650 651 652 653 654 655 656 657 658 659 660 0
-661 1 0
-661 13 0
-661 97 0
-1 -13 -97 661 0
-662 2 0
-662 14 0
-662 98 0
-2 -14 -98 662 0
-663 3 0
-663 15 0
-663 99 0
-3 -15 -99 663 0
-664 4 0
-664 16 0
-664 100 0
-4 -16 -100 664 0
-665 5 0
-665 17 0
-665 101 0
-5 -17 -101 665 0
-666 6 0
-666 18 0
-666 102 0
-6 -18 -102 666 0
-667 7 0
-667 19 0
-667 103 0
-7 -19 -103 667 0
-668 8 0
-668 20 0
-668 104 0
-8 -20 -104 668 0
-669 9 0
-669 21 0
-669 105 0
-9 -21 -105 669 0
-670 10 0
-670 22 0
-670 106 0
-10 -22 -106 670 0
-671 11 0
-671 23 0
-671 107 0
-11 -23 -107 671 0
-672 12 0
-672 24 0
-672 108 0
-12 -24 -108 672 0
-661 1603 0
-662 1603 0
-663 1603 0
-664 1603 0
-665 1603 0
-666 1603 0
-667 1603 0
-668 1603 0
-669 1603 0
-670 1603 0
-671 1603 0
-672 1603 0
-1603 661 662 663 664 665 666 667 668 669 670 671 672 0
-673 1 0
-673 25 0
-673 37 0
-1 -25 -37 673 0
-674 2 0
-674 26 0
-674 38 0
-2 -26 -38 674 0
-675 3 0
-675 27 0
-675 39 0
-3 -27 -39 675 0
-676 4 0
-676 28 0
-676 40 0
-4 -28 -40 676 0
-677 5 0
-677 29 0
-677 41 0
-5 -29 -41 677 0
-678 6 0
-678 30 0
-678 42 0
-6 -30 -42 678 0
-679 7 0
-679 31 0
-679 43 0
-7 -31 -43 679 0
-680 8 0
-680 32 0
-680 44 0
-8 -32 -44 680 0
-681 9 0
-681 33 0
-681 45 0
-9 -33 -45 681 0
-682 10 0
-682 34 0
-682 46 0
-10 -34 -46 682 0
-683 11 0
-683 35 0
-683 47 0
-11 -35 -47 683 0
-684 12 0
-684 36 0
-684 48 0
-12 -36 -48 684 0
-673 1604 0
-674 1604 0
-675 1604 0
-676 1604 0
-677 1604 0
-678 1604 0
-679 1604 0
-680 1604 0
-681 1604 0
-682 1604 0
-683 1604 0
-684 1604 0
-1604 673 674 675 676 677 678 679 680 681 682 683 684 0
-685 1 0
-685 25 0
-685 49 0
-1 -25 -49 685 0
-686 2 0
-686 26 0
-686 50 0
-2 -26 -50 686 0
-687 3 0
-687 27 0
-687 51 0
-3 -27 -51 687 0
-688 4 0
-688 28 0
-688 52 0
-4 -28 -52 688 0
-689 5 0
-689 29 0
-689 53 0
-5 -29 -53 689 0
-690 6 0
-690 30 0
-690 54 0
-6 -30 -54 690 0
-691 7 0
-691 31 0
-691 55 0
-7 -31 -55 691 0
-692 8 0
-692 32 0
-692 56 0
-8 -32 -56 692 0
-693 9 0
-693 33 0
-693 57 0
-9 -33 -57 693 0
-694 10 0
-694 34 0
-694 58 0
-10 -34 -58 694 0
-695 11 0
-695 35 0
-695 59 0
-11 -35 -59 695 0
-696 12 0
-696 36 0
-696 60 0
-12 -36 -60 696 0
-685 1605 0
-686 1605 0
-687 1605 0
-688 1605 0
-689 1605 0
-690 1605 0
-691 1605 0
-692 1605 0
-693 1605 0
-694 1605 0
-695 1605 0
-696 1605 0
-1605 685 686 687 688 689 690 691 692 693 694 695 696 0
-697 1 0
-697 25 0
-697 61 0
-1 -25 -61 697 0
-698 2 0
-698 26 0
-698 62 0
-2 -26 -62 698 0
-699 3 0
-699 27 0
-699 63 0
-3 -27 -63 699 0
-700 4 0
-700 28 0
-700 64 0
-4 -28 -64 700 0
-701 5 0
-701 29 0
-701 65 0
-5 -29 -65 701 0
-702 6 0
-702 30 0
-702 66 0
-6 -30 -66 702 0
-703 7 0
-703 31 0
-703 67 0
-7 -31 -67 703 0
-704 8 0
-704 32 0
-704 68 0
-8 -32 -68 704 0
-705 9 0
-705 33 0
-705 69 0
-9 -33 -69 705 0
-706 10 0
-706 34 0
-706 70 0
-10 -34 -70 706 0
-707 11 0
-707 35 0
-707 71 0
-11 -35 -71 707 0
-708 12 0
-708 36 0
-708 72 0
-12 -36 -72 708 0
-697 1606 0
-698 1606 0
-699 1606 0
-700 1606 0
-701 1606 0
-702 1606 0
-703 1606 0
-704 1606 0
-705 1606 0
-706 1606 0
-707 1606 0
-708 1606 0
-1606 697 698 699 700 701 702 703 704 705 706 707 708 0
-709 1 0
-709 25 0
-709 73 0
-1 -25 -73 709 0
-710 2 0
-710 26 0
-710 74 0
-2 -26 -74 710 0
-711 3 0
-711 27 0
-711 75 0
-3 -27 -75 711 0
-712 4 0
-712 28 0
-712 76 0
-4 -28 -76 712 0
-713 5 0
-713 29 0
-713 77 0
-5 -29 -77 713 0
-714 6 0
-714 30 0
-714 78 0
-6 -30 -78 714 0
-715 7 0
-715 31 0
-715 79 0
-7 -31 -79 715 0
-716 8 0
-716 32 0
-716 80 0
-8 -32 -80 716 0
-717 9 0
-717 33 0
-717 81 0
-9 -33 -81 717 0
-718 10 0
-718 34 0
-718 82 0
-10 -34 -82 718 0
-719 11 0
-719 35 0
-719 83 0
-11 -35 -83 719 0
-720 12 0
-720 36 0
-720 84 0
-12 -36 -84 720 0
-709 1607 0
-710 1607 0
-711 1607 0
-712 1607 0
-713 1607 0
-714 1607 0
-715 1607 0
-716 1607 0
-717 1607 0
-718 1607 0
-719 1607 0
-720 1607 0
-1607 709 710 711 712 713 714 715 716 717 718 719 720 0
-721 1 0
-721 25 0
-721 85 0
-1 -25 -85 721 0
-722 2 0
-722 26 0
-722 86 0
-2 -26 -86 722 0
-723 3 0
-723 27 0
-723 87 0
-3 -27 -87 723 0
-724 4 0
-724 28 0
-724 88 0
-4 -28 -88 724 0
-725 5 0
-725 29 0
-725 89 0
-5 -29 -89 725 0
-726 6 0
-726 30 0
-726 90 0
-6 -30 -90 726 0
-727 7 0
-727 31 0
-727 91 0
-7 -31 -91 727 0
-728 8 0
-728 32 0
-728 92 0
-8 -32 -92 728 0
-729 9 0
-729 33 0
-729 93 0
-9 -33 -93 729 0
-730 10 0
-730 34 0
-730 94 0
-10 -34 -94 730 0
-731 11 0
-731 35 0
-731 95 0
-11 -35 -95 731 0
-732 12 0
-732 36 0
-732 96 0
-12 -36 -96 732 0
-721 1608 0
-722 1608 0
-723 1608 0
-724 1608 0
-725 1608 0
-726 1608 0
-727 1608 0
-728 1608 0
-729 1608 0
-730 1608 0
-731 1608 0
-732 1608 0
-1608 721 722 723 724 725 726 727 728 729 730 731 732 0
-733 1 0
-733 25 0
-733 97 0
-1 -25 -97 733 0
-734 2 0
-734 26 0
-734 98 0
-2 -26 -98 734 0
-735 3 0
-735 27 0
-735 99 0
-3 -27 -99 735 0
-736 4 0
-736 28 0
-736 100 0
-4 -28 -100 736 0
-737 5 0
-737 29 0
-737 101 0
-5 -29 -101 737 0
-738 6 0
-738 30 0
-738 102 0
-6 -30 -102 738 0
-739 7 0
-739 31 0
-739 103 0
-7 -31 -103 739 0
-740 8 0
-740 32 0
-740 104 0
-8 -32 -104 740 0
-741 9 0
-741 33 0
-741 105 0
-9 -33 -105 741 0
-742 10 0
-742 34 0
-742 106 0
-10 -34 -106 742 0
-743 11 0
-743 35 0
-743 107 0
-11 -35 -107 743 0
-744 12 0
-744 36 0
-744 108 0
-12 -36 -108 744 0
-733 1609 0
-734 1609 0
-735 1609 0
-736 1609 0
-737 1609 0
-738 1609 0
-739 1609 0
-740 1609 0
-741 1609 0
-742 1609 0
-743 1609 0
-744 1609 0
-1609 733 734 735 736 737 738 739 740 741 742 743 744 0
-745 1 0
-745 37 0
-745 49 0
-1 -37 -49 745 0
-746 2 0
-746 38 0
-746 50 0
-2 -38 -50 746 0
-747 3 0
-747 39 0
-747 51 0
-3 -39 -51 747 0
-748 4 0
-748 40 0
-748 52 0
-4 -40 -52 748 0
-749 5 0
-749 41 0
-749 53 0
-5 -41 -53 749 0
-750 6 0
-750 42 0
-750 54 0
-6 -42 -54 750 0
-751 7 0
-751 43 0
-751 55 0
-7 -43 -55 751 0
-752 8 0
-752 44 0
-752 56 0
-8 -44 -56 752 0
-753 9 0
-753 45 0
-753 57 0
-9 -45 -57 753 0
-754 10 0
-754 46 0
-754 58 0
-10 -46 -58 754 0
-755 11 0
-755 47 0
-755 59 0
-11 -47 -59 755 0
-756 12 0
-756 48 0
-756 60 0
-12 -48 -60 756 0
-745 1610 0
-746 1610 0
-747 1610 0
-748 1610 0
-749 1610 0
-750 1610 0
-751 1610 0
-752 1610 0
-753 1610 0
-754 1610 0
-755 1610 0
-756 1610 0
-1610 745 746 747 748 749 750 751 752 753 754 755 756 0
-757 1 0
-757 37 0
-757 61 0
-1 -37 -61 757 0
-758 2 0
-758 38 0
-758 62 0
-2 -38 -62 758 0
-759 3 0
-759 39 0
-759 63 0
-3 -39 -63 759 0
-760 4 0
-760 40 0
-760 64 0
-4 -40 -64 760 0
-761 5 0
-761 41 0
-761 65 0
-5 -41 -65 761 0
-762 6 0
-762 42 0
-762 66 0
-6 -42 -66 762 0
-763 7 0
-763 43 0
-763 67 0
-7 -43 -67 763 0
-764 8 0
-764 44 0
-764 68 0
-8 -44 -68 764 0
-765 9 0
-765 45 0
-765 69 0
-9 -45 -69 765 0
-766 10 0
-766 46 0
-766 70 0
-10 -46 -70 766 0
-767 11 0
-767 47 0
-767 71 0
-11 -47 -71 767 0
-768 12 0
-768 48 0
-768 72 0
-12 -48 -72 768 0
-757 1611 0
-758 1611 0
-759 1611 0
-760 1611 0
-761 1611 0
-762 1611 0
-763 1611 0
-764 1611 0
-765 1611 0
-766 1611 0
-767 1611 0
-768 1611 0
-1611 757 758 759 760 761 762 763 764 765 766 767 768 0
-769 1 0
-769 37 0
-769 73 0
-1 -37 -73 769 0
-770 2 0
-770 38 0
-770 74 0
-2 -38 -74 770 0
-771 3 0
-771 39 0
-771 75 0
-3 -39 -75 771 0
-772 4 0
-772 40 0
-772 76 0
-4 -40 -76 772 0
-773 5 0
-773 41 0
-773 77 0
-5 -41 -77 773 0
-774 6 0
-774 42 0
-774 78 0
-6 -42 -78 774 0
-775 7 0
-775 43 0
-775 79 0
-7 -43 -79 775 0
-776 8 0
-776 44 0
-776 80 0
-8 -44 -80 776 0
-777 9 0
-777 45 0
-777 81 0
-9 -45 -81 777 0
-778 10 0
-778 46 0
-778 82 0
-10 -46 -82 778 0
-779 11 0
-779 47 0
-779 83 0
-11 -47 -83 779 0
-780 12 0
-780 48 0
-780 84 0
-12 -48 -84 780 0
-769 1612 0
-770 1612 0
-771 1612 0
-772 1612 0
-773 1612 0
-774 1612 0
-775 1612 0
-776 1612 0
-777 1612 0
-778 1612 0
-779 1612 0
-780 1612 0
-1612 769 770 771 772 773 774 775 776 777 778 779 780 0
-781 1 0
-781 37 0
-781 85 0
-1 -37 -85 781 0
-782 2 0
-782 38 0
-782 86 0
-2 -38 -86 782 0
-783 3 0
-783 39 0
-783 87 0
-3 -39 -87 783 0
-784 4 0
-784 40 0
-784 88 0
-4 -40 -88 784 0
-785 5 0
-785 41 0
-785 89 0
-5 -41 -89 785 0
-786 6 0
-786 42 0
-786 90 0
-6 -42 -90 786 0
-787 7 0
-787 43 0
-787 91 0
-7 -43 -91 787 0
-788 8 0
-788 44 0
-788 92 0
-8 -44 -92 788 0
-789 9 0
-789 45 0
-789 93 0
-9 -45 -93 789 0
-790 10 0
-790 46 0
-790 94 0
-10 -46 -94 790 0
-791 11 0
-791 47 0
-791 95 0
-11 -47 -95 791 0
-792 12 0
-792 48 0
-792 96 0
-12 -48 -96 792 0
-781 1613 0
-782 1613 0
-783 1613 0
-784 1613 0
-785 1613 0
-786 1613 0
-787 1613 0
-788 1613 0
-789 1613 0
-790 1613 0
-791 1613 0
-792 1613 0
-1613 781 782 783 784 785 786 787 788 789 790 791 792 0
-793 1 0
-793 37 0
-793 97 0
-1 -37 -97 793 0
-794 2 0
-794 38 0
-794 98 0
-2 -38 -98 794 0
-795 3 0
-795 39 0
-795 99 0
-3 -39 -99 795 0
-796 4 0
-796 40 0
-796 100 0
-4 -40 -100 796 0
-797 5 0
-797 41 0
-797 101 0
-5 -41 -101 797 0
-798 6 0
-798 42 0
-798 102 0
-6 -42 -102 798 0
-799 7 0
-799 43 0
-799 103 0
-7 -43 -103 799 0
-800 8 0
-800 44 0
-800 104 0
-8 -44 -104 800 0
-801 9 0
-801 45 0
-801 105 0
-9 -45 -105 801 0
-802 10 0
-802 46 0
-802 106 0
-10 -46 -106 802 0
-803 11 0
-803 47 0
-803 107 0
-11 -47 -107 803 0
-804 12 0
-804 48 0
-804 108 0
-12 -48 -108 804 0
-793 1614 0
-794 1614 0
-795 1614 0
-796 1614 0
-797 1614 0
-798 1614 0
-799 1614 0
-800 1614 0
-801 1614 0
-802 1614 0
-803 1614 0
-804 1614 0
-1614 793 794 795 796 797 798 799 800 801 802 803 804 0
-805 1 0
-805 49 0
-805 61 0
-1 -49 -61 805 0
-806 2 0
-806 50 0
-806 62 0
-2 -50 -62 806 0
-807 3 0
-807 51 0
-807 63 0
-3 -51 -63 807 0
-808 4 0
-808 52 0
-808 64 0
-4 -52 -64 808 0
-809 5 0
-809 53 0
-809 65 0
-5 -53 -65 809 0
-810 6 0
-810 54 0
-810 66 0
-6 -54 -66 810 0
-811 7 0
-811 55 0
-811 67 0
-7 -55 -67 811 0
-812 8 0
-812 56 0
-812 68 0
-8 -56 -68 812 0
-813 9 0
-813 57 0
-813 69 0
-9 -57 -69 813 0
-814 10 0
-814 58 0
-814 70 0
-10 -58 -70 814 0
-815 11 0
-815 59 0
-815 71 0
-11 -59 -71 815 0
-816 12 0
-816 60 0
-816 72 0
-12 -60 -72 816 0
-805 1615 0
-806 1615 0
-807 1615 0
-808 1615 0
-809 1615 0
-810 1615 0
-811 1615 0
-812 1615 0
-813 1615 0
-814 1615 0
-815 1615 0
-816 1615 0
-1615 805 806 807 808 809 810 811 812 813 814 815 816 0
-817 1 0
-817 49 0
-817 73 0
-1 -49 -73 817 0
-818 2 0
-818 50 0
-818 74 0
-2 -50 -74 818 0
-819 3 0
-819 51 0
-819 75 0
-3 -51 -75 819 0
-820 4 0
-820 52 0
-820 76 0
-4 -52 -76 820 0
-821 5 0
-821 53 0
-821 77 0
-5 -53 -77 821 0
-822 6 0
-822 54 0
-822 78 0
-6 -54 -78 822 0
-823 7 0
-823 55 0
-823 79 0
-7 -55 -79 823 0
-824 8 0
-824 56 0
-824 80 0
-8 -56 -80 824 0
-825 9 0
-825 57 0
-825 81 0
-9 -57 -81 825 0
-826 10 0
-826 58 0
-826 82 0
-10 -58 -82 826 0
-827 11 0
-827 59 0
-827 83 0
-11 -59 -83 827 0
-828 12 0
-828 60 0
-828 84 0
-12 -60 -84 828 0
-817 1616 0
-818 1616 0
-819 1616 0
-820 1616 0
-821 1616 0
-822 1616 0
-823 1616 0
-824 1616 0
-825 1616 0
-826 1616 0
-827 1616 0
-828 1616 0
-1616 817 818 819 820 821 822 823 824 825 826 827 828 0
-829 1 0
-829 49 0
-829 85 0
-1 -49 -85 829 0
-830 2 0
-830 50 0
-830 86 0
-2 -50 -86 830 0
-831 3 0
-831 51 0
-831 87 0
-3 -51 -87 831 0
-832 4 0
-832 52 0
-832 88 0
-4 -52 -88 832 0
-833 5 0
-833 53 0
-833 89 0
-5 -53 -89 833 0
-834 6 0
-834 54 0
-834 90 0
-6 -54 -90 834 0
-835 7 0
-835 55 0
-835 91 0
-7 -55 -91 835 0
-836 8 0
-836 56 0
-836 92 0
-8 -56 -92 836 0
-837 9 0
-837 57 0
-837 93 0
-9 -57 -93 837 0
-838 10 0
-838 58 0
-838 94 0
-10 -58 -94 838 0
-839 11 0
-839 59 0
-839 95 0
-11 -59 -95 839 0
-840 12 0
-840 60 0
-840 96 0
-12 -60 -96 840 0
-829 1617 0
-830 1617 0
-831 1617 0
-832 1617 0
-833 1617 0
-834 1617 0
-835 1617 0
-836 1617 0
-837 1617 0
-838 1617 0
-839 1617 0
-840 1617 0
-1617 829 830 831 832 833 834 835 836 837 838 839 840 0
-841 1 0
-841 49 0
-841 97 0
-1 -49 -97 841 0
-842 2 0
-842 50 0
-842 98 0
-2 -50 -98 842 0
-843 3 0
-843 51 0
-843 99 0
-3 -51 -99 843 0
-844 4 0
-844 52 0
-844 100 0
-4 -52 -100 844 0
-845 5 0
-845 53 0
-845 101 0
-5 -53 -101 845 0
-846 6 0
-846 54 0
-846 102 0
-6 -54 -102 846 0
-847 7 0
-847 55 0
-847 103 0
-7 -55 -103 847 0
-848 8 0
-848 56 0
-848 104 0
-8 -56 -104 848 0
-849 9 0
-849 57 0
-849 105 0
-9 -57 -105 849 0
-850 10 0
-850 58 0
-850 106 0
-10 -58 -106 850 0
-851 11 0
-851 59 0
-851 107 0
-11 -59 -107 851 0
-852 12 0
-852 60 0
-852 108 0
-12 -60 -108 852 0
-841 1618 0
-842 1618 0
-843 1618 0
-844 1618 0
-845 1618 0
-846 1618 0
-847 1618 0
-848 1618 0
-849 1618 0
-850 1618 0
-851 1618 0
-852 1618 0
-1618 841 842 843 844 845 846 847 848 849 850 851 852 0
-853 1 0
-853 61 0
-853 73 0
-1 -61 -73 853 0
-854 2 0
-854 62 0
-854 74 0
-2 -62 -74 854 0
-855 3 0
-855 63 0
-855 75 0
-3 -63 -75 855 0
-856 4 0
-856 64 0
-856 76 0
-4 -64 -76 856 0
-857 5 0
-857 65 0
-857 77 0
-5 -65 -77 857 0
-858 6 0
-858 66 0
-858 78 0
-6 -66 -78 858 0
-859 7 0
-859 67 0
-859 79 0
-7 -67 -79 859 0
-860 8 0
-860 68 0
-860 80 0
-8 -68 -80 860 0
-861 9 0
-861 69 0
-861 81 0
-9 -69 -81 861 0
-862 10 0
-862 70 0
-862 82 0
-10 -70 -82 862 0
-863 11 0
-863 71 0
-863 83 0
-11 -71 -83 863 0
-864 12 0
-864 72 0
-864 84 0
-12 -72 -84 864 0
-853 1619 0
-854 1619 0
-855 1619 0
-856 1619 0
-857 1619 0
-858 1619 0
-859 1619 0
-860 1619 0
-861 1619 0
-862 1619 0
-863 1619 0
-864 1619 0
-1619 853 854 855 856 857 858 859 860 861 862 863 864 0
-865 1 0
-865 61 0
-865 85 0
-1 -61 -85 865 0
-866 2 0
-866 62 0
-866 86 0
-2 -62 -86 866 0
-867 3 0
-867 63 0
-867 87 0
-3 -63 -87 867 0
-868 4 0
-868 64 0
-868 88 0
-4 -64 -88 868 0
-869 5 0
-869 65 0
-869 89 0
-5 -65 -89 869 0
-870 6 0
-870 66 0
-870 90 0
-6 -66 -90 870 0
-871 7 0
-871 67 0
-871 91 0
-7 -67 -91 871 0
-872 8 0
-872 68 0
-872 92 0
-8 -68 -92 872 0
-873 9 0
-873 69 0
-873 93 0
-9 -69 -93 873 0
-874 10 0
-874 70 0
-874 94 0
-10 -70 -94 874 0
-875 11 0
-875 71 0
-875 95 0
-11 -71 -95 875 0
-876 12 0
-876 72 0
-876 96 0
-12 -72 -96 876 0
-865 1620 0
-866 1620 0
-867 1620 0
-868 1620 0
-869 1620 0
-870 1620 0
-871 1620 0
-872 1620 0
-873 1620 0
-874 1620 0
-875 1620 0
-876 1620 0
-1620 865 866 867 868 869 870 871 872 873 874 875 876 0
-877 1 0
-877 61 0
-877 97 0
-1 -61 -97 877 0
-878 2 0
-878 62 0
-878 98 0
-2 -62 -98 878 0
-879 3 0
-879 63 0
-879 99 0
-3 -63 -99 879 0
-880 4 0
-880 64 0
-880 100 0
-4 -64 -100 880 0
-881 5 0
-881 65 0
-881 101 0
-5 -65 -101 881 0
-882 6 0
-882 66 0
-882 102 0
-6 -66 -102 882 0
-883 7 0
-883 67 0
-883 103 0
-7 -67 -103 883 0
-884 8 0
-884 68 0
-884 104 0
-8 -68 -104 884 0
-885 9 0
-885 69 0
-885 105 0
-9 -69 -105 885 0
-886 10 0
-886 70 0
-886 106 0
-10 -70 -106 886 0
-887 11 0
-887 71 0
-887 107 0
-11 -71 -107 887 0
-888 12 0
-888 72 0
-888 108 0
-12 -72 -108 888 0
-877 1621 0
-878 1621 0
-879 1621 0
-880 1621 0
-881 1621 0
-882 1621 0
-883 1621 0
-884 1621 0
-885 1621 0
-886 1621 0
-887 1621 0
-888 1621 0
-1621 877 878 879 880 881 882 883 884 885 886 887 888 0
-889 1 0
-889 73 0
-889 85 0
-1 -73 -85 889 0
-890 2 0
-890 74 0
-890 86 0
-2 -74 -86 890 0
-891 3 0
-891 75 0
-891 87 0
-3 -75 -87 891 0
-892 4 0
-892 76 0
-892 88 0
-4 -76 -88 892 0
-893 5 0
-893 77 0
-893 89 0
-5 -77 -89 893 0
-894 6 0
-894 78 0
-894 90 0
-6 -78 -90 894 0
-895 7 0
-895 79 0
-895 91 0
-7 -79 -91 895 0
-896 8 0
-896 80 0
-896 92 0
-8 -80 -92 896 0
-897 9 0
-897 81 0
-897 93 0
-9 -81 -93 897 0
-898 10 0
-898 82 0
-898 94 0
-10 -82 -94 898 0
-899 11 0
-899 83 0
-899 95 0
-11 -83 -95 899 0
-900 12 0
-900 84 0
-900 96 0
-12 -84 -96 900 0
-889 1622 0
-890 1622 0
-891 1622 0
-892 1622 0
-893 1622 0
-894 1622 0
-895 1622 0
-896 1622 0
-897 1622 0
-898 1622 0
-899 1622 0
-900 1622 0
-1622 889 890 891 892 893 894 895 896 897 898 899 900 0
-901 1 0
-901 73 0
-901 97 0
-1 -73 -97 901 0
-902 2 0
-902 74 0
-902 98 0
-2 -74 -98 902 0
-903 3 0
-903 75 0
-903 99 0
-3 -75 -99 903 0
-904 4 0
-904 76 0
-904 100 0
-4 -76 -100 904 0
-905 5 0
-905 77 0
-905 101 0
-5 -77 -101 905 0
-906 6 0
-906 78 0
-906 102 0
-6 -78 -102 906 0
-907 7 0
-907 79 0
-907 103 0
-7 -79 -103 907 0
-908 8 0
-908 80 0
-908 104 0
-8 -80 -104 908 0
-909 9 0
-909 81 0
-909 105 0
-9 -81 -105 909 0
-910 10 0
-910 82 0
-910 106 0
-10 -82 -106 910 0
-911 11 0
-911 83 0
-911 107 0
-11 -83 -107 911 0
-912 12 0
-912 84 0
-912 108 0
-12 -84 -108 912 0
-901 1623 0
-902 1623 0
-903 1623 0
-904 1623 0
-905 1623 0
-906 1623 0
-907 1623 0
-908 1623 0
-909 1623 0
-910 1623 0
-911 1623 0
-912 1623 0
-1623 901 902 903 904 905 906 907 908 909 910 911 912 0
-913 1 0
-913 85 0
-913 97 0
-1 -85 -97 913 0
-914 2 0
-914 86 0
-914 98 0
-2 -86 -98 914 0
-915 3 0
-915 87 0
-915 99 0
-3 -87 -99 915 0
-916 4 0
-916 88 0
-916 100 0
-4 -88 -100 916 0
-917 5 0
-917 89 0
-917 101 0
-5 -89 -101 917 0
-918 6 0
-918 90 0
-918 102 0
-6 -90 -102 918 0
-919 7 0
-919 91 0
-919 103 0
-7 -91 -103 919 0
-920 8 0
-920 92 0
-920 104 0
-8 -92 -104 920 0
-921 9 0
-921 93 0
-921 105 0
-9 -93 -105 921 0
-922 10 0
-922 94 0
-922 106 0
-10 -94 -106 922 0
-923 11 0
-923 95 0
-923 107 0
-11 -95 -107 923 0
-924 12 0
-924 96 0
-924 108 0
-12 -96 -108 924 0
-913 1624 0
-914 1624 0
-915 1624 0
-916 1624 0
-917 1624 0
-918 1624 0
-919 1624 0
-920 1624 0
-921 1624 0
-922 1624 0
-923 1624 0
-924 1624 0
-1624 913 914 915 916 917 918 919 920 921 922 923 924 0
-925 13 0
-925 25 0
-925 37 0
-13 -25 -37 925 0
-926 14 0
-926 26 0
-926 38 0
-14 -26 -38 926 0
-927 15 0
-927 27 0
-927 39 0
-15 -27 -39 927 0
-928 16 0
-928 28 0
-928 40 0
-16 -28 -40 928 0
-929 17 0
-929 29 0
-929 41 0
-17 -29 -41 929 0
-930 18 0
-930 30 0
-930 42 0
-18 -30 -42 930 0
-931 19 0
-931 31 0
-931 43 0
-19 -31 -43 931 0
-932 20 0
-932 32 0
-932 44 0
-20 -32 -44 932 0
-933 21 0
-933 33 0
-933 45 0
-21 -33 -45 933 0
-934 22 0
-934 34 0
-934 46 0
-22 -34 -46 934 0
-935 23 0
-935 35 0
-935 47 0
-23 -35 -47 935 0
-936 24 0
-936 36 0
-936 48 0
-24 -36 -48 936 0
-925 1625 0
-926 1625 0
-927 1625 0
-928 1625 0
-929 1625 0
-930 1625 0
-931 1625 0
-932 1625 0
-933 1625 0
-934 1625 0
-935 1625 0
-936 1625 0
-1625 925 926 927 928 929 930 931 932 933 934 935 936 0
-937 13 0
-937 25 0
-937 49 0
-13 -25 -49 937 0
-938 14 0
-938 26 0
-938 50 0
-14 -26 -50 938 0
-939 15 0
-939 27 0
-939 51 0
-15 -27 -51 939 0
-940 16 0
-940 28 0
-940 52 0
-16 -28 -52 940 0
-941 17 0
-941 29 0
-941 53 0
-17 -29 -53 941 0
-942 18 0
-942 30 0
-942 54 0
-18 -30 -54 942 0
-943 19 0
-943 31 0
-943 55 0
-19 -31 -55 943 0
-944 20 0
-944 32 0
-944 56 0
-20 -32 -56 944 0
-945 21 0
-945 33 0
-945 57 0
-21 -33 -57 945 0
-946 22 0
-946 34 0
-946 58 0
-22 -34 -58 946 0
-947 23 0
-947 35 0
-947 59 0
-23 -35 -59 947 0
-948 24 0
-948 36 0
-948 60 0
-24 -36 -60 948 0
-937 1626 0
-938 1626 0
-939 1626 0
-940 1626 0
-941 1626 0
-942 1626 0
-943 1626 0
-944 1626 0
-945 1626 0
-946 1626 0
-947 1626 0
-948 1626 0
-1626 937 938 939 940 941 942 943 944 945 946 947 948 0
-949 13 0
-949 25 0
-949 61 0
-13 -25 -61 949 0
-950 14 0
-950 26 0
-950 62 0
-14 -26 -62 950 0
-951 15 0
-951 27 0
-951 63 0
-15 -27 -63 951 0
-952 16 0
-952 28 0
-952 64 0
-16 -28 -64 952 0
-953 17 0
-953 29 0
-953 65 0
-17 -29 -65 953 0
-954 18 0
-954 30 0
-954 66 0
-18 -30 -66 954 0
-955 19 0
-955 31 0
-955 67 0
-19 -31 -67 955 0
-956 20 0
-956 32 0
-956 68 0
-20 -32 -68 956 0
-957 21 0
-957 33 0
-957 69 0
-21 -33 -69 957 0
-958 22 0
-958 34 0
-958 70 0
-22 -34 -70 958 0
-959 23 0
-959 35 0
-959 71 0
-23 -35 -71 959 0
-960 24 0
-960 36 0
-960 72 0
-24 -36 -72 960 0
-949 1627 0
-950 1627 0
-951 1627 0
-952 1627 0
-953 1627 0
-954 1627 0
-955 1627 0
-956 1627 0
-957 1627 0
-958 1627 0
-959 1627 0
-960 1627 0
-1627 949 950 951 952 953 954 955 956 957 958 959 960 0
-961 13 0
-961 25 0
-961 73 0
-13 -25 -73 961 0
-962 14 0
-962 26 0
-962 74 0
-14 -26 -74 962 0
-963 15 0
-963 27 0
-963 75 0
-15 -27 -75 963 0
-964 16 0
-964 28 0
-964 76 0
-16 -28 -76 964 0
-965 17 0
-965 29 0
-965 77 0
-17 -29 -77 965 0
-966 18 0
-966 30 0
-966 78 0
-18 -30 -78 966 0
-967 19 0
-967 31 0
-967 79 0
-19 -31 -79 967 0
-968 20 0
-968 32 0
-968 80 0
-20 -32 -80 968 0
-969 21 0
-969 33 0
-969 81 0
-21 -33 -81 969 0
-970 22 0
-970 34 0
-970 82 0
-22 -34 -82 970 0
-971 23 0
-971 35 0
-971 83 0
-23 -35 -83 971 0
-972 24 0
-972 36 0
-972 84 0
-24 -36 -84 972 0
-961 1628 0
-962 1628 0
-963 1628 0
-964 1628 0
-965 1628 0
-966 1628 0
-967 1628 0
-968 1628 0
-969 1628 0
-970 1628 0
-971 1628 0
-972 1628 0
-1628 961 962 963 964 965 966 967 968 969 970 971 972 0
-973 13 0
-973 25 0
-973 85 0
-13 -25 -85 973 0
-974 14 0
-974 26 0
-974 86 0
-14 -26 -86 974 0
-975 15 0
-975 27 0
-975 87 0
-15 -27 -87 975 0
-976 16 0
-976 28 0
-976 88 0
-16 -28 -88 976 0
-977 17 0
-977 29 0
-977 89 0
-17 -29 -89 977 0
-978 18 0
-978 30 0
-978 90 0
-18 -30 -90 978 0
-979 19 0
-979 31 0
-979 91 0
-19 -31 -91 979 0
-980 20 0
-980 32 0
-980 92 0
-20 -32 -92 980 0
-981 21 0
-981 33 0
-981 93 0
-21 -33 -93 981 0
-982 22 0
-982 34 0
-982 94 0
-22 -34 -94 982 0
-983 23 0
-983 35 0
-983 95 0
-23 -35 -95 983 0
-984 24 0
-984 36 0
-984 96 0
-24 -36 -96 984 0
-973 1629 0
-974 1629 0
-975 1629 0
-976 1629 0
-977 1629 0
-978 1629 0
-979 1629 0
-980 1629 0
-981 1629 0
-982 1629 0
-983 1629 0
-984 1629 0
-1629 973 974 975 976 977 978 979 980 981 982 983 984 0
-985 13 0
-985 25 0
-985 97 0
-13 -25 -97 985 0
-986 14 0
-986 26 0
-986 98 0
-14 -26 -98 986 0
-987 15 0
-987 27 0
-987 99 0
-15 -27 -99 987 0
-988 16 0
-988 28 0
-988 100 0
-16 -28 -100 988 0
-989 17 0
-989 29 0
-989 101 0
-17 -29 -101 989 0
-990 18 0
-990 30 0
-990 102 0
-18 -30 -102 990 0
-991 19 0
-991 31 0
-991 103 0
-19 -31 -103 991 0
-992 20 0
-992 32 0
-992 104 0
-20 -32 -104 992 0
-993 21 0
-993 33 0
-993 105 0
-21 -33 -105 993 0
-994 22 0
-994 34 0
-994 106 0
-22 -34 -106 994 0
-995 23 0
-995 35 0
-995 107 0
-23 -35 -107 995 0
-996 24 0
-996 36 0
-996 108 0
-24 -36 -108 996 0
-985 1630 0
-986 1630 0
-987 1630 0
-988 1630 0
-989 1630 0
-990 1630 0
-991 1630 0
-992 1630 0
-993 1630 0
-994 1630 0
-995 1630 0
-996 1630 0
-1630 985 986 987 988 989 990 991 992 993 994 995 996 0
-997 13 0
-997 37 0
-997 49 0
-13 -37 -49 997 0
-998 14 0
-998 38 0
-998 50 0
-14 -38 -50 998 0
-999 15 0
-999 39 0
-999 51 0
-15 -39 -51 999 0
-1000 16 0
-1000 40 0
-1000 52 0
-16 -40 -52 1000 0
-1001 17 0
-1001 41 0
-1001 53 0
-17 -41 -53 1001 0
-1002 18 0
-1002 42 0
-1002 54 0
-18 -42 -54 1002 0
-1003 19 0
-1003 43 0
-1003 55 0
-19 -43 -55 1003 0
-1004 20 0
-1004 44 0
-1004 56 0
-20 -44 -56 1004 0
-1005 21 0
-1005 45 0
-1005 57 0
-21 -45 -57 1005 0
-1006 22 0
-1006 46 0
-1006 58 0
-22 -46 -58 1006 0
-1007 23 0
-1007 47 0
-1007 59 0
-23 -47 -59 1007 0
-1008 24 0
-1008 48 0
-1008 60 0
-24 -48 -60 1008 0
-997 1631 0
-998 1631 0
-999 1631 0
-1000 1631 0
-1001 1631 0
-1002 1631 0
-1003 1631 0
-1004 1631 0
-1005 1631 0
-1006 1631 0
-1007 1631 0
-1008 1631 0
-1631 997 998 999 1000 1001 1002 1003 1004 1005 1006 1007 1008 0
-1009 13 0
-1009 37 0
-1009 61 0
-13 -37 -61 1009 0
-1010 14 0
-1010 38 0
-1010 62 0
-14 -38 -62 1010 0
-1011 15 0
-1011 39 0
-1011 63 0
-15 -39 -63 1011 0
-1012 16 0
-1012 40 0
-1012 64 0
-16 -40 -64 1012 0
-1013 17 0
-1013 41 0
-1013 65 0
-17 -41 -65 1013 0
-1014 18 0
-1014 42 0
-1014 66 0
-18 -42 -66 1014 0
-1015 19 0
-1015 43 0
-1015 67 0
-19 -43 -67 1015 0
-1016 20 0
-1016 44 0
-1016 68 0
-20 -44 -68 1016 0
-1017 21 0
-1017 45 0
-1017 69 0
-21 -45 -69 1017 0
-1018 22 0
-1018 46 0
-1018 70 0
-22 -46 -70 1018 0
-1019 23 0
-1019 47 0
-1019 71 0
-23 -47 -71 1019 0
-1020 24 0
-1020 48 0
-1020 72 0
-24 -48 -72 1020 0
-1009 1632 0
-1010 1632 0
-1011 1632 0
-1012 1632 0
-1013 1632 0
-1014 1632 0
-1015 1632 0
-1016 1632 0
-1017 1632 0
-1018 1632 0
-1019 1632 0
-1020 1632 0
-1632 1009 1010 1011 1012 1013 1014 1015 1016 1017 1018 1019 1020 0
-1021 13 0
-1021 37 0
-1021 73 0
-13 -37 -73 1021 0
-1022 14 0
-1022 38 0
-1022 74 0
-14 -38 -74 1022 0
-1023 15 0
-1023 39 0
-1023 75 0
-15 -39 -75 1023 0
-1024 16 0
-1024 40 0
-1024 76 0
-16 -40 -76 1024 0
-1025 17 0
-1025 41 0
-1025 77 0
-17 -41 -77 1025 0
-1026 18 0
-1026 42 0
-1026 78 0
-18 -42 -78 1026 0
-1027 19 0
-1027 43 0
-1027 79 0
-19 -43 -79 1027 0
-1028 20 0
-1028 44 0
-1028 80 0
-20 -44 -80 1028 0
-1029 21 0
-1029 45 0
-1029 81 0
-21 -45 -81 1029 0
-1030 22 0
-1030 46 0
-1030 82 0
-22 -46 -82 1030 0
-1031 23 0
-1031 47 0
-1031 83 0
-23 -47 -83 1031 0
-1032 24 0
-1032 48 0
-1032 84 0
-24 -48 -84 1032 0
-1021 1633 0
-1022 1633 0
-1023 1633 0
-1024 1633 0
-1025 1633 0
-1026 1633 0
-1027 1633 0
-1028 1633 0
-1029 1633 0
-1030 1633 0
-1031 1633 0
-1032 1633 0
-1633 1021 1022 1023 1024 1025 1026 1027 1028 1029 1030 1031 1032 0
-1033 13 0
-1033 37 0
-1033 85 0
-13 -37 -85 1033 0
-1034 14 0
-1034 38 0
-1034 86 0
-14 -38 -86 1034 0
-1035 15 0
-1035 39 0
-1035 87 0
-15 -39 -87 1035 0
-1036 16 0
-1036 40 0
-1036 88 0
-16 -40 -88 1036 0
-1037 17 0
-1037 41 0
-1037 89 0
-17 -41 -89 1037 0
-1038 18 0
-1038 42 0
-1038 90 0
-18 -42 -90 1038 0
-1039 19 0
-1039 43 0
-1039 91 0
-19 -43 -91 1039 0
-1040 20 0
-1040 44 0
-1040 92 0
-20 -44 -92 1040 0
-1041 21 0
-1041 45 0
-1041 93 0
-21 -45 -93 1041 0
-1042 22 0
-1042 46 0
-1042 94 0
-22 -46 -94 1042 0
-1043 23 0
-1043 47 0
-1043 95 0
-23 -47 -95 1043 0
-1044 24 0
-1044 48 0
-1044 96 0
-24 -48 -96 1044 0
-1033 1634 0
-1034 1634 0
-1035 1634 0
-1036 1634 0
-1037 1634 0
-1038 1634 0
-1039 1634 0
-1040 1634 0
-1041 1634 0
-1042 1634 0
-1043 1634 0
-1044 1634 0
-1634 1033 1034 1035 1036 1037 1038 1039 1040 1041 1042 1043 1044 0
-1045 13 0
-1045 37 0
-1045 97 0
-13 -37 -97 1045 0
-1046 14 0
-1046 38 0
-1046 98 0
-14 -38 -98 1046 0
-1047 15 0
-1047 39 0
-1047 99 0
-15 -39 -99 1047 0
-1048 16 0
-1048 40 0
-1048 100 0
-16 -40 -100 1048 0
-1049 17 0
-1049 41 0
-1049 101 0
-17 -41 -101 1049 0
-1050 18 0
-1050 42 0
-1050 102 0
-18 -42 -102 1050 0
-1051 19 0
-1051 43 0
-1051 103 0
-19 -43 -103 1051 0
-1052 20 0
-1052 44 0
-1052 104 0
-20 -44 -104 1052 0
-1053 21 0
-1053 45 0
-1053 105 0
-21 -45 -105 1053 0
-1054 22 0
-1054 46 0
-1054 106 0
-22 -46 -106 1054 0
-1055 23 0
-1055 47 0
-1055 107 0
-23 -47 -107 1055 0
-1056 24 0
-1056 48 0
-1056 108 0
-24 -48 -108 1056 0
-1045 1635 0
-1046 1635 0
-1047 1635 0
-1048 1635 0
-1049 1635 0
-1050 1635 0
-1051 1635 0
-1052 1635 0
-1053 1635 0
-1054 1635 0
-1055 1635 0
-1056 1635 0
-1635 1045 1046 1047 1048 1049 1050 1051 1052 1053 1054 1055 1056 0
-1057 13 0
-1057 49 0
-1057 61 0
-13 -49 -61 1057 0
-1058 14 0
-1058 50 0
-1058 62 0
-14 -50 -62 1058 0
-1059 15 0
-1059 51 0
-1059 63 0
-15 -51 -63 1059 0
-1060 16 0
-1060 52 0
-1060 64 0
-16 -52 -64 1060 0
-1061 17 0
-1061 53 0
-1061 65 0
-17 -53 -65 1061 0
-1062 18 0
-1062 54 0
-1062 66 0
-18 -54 -66 1062 0
-1063 19 0
-1063 55 0
-1063 67 0
-19 -55 -67 1063 0
-1064 20 0
-1064 56 0
-1064 68 0
-20 -56 -68 1064 0
-1065 21 0
-1065 57 0
-1065 69 0
-21 -57 -69 1065 0
-1066 22 0
-1066 58 0
-1066 70 0
-22 -58 -70 1066 0
-1067 23 0
-1067 59 0
-1067 71 0
-23 -59 -71 1067 0
-1068 24 0
-1068 60 0
-1068 72 0
-24 -60 -72 1068 0
-1057 1636 0
-1058 1636 0
-1059 1636 0
-1060 1636 0
-1061 1636 0
-1062 1636 0
-1063 1636 0
-1064 1636 0
-1065 1636 0
-1066 1636 0
-1067 1636 0
-1068 1636 0
-1636 1057 1058 1059 1060 1061 1062 1063 1064 1065 1066 1067 1068 0
-1069 13 0
-1069 49 0
-1069 73 0
-13 -49 -73 1069 0
-1070 14 0
-1070 50 0
-1070 74 0
-14 -50 -74 1070 0
-1071 15 0
-1071 51 0
-1071 75 0
-15 -51 -75 1071 0
-1072 16 0
-1072 52 0
-1072 76 0
-16 -52 -76 1072 0
-1073 17 0
-1073 53 0
-1073 77 0
-17 -53 -77 1073 0
-1074 18 0
-1074 54 0
-1074 78 0
-18 -54 -78 1074 0
-1075 19 0
-1075 55 0
-1075 79 0
-19 -55 -79 1075 0
-1076 20 0
-1076 56 0
-1076 80 0
-20 -56 -80 1076 0
-1077 21 0
-1077 57 0
-1077 81 0
-21 -57 -81 1077 0
-1078 22 0
-1078 58 0
-1078 82 0
-22 -58 -82 1078 0
-1079 23 0
-1079 59 0
-1079 83 0
-23 -59 -83 1079 0
-1080 24 0
-1080 60 0
-1080 84 0
-24 -60 -84 1080 0
-1069 1637 0
-1070 1637 0
-1071 1637 0
-1072 1637 0
-1073 1637 0
-1074 1637 0
-1075 1637 0
-1076 1637 0
-1077 1637 0
-1078 1637 0
-1079 1637 0
-1080 1637 0
-1637 1069 1070 1071 1072 1073 1074 1075 1076 1077 1078 1079 1080 0
-1081 13 0
-1081 49 0
-1081 85 0
-13 -49 -85 1081 0
-1082 14 0
-1082 50 0
-1082 86 0
-14 -50 -86 1082 0
-1083 15 0
-1083 51 0
-1083 87 0
-15 -51 -87 1083 0
-1084 16 0
-1084 52 0
-1084 88 0
-16 -52 -88 1084 0
-1085 17 0
-1085 53 0
-1085 89 0
-17 -53 -89 1085 0
-1086 18 0
-1086 54 0
-1086 90 0
-18 -54 -90 1086 0
-1087 19 0
-1087 55 0
-1087 91 0
-19 -55 -91 1087 0
-1088 20 0
-1088 56 0
-1088 92 0
-20 -56 -92 1088 0
-1089 21 0
-1089 57 0
-1089 93 0
-21 -57 -93 1089 0
-1090 22 0
-1090 58 0
-1090 94 0
-22 -58 -94 1090 0
-1091 23 0
-1091 59 0
-1091 95 0
-23 -59 -95 1091 0
-1092 24 0
-1092 60 0
-1092 96 0
-24 -60 -96 1092 0
-1081 1638 0
-1082 1638 0
-1083 1638 0
-1084 1638 0
-1085 1638 0
-1086 1638 0
-1087 1638 0
-1088 1638 0
-1089 1638 0
-1090 1638 0
-1091 1638 0
-1092 1638 0
-1638 1081 1082 1083 1084 1085 1086 1087 1088 1089 1090 1091 1092 0
-1093 13 0
-1093 49 0
-1093 97 0
-13 -49 -97 1093 0
-1094 14 0
-1094 50 0
-1094 98 0
-14 -50 -98 1094 0
-1095 15 0
-1095 51 0
-1095 99 0
-15 -51 -99 1095 0
-1096 16 0
-1096 52 0
-1096 100 0
-16 -52 -100 1096 0
-1097 17 0
-1097 53 0
-1097 101 0
-17 -53 -101 1097 0
-1098 18 0
-1098 54 0
-1098 102 0
-18 -54 -102 1098 0
-1099 19 0
-1099 55 0
-1099 103 0
-19 -55 -103 1099 0
-1100 20 0
-1100 56 0
-1100 104 0
-20 -56 -104 1100 0
-1101 21 0
-1101 57 0
-1101 105 0
-21 -57 -105 1101 0
-1102 22 0
-1102 58 0
-1102 106 0
-22 -58 -106 1102 0
-1103 23 0
-1103 59 0
-1103 107 0
-23 -59 -107 1103 0
-1104 24 0
-1104 60 0
-1104 108 0
-24 -60 -108 1104 0
-1093 1639 0
-1094 1639 0
-1095 1639 0
-1096 1639 0
-1097 1639 0
-1098 1639 0
-1099 1639 0
-1100 1639 0
-1101 1639 0
-1102 1639 0
-1103 1639 0
-1104 1639 0
-1639 1093 1094 1095 1096 1097 1098 1099 1100 1101 1102 1103 1104 0
-1105 13 0
-1105 61 0
-1105 73 0
-13 -61 -73 1105 0
-1106 14 0
-1106 62 0
-1106 74 0
-14 -62 -74 1106 0
-1107 15 0
-1107 63 0
-1107 75 0
-15 -63 -75 1107 0
-1108 16 0
-1108 64 0
-1108 76 0
-16 -64 -76 1108 0
-1109 17 0
-1109 65 0
-1109 77 0
-17 -65 -77 1109 0
-1110 18 0
-1110 66 0
-1110 78 0
-18 -66 -78 1110 0
-1111 19 0
-1111 67 0
-1111 79 0
-19 -67 -79 1111 0
-1112 20 0
-1112 68 0
-1112 80 0
-20 -68 -80 1112 0
-1113 21 0
-1113 69 0
-1113 81 0
-21 -69 -81 1113 0
-1114 22 0
-1114 70 0
-1114 82 0
-22 -70 -82 1114 0
-1115 23 0
-1115 71 0
-1115 83 0
-23 -71 -83 1115 0
-1116 24 0
-1116 72 0
-1116 84 0
-24 -72 -84 1116 0
-1105 1640 0
-1106 1640 0
-1107 1640 0
-1108 1640 0
-1109 1640 0
-1110 1640 0
-1111 1640 0
-1112 1640 0
-1113 1640 0
-1114 1640 0
-1115 1640 0
-1116 1640 0
-1640 1105 1106 1107 1108 1109 1110 1111 1112 1113 1114 1115 1116 0
-1117 13 0
-1117 61 0
-1117 85 0
-13 -61 -85 1117 0
-1118 14 0
-1118 62 0
-1118 86 0
-14 -62 -86 1118 0
-1119 15 0
-1119 63 0
-1119 87 0
-15 -63 -87 1119 0
-1120 16 0
-1120 64 0
-1120 88 0
-16 -64 -88 1120 0
-1121 17 0
-1121 65 0
-1121 89 0
-17 -65 -89 1121 0
-1122 18 0
-1122 66 0
-1122 90 0
-18 -66 -90 1122 0
-1123 19 0
-1123 67 0
-1123 91 0
-19 -67 -91 1123 0
-1124 20 0
-1124 68 0
-1124 92 0
-20 -68 -92 1124 0
-1125 21 0
-1125 69 0
-1125 93 0
-21 -69 -93 1125 0
-1126 22 0
-1126 70 0
-1126 94 0
-22 -70 -94 1126 0
-1127 23 0
-1127 71 0
-1127 95 0
-23 -71 -95 1127 0
-1128 24 0
-1128 72 0
-1128 96 0
-24 -72 -96 1128 0
-1117 1641 0
-1118 1641 0
-1119 1641 0
-1120 1641 0
-1121 1641 0
-1122 1641 0
-1123 1641 0
-1124 1641 0
-1125 1641 0
-1126 1641 0
-1127 1641 0
-1128 1641 0
-1641 1117 1118 1119 1120 1121 1122 1123 1124 1125 1126 1127 1128 0
-1129 13 0
-1129 61 0
-1129 97 0
-13 -61 -97 1129 0
-1130 14 0
-1130 62 0
-1130 98 0
-14 -62 -98 1130 0
-1131 15 0
-1131 63 0
-1131 99 0
-15 -63 -99 1131 0
-1132 16 0
-1132 64 0
-1132 100 0
-16 -64 -100 1132 0
-1133 17 0
-1133 65 0
-1133 101 0
-17 -65 -101 1133 0
-1134 18 0
-1134 66 0
-1134 102 0
-18 -66 -102 1134 0
-1135 19 0
-1135 67 0
-1135 103 0
-19 -67 -103 1135 0
-1136 20 0
-1136 68 0
-1136 104 0
-20 -68 -104 1136 0
-1137 21 0
-1137 69 0
-1137 105 0
-21 -69 -105 1137 0
-1138 22 0
-1138 70 0
-1138 106 0
-22 -70 -106 1138 0
-1139 23 0
-1139 71 0
-1139 107 0
-23 -71 -107 1139 0
-1140 24 0
-1140 72 0
-1140 108 0
-24 -72 -108 1140 0
-1129 1642 0
-1130 1642 0
-1131 1642 0
-1132 1642 0
-1133 1642 0
-1134 1642 0
-1135 1642 0
-1136 1642 0
-1137 1642 0
-1138 1642 0
-1139 1642 0
-1140 1642 0
-1642 1129 1130 1131 1132 1133 1134 1135 1136 1137 1138 1139 1140 0
-1141 13 0
-1141 73 0
-1141 85 0
-13 -73 -85 1141 0
-1142 14 0
-1142 74 0
-1142 86 0
-14 -74 -86 1142 0
-1143 15 0
-1143 75 0
-1143 87 0
-15 -75 -87 1143 0
-1144 16 0
-1144 76 0
-1144 88 0
-16 -76 -88 1144 0
-1145 17 0
-1145 77 0
-1145 89 0
-17 -77 -89 1145 0
-1146 18 0
-1146 78 0
-1146 90 0
-18 -78 -90 1146 0
-1147 19 0
-1147 79 0
-1147 91 0
-19 -79 -91 1147 0
-1148 20 0
-1148 80 0
-1148 92 0
-20 -80 -92 1148 0
-1149 21 0
-1149 81 0
-1149 93 0
-21 -81 -93 1149 0
-1150 22 0
-1150 82 0
-1150 94 0
-22 -82 -94 1150 0
-1151 23 0
-1151 83 0
-1151 95 0
-23 -83 -95 1151 0
-1152 24 0
-1152 84 0
-1152 96 0
-24 -84 -96 1152 0
-1141 1643 0
-1142 1643 0
-1143 1643 0
-1144 1643 0
-1145 1643 0
-1146 1643 0
-1147 1643 0
-1148 1643 0
-1149 1643 0
-1150 1643 0
-1151 1643 0
-1152 1643 0
-1643 1141 1142 1143 1144 1145 1146 1147 1148 1149 1150 1151 1152 0
-1153 13 0
-1153 73 0
-1153 97 0
-13 -73 -97 1153 0
-1154 14 0
-1154 74 0
-1154 98 0
-14 -74 -98 1154 0
-1155 15 0
-1155 75 0
-1155 99 0
-15 -75 -99 1155 0
-1156 16 0
-1156 76 0
-1156 100 0
-16 -76 -100 1156 0
-1157 17 0
-1157 77 0
-1157 101 0
-17 -77 -101 1157 0
-1158 18 0
-1158 78 0
-1158 102 0
-18 -78 -102 1158 0
-1159 19 0
-1159 79 0
-1159 103 0
-19 -79 -103 1159 0
-1160 20 0
-1160 80 0
-1160 104 0
-20 -80 -104 1160 0
-1161 21 0
-1161 81 0
-1161 105 0
-21 -81 -105 1161 0
-1162 22 0
-1162 82 0
-1162 106 0
-22 -82 -106 1162 0
-1163 23 0
-1163 83 0
-1163 107 0
-23 -83 -107 1163 0
-1164 24 0
-1164 84 0
-1164 108 0
-24 -84 -108 1164 0
-1153 1644 0
-1154 1644 0
-1155 1644 0
-1156 1644 0
-1157 1644 0
-1158 1644 0
-1159 1644 0
-1160 1644 0
-1161 1644 0
-1162 1644 0
-1163 1644 0
-1164 1644 0
-1644 1153 1154 1155 1156 1157 1158 1159 1160 1161 1162 1163 1164 0
-1165 13 0
-1165 85 0
-1165 97 0
-13 -85 -97 1165 0
-1166 14 0
-1166 86 0
-1166 98 0
-14 -86 -98 1166 0
-1167 15 0
-1167 87 0
-1167 99 0
-15 -87 -99 1167 0
-1168 16 0
-1168 88 0
-1168 100 0
-16 -88 -100 1168 0
-1169 17 0
-1169 89 0
-1169 101 0
-17 -89 -101 1169 0
-1170 18 0
-1170 90 0
-1170 102 0
-18 -90 -102 1170 0
-1171 19 0
-1171 91 0
-1171 103 0
-19 -91 -103 1171 0
-1172 20 0
-1172 92 0
-1172 104 0
-20 -92 -104 1172 0
-1173 21 0
-1173 93 0
-1173 105 0
-21 -93 -105 1173 0
-1174 22 0
-1174 94 0
-1174 106 0
-22 -94 -106 1174 0
-1175 23 0
-1175 95 0
-1175 107 0
-23 -95 -107 1175 0
-1176 24 0
-1176 96 0
-1176 108 0
-24 -96 -108 1176 0
-1165 1645 0
-1166 1645 0
-1167 1645 0
-1168 1645 0
-1169 1645 0
-1170 1645 0
-1171 1645 0
-1172 1645 0
-1173 1645 0
-1174 1645 0
-1175 1645 0
-1176 1645 0
-1645 1165 1166 1167 1168 1169 1170 1171 1172 1173 1174 1175 1176 0
-1177 25 0
-1177 37 0
-1177 49 0
-25 -37 -49 1177 0
-1178 26 0
-1178 38 0
-1178 50 0
-26 -38 -50 1178 0
-1179 27 0
-1179 39 0
-1179 51 0
-27 -39 -51 1179 0
-1180 28 0
-1180 40 0
-1180 52 0
-28 -40 -52 1180 0
-1181 29 0
-1181 41 0
-1181 53 0
-29 -41 -53 1181 0
-1182 30 0
-1182 42 0
-1182 54 0
-30 -42 -54 1182 0
-1183 31 0
-1183 43 0
-1183 55 0
-31 -43 -55 1183 0
-1184 32 0
-1184 44 0
-1184 56 0
-32 -44 -56 1184 0
-1185 33 0
-1185 45 0
-1185 57 0
-33 -45 -57 1185 0
-1186 34 0
-1186 46 0
-1186 58 0
-34 -46 -58 1186 0
-1187 35 0
-1187 47 0
-1187 59 0
-35 -47 -59 1187 0
-1188 36 0
-1188 48 0
-1188 60 0
-36 -48 -60 1188 0
-1177 1646 0
-1178 1646 0
-1179 1646 0
-1180 1646 0
-1181 1646 0
-1182 1646 0
-1183 1646 0
-1184 1646 0
-1185 1646 0
-1186 1646 0
-1187 1646 0
-1188 1646 0
-1646 1177 1178 1179 1180 1181 1182 1183 1184 1185 1186 1187 1188 0
-1189 25 0
-1189 37 0
-1189 61 0
-25 -37 -61 1189 0
-1190 26 0
-1190 38 0
-1190 62 0
-26 -38 -62 1190 0
-1191 27 0
-1191 39 0
-1191 63 0
-27 -39 -63 1191 0
-1192 28 0
-1192 40 0
-1192 64 0
-28 -40 -64 1192 0
-1193 29 0
-1193 41 0
-1193 65 0
-29 -41 -65 1193 0
-1194 30 0
-1194 42 0
-1194 66 0
-30 -42 -66 1194 0
-1195 31 0
-1195 43 0
-1195 67 0
-31 -43 -67 1195 0
-1196 32 0
-1196 44 0
-1196 68 0
-32 -44 -68 1196 0
-1197 33 0
-1197 45 0
-1197 69 0
-33 -45 -69 1197 0
-1198 34 0
-1198 46 0
-1198 70 0
-34 -46 -70 1198 0
-1199 35 0
-1199 47 0
-1199 71 0
-35 -47 -71 1199 0
-1200 36 0
-1200 48 0
-1200 72 0
-36 -48 -72 1200 0
-1189 1647 0
-1190 1647 0
-1191 1647 0
-1192 1647 0
-1193 1647 0
-1194 1647 0
-1195 1647 0
-1196 1647 0
-1197 1647 0
-1198 1647 0
-1199 1647 0
-1200 1647 0
-1647 1189 1190 1191 1192 1193 1194 1195 1196 1197 1198 1199 1200 0
-1201 25 0
-1201 37 0
-1201 73 0
-25 -37 -73 1201 0
-1202 26 0
-1202 38 0
-1202 74 0
-26 -38 -74 1202 0
-1203 27 0
-1203 39 0
-1203 75 0
-27 -39 -75 1203 0
-1204 28 0
-1204 40 0
-1204 76 0
-28 -40 -76 1204 0
-1205 29 0
-1205 41 0
-1205 77 0
-29 -41 -77 1205 0
-1206 30 0
-1206 42 0
-1206 78 0
-30 -42 -78 1206 0
-1207 31 0
-1207 43 0
-1207 79 0
-31 -43 -79 1207 0
-1208 32 0
-1208 44 0
-1208 80 0
-32 -44 -80 1208 0
-1209 33 0
-1209 45 0
-1209 81 0
-33 -45 -81 1209 0
-1210 34 0
-1210 46 0
-1210 82 0
-34 -46 -82 1210 0
-1211 35 0
-1211 47 0
-1211 83 0
-35 -47 -83 1211 0
-1212 36 0
-1212 48 0
-1212 84 0
-36 -48 -84 1212 0
-1201 1648 0
-1202 1648 0
-1203 1648 0
-1204 1648 0
-1205 1648 0
-1206 1648 0
-1207 1648 0
-1208 1648 0
-1209 1648 0
-1210 1648 0
-1211 1648 0
-1212 1648 0
-1648 1201 1202 1203 1204 1205 1206 1207 1208 1209 1210 1211 1212 0
-1213 25 0
-1213 37 0
-1213 85 0
-25 -37 -85 1213 0
-1214 26 0
-1214 38 0
-1214 86 0
-26 -38 -86 1214 0
-1215 27 0
-1215 39 0
-1215 87 0
-27 -39 -87 1215 0
-1216 28 0
-1216 40 0
-1216 88 0
-28 -40 -88 1216 0
-1217 29 0
-1217 41 0
-1217 89 0
-29 -41 -89 1217 0
-1218 30 0
-1218 42 0
-1218 90 0
-30 -42 -90 1218 0
-1219 31 0
-1219 43 0
-1219 91 0
-31 -43 -91 1219 0
-1220 32 0
-1220 44 0
-1220 92 0
-32 -44 -92 1220 0
-1221 33 0
-1221 45 0
-1221 93 0
-33 -45 -93 1221 0
-1222 34 0
-1222 46 0
-1222 94 0
-34 -46 -94 1222 0
-1223 35 0
-1223 47 0
-1223 95 0
-35 -47 -95 1223 0
-1224 36 0
-1224 48 0
-1224 96 0
-36 -48 -96 1224 0
-1213 1649 0
-1214 1649 0
-1215 1649 0
-1216 1649 0
-1217 1649 0
-1218 1649 0
-1219 1649 0
-1220 1649 0
-1221 1649 0
-1222 1649 0
-1223 1649 0
-1224 1649 0
-1649 1213 1214 1215 1216 1217 1218 1219 1220 1221 1222 1223 1224 0
-1225 25 0
-1225 37 0
-1225 97 0
-25 -37 -97 1225 0
-1226 26 0
-1226 38 0
-1226 98 0
-26 -38 -98 1226 0
-1227 27 0
-1227 39 0
-1227 99 0
-27 -39 -99 1227 0
-1228 28 0
-1228 40 0
-1228 100 0
-28 -40 -100 1228 0
-1229 29 0
-1229 41 0
-1229 101 0
-29 -41 -101 1229 0
-1230 30 0
-1230 42 0
-1230 102 0
-30 -42 -102 1230 0
-1231 31 0
-1231 43 0
-1231 103 0
-31 -43 -103 1231 0
-1232 32 0
-1232 44 0
-1232 104 0
-32 -44 -104 1232 0
-1233 33 0
-1233 45 0
-1233 105 0
-33 -45 -105 1233 0
-1234 34 0
-1234 46 0
-1234 106 0
-34 -46 -106 1234 0
-1235 35 0
-1235 47 0
-1235 107 0
-35 -47 -107 1235 0
-1236 36 0
-1236 48 0
-1236 108 0
-36 -48 -108 1236 0
-1225 1650 0
-1226 1650 0
-1227 1650 0
-1228 1650 0
-1229 1650 0
-1230 1650 0
-1231 1650 0
-1232 1650 0
-1233 1650 0
-1234 1650 0
-1235 1650 0
-1236 1650 0
-1650 1225 1226 1227 1228 1229 1230 1231 1232 1233 1234 1235 1236 0
-1237 25 0
-1237 49 0
-1237 61 0
-25 -49 -61 1237 0
-1238 26 0
-1238 50 0
-1238 62 0
-26 -50 -62 1238 0
-1239 27 0
-1239 51 0
-1239 63 0
-27 -51 -63 1239 0
-1240 28 0
-1240 52 0
-1240 64 0
-28 -52 -64 1240 0
-1241 29 0
-1241 53 0
-1241 65 0
-29 -53 -65 1241 0
-1242 30 0
-1242 54 0
-1242 66 0
-30 -54 -66 1242 0
-1243 31 0
-1243 55 0
-1243 67 0
-31 -55 -67 1243 0
-1244 32 0
-1244 56 0
-1244 68 0
-32 -56 -68 1244 0
-1245 33 0
-1245 57 0
-1245 69 0
-33 -57 -69 1245 0
-1246 34 0
-1246 58 0
-1246 70 0
-34 -58 -70 1246 0
-1247 35 0
-1247 59 0
-1247 71 0
-35 -59 -71 1247 0
-1248 36 0
-1248 60 0
-1248 72 0
-36 -60 -72 1248 0
-1237 1651 0
-1238 1651 0
-1239 1651 0
-1240 1651 0
-1241 1651 0
-1242 1651 0
-1243 1651 0
-1244 1651 0
-1245 1651 0
-1246 1651 0
-1247 1651 0
-1248 1651 0
-1651 1237 1238 1239 1240 1241 1242 1243 1244 1245 1246 1247 1248 0
-1249 25 0
-1249 49 0
-1249 73 0
-25 -49 -73 1249 0
-1250 26 0
-1250 50 0
-1250 74 0
-26 -50 -74 1250 0
-1251 27 0
-1251 51 0
-1251 75 0
-27 -51 -75 1251 0
-1252 28 0
-1252 52 0
-1252 76 0
-28 -52 -76 1252 0
-1253 29 0
-1253 53 0
-1253 77 0
-29 -53 -77 1253 0
-1254 30 0
-1254 54 0
-1254 78 0
-30 -54 -78 1254 0
-1255 31 0
-1255 55 0
-1255 79 0
-31 -55 -79 1255 0
-1256 32 0
-1256 56 0
-1256 80 0
-32 -56 -80 1256 0
-1257 33 0
-1257 57 0
-1257 81 0
-33 -57 -81 1257 0
-1258 34 0
-1258 58 0
-1258 82 0
-34 -58 -82 1258 0
-1259 35 0
-1259 59 0
-1259 83 0
-35 -59 -83 1259 0
-1260 36 0
-1260 60 0
-1260 84 0
-36 -60 -84 1260 0
-1249 1652 0
-1250 1652 0
-1251 1652 0
-1252 1652 0
-1253 1652 0
-1254 1652 0
-1255 1652 0
-1256 1652 0
-1257 1652 0
-1258 1652 0
-1259 1652 0
-1260 1652 0
-1652 1249 1250 1251 1252 1253 1254 1255 1256 1257 1258 1259 1260 0
-1261 25 0
-1261 49 0
-1261 85 0
-25 -49 -85 1261 0
-1262 26 0
-1262 50 0
-1262 86 0
-26 -50 -86 1262 0
-1263 27 0
-1263 51 0
-1263 87 0
-27 -51 -87 1263 0
-1264 28 0
-1264 52 0
-1264 88 0
-28 -52 -88 1264 0
-1265 29 0
-1265 53 0
-1265 89 0
-29 -53 -89 1265 0
-1266 30 0
-1266 54 0
-1266 90 0
-30 -54 -90 1266 0
-1267 31 0
-1267 55 0
-1267 91 0
-31 -55 -91 1267 0
-1268 32 0
-1268 56 0
-1268 92 0
-32 -56 -92 1268 0
-1269 33 0
-1269 57 0
-1269 93 0
-33 -57 -93 1269 0
-1270 34 0
-1270 58 0
-1270 94 0
-34 -58 -94 1270 0
-1271 35 0
-1271 59 0
-1271 95 0
-35 -59 -95 1271 0
-1272 36 0
-1272 60 0
-1272 96 0
-36 -60 -96 1272 0
-1261 1653 0
-1262 1653 0
-1263 1653 0
-1264 1653 0
-1265 1653 0
-1266 1653 0
-1267 1653 0
-1268 1653 0
-1269 1653 0
-1270 1653 0
-1271 1653 0
-1272 1653 0
-1653 1261 1262 1263 1264 1265 1266 1267 1268 1269 1270 1271 1272 0
-1273 25 0
-1273 49 0
-1273 97 0
-25 -49 -97 1273 0
-1274 26 0
-1274 50 0
-1274 98 0
-26 -50 -98 1274 0
-1275 27 0
-1275 51 0
-1275 99 0
-27 -51 -99 1275 0
-1276 28 0
-1276 52 0
-1276 100 0
-28 -52 -100 1276 0
-1277 29 0
-1277 53 0
-1277 101 0
-29 -53 -101 1277 0
-1278 30 0
-1278 54 0
-1278 102 0
-30 -54 -102 1278 0
-1279 31 0
-1279 55 0
-1279 103 0
-31 -55 -103 1279 0
-1280 32 0
-1280 56 0
-1280 104 0
-32 -56 -104 1280 0
-1281 33 0
-1281 57 0
-1281 105 0
-33 -57 -105 1281 0
-1282 34 0
-1282 58 0
-1282 106 0
-34 -58 -106 1282 0
-1283 35 0
-1283 59 0
-1283 107 0
-35 -59 -107 1283 0
-1284 36 0
-1284 60 0
-1284 108 0
-36 -60 -108 1284 0
-1273 1654 0
-1274 1654 0
-1275 1654 0
-1276 1654 0
-1277 1654 0
-1278 1654 0
-1279 1654 0
-1280 1654 0
-1281 1654 0
-1282 1654 0
-1283 1654 0
-1284 1654 0
-1654 1273 1274 1275 1276 1277 1278 1279 1280 1281 1282 1283 1284 0
-1285 25 0
-1285 61 0
-1285 73 0
-25 -61 -73 1285 0
-1286 26 0
-1286 62 0
-1286 74 0
-26 -62 -74 1286 0
-1287 27 0
-1287 63 0
-1287 75 0
-27 -63 -75 1287 0
-1288 28 0
-1288 64 0
-1288 76 0
-28 -64 -76 1288 0
-1289 29 0
-1289 65 0
-1289 77 0
-29 -65 -77 1289 0
-1290 30 0
-1290 66 0
-1290 78 0
-30 -66 -78 1290 0
-1291 31 0
-1291 67 0
-1291 79 0
-31 -67 -79 1291 0
-1292 32 0
-1292 68 0
-1292 80 0
-32 -68 -80 1292 0
-1293 33 0
-1293 69 0
-1293 81 0
-33 -69 -81 1293 0
-1294 34 0
-1294 70 0
-1294 82 0
-34 -70 -82 1294 0
-1295 35 0
-1295 71 0
-1295 83 0
-35 -71 -83 1295 0
-1296 36 0
-1296 72 0
-1296 84 0
-36 -72 -84 1296 0
-1285 1655 0
-1286 1655 0
-1287 1655 0
-1288 1655 0
-1289 1655 0
-1290 1655 0
-1291 1655 0
-1292 1655 0
-1293 1655 0
-1294 1655 0
-1295 1655 0
-1296 1655 0
-1655 1285 1286 1287 1288 1289 1290 1291 1292 1293 1294 1295 1296 0
-1297 25 0
-1297 61 0
-1297 85 0
-25 -61 -85 1297 0
-1298 26 0
-1298 62 0
-1298 86 0
-26 -62 -86 1298 0
-1299 27 0
-1299 63 0
-1299 87 0
-27 -63 -87 1299 0
-1300 28 0
-1300 64 0
-1300 88 0
-28 -64 -88 1300 0
-1301 29 0
-1301 65 0
-1301 89 0
-29 -65 -89 1301 0
-1302 30 0
-1302 66 0
-1302 90 0
-30 -66 -90 1302 0
-1303 31 0
-1303 67 0
-1303 91 0
-31 -67 -91 1303 0
-1304 32 0
-1304 68 0
-1304 92 0
-32 -68 -92 1304 0
-1305 33 0
-1305 69 0
-1305 93 0
-33 -69 -93 1305 0
-1306 34 0
-1306 70 0
-1306 94 0
-34 -70 -94 1306 0
-1307 35 0
-1307 71 0
-1307 95 0
-35 -71 -95 1307 0
-1308 36 0
-1308 72 0
-1308 96 0
-36 -72 -96 1308 0
-1297 1656 0
-1298 1656 0
-1299 1656 0
-1300 1656 0
-1301 1656 0
-1302 1656 0
-1303 1656 0
-1304 1656 0
-1305 1656 0
-1306 1656 0
-1307 1656 0
-1308 1656 0
-1656 1297 1298 1299 1300 1301 1302 1303 1304 1305 1306 1307 1308 0
-1309 25 0
-1309 61 0
-1309 97 0
-25 -61 -97 1309 0
-1310 26 0
-1310 62 0
-1310 98 0
-26 -62 -98 1310 0
-1311 27 0
-1311 63 0
-1311 99 0
-27 -63 -99 1311 0
-1312 28 0
-1312 64 0
-1312 100 0
-28 -64 -100 1312 0
-1313 29 0
-1313 65 0
-1313 101 0
-29 -65 -101 1313 0
-1314 30 0
-1314 66 0
-1314 102 0
-30 -66 -102 1314 0
-1315 31 0
-1315 67 0
-1315 103 0
-31 -67 -103 1315 0
-1316 32 0
-1316 68 0
-1316 104 0
-32 -68 -104 1316 0
-1317 33 0
-1317 69 0
-1317 105 0
-33 -69 -105 1317 0
-1318 34 0
-1318 70 0
-1318 106 0
-34 -70 -106 1318 0
-1319 35 0
-1319 71 0
-1319 107 0
-35 -71 -107 1319 0
-1320 36 0
-1320 72 0
-1320 108 0
-36 -72 -108 1320 0
-1309 1657 0
-1310 1657 0
-1311 1657 0
-1312 1657 0
-1313 1657 0
-1314 1657 0
-1315 1657 0
-1316 1657 0
-1317 1657 0
-1318 1657 0
-1319 1657 0
-1320 1657 0
-1657 1309 1310 1311 1312 1313 1314 1315 1316 1317 1318 1319 1320 0
-1321 25 0
-1321 73 0
-1321 85 0
-25 -73 -85 1321 0
-1322 26 0
-1322 74 0
-1322 86 0
-26 -74 -86 1322 0
-1323 27 0
-1323 75 0
-1323 87 0
-27 -75 -87 1323 0
-1324 28 0
-1324 76 0
-1324 88 0
-28 -76 -88 1324 0
-1325 29 0
-1325 77 0
-1325 89 0
-29 -77 -89 1325 0
-1326 30 0
-1326 78 0
-1326 90 0
-30 -78 -90 1326 0
-1327 31 0
-1327 79 0
-1327 91 0
-31 -79 -91 1327 0
-1328 32 0
-1328 80 0
-1328 92 0
-32 -80 -92 1328 0
-1329 33 0
-1329 81 0
-1329 93 0
-33 -81 -93 1329 0
-1330 34 0
-1330 82 0
-1330 94 0
-34 -82 -94 1330 0
-1331 35 0
-1331 83 0
-1331 95 0
-35 -83 -95 1331 0
-1332 36 0
-1332 84 0
-1332 96 0
-36 -84 -96 1332 0
-1321 1658 0
-1322 1658 0
-1323 1658 0
-1324 1658 0
-1325 1658 0
-1326 1658 0
-1327 1658 0
-1328 1658 0
-1329 1658 0
-1330 1658 0
-1331 1658 0
-1332 1658 0
-1658 1321 1322 1323 1324 1325 1326 1327 1328 1329 1330 1331 1332 0
-1333 25 0
-1333 73 0
-1333 97 0
-25 -73 -97 1333 0
-1334 26 0
-1334 74 0
-1334 98 0
-26 -74 -98 1334 0
-1335 27 0
-1335 75 0
-1335 99 0
-27 -75 -99 1335 0
-1336 28 0
-1336 76 0
-1336 100 0
-28 -76 -100 1336 0
-1337 29 0
-1337 77 0
-1337 101 0
-29 -77 -101 1337 0
-1338 30 0
-1338 78 0
-1338 102 0
-30 -78 -102 1338 0
-1339 31 0
-1339 79 0
-1339 103 0
-31 -79 -103 1339 0
-1340 32 0
-1340 80 0
-1340 104 0
-32 -80 -104 1340 0
-1341 33 0
-1341 81 0
-1341 105 0
-33 -81 -105 1341 0
-1342 34 0
-1342 82 0
-1342 106 0
-34 -82 -106 1342 0
-1343 35 0
-1343 83 0
-1343 107 0
-35 -83 -107 1343 0
-1344 36 0
-1344 84 0
-1344 108 0
-36 -84 -108 1344 0
-1333 1659 0
-1334 1659 0
-1335 1659 0
-1336 1659 0
-1337 1659 0
-1338 1659 0
-1339 1659 0
-1340 1659 0
-1341 1659 0
-1342 1659 0
-1343 1659 0
-1344 1659 0
-1659 1333 1334 1335 1336 1337 1338 1339 1340 1341 1342 1343 1344 0
-1345 25 0
-1345 85 0
-1345 97 0
-25 -85 -97 1345 0
-1346 26 0
-1346 86 0
-1346 98 0
-26 -86 -98 1346 0
-1347 27 0
-1347 87 0
-1347 99 0
-27 -87 -99 1347 0
-1348 28 0
-1348 88 0
-1348 100 0
-28 -88 -100 1348 0
-1349 29 0
-1349 89 0
-1349 101 0
-29 -89 -101 1349 0
-1350 30 0
-1350 90 0
-1350 102 0
-30 -90 -102 1350 0
-1351 31 0
-1351 91 0
-1351 103 0
-31 -91 -103 1351 0
-1352 32 0
-1352 92 0
-1352 104 0
-32 -92 -104 1352 0
-1353 33 0
-1353 93 0
-1353 105 0
-33 -93 -105 1353 0
-1354 34 0
-1354 94 0
-1354 106 0
-34 -94 -106 1354 0
-1355 35 0
-1355 95 0
-1355 107 0
-35 -95 -107 1355 0
-1356 36 0
-1356 96 0
-1356 108 0
-36 -96 -108 1356 0
-1345 1660 0
-1346 1660 0
-1347 1660 0
-1348 1660 0
-1349 1660 0
-1350 1660 0
-1351 1660 0
-1352 1660 0
-1353 1660 0
-1354 1660 0
-1355 1660 0
-1356 1660 0
-1660 1345 1346 1347 1348 1349 1350 1351 1352 1353 1354 1355 1356 0
-1357 37 0
-1357 49 0
-1357 61 0
-37 -49 -61 1357 0
-1358 38 0
-1358 50 0
-1358 62 0
-38 -50 -62 1358 0
-1359 39 0
-1359 51 0
-1359 63 0
-39 -51 -63 1359 0
-1360 40 0
-1360 52 0
-1360 64 0
-40 -52 -64 1360 0
-1361 41 0
-1361 53 0
-1361 65 0
-41 -53 -65 1361 0
-1362 42 0
-1362 54 0
-1362 66 0
-42 -54 -66 1362 0
-1363 43 0
-1363 55 0
-1363 67 0
-43 -55 -67 1363 0
-1364 44 0
-1364 56 0
-1364 68 0
-44 -56 -68 1364 0
-1365 45 0
-1365 57 0
-1365 69 0
-45 -57 -69 1365 0
-1366 46 0
-1366 58 0
-1366 70 0
-46 -58 -70 1366 0
-1367 47 0
-1367 59 0
-1367 71 0
-47 -59 -71 1367 0
-1368 48 0
-1368 60 0
-1368 72 0
-48 -60 -72 1368 0
-1357 1661 0
-1358 1661 0
-1359 1661 0
-1360 1661 0
-1361 1661 0
-1362 1661 0
-1363 1661 0
-1364 1661 0
-1365 1661 0
-1366 1661 0
-1367 1661 0
-1368 1661 0
-1661 1357 1358 1359 1360 1361 1362 1363 1364 1365 1366 1367 1368 0
-1369 37 0
-1369 49 0
-1369 73 0
-37 -49 -73 1369 0
-1370 38 0
-1370 50 0
-1370 74 0
-38 -50 -74 1370 0
-1371 39 0
-1371 51 0
-1371 75 0
-39 -51 -75 1371 0
-1372 40 0
-1372 52 0
-1372 76 0
-40 -52 -76 1372 0
-1373 41 0
-1373 53 0
-1373 77 0
-41 -53 -77 1373 0
-1374 42 0
-1374 54 0
-1374 78 0
-42 -54 -78 1374 0
-1375 43 0
-1375 55 0
-1375 79 0
-43 -55 -79 1375 0
-1376 44 0
-1376 56 0
-1376 80 0
-44 -56 -80 1376 0
-1377 45 0
-1377 57 0
-1377 81 0
-45 -57 -81 1377 0
-1378 46 0
-1378 58 0
-1378 82 0
-46 -58 -82 1378 0
-1379 47 0
-1379 59 0
-1379 83 0
-47 -59 -83 1379 0
-1380 48 0
-1380 60 0
-1380 84 0
-48 -60 -84 1380 0
-1369 1662 0
-1370 1662 0
-1371 1662 0
-1372 1662 0
-1373 1662 0
-1374 1662 0
-1375 1662 0
-1376 1662 0
-1377 1662 0
-1378 1662 0
-1379 1662 0
-1380 1662 0
-1662 1369 1370 1371 1372 1373 1374 1375 1376 1377 1378 1379 1380 0
-1381 37 0
-1381 49 0
-1381 85 0
-37 -49 -85 1381 0
-1382 38 0
-1382 50 0
-1382 86 0
-38 -50 -86 1382 0
-1383 39 0
-1383 51 0
-1383 87 0
-39 -51 -87 1383 0
-1384 40 0
-1384 52 0
-1384 88 0
-40 -52 -88 1384 0
-1385 41 0
-1385 53 0
-1385 89 0
-41 -53 -89 1385 0
-1386 42 0
-1386 54 0
-1386 90 0
-42 -54 -90 1386 0
-1387 43 0
-1387 55 0
-1387 91 0
-43 -55 -91 1387 0
-1388 44 0
-1388 56 0
-1388 92 0
-44 -56 -92 1388 0
-1389 45 0
-1389 57 0
-1389 93 0
-45 -57 -93 1389 0
-1390 46 0
-1390 58 0
-1390 94 0
-46 -58 -94 1390 0
-1391 47 0
-1391 59 0
-1391 95 0
-47 -59 -95 1391 0
-1392 48 0
-1392 60 0
-1392 96 0
-48 -60 -96 1392 0
-1381 1663 0
-1382 1663 0
-1383 1663 0
-1384 1663 0
-1385 1663 0
-1386 1663 0
-1387 1663 0
-1388 1663 0
-1389 1663 0
-1390 1663 0
-1391 1663 0
-1392 1663 0
-1663 1381 1382 1383 1384 1385 1386 1387 1388 1389 1390 1391 1392 0
-1393 37 0
-1393 49 0
-1393 97 0
-37 -49 -97 1393 0
-1394 38 0
-1394 50 0
-1394 98 0
-38 -50 -98 1394 0
-1395 39 0
-1395 51 0
-1395 99 0
-39 -51 -99 1395 0
-1396 40 0
-1396 52 0
-1396 100 0
-40 -52 -100 1396 0
-1397 41 0
-1397 53 0
-1397 101 0
-41 -53 -101 1397 0
-1398 42 0
-1398 54 0
-1398 102 0
-42 -54 -102 1398 0
-1399 43 0
-1399 55 0
-1399 103 0
-43 -55 -103 1399 0
-1400 44 0
-1400 56 0
-1400 104 0
-44 -56 -104 1400 0
-1401 45 0
-1401 57 0
-1401 105 0
-45 -57 -105 1401 0
-1402 46 0
-1402 58 0
-1402 106 0
-46 -58 -106 1402 0
-1403 47 0
-1403 59 0
-1403 107 0
-47 -59 -107 1403 0
-1404 48 0
-1404 60 0
-1404 108 0
-48 -60 -108 1404 0
-1393 1664 0
-1394 1664 0
-1395 1664 0
-1396 1664 0
-1397 1664 0
-1398 1664 0
-1399 1664 0
-1400 1664 0
-1401 1664 0
-1402 1664 0
-1403 1664 0
-1404 1664 0
-1664 1393 1394 1395 1396 1397 1398 1399 1400 1401 1402 1403 1404 0
-1405 37 0
-1405 61 0
-1405 73 0
-37 -61 -73 1405 0
-1406 38 0
-1406 62 0
-1406 74 0
-38 -62 -74 1406 0
-1407 39 0
-1407 63 0
-1407 75 0
-39 -63 -75 1407 0
-1408 40 0
-1408 64 0
-1408 76 0
-40 -64 -76 1408 0
-1409 41 0
-1409 65 0
-1409 77 0
-41 -65 -77 1409 0
-1410 42 0
-1410 66 0
-1410 78 0
-42 -66 -78 1410 0
-1411 43 0
-1411 67 0
-1411 79 0
-43 -67 -79 1411 0
-1412 44 0
-1412 68 0
-1412 80 0
-44 -68 -80 1412 0
-1413 45 0
-1413 69 0
-1413 81 0
-45 -69 -81 1413 0
-1414 46 0
-1414 70 0
-1414 82 0
-46 -70 -82 1414 0
-1415 47 0
-1415 71 0
-1415 83 0
-47 -71 -83 1415 0
-1416 48 0
-1416 72 0
-1416 84 0
-48 -72 -84 1416 0
-1405 1665 0
-1406 1665 0
-1407 1665 0
-1408 1665 0
-1409 1665 0
-1410 1665 0
-1411 1665 0
-1412 1665 0
-1413 1665 0
-1414 1665 0
-1415 1665 0
-1416 1665 0
-1665 1405 1406 1407 1408 1409 1410 1411 1412 1413 1414 1415 1416 0
-1417 37 0
-1417 61 0
-1417 85 0
-37 -61 -85 1417 0
-1418 38 0
-1418 62 0
-1418 86 0
-38 -62 -86 1418 0
-1419 39 0
-1419 63 0
-1419 87 0
-39 -63 -87 1419 0
-1420 40 0
-1420 64 0
-1420 88 0
-40 -64 -88 1420 0
-1421 41 0
-1421 65 0
-1421 89 0
-41 -65 -89 1421 0
-1422 42 0
-1422 66 0
-1422 90 0
-42 -66 -90 1422 0
-1423 43 0
-1423 67 0
-1423 91 0
-43 -67 -91 1423 0
-1424 44 0
-1424 68 0
-1424 92 0
-44 -68 -92 1424 0
-1425 45 0
-1425 69 0
-1425 93 0
-45 -69 -93 1425 0
-1426 46 0
-1426 70 0
-1426 94 0
-46 -70 -94 1426 0
-1427 47 0
-1427 71 0
-1427 95 0
-47 -71 -95 1427 0
-1428 48 0
-1428 72 0
-1428 96 0
-48 -72 -96 1428 0
-1417 1666 0
-1418 1666 0
-1419 1666 0
-1420 1666 0
-1421 1666 0
-1422 1666 0
-1423 1666 0
-1424 1666 0
-1425 1666 0
-1426 1666 0
-1427 1666 0
-1428 1666 0
-1666 1417 1418 1419 1420 1421 1422 1423 1424 1425 1426 1427 1428 0
-1429 37 0
-1429 61 0
-1429 97 0
-37 -61 -97 1429 0
-1430 38 0
-1430 62 0
-1430 98 0
-38 -62 -98 1430 0
-1431 39 0
-1431 63 0
-1431 99 0
-39 -63 -99 1431 0
-1432 40 0
-1432 64 0
-1432 100 0
-40 -64 -100 1432 0
-1433 41 0
-1433 65 0
-1433 101 0
-41 -65 -101 1433 0
-1434 42 0
-1434 66 0
-1434 102 0
-42 -66 -102 1434 0
-1435 43 0
-1435 67 0
-1435 103 0
-43 -67 -103 1435 0
-1436 44 0
-1436 68 0
-1436 104 0
-44 -68 -104 1436 0
-1437 45 0
-1437 69 0
-1437 105 0
-45 -69 -105 1437 0
-1438 46 0
-1438 70 0
-1438 106 0
-46 -70 -106 1438 0
-1439 47 0
-1439 71 0
-1439 107 0
-47 -71 -107 1439 0
-1440 48 0
-1440 72 0
-1440 108 0
-48 -72 -108 1440 0
-1429 1667 0
-1430 1667 0
-1431 1667 0
-1432 1667 0
-1433 1667 0
-1434 1667 0
-1435 1667 0
-1436 1667 0
-1437 1667 0
-1438 1667 0
-1439 1667 0
-1440 1667 0
-1667 1429 1430 1431 1432 1433 1434 1435 1436 1437 1438 1439 1440 0
-1441 37 0
-1441 73 0
-1441 85 0
-37 -73 -85 1441 0
-1442 38 0
-1442 74 0
-1442 86 0
-38 -74 -86 1442 0
-1443 39 0
-1443 75 0
-1443 87 0
-39 -75 -87 1443 0
-1444 40 0
-1444 76 0
-1444 88 0
-40 -76 -88 1444 0
-1445 41 0
-1445 77 0
-1445 89 0
-41 -77 -89 1445 0
-1446 42 0
-1446 78 0
-1446 90 0
-42 -78 -90 1446 0
-1447 43 0
-1447 79 0
-1447 91 0
-43 -79 -91 1447 0
-1448 44 0
-1448 80 0
-1448 92 0
-44 -80 -92 1448 0
-1449 45 0
-1449 81 0
-1449 93 0
-45 -81 -93 1449 0
-1450 46 0
-1450 82 0
-1450 94 0
-46 -82 -94 1450 0
-1451 47 0
-1451 83 0
-1451 95 0
-47 -83 -95 1451 0
-1452 48 0
-1452 84 0
-1452 96 0
-48 -84 -96 1452 0
-1441 1668 0
-1442 1668 0
-1443 1668 0
-1444 1668 0
-1445 1668 0
-1446 1668 0
-1447 1668 0
-1448 1668 0
-1449 1668 0
-1450 1668 0
-1451 1668 0
-1452 1668 0
-1668 1441 1442 1443 1444 1445 1446 1447 1448 1449 1450 1451 1452 0
-1453 37 0
-1453 73 0
-1453 97 0
-37 -73 -97 1453 0
-1454 38 0
-1454 74 0
-1454 98 0
-38 -74 -98 1454 0
-1455 39 0
-1455 75 0
-1455 99 0
-39 -75 -99 1455 0
-1456 40 0
-1456 76 0
-1456 100 0
-40 -76 -100 1456 0
-1457 41 0
-1457 77 0
-1457 101 0
-41 -77 -101 1457 0
-1458 42 0
-1458 78 0
-1458 102 0
-42 -78 -102 1458 0
-1459 43 0
-1459 79 0
-1459 103 0
-43 -79 -103 1459 0
-1460 44 0
-1460 80 0
-1460 104 0
-44 -80 -104 1460 0
-1461 45 0
-1461 81 0
-1461 105 0
-45 -81 -105 1461 0
-1462 46 0
-1462 82 0
-1462 106 0
-46 -82 -106 1462 0
-1463 47 0
-1463 83 0
-1463 107 0
-47 -83 -107 1463 0
-1464 48 0
-1464 84 0
-1464 108 0
-48 -84 -108 1464 0
-1453 1669 0
-1454 1669 0
-1455 1669 0
-1456 1669 0
-1457 1669 0
-1458 1669 0
-1459 1669 0
-1460 1669 0
-1461 1669 0
-1462 1669 0
-1463 1669 0
-1464 1669 0
-1669 1453 1454 1455 1456 1457 1458 1459 1460 1461 1462 1463 1464 0
-1465 37 0
-1465 85 0
-1465 97 0
-37 -85 -97 1465 0
-1466 38 0
-1466 86 0
-1466 98 0
-38 -86 -98 1466 0
-1467 39 0
-1467 87 0
-1467 99 0
-39 -87 -99 1467 0
-1468 40 0
-1468 88 0
-1468 100 0
-40 -88 -100 1468 0
-1469 41 0
-1469 89 0
-1469 101 0
-41 -89 -101 1469 0
-1470 42 0
-1470 90 0
-1470 102 0
-42 -90 -102 1470 0
-1471 43 0
-1471 91 0
-1471 103 0
-43 -91 -103 1471 0
-1472 44 0
-1472 92 0
-1472 104 0
-44 -92 -104 1472 0
-1473 45 0
-1473 93 0
-1473 105 0
-45 -93 -105 1473 0
-1474 46 0
-1474 94 0
-1474 106 0
-46 -94 -106 1474 0
-1475 47 0
-1475 95 0
-1475 107 0
-47 -95 -107 1475 0
-1476 48 0
-1476 96 0
-1476 108 0
-48 -96 -108 1476 0
-1465 1670 0
-1466 1670 0
-1467 1670 0
-1468 1670 0
-1469 1670 0
-1470 1670 0
-1471 1670 0
-1472 1670 0
-1473 1670 0
-1474 1670 0
-1475 1670 0
-1476 1670 0
-1670 1465 1466 1467 1468 1469 1470 1471 1472 1473 1474 1475 1476 0
-1477 49 0
-1477 61 0
-1477 73 0
-49 -61 -73 1477 0
-1478 50 0
-1478 62 0
-1478 74 0
-50 -62 -74 1478 0
-1479 51 0
-1479 63 0
-1479 75 0
-51 -63 -75 1479 0
-1480 52 0
-1480 64 0
-1480 76 0
-52 -64 -76 1480 0
-1481 53 0
-1481 65 0
-1481 77 0
-53 -65 -77 1481 0
-1482 54 0
-1482 66 0
-1482 78 0
-54 -66 -78 1482 0
-1483 55 0
-1483 67 0
-1483 79 0
-55 -67 -79 1483 0
-1484 56 0
-1484 68 0
-1484 80 0
-56 -68 -80 1484 0
-1485 57 0
-1485 69 0
-1485 81 0
-57 -69 -81 1485 0
-1486 58 0
-1486 70 0
-1486 82 0
-58 -70 -82 1486 0
-1487 59 0
-1487 71 0
-1487 83 0
-59 -71 -83 1487 0
-1488 60 0
-1488 72 0
-1488 84 0
-60 -72 -84 1488 0
-1477 1671 0
-1478 1671 0
-1479 1671 0
-1480 1671 0
-1481 1671 0
-1482 1671 0
-1483 1671 0
-1484 1671 0
-1485 1671 0
-1486 1671 0
-1487 1671 0
-1488 1671 0
-1671 1477 1478 1479 1480 1481 1482 1483 1484 1485 1486 1487 1488 0
-1489 49 0
-1489 61 0
-1489 85 0
-49 -61 -85 1489 0
-1490 50 0
-1490 62 0
-1490 86 0
-50 -62 -86 1490 0
-1491 51 0
-1491 63 0
-1491 87 0
-51 -63 -87 1491 0
-1492 52 0
-1492 64 0
-1492 88 0
-52 -64 -88 1492 0
-1493 53 0
-1493 65 0
-1493 89 0
-53 -65 -89 1493 0
-1494 54 0
-1494 66 0
-1494 90 0
-54 -66 -90 1494 0
-1495 55 0
-1495 67 0
-1495 91 0
-55 -67 -91 1495 0
-1496 56 0
-1496 68 0
-1496 92 0
-56 -68 -92 1496 0
-1497 57 0
-1497 69 0
-1497 93 0
-57 -69 -93 1497 0
-1498 58 0
-1498 70 0
-1498 94 0
-58 -70 -94 1498 0
-1499 59 0
-1499 71 0
-1499 95 0
-59 -71 -95 1499 0
-1500 60 0
-1500 72 0
-1500 96 0
-60 -72 -96 1500 0
-1489 1672 0
-1490 1672 0
-1491 1672 0
-1492 1672 0
-1493 1672 0
-1494 1672 0
-1495 1672 0
-1496 1672 0
-1497 1672 0
-1498 1672 0
-1499 1672 0
-1500 1672 0
-1672 1489 1490 1491 1492 1493 1494 1495 1496 1497 1498 1499 1500 0
-1501 49 0
-1501 61 0
-1501 97 0
-49 -61 -97 1501 0
-1502 50 0
-1502 62 0
-1502 98 0
-50 -62 -98 1502 0
-1503 51 0
-1503 63 0
-1503 99 0
-51 -63 -99 1503 0
-1504 52 0
-1504 64 0
-1504 100 0
-52 -64 -100 1504 0
-1505 53 0
-1505 65 0
-1505 101 0
-53 -65 -101 1505 0
-1506 54 0
-1506 66 0
-1506 102 0
-54 -66 -102 1506 0
-1507 55 0
-1507 67 0
-1507 103 0
-55 -67 -103 1507 0
-1508 56 0
-1508 68 0
-1508 104 0
-56 -68 -104 1508 0
-1509 57 0
-1509 69 0
-1509 105 0
-57 -69 -105 1509 0
-1510 58 0
-1510 70 0
-1510 106 0
-58 -70 -106 1510 0
-1511 59 0
-1511 71 0
-1511 107 0
-59 -71 -107 1511 0
-1512 60 0
-1512 72 0
-1512 108 0
-60 -72 -108 1512 0
-1501 1673 0
-1502 1673 0
-1503 1673 0
-1504 1673 0
-1505 1673 0
-1506 1673 0
-1507 1673 0
-1508 1673 0
-1509 1673 0
-1510 1673 0
-1511 1673 0
-1512 1673 0
-1673 1501 1502 1503 1504 1505 1506 1507 1508 1509 1510 1511 1512 0
-1513 49 0
-1513 73 0
-1513 85 0
-49 -73 -85 1513 0
-1514 50 0
-1514 74 0
-1514 86 0
-50 -74 -86 1514 0
-1515 51 0
-1515 75 0
-1515 87 0
-51 -75 -87 1515 0
-1516 52 0
-1516 76 0
-1516 88 0
-52 -76 -88 1516 0
-1517 53 0
-1517 77 0
-1517 89 0
-53 -77 -89 1517 0
-1518 54 0
-1518 78 0
-1518 90 0
-54 -78 -90 1518 0
-1519 55 0
-1519 79 0
-1519 91 0
-55 -79 -91 1519 0
-1520 56 0
-1520 80 0
-1520 92 0
-56 -80 -92 1520 0
-1521 57 0
-1521 81 0
-1521 93 0
-57 -81 -93 1521 0
-1522 58 0
-1522 82 0
-1522 94 0
-58 -82 -94 1522 0
-1523 59 0
-1523 83 0
-1523 95 0
-59 -83 -95 1523 0
-1524 60 0
-1524 84 0
-1524 96 0
-60 -84 -96 1524 0
-1513 1674 0
-1514 1674 0
-1515 1674 0
-1516 1674 0
-1517 1674 0
-1518 1674 0
-1519 1674 0
-1520 1674 0
-1521 1674 0
-1522 1674 0
-1523 1674 0
-1524 1674 0
-1674 1513 1514 1515 1516 1517 1518 1519 1520 1521 1522 1523 1524 0
-1525 49 0
-1525 73 0
-1525 97 0
-49 -73 -97 1525 0
-1526 50 0
-1526 74 0
-1526 98 0
-50 -74 -98 1526 0
-1527 51 0
-1527 75 0
-1527 99 0
-51 -75 -99 1527 0
-1528 52 0
-1528 76 0
-1528 100 0
-52 -76 -100 1528 0
-1529 53 0
-1529 77 0
-1529 101 0
-53 -77 -101 1529 0
-1530 54 0
-1530 78 0
-1530 102 0
-54 -78 -102 1530 0
-1531 55 0
-1531 79 0
-1531 103 0
-55 -79 -103 1531 0
-1532 56 0
-1532 80 0
-1532 104 0
-56 -80 -104 1532 0
-1533 57 0
-1533 81 0
-1533 105 0
-57 -81 -105 1533 0
-1534 58 0
-1534 82 0
-1534 106 0
-58 -82 -106 1534 0
-1535 59 0
-1535 83 0
-1535 107 0
-59 -83 -107 1535 0
-1536 60 0
-1536 84 0
-1536 108 0
-60 -84 -108 1536 0
-1525 1675 0
-1526 1675 0
-1527 1675 0
-1528 1675 0
-1529 1675 0
-1530 1675 0
-1531 1675 0
-1532 1675 0
-1533 1675 0
-1534 1675 0
-1535 1675 0
-1536 1675 0
-1675 1525 1526 1527 1528 1529 1530 1531 1532 1533 1534 1535 1536 0
-1537 49 0
-1537 85 0
-1537 97 0
-49 -85 -97 1537 0
-1538 50 0
-1538 86 0
-1538 98 0
-50 -86 -98 1538 0
-1539 51 0
-1539 87 0
-1539 99 0
-51 -87 -99 1539 0
-1540 52 0
-1540 88 0
-1540 100 0
-52 -88 -100 1540 0
-1541 53 0
-1541 89 0
-1541 101 0
-53 -89 -101 1541 0
-1542 54 0
-1542 90 0
-1542 102 0
-54 -90 -102 1542 0
-1543 55 0
-1543 91 0
-1543 103 0
-55 -91 -103 1543 0
-1544 56 0
-1544 92 0
-1544 104 0
-56 -92 -104 1544 0
-1545 57 0
-1545 93 0
-1545 105 0
-57 -93 -105 1545 0
-1546 58 0
-1546 94 0
-1546 106 0
-58 -94 -106 1546 0
-1547 59 0
-1547 95 0
-1547 107 0
-59 -95 -107 1547 0
-1548 60 0
-1548 96 0
-1548 108 0
-60 -96 -108 1548 0
-1537 1676 0
-1538 1676 0
-1539 1676 0
-1540 1676 0
-1541 1676 0
-1542 1676 0
-1543 1676 0
-1544 1676 0
-1545 1676 0
-1546 1676 0
-1547 1676 0
-1548 1676 0
-1676 1537 1538 1539 1540 1541 1542 1543 1544 1545 1546 1547 1548 0
-1549 61 0
-1549 73 0
-1549 85 0
-61 -73 -85 1549 0
-1550 62 0
-1550 74 0
-1550 86 0
-62 -74 -86 1550 0
-1551 63 0
-1551 75 0
-1551 87 0
-63 -75 -87 1551 0
-1552 64 0
-1552 76 0
-1552 88 0
-64 -76 -88 1552 0
-1553 65 0
-1553 77 0
-1553 89 0
-65 -77 -89 1553 0
-1554 66 0
-1554 78 0
-1554 90 0
-66 -78 -90 1554 0
-1555 67 0
-1555 79 0
-1555 91 0
-67 -79 -91 1555 0
-1556 68 0
-1556 80 0
-1556 92 0
-68 -80 -92 1556 0
-1557 69 0
-1557 81 0
-1557 93 0
-69 -81 -93 1557 0
-1558 70 0
-1558 82 0
-1558 94 0
-70 -82 -94 1558 0
-1559 71 0
-1559 83 0
-1559 95 0
-71 -83 -95 1559 0
-1560 72 0
-1560 84 0
-1560 96 0
-72 -84 -96 1560 0
-1549 1677 0
-1550 1677 0
-1551 1677 0
-1552 1677 0
-1553 1677 0
-1554 1677 0
-1555 1677 0
-1556 1677 0
-1557 1677 0
-1558 1677 0
-1559 1677 0
-1560 1677 0
-1677 1549 1550 1551 1552 1553 1554 1555 1556 1557 1558 1559 1560 0
-1561 61 0
-1561 73 0
-1561 97 0
-61 -73 -97 1561 0
-1562 62 0
-1562 74 0
-1562 98 0
-62 -74 -98 1562 0
-1563 63 0
-1563 75 0
-1563 99 0
-63 -75 -99 1563 0
-1564 64 0
-1564 76 0
-1564 100 0
-64 -76 -100 1564 0
-1565 65 0
-1565 77 0
-1565 101 0
-65 -77 -101 1565 0
-1566 66 0
-1566 78 0
-1566 102 0
-66 -78 -102 1566 0
-1567 67 0
-1567 79 0
-1567 103 0
-67 -79 -103 1567 0
-1568 68 0
-1568 80 0
-1568 104 0
-68 -80 -104 1568 0
-1569 69 0
-1569 81 0
-1569 105 0
-69 -81 -105 1569 0
-1570 70 0
-1570 82 0
-1570 106 0
-70 -82 -106 1570 0
-1571 71 0
-1571 83 0
-1571 107 0
-71 -83 -107 1571 0
-1572 72 0
-1572 84 0
-1572 108 0
-72 -84 -108 1572 0
-1561 1678 0
-1562 1678 0
-1563 1678 0
-1564 1678 0
-1565 1678 0
-1566 1678 0
-1567 1678 0
-1568 1678 0
-1569 1678 0
-1570 1678 0
-1571 1678 0
-1572 1678 0
-1678 1561 1562 1563 1564 1565 1566 1567 1568 1569 1570 1571 1572 0
-1573 61 0
-1573 85 0
-1573 97 0
-61 -85 -97 1573 0
-1574 62 0
-1574 86 0
-1574 98 0
-62 -86 -98 1574 0
-1575 63 0
-1575 87 0
-1575 99 0
-63 -87 -99 1575 0
-1576 64 0
-1576 88 0
-1576 100 0
-64 -88 -100 1576 0
-1577 65 0
-1577 89 0
-1577 101 0
-65 -89 -101 1577 0
-1578 66 0
-1578 90 0
-1578 102 0
-66 -90 -102 1578 0
-1579 67 0
-1579 91 0
-1579 103 0
-67 -91 -103 1579 0
-1580 68 0
-1580 92 0
-1580 104 0
-68 -92 -104 1580 0
-1581 69 0
-1581 93 0
-1581 105 0
-69 -93 -105 1581 0
-1582 70 0
-1582 94 0
-1582 106 0
-70 -94 -106 1582 0
-1583 71 0
-1583 95 0
-1583 107 0
-71 -95 -107 1583 0
-1584 72 0
-1584 96 0
-1584 108 0
-72 -96 -108 1584 0
-1573 1679 0
-1574 1679 0
-1575 1679 0
-1576 1679 0
-1577 1679 0
-1578 1679 0
-1579 1679 0
-1580 1679 0
-1581 1679 0
-1582 1679 0
-1583 1679 0
-1584 1679 0
-1679 1573 1574 1575 1576 1577 1578 1579 1580 1581 1582 1583 1584 0
-1585 73 0
-1585 85 0
-1585 97 0
-73 -85 -97 1585 0
-1586 74 0
-1586 86 0
-1586 98 0
-74 -86 -98 1586 0
-1587 75 0
-1587 87 0
-1587 99 0
-75 -87 -99 1587 0
-1588 76 0
-1588 88 0
-1588 100 0
-76 -88 -100 1588 0
-1589 77 0
-1589 89 0
-1589 101 0
-77 -89 -101 1589 0
-1590 78 0
-1590 90 0
-1590 102 0
-78 -90 -102 1590 0
-1591 79 0
-1591 91 0
-1591 103 0
-79 -91 -103 1591 0
-1592 80 0
-1592 92 0
-1592 104 0
-80 -92 -104 1592 0
-1593 81 0
-1593 93 0
-1593 105 0
-81 -93 -105 1593 0
-1594 82 0
-1594 94 0
-1594 106 0
-82 -94 -106 1594 0
-1595 83 0
-1595 95 0
-1595 107 0
-83 -95 -107 1595 0
-1596 84 0
-1596 96 0
-1596 108 0
-84 -96 -108 1596 0
-1585 1680 0
-1586 1680 0
-1587 1680 0
-1588 1680 0
-1589 1680 0
-1590 1680 0
-1591 1680 0
-1592 1680 0
-1593 1680 0
-1594 1680 0
-1595 1680 0
-1596 1680 0
-1680 1585 1586 1587 1588 1589 1590 1591 1592 1593 1594 1595 1596 0
-553 -561 -568 -555 1597 1625 1604 1598 0
-553 -562 -568 -554 1598 1625 1604 1597 0
-554 -561 -562 -555 1597 1625 1598 1604 0
-553 -561 -569 -556 1597 1626 1605 1599 0
-553 -563 -569 -554 1599 1626 1605 1597 0
-554 -561 -563 -556 1597 1626 1599 1605 0
-553 -561 -570 -557 1597 1627 1606 1600 0
-553 -564 -570 -554 1600 1627 1606 1597 0
-554 -561 -564 -557 1597 1627 1600 1606 0
-553 -561 -571 -558 1597 1628 1607 1601 0
-553 -565 -571 -554 1601 1628 1607 1597 0
-554 -561 -565 -558 1597 1628 1601 1607 0
-553 -561 -572 -559 1597 1629 1608 1602 0
-553 -566 -572 -554 1602 1629 1608 1597 0
-554 -561 -566 -559 1597 1629 1602 1608 0
-553 -561 -573 -560 1597 1630 1609 1603 0
-553 -567 -573 -554 1603 1630 1609 1597 0
-554 -561 -567 -560 1597 1630 1603 1609 0
-553 -562 -574 -556 1598 1631 1610 1599 0
-553 -563 -574 -555 1599 1631 1610 1598 0
-555 -562 -563 -556 1598 1631 1599 1610 0
-553 -562 -575 -557 1598 1632 1611 1600 0
-553 -564 -575 -555 1600 1632 1611 1598 0
-555 -562 -564 -557 1598 1632 1600 1611 0
-553 -562 -576 -558 1598 1633 1612 1601 0
-553 -565 -576 -555 1601 1633 1612 1598 0
-555 -562 -565 -558 1598 1633 1601 1612 0
-553 -562 -577 -559 1598 1634 1613 1602 0
-553 -566 -577 -555 1602 1634 1613 1598 0
-555 -562 -566 -559 1598 1634 1602 1613 0
-553 -562 -578 -560 1598 1635 1614 1603 0
-553 -567 -578 -555 1603 1635 1614 1598 0
-555 -562 -567 -560 1598 1635 1603 1614 0
-553 -563 -579 -557 1599 1636 1615 1600 0
-553 -564 -579 -556 1600 1636 1615 1599 0
-556 -563 -564 -557 1599 1636 1600 1615 0
-553 -563 -580 -558 1599 1637 1616 1601 0
-553 -565 -580 -556 1601 1637 1616 1599 0
-556 -563 -565 -558 1599 1637 1601 1616 0
-553 -563 -581 -559 1599 1638 1617 1602 0
-553 -566 -581 -556 1602 1638 1617 1599 0
-556 -563 -566 -559 1599 1638 1602 1617 0
-553 -563 -582 -560 1599 1639 1618 1603 0
-553 -567 -582 -556 1603 1639 1618 1599 0
-556 -563 -567 -560 1599 1639 1603 1618 0
-553 -564 -583 -558 1600 1640 1619 1601 0
-553 -565 -583 -557 1601 1640 1619 1600 0
-557 -564 -565 -558 1600 1640 1601 1619 0
-553 -564 -584 -559 1600 1641 1620 1602 0
-553 -566 -584 -557 1602 1641 1620 1600 0
-557 -564 -566 -559 1600 1641 1602 1620 0
-553 -564 -585 -560 1600 1642 1621 1603 0
-553 -567 -585 -557 1603 1642 1621 1600 0
-557 -564 -567 -560 1600 1642 1603 1621 0
-553 -565 -586 -559 1601 1643 1622 1602 0
-553 -566 -586 -558 1602 1643 1622 1601 0
-558 -565 -566 -559 1601 1643 1602 1622 0
-553 -565 -587 -560 1601 1644 1623 1603 0
-553 -567 -587 -558 1603 1644 1623 1601 0
-558 -565 -567 -560 1601 1644 1603 1623 0
-553 -566 -588 -560 1602 1645 1624 1603 0
-553 -567 -588 -559 1603 1645 1624 1602 0
-559 -566 -567 -560 1602 1645 1603 1624 0
-554 -568 -574 -556 1604 1646 1610 1605 0
-554 -569 -574 -555 1605 1646 1610 1604 0
-555 -568 -569 -556 1604 1646 1605 1610 0
-554 -568 -575 -557 1604 1647 1611 1606 0
-554 -570 -575 -555 1606 1647 1611 1604 0
-555 -568 -570 -557 1604 1647 1606 1611 0
-554 -568 -576 -558 1604 1648 1612 1607 0
-554 -571 -576 -555 1607 1648 1612 1604 0
-555 -568 -571 -558 1604 1648 1607 1612 0
-554 -568 -577 -559 1604 1649 1613 1608 0
-554 -572 -577 -555 1608 1649 1613 1604 0
-555 -568 -572 -559 1604 1649 1608 1613 0
-554 -568 -578 -560 1604 1650 1614 1609 0
-554 -573 -578 -555 1609 1650 1614 1604 0
-555 -568 -573 -560 1604 1650 1609 1614 0
-554 -569 -579 -557 1605 1651 1615 1606 0
-554 -570 -579 -556 1606 1651 1615 1605 0
-556 -569 -570 -557 1605 1651 1606 1615 0
-554 -569 -580 -558 1605 1652 1616 1607 0
-554 -571 -580 -556 1607 1652 1616 1605 0
-556 -569 -571 -558 1605 1652 1607 1616 0
-554 -569 -581 -559 1605 1653 1617 1608 0
-554 -572 -581 -556 1608 1653 1617 1605 0
-556 -569 -572 -559 1605 1653 1608 1617 0
-554 -569 -582 -560 1605 1654 1618 1609 0
-554 -573 -582 -556 1609 1654 1618 1605 0
-556 -569 -573 -560 1605 1654 1609 1618 0
-554 -570 -583 -558 1606 1655 1619 1607 0
-554 -571 -583 -557 1607 1655 1619 1606 0
-557 -570 -571 -558 1606 1655 1607 1619 0
-554 -570 -584 -559 1606 1656 1620 1608 0
-554 -572 -584 -557 1608 1656 1620 1606 0
-557 -570 -572 -559 1606 1656 1608 1620 0
-554 -570 -585 -560 1606 1657 1621 1609 0
-554 -573 -585 -557 1609 1657 1621 1606 0
-557 -570 -573 -560 1606 1657 1609 1621 0
-554 -571 -586 -559 1607 1658 1622 1608 0
-554 -572 -586 -558 1608 1658 1622 1607 0
-558 -571 -572 -559 1607 1658 1608 1622 0
-554 -571 -587 -560 1607 1659 1623 1609 0
-554 -573 -587 -558 1609 1659 1623 1607 0
-558 -571 -573 -560 1607 1659 1609 1623 0
-554 -572 -588 -560 1608 1660 1624 1609 0
-554 -573 -588 -559 1609 1660 1624 1608 0
-559 -572 -573 -560 1608 1660 1609 1624 0
-555 -574 -579 -557 1610 1661 1615 1611 0
-555 -575 -579 -556 1611 1661 1615 1610 0
-556 -574 -575 -557 1610 1661 1611 1615 0
-555 -574 -580 -558 1610 1662 1616 1612 0
-555 -576 -580 -556 1612 1662 1616 1610 0
-556 -574 -576 -558 1610 1662 1612 1616 0
-555 -574 -581 -559 1610 1663 1617 1613 0
-555 -577 -581 -556 1613 1663 1617 1610 0
-556 -574 -577 -559 1610 1663 1613 1617 0
-555 -574 -582 -560 1610 1664 1618 1614 0
-555 -578 -582 -556 1614 1664 1618 1610 0
-556 -574 -578 -560 1610 1664 1614 1618 0
-555 -575 -583 -558 1611 1665 1619 1612 0
-555 -576 -583 -557 1612 1665 1619 1611 0
-557 -575 -576 -558 1611 1665 1612 1619 0
-555 -575 -584 -559 1611 1666 1620 1613 0
-555 -577 -584 -557 1613 1666 1620 1611 0
-557 -575 -577 -559 1611 1666 1613 1620 0
-555 -575 -585 -560 1611 1667 1621 1614 0
-555 -578 -585 -557 1614 1667 1621 1611 0
-557 -575 -578 -560 1611 1667 1614 1621 0
-555 -576 -586 -559 1612 1668 1622 1613 0
-555 -577 -586 -558 1613 1668 1622 1612 0
-558 -576 -577 -559 1612 1668 1613 1622 0
-555 -576 -587 -560 1612 1669 1623 1614 0
-555 -578 -587 -558 1614 1669 1623 1612 0
-558 -576 -578 -560 1612 1669 1614 1623 0
-555 -577 -588 -560 1613 1670 1624 1614 0
-555 -578 -588 -559 1614 1670 1624 1613 0
-559 -577 -578 -560 1613 1670 1614 1624 0
-556 -579 -583 -558 1615 1671 1619 1616 0
-556 -580 -583 -557 1616 1671 1619 1615 0
-557 -579 -580 -558 1615 1671 1616 1619 0
-556 -579 -584 -559 1615 1672 1620 1617 0
-556 -581 -584 -557 1617 1672 1620 1615 0
-557 -579 -581 -559 1615 1672 1617 1620 0
-556 -579 -585 -560 1615 1673 1621 1618 0
-556 -582 -585 -557 1618 1673 1621 1615 0
-557 -579 -582 -560 1615 1673 1618 1621 0
-556 -580 -586 -559 1616 1674 1622 1617 0
-556 -581 -586 -558 1617 1674 1622 1616 0
-558 -580 -581 -559 1616 1674 1617 1622 0
-556 -580 -587 -560 1616 1675 1623 1618 0
-556 -582 -587 -558 1618 1675 1623 1616 0
-558 -580 -582 -560 1616 1675 1618 1623 0
-556 -581 -588 -560 1617 1676 1624 1618 0
-556 -582 -588 -559 1618 1676 1624 1617 0
-559 -581 -582 -560 1617 1676 1618 1624 0
-557 -583 -586 -559 1619 1677 1622 1620 0
-557 -584 -586 -558 1620 1677 1622 1619 0
-558 -583 -584 -559 1619 1677 1620 1622 0
-557 -583 -587 -560 1619 1678 1623 1621 0
-557 -585 -587 -558 1621 1678 1623 1619 0
-558 -583 -585 -560 1619 1678 1621 1623 0
-557 -584 -588 -560 1620 1679 1624 1621 0
-557 -585 -588 -559 1621 1679 1624 1620 0
-559 -584 -585 -560 1620 1679 1621 1624 0
-558 -586 -588 -560 1622 1680 1624 1623 0
-558 -587 -588 -559 1623 1680 1624 1622 0
-559 -586 -587 -560 1622 1680 1623 1624 0
-561 -568 -574 -563 1625 1646 1631 1626 0
-561 -569 -574 -562 1626 1646 1631 1625 0
-562 -568 -569 -563 1625 1646 1626 1631 0
-561 -568 -575 -564 1625 1647 1632 1627 0
-561 -570 -575 -562 1627 1647 1632 1625 0
-562 -568 -570 -564 1625 1647 1627 1632 0
-561 -568 -576 -565 1625 1648 1633 1628 0
-561 -571 -576 -562 1628 1648 1633 1625 0
-562 -568 -571 -565 1625 1648 1628 1633 0
-561 -568 -577 -566 1625 1649 1634 1629 0
-561 -572 -577 -562 1629 1649 1634 1625 0
-562 -568 -572 -566 1625 1649 1629 1634 0
-561 -568 -578 -567 1625 1650 1635 1630 0
-561 -573 -578 -562 1630 1650 1635 1625 0
-562 -568 -573 -567 1625 1650 1630 1635 0
-561 -569 -579 -564 1626 1651 1636 1627 0
-561 -570 -579 -563 1627 1651 1636 1626 0
-563 -569 -570 -564 1626 1651 1627 1636 0
-561 -569 -580 -565 1626 1652 1637 1628 0
-561 -571 -580 -563 1628 1652 1637 1626 0
-563 -569 -571 -565 1626 1652 1628 1637 0
-561 -569 -581 -566 1626 1653 1638 1629 0
-561 -572 -581 -563 1629 1653 1638 1626 0
-563 -569 -572 -566 1626 1653 1629 1638 0
-561 -569 -582 -567 1626 1654 1639 1630 0
-561 -573 -582 -563 1630 1654 1639 1626 0
-563 -569 -573 -567 1626 1654 1630 1639 0
-561 -570 -583 -565 1627 1655 1640 1628 0
-561 -571 -583 -564 1628 1655 1640 1627 0
-564 -570 -571 -565 1627 1655 1628 1640 0
-561 -570 -584 -566 1627 1656 1641 1629 0
-561 -572 -584 -564 1629 1656 1641 1627 0
-564 -570 -572 -566 1627 1656 1629 1641 0
-561 -570 -585 -567 1627 1657 1642 1630 0
-561 -573 -585 -564 1630 1657 1642 1627 0
-564 -570 -573 -567 1627 1657 1630 1642 0
-561 -571 -586 -566 1628 1658 1643 1629 0
-561 -572 -586 -565 1629 1658 1643 1628 0
-565 -571 -572 -566 1628 1658 1629 1643 0
-561 -571 -587 -567 1628 1659 1644 1630 0
-561 -573 -587 -565 1630 1659 1644 1628 0
-565 -571 -573 -567 1628 1659 1630 1644 0
-561 -572 -588 -567 1629 1660 1645 1630 0
-561 -573 -588 -566 1630 1660 1645 1629 0
-566 -572 -573 -567 1629 1660 1630 1645 0
-562 -574 -579 -564 1631 1661 1636 1632 0
-562 -575 -579 -563 1632 1661 1636 1631 0
-563 -574 -575 -564 1631 1661 1632 1636 0
-562 -574 -580 -565 1631 1662 1637 1633 0
-562 -576 -580 -563 1633 1662 1637 1631 0
-563 -574 -576 -565 1631 1662 1633 1637 0
-562 -574 -581 -566 1631 1663 1638 1634 0
-562 -577 -581 -563 1634 1663 1638 1631 0
-563 -574 -577 -566 1631 1663 1634 1638 0
-562 -574 -582 -567 1631 1664 1639 1635 0
-562 -578 -582 -563 1635 1664 1639 1631 0
-563 -574 -578 -567 1631 1664 1635 1639 0
-562 -575 -583 -565 1632 1665 1640 1633 0
-562 -576 -583 -564 1633 1665 1640 1632 0
-564 -575 -576 -565 1632 1665 1633 1640 0
-562 -575 -584 -566 1632 1666 1641 1634 0
-562 -577 -584 -564 1634 1666 1641 1632 0
-564 -575 -577 -566 1632 1666 1634 1641 0
-562 -575 -585 -567 1632 1667 1642 1635 0
-562 -578 -585 -564 1635 1667 1642 1632 0
-564 -575 -578 -567 1632 1667 1635 1642 0
-562 -576 -586 -566 1633 1668 1643 1634 0
-562 -577 -586 -565 1634 1668 1643 1633 0
-565 -576 -577 -566 1633 1668 1634 1643 0
-562 -576 -587 -567 1633 1669 1644 1635 0
-562 -578 -587 -565 1635 1669 1644 1633 0
-565 -576 -578 -567 1633 1669 1635 1644 0
-562 -577 -588 -567 1634 1670 1645 1635 0
-562 -578 -588 -566 1635 1670 1645 1634 0
-566 -577 -578 -567 1634 1670 1635 1645 0
-563 -579 -583 -565 1636 1671 1640 1637 0
-563 -580 -583 -564 1637 1671 1640 1636 0
-564 -579 -580 -565 1636 1671 1637 1640 0
-563 -579 -584 -566 1636 1672 1641 1638 0
-563 -581 -584 -564 1638 1672 1641 1636 0
-564 -579 -581 -566 1636 1672 1638 1641 0
-563 -579 -585 -567 1636 1673 1642 1639 0
-563 -582 -585 -564 1639 1673 1642 1636 0
-564 -579 -582 -567 1636 1673 1639 1642 0
-563 -580 -586 -566 1637 1674 1643 1638 0
-563 -581 -586 -565 1638 1674 1643 1637 0
-565 -580 -581 -566 1637 1674 1638 1643 0
-563 -580 -587 -567 1637 1675 1644 1639 0
-563 -582 -587 -565 1639 1675 1644 1637 0
-565 -580 -582 -567 1637 1675 1639 1644 0
-563 -581 -588 -567 1638 1676 1645 1639 0
-563 -582 -588 -566 1639 1676 1645 1638 0
-566 -581 -582 -567 1638 1676 1639 1645 0
-564 -583 -586 -566 1640 1677 1643 1641 0
-564 -584 -586 -565 1641 1677 1643 1640 0
-565 -583 -584 -566 1640 1677 1641 1643 0
-564 -583 -587 -567 1640 1678 1644 1642 0
-564 -585 -587 -565 1642 1678 1644 1640 0
-565 -583 -585 -567 1640 1678 1642 1644 0
-564 -584 -588 -567 1641 1679 1645 1642 0
-564 -585 -588 -566 1642 1679 1645 1641 0
-566 -584 -585 -567 1641 1679 1642 1645 0
-565 -586 -588 -567 1643 1680 1645 1644 0
-565 -587 -588 -566 1644 1680 1645 1643 0
-566 -586 -587 -567 1643 1680 1644 1645 0
-568 -574 -579 -570 1646 1661 1651 1647 0
-568 -575 -579 -569 1647 1661 1651 1646 0
-569 -574 -575 -570 1646 1661 1647 1651 0
-568 -574 -580 -571 1646 1662 1652 1648 0
-568 -576 -580 -569 1648 1662 1652 1646 0
-569 -574 -576 -571 1646 1662 1648 1652 0
-568 -574 -581 -572 1646 1663 1653 1649 0
-568 -577 -581 -569 1649 1663 1653 1646 0
-569 -574 -577 -572 1646 1663 1649 1653 0
-568 -574 -582 -573 1646 1664 1654 1650 0
-568 -578 -582 -569 1650 1664 1654 1646 0
-569 -574 -578 -573 1646 1664 1650 1654 0
-568 -575 -583 -571 1647 1665 1655 1648 0
-568 -576 -583 -570 1648 1665 1655 1647 0
-570 -575 -576 -571 1647 1665 1648 1655 0
-568 -575 -584 -572 1647 1666 1656 1649 0
-568 -577 -584 -570 1649 1666 1656 1647 0
-570 -575 -577 -572 1647 1666 1649 1656 0
-568 -575 -585 -573 1647 1667 1657 1650 0
-568 -578 -585 -570 1650 1667 1657 1647 0
-570 -575 -578 -573 1647 1667 1650 1657 0
-568 -576 -586 -572 1648 1668 1658 1649 0
-568 -577 -586 -571 1649 1668 1658 1648 0
-571 -576 -577 -572 1648 1668 1649 1658 0
-568 -576 -587 -573 1648 1669 1659 1650 0
-568 -578 -587 -571 1650 1669 1659 1648 0
-571 -576 -578 -573 1648 1669 1650 1659 0
-568 -577 -588 -573 1649 1670 1660 1650 0
-568 -578 -588 -572 1650 1670 1660 1649 0
-572 -577 -578 -573 1649 1670 1650 1660 0
-569 -579 -583 -571 1651 1671 1655 1652 0
-569 -580 -583 -570 1652 1671 1655 1651 0
-570 -579 -580 -571 1651 1671 1652 1655 0
-569 -579 -584 -572 1651 1672 1656 1653 0
-569 -581 -584 -570 1653 1672 1656 1651 0
-570 -579 -581 -572 1651 1672 1653 1656 0
-569 -579 -585 -573 1651 1673 1657 1654 0
-569 -582 -585 -570 1654 1673 1657 1651 0
-570 -579 -582 -573 1651 1673 1654 1657 0
-569 -580 -586 -572 1652 1674 1658 1653 0
-569 -581 -586 -571 1653 1674 1658 1652 0
-571 -580 -581 -572 1652 1674 1653 1658 0
-569 -580 -587 -573 1652 1675 1659 1654 0
-569 -582 -587 -571 1654 1675 1659 1652 0
-571 -580 -582 -573 1652 1675 1654 1659 0
-569 -581 -588 -573 1653 1676 1660 1654 0
-569 -582 -588 -572 1654 1676 1660 1653 0
-572 -581 -582 -573 1653 1676 1654 1660 0
-570 -583 -586 -572 1655 1677 1658 1656 0
-570 -584 -586 -571 1656 1677 1658 1655 0
-571 -583 -584 -572 1655 1677 1656 1658 0
-570 -583 -587 -573 1655 1678 1659 1657 0
-570 -585 -587 -571 1657 1678 1659 1655 0
-571 -583 -585 -573 1655 1678 1657 1659 0
-570 -584 -588 -573 1656 1679 1660 1657 0
-570 -585 -588 -572 1657 1679 1660 1656 0
-572 -584 -585 -573 1656 1679 1657 1660 0
-571 -586 -588 -573 1658 1680 1660 1659 0
-571 -587 -588 -572 1659 1680 1660 1658 0
-572 -586 -587 -573 1658 1680 1659 1660 0
-574 -579 -583 -576 1661 1671 1665 1662 0
-574 -580 -583 -575 1662 1671 1665 1661 0
-575 -579 -580 -576 1661 1671 1662 1665 0
-574 -579 -584 -577 1661 1672 1666 1663 0
-574 -581 -584 -575 1663 1672 1666 1661 0
-575 -579 -581 -577 1661 1672 1663 1666 0
-574 -579 -585 -578 1661 1673 1667 1664 0
-574 -582 -585 -575 1664 1673 1667 1661 0
-575 -579 -582 -578 1661 1673 1664 1667 0
-574 -580 -586 -577 1662 1674 1668 1663 0
-574 -581 -586 -576 1663 1674 1668 1662 0
-576 -580 -581 -577 1662 1674 1663 1668 0
-574 -580 -587 -578 1662 1675 1669 1664 0
-574 -582 -587 -576 1664 1675 1669 1662 0
-576 -580 -582 -578 1662 1675 1664 1669 0
-574 -581 -588 -578 1663 1676 1670 1664 0
-574 -582 -588 -577 1664 1676 1670 1663 0
-577 -581 -582 -578 1663 1676 1664 1670 0
-575 -583 -586 -577 1665 1677 1668 1666 0
-575 -584 -586 -576 1666 1677 1668 1665 0
-576 -583 -584 -577 1665 1677 1666 1668 0
-575 -583 -587 -578 1665 1678 1669 1667 0
-575 -585 -587 -576 1667 1678 1669 1665 0
-576 -583 -585 -578 1665 1678 1667 1669 0
-575 -584 -588 -578 1666 1679 1670 1667 0
-575 -585 -588 -577 1667 1679 1670 1666 0
-577 -584 -585 -578 1666 1679 1667 1670 0
-576 -586 -588 -578 1668 1680 1670 1669 0
-576 -587 -588 -577 1669 1680 1670 1668 0
-577 -586 -587 -578 1668 1680 1669 1670 0
-579 -583 -586 -581 1671 1677 1674 1672 0
-579 -584 -586 -580 1672 1677 1674 1671 0
-580 -583 -584 -581 1671 1677 1672 1674 0
-579 -583 -587 -582 1671 1678 1675 1673 0
-579 -585 -587 -580 1673 1678 1675 1671 0
-580 -583 -585 -582 1671 1678 1673 1675 0
-579 -584 -588 -582 1672 1679 1676 1673 0
-579 -585 -588 -581 1673 1679 1676 1672 0
-581 -584 -585 -582 1672 1679 1673 1676 0
-580 -586 -588 -582 1674 1680 1676 1675 0
-580 -587 -588 -581 1675 1680 1676 1674 0
-581 -586 -587 -582 1674 1680 1675 1676 0
-583 -586 -588 -585 1677 1680 1679 1678 0
-583 -587 -588 -584 1678 1680 1679 1677 0
-584 -586 -587 -585 1677 1680 1678 1679 0
2680 0
-2680 1 -2 0
-2681 2680 0
-2681 1 -2 0
-2681 -1 2 0
-2680 -1 -2 2681 0
-2680 1 2 2681 0
-2681 13 -14 0
-2682 2681 0
-2682 13 -14 0
-2682 -13 14 0
-2681 -13 -14 2682 0
-2681 13 14 2682 0
-2682 25 -26 0
-2683 2682 0
-2683 25 -26 0
-2683 -25 26 0
-2682 -25 -26 2683 0
-2682 25 26 2683 0
-2683 37 -38 0
-2684 2683 0
-2684 37 -38 0
-2684 -37 38 0
-2683 -37 -38 2684 0
-2683 37 38 2684 0
-2684 49 -50 0
-2685 2684 0
-2685 49 -50 0
-2685 -49 50 0
-2684 -49 -50 2685 0
-2684 49 50 2685 0
-2685 61 -62 0
-2686 2685 0
-2686 61 -62 0
-2686 -61 62 0
-2685 -61 -62 2686 0
-2685 61 62 2686 0
-2686 73 -74 0
-2687 2686 0
-2687 73 -74 0
-2687 -73 74 0
-2686 -73 -74 2687 0
-2686 73 74 2687 0
-2687 85 -86 0
-2688 2687 0
-2688 85 -86 0
-2688 -85 86 0
-2687 -85 -86 2688 0
-2687 85 86 2688 0
-2688 97 -98 0
-2689 2688 0
-2689 97 -98 0
-2689 -97 98 0
-2688 -97 -98 2689 0
-2688 97 98 2689 0
2690 0
-2690 2 -3 0
-2691 2690 0
-2691 2 -3 0
-2691 -2 3 0
-2690 -2 -3 2691 0
-2690 2 3 2691 0
-2691 14 -15 0
-2692 2691 0
-2692 14 -15 0
-2692 -14 15 0
-2691 -14 -15 2692 0
-2691 14 15 2692 0
-2692 26 -27 0
-2693 2692 0
-2693 26 -27 0
-2693 -26 27 0
-2692 -26 -27 2693 0
-2692 26 27 2693 0
-2693 38 -39 0
-2694 2693 0
-2694 38 -39 0
-2694 -38 39 0
-2693 -38 -39 2694 0
-2693 38 39 2694 0
-2694 50 -51 0
-2695 2694 0
-2695 50 -51 0
-2695 -50 51 0
-2694 -50 -51 2695 0
-2694 50 51 2695 0
-2695 62 -63 0
-2696 2695 0
-2696 62 -63 0
-2696 -62 63 0
-2695 -62 -63 2696 0
-2695 62 63 2696 0
-2696 74 -75 0
-2697 2696 0
-2697 74 -75 0
-2697 -74 75 0
-2696 -74 -75 2697 0
-2696 74 75 2697 0
-2697 86 -87 0
-2698 2697 0
-2698 86 -87 0
-2698 -86 87 0
-2697 -86 -87 2698 0
-2697 86 87 2698 0
-2698 98 -99 0
-2699 2698 0
-2699 98 -99 0
-2699 -98 99 0
-2698 -98 -99 2699 0
-2698 98 99 2699 0
2700 0
-2700 3 -4 0
-2701 2700 0
-2701 3 -4 0
-2701 -3 4 0
-2700 -3 -4 2701 0
-2700 3 4 2701 0
-2701 15 -16 0
-2702 2701 0
-2702 15 -16 0
-2702 -15 16 0
-2701 -15 -16 2702 0
-2701 15 16 2702 0
-2702 27 -28 0
-2703 2702 0
-2703 27 -28 0
-2703 -27 28 0
-2702 -27 -28 2703 0
-2702 27 28 2703 0
-2703 39 -40 0
-2704 2703 0
-2704 39 -40 0
-2704 -39 40 0
-2703 -39 -40 2704 0
-2703 39 40 2704 0
-2704 51 -52 0
-2705 2704 0
-2705 51 -52 0
-2705 -51 52 0
-2704 -51 -52 2705 0
-2704 51 52 2705 0
-2705 63 -64 0
-2706 2705 0
-2706 63 -64 0
-2706 -63 64 0
-2705 -63 -64 2706 0
-2705 63 64 2706 0
-2706 75 -76 0
-2707 2706 0
-2707 75 -76 0
-2707 -75 76 0
-2706 -75 -76 2707 0
-2706 75 76 2707 0
-2707 87 -88 0
-2708 2707 0
-2708 87 -88 0
-2708 -87 88 0
-2707 -87 -88 2708 0
-2707 87 88 2708 0
-2708 99 -100 0
-2709 2708 0
-2709 99 -100 0
-2709 -99 100 0
-2708 -99 -100 2709 0
-2708 99 100 2709 0
2710 0
-2710 4 -5 0
-2711 2710 0
-2711 4 -5 0
-2711 -4 5 0
-2710 -4 -5 2711 0
-2710 4 5 2711 0
-2711 16 -17 0
-2712 2711 0
-2712 16 -17 0
-2712 -16 17 0
-2711 -16 -17 2712 0
-2711 16 17 2712 0
-2712 28 -29 0
-2713 2712 0
-2713 28 -29 0
-2713 -28 29 0
-2712 -28 -29 2713 0
-2712 28 29 2713 0
-2713 40 -41 0
-2714 2713 0
-2714 40 -41 0
-2714 -40 41 0
-2713 -40 -41 2714 0
-2713 40 41 2714 0
-2714 52 -53 0
-2715 2714 0
-2715 52 -53 0
-2715 -52 53 0
-2714 -52 -53 2715 0
-2714 52 53 2715 0
-2715 64 -65 0
-2716 2715 0
-2716 64 -65 0
-2716 -64 65 0
-2715 -64 -65 2716 0
-2715 64 65 2716 0
-2716 76 -77 0
-2717 2716 0
-2717 76 -77 0
-2717 -76 77 0
-2716 -76 -77 2717 0
-2716 76 77 2717 0
-2717 88 -89 0
-2718 2717 0
-2718 88 -89 0
-2718 -88 89 0
-2717 -88 -89 2718 0
-2717 88 89 2718 0
-2718 100 -101 0
-2719 2718 0
-2719 100 -101 0
-2719 -100 101 0
-2718 -100 -101 2719 0
-2718 100 101 2719 0
2720 0
-2720 5 -6 0
-2721 2720 0
-2721 5 -6 0
-2721 -5 6 0
-2720 -5 -6 2721 0
-2720 5 6 2721 0
-2721 17 -18 0
-2722 2721 0
-2722 17 -18 0
-2722 -17 18 0
-2721 -17 -18 2722 0
-2721 17 18 2722 0
-2722 29 -30 0
-2723 2722 0
-2723 29 -30 0
-2723 -29 30 0
-2722 -29 -30 2723 0
-2722 29 30 2723 0
-2723 41 -42 0
-2724 2723 0
-2724 41 -42 0
-2724 -41 42 0
-2723 -41 -42 2724 0
-2723 41 42 2724 0
-2724 53 -54 0
-2725 2724 0
-2725 53 -54 0
-2725 -53 54 0
-2724 -53 -54 2725 0
-2724 53 54 2725 0
-2725 65 -66 0
-2726 2725 0
-2726 65 -66 0
-2726 -65 66 0
-2725 -65 -66 2726 0
-2725 65 66 2726 0
-2726 77 -78 0
-2727 2726 0
-2727 77 -78 0
-2727 -77 78 0
-2726 -77 -78 2727 0
-2726 77 78 2727 0
-2727 89 -90 0
-2728 2727 0
-2728 89 -90 0
-2728 -89 90 0
-2727 -89 -90 2728 0
-2727 89 90 2728 0
-2728 101 -102 0
-2729 2728 0
-2729 101 -102 0
-2729 -101 102 0
-2728 -101 -102 2729 0
-2728 101 102 2729 0
2730 0
-2730 6 -7 0
-2731 2730 0
-2731 6 -7 0
-2731 -6 7 0
-2730 -6 -7 2731 0
-2730 6 7 2731 0
-2731 18 -19 0
-2732 2731 0
-2732 18 -19 0
-2732 -18 19 0
-2731 -18 -19 2732 0
-2731 18 19 2732 0
-2732 30 -31 0
-2733 2732 0
-2733 30 -31 0
-2733 -30 31 0
-2732 -30 -31 2733 0
-2732 30 31 2733 0
-2733 42 -43 0
-2734 2733 0
-2734 42 -43 0
-2734 -42 43 0
-2733 -42 -43 2734 0
-2733 42 43 2734 0
-2734 54 -55 0
-2735 2734 0
-2735 54 -55 0
-2735 -54 55 0
-2734 -54 -55 2735 0
-2734 54 55 2735 0
-2735 66 -67 0
-2736 2735 0
-2736 66 -67 0
-2736 -66 67 0
-2735 -66 -67 2736 0
-2735 66 67 2736 0
-2736 78 -79 0
-2737 2736 0
-2737 78 -79 0
-2737 -78 79 0
-2736 -78 -79 2737 0
-2736 78 79 2737 0
-2737 90 -91 0
-2738 2737 0
-2738 90 -91 0
-2738 -90 91 0
-2737 -90 -91 2738 0
-2737 90 91 2738 0
-2738 102 -103 0
-2739 2738 0
-2739 102 -103 0
-2739 -102 103 0
-2738 -102 -103 2739 0
-2738 102 103 2739 0
2740 0
-2740 7 -8 0
-2741 2740 0
-2741 7 -8 0
-2741 -7 8 0
-2740 -7 -8 2741 0
-2740 7 8 2741 0
-2741 19 -20 0
-2742 2741 0
-2742 19 -20 0
-2742 -19 20 0
-2741 -19 -20 2742 0
-2741 19 20 2742 0
-2742 31 -32 0
-2743 2742 0
-2743 31 -32 0
-2743 -31 32 0
-2742 -31 -32 2743 0
-2742 31 32 2743 0
-2743 43 -44 0
-2744 2743 0
-2744 43 -44 0
-2744 -43 44 0
-2743 -43 -44 2744 0
-2743 43 44 2744 0
-2744 55 -56 0
-2745 2744 0
-2745 55 -56 0
-2745 -55 56 0
-2744 -55 -56 2745 0
-2744 55 56 2745 0
-2745 67 -68 0
-2746 2745 0
-2746 67 -68 0
-2746 -67 68 0
-2745 -67 -68 2746 0
-2745 67 68 2746 0
-2746 79 -80 0
-2747 2746 0
-2747 79 -80 0
-2747 -79 80 0
-2746 -79 -80 2747 0
-2746 79 80 2747 0
-2747 91 -92 0
-2748 2747 0
-2748 91 -92 0
-2748 -91 92 0
-2747 -91 -92 2748 0
-2747 91 92 2748 0
-2748 103 -104 0
-2749 2748 0
-2749 103 -104 0
-2749 -103 104 0
-2748 -103 -104 2749 0
-2748 103 104 2749 0
2750 0
-2750 8 -9 0
-2751 2750 0
-2751 8 -9 0
-2751 -8 9 0
-2750 -8 -9 2751 0
-2750 8 9 2751 0
-2751 20 -21 0
-2752 2751 0
-2752 20 -21 0
-2752 -20 21 0
-2751 -20 -21 2752 0
-2751 20 21 2752 0
-2752 32 -33 0
-2753 2752 0
-2753 32 -33 0
-2753 -32 33 0
-2752 -32 -33 2753 0
-2752 32 33 2753 0
-2753 44 -45 0
-2754 2753 0
-2754 44 -45 0
-2754 -44 45 0
-2753 -44 -45 2754 0
-2753 44 45 2754 0
-2754 56 -57 0
-2755 2754 0
-2755 56 -57 0
-2755 -56 57 0
-2754 -56 -57 2755 0
-2754 56 57 2755 0
-2755 68 -69 0
-2756 2755 0
-2756 68 -69 0
-2756 -68 69 0
-2755 -68 -69 2756 0
-2755 68 69 2756 0
-2756 80 -81 0
-2757 2756 0
-2757 80 -81 0
-2757 -80 81 0
-2756 -80 -81 2757 0
-2756 80 81 2757 0
-2757 92 -93 0
-2758 2757 0
-2758 92 -93 0
-2758 -92 93 0
-2757 -92 -93 2758 0
-2757 92 93 2758 0
-2758 104 -105 0
-2759 2758 0
-2759 104 -105 0
-2759 -104 105 0
-2758 -104 -105 2759 0
-2758 104 105 2759 0
2760 0
-2760 9 -10 0
-2761 2760 0
-2761 9 -10 0
-2761 -9 10 0
-2760 -9 -10 2761 0
-2760 9 10 2761 0
-2761 21 -22 0
-2762 2761 0
-2762 21 -22 0
-2762 -21 22 0
-2761 -21 -22 2762 0
-2761 21 22 2762 0
-2762 33 -34 0
-2763 2762 0
-2763 33 -34 0
-2763 -33 34 0
-2762 -33 -34 2763 0
-2762 33 34 2763 0
-2763 45 -46 0
-2764 2763 0
-2764 45 -46 0
-2764 -45 46 0
-2763 -45 -46 2764 0
-2763 45 46 2764 0
-2764 57 -58 0
-2765 2764 0
-2765 57 -58 0
-2765 -57 58 0
-2764 -57 -58 2765 0
-2764 57 58 2765 0
-2765 69 -70 0
-2766 2765 0
-2766 69 -70 0
-2766 -69 70 0
-2765 -69 -70 2766 0
-2765 69 70 2766 0
-2766 81 -82 0
-2767 2766 0
-2767 81 -82 0
-2767 -81 82 0
-2766 -81 -82 2767 0
-2766 81 82 2767 0
-2767 93 -94 0
-2768 2767 0
-2768 93 -94 0
-2768 -93 94 0
-2767 -93 -94 2768 0
-2767 93 94 2768 0
-2768 105 -106 0
-2769 2768 0
-2769 105 -106 0
-2769 -105 106 0
-2768 -105 -106 2769 0
-2768 105 106 2769 0
2770 0
-2770 10 -11 0
-2771 2770 0
-2771 10 -11 0
-2771 -10 11 0
-2770 -10 -11 2771 0
-2770 10 11 2771 0
-2771 22 -23 0
-2772 2771 0
-2772 22 -23 0
-2772 -22 23 0
-2771 -22 -23 2772 0
-2771 22 23 2772 0
-2772 34 -35 0
-2773 2772 0
-2773 34 -35 0
-2773 -34 35 0
-2772 -34 -35 2773 0
-2772 34 35 2773 0
-2773 46 -47 0
-2774 2773 0
-2774 46 -47 0
-2774 -46 47 0
-2773 -46 -47 2774 0
-2773 46 47 2774 0
-2774 58 -59 0
-2775 2774 0
-2775 58 -59 0
-2775 -58 59 0
-2774 -58 -59 2775 0
-2774 58 59 2775 0
-2775 70 -71 0
-2776 2775 0
-2776 70 -71 0
-2776 -70 71 0
-2775 -70 -71 2776 0
-2775 70 71 2776 0
-2776 82 -83 0
-2777 2776 0
-2777 82 -83 0
-2777 -82 83 0
-2776 -82 -83 2777 0
-2776 82 83 2777 0
-2777 94 -95 0
-2778 2777 0
-2778 94 -95 0
-2778 -94 95 0
-2777 -94 -95 2778 0
-2777 94 95 2778 0
-2778 106 -107 0
-2779 2778 0
-2779 106 -107 0
-2779 -106 107 0
-2778 -106 -107 2779 0
-2778 106 107 2779 0
2780 0
-2780 11 -12 0
-2781 2780 0
-2781 11 -12 0
-2781 -11 12 0
-2780 -11 -12 2781 0
-2780 11 12 2781 0
-2781 23 -24 0
-2782 2781 0
-2782 23 -24 0
-2782 -23 24 0
-2781 -23 -24 2782 0
-2781 23 24 2782 0
-2782 35 -36 0
-2783 2782 0
-2783 35 -36 0
-2783 -35 36 0
-2782 -35 -36 2783 0
-2782 35 36 2783 0
-2783 47 -48 0
-2784 2783 0
-2784 47 -48 0
-2784 -47 48 0
-2783 -47 -48 2784 0
-2783 47 48 2784 0
-2784 59 -60 0
-2785 2784 0
-2785 59 -60 0
-2785 -59 60 0
-2784 -59 -60 2785 0
-2784 59 60 2785 0
-2785 71 -72 0
-2786 2785 0
-2786 71 -72 0
-2786 -71 72 0
-2785 -71 -72 2786 0
-2785 71 72 2786 0
-2786 83 -84 0
-2787 2786 0
-2787 83 -84 0
-2787 -83 84 0
-2786 -83 -84 2787 0
-2786 83 84 2787 0
-2787 95 -96 0
-2788 2787 0
-2788 95 -96 0
-2788 -95 96 0
-2787 -95 -96 2788 0
-2787 95 96 2788 0
-2788 107 -108 0
-2789 2788 0
-2789 107 -108 0
-2789 -107 108 0
-2788 -107 -108 2789 0
-2788 107 108 2789 0
2790 0
-2790 1 -13 0
-2791 2790 0
-2791 1 -13 0
-2791 -1 13 0
-2790 -1 -13 2791 0
-2790 1 13 2791 0
-2791 2 -14 0
-2792 2791 0
-2792 2 -14 0
-2792 -2 14 0
-2791 -2 -14 2792 0
-2791 2 14 2792 0
-2792 3 -15 0
-2793 2792 0
-2793 3 -15 0
-2793 -3 15 0
-2792 -3 -15 2793 0
-2792 3 15 2793 0
-2793 4 -16 0
-2794 2793 0
-2794 4 -16 0
-2794 -4 16 0
-2793 -4 -16 2794 0
-2793 4 16 2794 0
-2794 5 -17 0
-2795 2794 0
-2795 5 -17 0
-2795 -5 17 0
-2794 -5 -17 2795 0
-2794 5 17 2795 0
-2795 6 -18 0
-2796 2795 0
-2796 6 -18 0
-2796 -6 18 0
-2795 -6 -18 2796 0
-2795 6 18 2796 0
-2796 7 -19 0
-2797 2796 0
-2797 7 -19 0
-2797 -7 19 0
-2796 -7 -19 2797 0
-2796 7 19 2797 0
-2797 8 -20 0
-2798 2797 0
-2798 8 -20 0
-2798 -8 20 0
-2797 -8 -20 2798 0
-2797 8 20 2798 0
-2798 9 -21 0
-2799 2798 0
-2799 9 -21 0
-2799 -9 21 0
-2798 -9 -21 2799 0
-2798 9 21 2799 0
-2799 10 -22 0
-2800 2799 0
-2800 10 -22 0
-2800 -10 22 0
-2799 -10 -22 2800 0
-2799 10 22 2800 0
-2800 11 -23 0
-2801 2800 0
-2801 11 -23 0
-2801 -11 23 0
-2800 -11 -23 2801 0
-2800 11 23 2801 0
-2801 12 -24 0
-2802 2801 0
-2802 12 -24 0
-2802 -12 24 0
-2801 -12 -24 2802 0
-2801 12 24 2802 0
2803 0
-2803 13 -25 0
-2804 2803 0
-2804 13 -25 0
-2804 -13 25 0
-2803 -13 -25 2804 0
-2803 13 25 2804 0
-2804 14 -26 0
-2805 2804 0
-2805 14 -26 0
-2805 -14 26 0
-2804 -14 -26 2805 0
-2804 14 26 2805 0
-2805 15 -27 0
-2806 2805 0
-2806 15 -27 0
-2806 -15 27 0
-2805 -15 -27 2806 0
-2805 15 27 2806 0
-2806 16 -28 0
-2807 2806 0
-2807 16 -28 0
-2807 -16 28 0
-2806 -16 -28 2807 0
-2806 16 28 2807 0
-2807 17 -29 0
-2808 2807 0
-2808 17 -29 0
-2808 -17 29 0
-2807 -17 -29 2808 0
-2807 17 29 2808 0
-2808 18 -30 0
-2809 2808 0
-2809 18 -30 0
-2809 -18 30 0
-2808 -18 -30 2809 0
-2808 18 30 2809 0
-2809 19 -31 0
-2810 2809 0
-2810 19 -31 0
-2810 -19 31 0
-2809 -19 -31 2810 0
-2809 19 31 2810 0
-2810 20 -32 0
-2811 2810 0
-2811 20 -32 0
-2811 -20 32 0
-2810 -20 -32 2811 0
-2810 20 32 2811 0
-2811 21 -33 0
-2812 2811 0
-2812 21 -33 0
-2812 -21 33 0
-2811 -21 -33 2812 0
-2811 21 33 2812 0
-2812 22 -34 0
-2813 2812 0
-2813 22 -34 0
-2813 -22 34 0
-2812 -22 -34 2813 0
-2812 22 34 2813 0
-2813 23 -35 0
-2814 2813 0
-2814 23 -35 0
-2814 -23 35 0
-2813 -23 -35 2814 0
-2813 23 35 2814 0
-2814 24 -36 0
-2815 2814 0
-2815 24 -36 0
-2815 -24 36 0
-2814 -24 -36 2815 0
-2814 24 36 2815 0
2816 0
-2816 25 -37 0
-2817 2816 0
-2817 25 -37 0
-2817 -25 37 0
-2816 -25 -37 2817 0
-2816 25 37 2817 0
-2817 26 -38 0
-2818 2817 0
-2818 26 -38 0
-2818 -26 38 0
-2817 -26 -38 2818 0
-2817 26 38 2818 0
-2818 27 -39 0
-2819 2818 0
-2819 27 -39 0
-2819 -27 39 0
-2818 -27 -39 2819 0
-2818 27 39 2819 0
-2819 28 -40 0
-2820 2819 0
-2820 28 -40 0
-2820 -28 40 0
-2819 -28 -40 2820 0
-2819 28 40 2820 0
-2820 29 -41 0
-2821 2820 0
-2821 29 -41 0
-2821 -29 41 0
-2820 -29 -41 2821 0
-2820 29 41 2821 0
-2821 30 -42 0
-2822 2821 0
-2822 30 -42 0
-2822 -30 42 0
-2821 -30 -42 2822 0
-2821 30 42 2822 0
-2822 31 -43 0
-2823 2822 0
-2823 31 -43 0
-2823 -31 43 0
-2822 -31 -43 2823 0
-2822 31 43 2823 0
-2823 32 -44 0
-2824 2823 0
-2824 32 -44 0
-2824 -32 44 0
-2823 -32 -44 2824 0
-2823 32 44 2824 0
-2824 33 -45 0
-2825 2824 0
-2825 33 -45 0
-2825 -33 45 0
-2824 -33 -45 2825 0
-2824 33 45 2825 0
-2825 34 -46 0
-2826 2825 0
-2826 34 -46 0
-2826 -34 46 0
-2825 -34 -46 2826 0
-2825 34 46 2826 0
-2826 35 -47 0
-2827 2826 0
-2827 35 -47 0
-2827 -35 47 0
-2826 -35 -47 2827 0
-2826 35 47 2827 0
-2827 36 -48 0
-2828 2827 0
-2828 36 -48 0
-2828 -36 48 0
-2827 -36 -48 2828 0
-2827 36 48 2828 0
2829 0
-2829 37 -49 0
-2830 2829 0
-2830 37 -49 0
-2830 -37 49 0
-2829 -37 -49 2830 0
-2829 37 49 2830 0
-2830 38 -50 0
-2831 2830 0
-2831 38 -50 0
-2831 -38 50 0
-2830 -38 -50 2831 0
-2830 38 50 2831 0
-2831 39 -51 0
-2832 2831 0
-2832 39 -51 0
-2832 -39 51 0
-2831 -39 -51 2832 0
-2831 39 51 2832 0
-2832 40 -52 0
-2833 2832 0
-2833 40 -52 0
-2833 -40 52 0
-2832 -40 -52 2833 0
-2832 40 52 2833 0
-2833 41 -53 0
-2834 2833 0
-2834 41 -53 0
-2834 -41 53 0
-2833 -41 -53 2834 0
-2833 41 53 2834 0
-2834 42 -54 0
-2835 2834 0
-2835 42 -54 0
-2835 -42 54 0
-2834 -42 -54 2835 0
-2834 42 54 2835 0
-2835 43 -55 0
-2836 2835 0
-2836 43 -55 0
-2836 -43 55 0
-2835 -43 -55 2836 0
-2835 43 55 2836 0
-2836 44 -56 0
-2837 2836 0
-2837 44 -56 0
-2837 -44 56 0
-2836 -44 -56 2837 0
-2836 44 56 2837 0
-2837 45 -57 0
-2838 2837 0
-2838 45 -57 0
-2838 -45 57 0
-2837 -45 -57 2838 0
-2837 45 57 2838 0
-2838 46 -58 0
-2839 2838 0
-2839 46 -58 0
-2839 -46 58 0
-2838 -46 -58 2839 0
-2838 46 58 2839 0
-2839 47 -59 0
-2840 2839 0
-2840 47 -59 0
-2840 -47 59 0
-2839 -47 -59 2840 0
-2839 47 59 2840 0
-2840 48 -60 0
-2841 2840 0
-2841 48 -60 0
-2841 -48 60 0
-2840 -48 -60 2841 0
-2840 48 60 2841 0
2842 0
-2842 49 -61 0
-2843 2842 0
-2843 49 -61 0
-2843 -49 61 0
-2842 -49 -61 2843 0
-2842 49 61 2843 0
-2843 50 -62 0
-2844 2843 0
-2844 50 -62 0
-2844 -50 62 0
-2843 -50 -62 2844 0
-2843 50 62 2844 0
-2844 51 -63 0
-2845 2844 0
-2845 51 -63 0
-2845 -51 63 0
-2844 -51 -63 2845 0
-2844 51 63 2845 0
-2845 52 -64 0
-2846 2845 0
-2846 52 -64 0
-2846 -52 64 0
-2845 -52 -64 2846 0
-2845 52 64 2846 0
-2846 53 -65 0
-2847 2846 0
-2847 53 -65 0
-2847 -53 65 0
-2846 -53 -65 2847 0
-2846 53 65 2847 0
-2847 54 -66 0
-2848 2847 0
-2848 54 -66 0
-2848 -54 66 0
-2847 -54 -66 2848 0
-2847 54 66 2848 0
-2848 55 -67 0
-2849 2848 0
-2849 55 -67 0
-2849 -55 67 0
-2848 -55 -67 2849 0
-2848 55 67 2849 0
-2849 56 -68 0
-2850 2849 0
-2850 56 -68 0
-2850 -56 68 0
-2849 -56 -68 2850 0
-2849 56 68 2850 0
-2850 57 -69 0
-2851 2850 0
-2851 57 -69 0
-2851 -57 69 0
-2850 -57 -69 2851 0
-2850 57 69 2851 0
-2851 58 -70 0
-2852 2851 0
-2852 58 -70 0
-2852 -58 70 0
-2851 -58 -70 2852 0
-2851 58 70 2852 0
-2852 59 -71 0
-2853 2852 0
-2853 59 -71 0
-2853 -59 71 0
-2852 -59 -71 2853 0
-2852 59 71 2853 0
-2853 60 -72 0
-2854 2853 0
-2854 60 -72 0
-2854 -60 72 0
-2853 -60 -72 2854 0
-2853 60 72 2854 0
2855 0
-2855 61 -73 0
-2856 2855 0
-2856 61 -73 0
-2856 -61 73 0
-2855 -61 -73 2856 0
-2855 61 73 2856 0
-2856 62 -74 0
-2857 2856 0
-2857 62 -74 0
-2857 -62 74 0
-2856 -62 -74 2857 0
-2856 62 74 2857 0
-2857 63 -75 0
-2858 2857 0
-2858 63 -75 0
-2858 -63 75 0
-2857 -63 -75 2858 0
-2857 63 75 2858 0
-2858 64 -76 0
-2859 2858 0
-2859 64 -76 0
-2859 -64 76 0
-2858 -64 -76 2859 0
-2858 64 76 2859 0
-2859 65 -77 0
-2860 2859 0
-2860 65 -77 0
-2860 -65 77 0
-2859 -65 -77 2860 0
-2859 65 77 2860 0
-2860 66 -78 0
-2861 2860 0
-2861 66 -78 0
-2861 -66 78 0
-2860 -66 -78 2861 0
-2860 66 78 2861 0
-2861 67 -79 0
-2862 2861 0
-2862 67 -79 0
-2862 -67 79 0
-2861 -67 -79 2862 0
-2861 67 79 2862 0
-2862 68 -80 0
-2863 2862 0
-2863 68 -80 0
-2863 -68 80 0
-2862 -68 -80 2863 0
-2862 68 80 2863 0
-2863 69 -81 0
-2864 2863 0
-2864 69 -81 0
-2864 -69 81 0
-2863 -69 -81 2864 0
-2863 69 81 2864 0
-2864 70 -82 0
-2865 2864 0
-2865 70 -82 0
-2865 -70 82 0
-2864 -70 -82 2865 0
-2864 70 82 2865 0
-2865 71 -83 0
-2866 2865 0
-2866 71 -83 0
-2866 -71 83 0
-2865 -71 -83 2866 0
-2865 71 83 2866 0
-2866 72 -84 0
-2867 2866 0
-2867 72 -84 0
-2867 -72 84 0
-2866 -72 -84 2867 0
-2866 72 84 2867 0
2868 0
-2868 73 -85 0
-2869 2868 0
-2869 73 -85 0
-2869 -73 85 0
-2868 -73 -85 2869 0
-2868 73 85 2869 0
-2869 74 -86 0
-2870 2869 0
-2870 74 -86 0
-2870 -74 86 0
-2869 -74 -86 2870 0
-2869 74 86 2870 0
-2870 75 -87 0
-2871 2870 0
-2871 75 -87 0
-2871 -75 87 0
-2870 -75 -87 2871 0
-2870 75 87 2871 0
-2871 76 -88 0
-2872 2871 0
-2872 76 -88 0
-2872 -76 88 0
-2871 -76 -88 2872 0
-2871 76 88 2872 0
-2872 77 -89 0
-2873 2872 0
-2873 77 -89 0
-2873 -77 89 0
-2872 -77 -89 2873 0
-2872 77 89 2873 0
-2873 78 -90 0
-2874 2873 0
-2874 78 -90 0
-2874 -78 90 0
-2873 -78 -90 2874 0
-2873 78 90 2874 0
-2874 79 -91 0
-2875 2874 0
-2875 79 -91 0
-2875 -79 91 0
-2874 -79 -91 2875 0
-2874 79 91 2875 0
-2875 80 -92 0
-2876 2875 0
-2876 80 -92 0
-2876 -80 92 0
-2875 -80 -92 2876 0
-2875 80 92 2876 0
-2876 81 -93 0
-2877 2876 0
-2877 81 -93 0
-2877 -81 93 0
-2876 -81 -93 2877 0
-2876 81 93 2877 0
-2877 82 -94 0
-2878 2877 0
-2878 82 -94 0
-2878 -82 94 0
-2877 -82 -94 2878 0
-2877 82 94 2878 0
-2878 83 -95 0
-2879 2878 0
-2879 83 -95 0
-2879 -83 95 0
-2878 -83 -95 2879 0
-2878 83 95 2879 0
-2879 84 -96 0
-2880 2879 0
-2880 84 -96 0
-2880 -84 96 0
-2879 -84 -96 2880 0
-2879 84 96 2880 0
2881 0
-2881 85 -97 0
-2882 2881 0
-2882 85 -97 0
-2882 -85 97 0
-2881 -85 -97 2882 0
-2881 85 97 2882 0
-2882 86 -98 0
-2883 2882 0
-2883 86 -98 0
-2883 -86 98 0
-2882 -86 -98 2883 0
-2882 86 98 2883 0
-2883 87 -99 0
-2884 2883 0
-2884 87 -99 0
-2884 -87 99 0
-2883 -87 -99 2884 0
-2883 87 99 2884 0
-2884 88 -100 0
-2885 2884 0
-2885 88 -100 0
-2885 -88 100 0
-2884 -88 -100 2885 0
-2884 88 100 2885 0
-2885 89 -101 0
-2886 2885 0
-2886 89 -101 0
-2886 -89 101 0
-2885 -89 -101 2886 0
-2885 89 101 2886 0
-2886 90 -102 0
-2887 2886 0
-2887 90 -102 0
-2887 -90 102 0
-2886 -90 -102 2887 0
-2886 90 102 2887 0
-2887 91 -103 0
-2888 2887 0
-2888 91 -103 0
-2888 -91 103 0
-2887 -91 -103 2888 0
-2887 91 103 2888 0
-2888 92 -104 0
-2889 2888 0
-2889 92 -104 0
-2889 -92 104 0
-2888 -92 -104 2889 0
-2888 92 104 2889 0
-2889 93 -105 0
-2890 2889 0
-2890 93 -105 0
-2890 -93 105 0
-2889 -93 -105 2890 0
-2889 93 105 2890 0
-2890 94 -106 0
-2891 2890 0
-2891 94 -106 0
-2891 -94 106 0
-2890 -94 -106 2891 0
-2890 94 106 2891 0
-2891 95 -107 0
-2892 2891 0
-2892 95 -107 0
-2892 -95 107 0
-2891 -95 -107 2892 0
-2891 95 107 2892 0
-2892 96 -108 0
-2893 2892 0
-2893 96 -108 0
-2893 -96 108 0
-2892 -96 -108 2893 0
-2892 96 108 2893 0
