p cnf 978 3371
-1 50 0
-8 50 0
-15 50 0
-22 50 0
-29 50 0
-36 50 0
-43 50 0
-2 51 0
-9 51 0
-16 51 0
-23 51 0
-30 51 0
-37 51 0
-44 51 0
-3 52 0
-10 52 0
-17 52 0
-24 52 0
-31 52 0
-38 52 0
-45 52 0
-4 53 0
-11 53 0
-18 53 0
-25 53 0
-32 53 0
-39 53 0
-46 53 0
-5 54 0
-12 54 0
-19 54 0
-26 54 0
-33 54 0
-40 54 0
-47 54 0
-6 55 0
-13 55 0
-20 55 0
-27 55 0
-34 55 0
-41 55 0
-48 55 0
-7 56 0
-14 56 0
-21 56 0
-28 56 0
-35 56 0
-42 56 0
-49 56 0
-51 50 0
-52 51 0
-53 52 0
-54 53 0
-55 54 0
-56 55 0
50 505 0
-505 -50 0
50 506 0
-506 -50 0
50 507 0
-507 -50 0
1 508 0
-508 509 0
8 -508 510 0
-510 511 0
15 -510 512 0
-512 513 0
22 -512 514 0
-514 515 0
29 -514 516 0
-516 517 0
36 -516 518 0
-518 519 0
43 -518 520 0
-520 521 0
505 -520 0
8 509 0
-509 522 0
15 -509 511 0
-511 523 0
22 -511 513 0
-513 524 0
29 -513 515 0
-515 525 0
36 -515 517 0
-517 526 0
43 -517 519 0
-519 527 0
505 -519 521 0
-521 528 0
506 -521 0
15 522 0
22 -522 523 0
29 -523 524 0
36 -524 525 0
43 -525 526 0
505 -526 527 0
506 -527 528 0
507 -528 0
51 529 0
-529 -51 0
51 530 0
-530 -51 0
51 531 0
-531 -51 0
2 532 0
-532 533 0
9 -532 534 0
-534 535 0
16 -534 536 0
-536 537 0
23 -536 538 0
-538 539 0
30 -538 540 0
-540 541 0
37 -540 542 0
-542 543 0
44 -542 544 0
-544 545 0
529 -544 0
9 533 0
-533 546 0
16 -533 535 0
-535 547 0
23 -535 537 0
-537 548 0
30 -537 539 0
-539 549 0
37 -539 541 0
-541 550 0
44 -541 543 0
-543 551 0
529 -543 545 0
-545 552 0
530 -545 0
16 546 0
23 -546 547 0
30 -547 548 0
37 -548 549 0
44 -549 550 0
529 -550 551 0
530 -551 552 0
531 -552 0
52 553 0
-553 -52 0
52 554 0
-554 -52 0
52 555 0
-555 -52 0
3 556 0
-556 557 0
10 -556 558 0
-558 559 0
17 -558 560 0
-560 561 0
24 -560 562 0
-562 563 0
31 -562 564 0
-564 565 0
38 -564 566 0
-566 567 0
45 -566 568 0
-568 569 0
553 -568 0
10 557 0
-557 570 0
17 -557 559 0
-559 571 0
24 -559 561 0
-561 572 0
31 -561 563 0
-563 573 0
38 -563 565 0
-565 574 0
45 -565 567 0
-567 575 0
553 -567 569 0
-569 576 0
554 -569 0
17 570 0
24 -570 571 0
31 -571 572 0
38 -572 573 0
45 -573 574 0
553 -574 575 0
554 -575 576 0
555 -576 0
53 577 0
-577 -53 0
53 578 0
-578 -53 0
53 579 0
-579 -53 0
4 580 0
-580 581 0
11 -580 582 0
-582 583 0
18 -582 584 0
-584 585 0
25 -584 586 0
-586 587 0
32 -586 588 0
-588 589 0
39 -588 590 0
-590 591 0
46 -590 592 0
-592 593 0
577 -592 0
11 581 0
-581 594 0
18 -581 583 0
-583 595 0
25 -583 585 0
-585 596 0
32 -585 587 0
-587 597 0
39 -587 589 0
-589 598 0
46 -589 591 0
-591 599 0
577 -591 593 0
-593 600 0
578 -593 0
18 594 0
25 -594 595 0
32 -595 596 0
39 -596 597 0
46 -597 598 0
577 -598 599 0
578 -599 600 0
579 -600 0
54 601 0
-601 -54 0
54 602 0
-602 -54 0
54 603 0
-603 -54 0
5 604 0
-604 605 0
12 -604 606 0
-606 607 0
19 -606 608 0
-608 609 0
26 -608 610 0
-610 611 0
33 -610 612 0
-612 613 0
40 -612 614 0
-614 615 0
47 -614 616 0
-616 617 0
601 -616 0
12 605 0
-605 618 0
19 -605 607 0
-607 619 0
26 -607 609 0
-609 620 0
33 -609 611 0
-611 621 0
40 -611 613 0
-613 622 0
47 -613 615 0
-615 623 0
601 -615 617 0
-617 624 0
602 -617 0
19 618 0
26 -618 619 0
33 -619 620 0
40 -620 621 0
47 -621 622 0
601 -622 623 0
602 -623 624 0
603 -624 0
55 625 0
-625 -55 0
55 626 0
-626 -55 0
55 627 0
-627 -55 0
6 628 0
-628 629 0
13 -628 630 0
-630 631 0
20 -630 632 0
-632 633 0
27 -632 634 0
-634 635 0
34 -634 636 0
-636 637 0
41 -636 638 0
-638 639 0
48 -638 640 0
-640 641 0
625 -640 0
13 629 0
-629 642 0
20 -629 631 0
-631 643 0
27 -631 633 0
-633 644 0
34 -633 635 0
-635 645 0
41 -635 637 0
-637 646 0
48 -637 639 0
-639 647 0
625 -639 641 0
-641 648 0
626 -641 0
20 642 0
27 -642 643 0
34 -643 644 0
41 -644 645 0
48 -645 646 0
625 -646 647 0
626 -647 648 0
627 -648 0
56 649 0
-649 -56 0
56 650 0
-650 -56 0
56 651 0
-651 -56 0
7 652 0
-652 653 0
14 -652 654 0
-654 655 0
21 -654 656 0
-656 657 0
28 -656 658 0
-658 659 0
35 -658 660 0
-660 661 0
42 -660 662 0
-662 663 0
49 -662 664 0
-664 665 0
649 -664 0
14 653 0
-653 666 0
21 -653 655 0
-655 667 0
28 -655 657 0
-657 668 0
35 -657 659 0
-659 669 0
42 -659 661 0
-661 670 0
49 -661 663 0
-663 671 0
649 -663 665 0
-665 672 0
650 -665 0
21 666 0
28 -666 667 0
35 -667 668 0
42 -668 669 0
49 -669 670 0
649 -670 671 0
650 -671 672 0
651 -672 0
1 673 0
-673 674 0
2 -673 675 0
-675 676 0
3 -675 677 0
-677 678 0
4 -677 679 0
-679 680 0
5 -679 0
2 674 0
-674 681 0
3 -674 676 0
-676 682 0
4 -676 678 0
-678 683 0
5 -678 680 0
-680 684 0
6 -680 0
3 681 0
4 -681 682 0
5 -682 683 0
6 -683 684 0
7 -684 0
8 685 0
-685 686 0
9 -685 687 0
-687 688 0
10 -687 689 0
-689 690 0
11 -689 691 0
-691 692 0
12 -691 0
9 686 0
-686 693 0
10 -686 688 0
-688 694 0
11 -688 690 0
-690 695 0
12 -690 692 0
-692 696 0
13 -692 0
10 693 0
11 -693 694 0
12 -694 695 0
13 -695 696 0
14 -696 0
15 697 0
-697 698 0
16 -697 699 0
-699 700 0
17 -699 701 0
-701 702 0
18 -701 703 0
-703 704 0
19 -703 0
16 698 0
-698 705 0
17 -698 700 0
-700 706 0
18 -700 702 0
-702 707 0
19 -702 704 0
-704 708 0
20 -704 0
17 705 0
18 -705 706 0
19 -706 707 0
20 -707 708 0
21 -708 0
22 709 0
-709 710 0
23 -709 711 0
-711 712 0
24 -711 713 0
-713 714 0
25 -713 715 0
-715 716 0
26 -715 0
23 710 0
-710 717 0
24 -710 712 0
-712 718 0
25 -712 714 0
-714 719 0
26 -714 716 0
-716 720 0
27 -716 0
24 717 0
25 -717 718 0
26 -718 719 0
27 -719 720 0
28 -720 0
29 721 0
-721 722 0
30 -721 723 0
-723 724 0
31 -723 725 0
-725 726 0
32 -725 727 0
-727 728 0
33 -727 0
30 722 0
-722 729 0
31 -722 724 0
-724 730 0
32 -724 726 0
-726 731 0
33 -726 728 0
-728 732 0
34 -728 0
31 729 0
32 -729 730 0
33 -730 731 0
34 -731 732 0
35 -732 0
36 733 0
-733 734 0
37 -733 735 0
-735 736 0
38 -735 737 0
-737 738 0
39 -737 739 0
-739 740 0
40 -739 0
37 734 0
-734 741 0
38 -734 736 0
-736 742 0
39 -736 738 0
-738 743 0
40 -738 740 0
-740 744 0
41 -740 0
38 741 0
39 -741 742 0
40 -742 743 0
41 -743 744 0
42 -744 0
43 745 0
-745 746 0
44 -745 747 0
-747 748 0
45 -747 749 0
-749 750 0
46 -749 751 0
-751 752 0
47 -751 0
44 746 0
-746 753 0
45 -746 748 0
-748 754 0
46 -748 750 0
-750 755 0
47 -750 752 0
-752 756 0
48 -752 0
45 753 0
46 -753 754 0
47 -754 755 0
48 -755 756 0
49 -756 0
-57 1 0
-57 8 0
-1 -8 57 0
-58 2 0
-58 9 0
-2 -9 58 0
-59 3 0
-59 10 0
-3 -10 59 0
-60 4 0
-60 11 0
-4 -11 60 0
-61 5 0
-61 12 0
-5 -12 61 0
-62 6 0
-62 13 0
-6 -13 62 0
-63 7 0
-63 14 0
-7 -14 63 0
-57 757 0
-757 758 0
-58 -757 0
-58 758 0
-758 759 0
-59 -758 0
-59 759 0
-759 760 0
-60 -759 0
-60 760 0
-760 761 0
-61 -760 0
-61 761 0
-761 762 0
-62 -761 0
-62 762 0
-63 -762 0
-57 204 0
-58 204 0
-59 204 0
-60 204 0
-61 204 0
-62 204 0
-63 204 0
-204 57 58 59 60 61 62 63 0
-64 1 0
-64 15 0
-1 -15 64 0
-65 2 0
-65 16 0
-2 -16 65 0
-66 3 0
-66 17 0
-3 -17 66 0
-67 4 0
-67 18 0
-4 -18 67 0
-68 5 0
-68 19 0
-5 -19 68 0
-69 6 0
-69 20 0
-6 -20 69 0
-70 7 0
-70 21 0
-7 -21 70 0
-64 763 0
-763 764 0
-65 -763 0
-65 764 0
-764 765 0
-66 -764 0
-66 765 0
-765 766 0
-67 -765 0
-67 766 0
-766 767 0
-68 -766 0
-68 767 0
-767 768 0
-69 -767 0
-69 768 0
-70 -768 0
-64 205 0
-65 205 0
-66 205 0
-67 205 0
-68 205 0
-69 205 0
-70 205 0
-205 64 65 66 67 68 69 70 0
-71 1 0
-71 22 0
-1 -22 71 0
-72 2 0
-72 23 0
-2 -23 72 0
-73 3 0
-73 24 0
-3 -24 73 0
-74 4 0
-74 25 0
-4 -25 74 0
-75 5 0
-75 26 0
-5 -26 75 0
-76 6 0
-76 27 0
-6 -27 76 0
-77 7 0
-77 28 0
-7 -28 77 0
-71 769 0
-769 770 0
-72 -769 0
-72 770 0
-770 771 0
-73 -770 0
-73 771 0
-771 772 0
-74 -771 0
-74 772 0
-772 773 0
-75 -772 0
-75 773 0
-773 774 0
-76 -773 0
-76 774 0
-77 -774 0
-71 206 0
-72 206 0
-73 206 0
-74 206 0
-75 206 0
-76 206 0
-77 206 0
-206 71 72 73 74 75 76 77 0
-78 1 0
-78 29 0
-1 -29 78 0
-79 2 0
-79 30 0
-2 -30 79 0
-80 3 0
-80 31 0
-3 -31 80 0
-81 4 0
-81 32 0
-4 -32 81 0
-82 5 0
-82 33 0
-5 -33 82 0
-83 6 0
-83 34 0
-6 -34 83 0
-84 7 0
-84 35 0
-7 -35 84 0
-78 775 0
-775 776 0
-79 -775 0
-79 776 0
-776 777 0
-80 -776 0
-80 777 0
-777 778 0
-81 -777 0
-81 778 0
-778 779 0
-82 -778 0
-82 779 0
-779 780 0
-83 -779 0
-83 780 0
-84 -780 0
-78 207 0
-79 207 0
-80 207 0
-81 207 0
-82 207 0
-83 207 0
-84 207 0
-207 78 79 80 81 82 83 84 0
-85 1 0
-85 36 0
-1 -36 85 0
-86 2 0
-86 37 0
-2 -37 86 0
-87 3 0
-87 38 0
-3 -38 87 0
-88 4 0
-88 39 0
-4 -39 88 0
-89 5 0
-89 40 0
-5 -40 89 0
-90 6 0
-90 41 0
-6 -41 90 0
-91 7 0
-91 42 0
-7 -42 91 0
-85 781 0
-781 782 0
-86 -781 0
-86 782 0
-782 783 0
-87 -782 0
-87 783 0
-783 784 0
-88 -783 0
-88 784 0
-784 785 0
-89 -784 0
-89 785 0
-785 786 0
-90 -785 0
-90 786 0
-91 -786 0
-85 208 0
-86 208 0
-87 208 0
-88 208 0
-89 208 0
-90 208 0
-91 208 0
-208 85 86 87 88 89 90 91 0
-92 1 0
-92 43 0
-1 -43 92 0
-93 2 0
-93 44 0
-2 -44 93 0
-94 3 0
-94 45 0
-3 -45 94 0
-95 4 0
-95 46 0
-4 -46 95 0
-96 5 0
-96 47 0
-5 -47 96 0
-97 6 0
-97 48 0
-6 -48 97 0
-98 7 0
-98 49 0
-7 -49 98 0
-92 787 0
-787 788 0
-93 -787 0
-93 788 0
-788 789 0
-94 -788 0
-94 789 0
-789 790 0
-95 -789 0
-95 790 0
-790 791 0
-96 -790 0
-96 791 0
-791 792 0
-97 -791 0
-97 792 0
-98 -792 0
-92 209 0
-93 209 0
-94 209 0
-95 209 0
-96 209 0
-97 209 0
-98 209 0
-209 92 93 94 95 96 97 98 0
-99 8 0
-99 15 0
-8 -15 99 0
-100 9 0
-100 16 0
-9 -16 100 0
-101 10 0
-101 17 0
-10 -17 101 0
-102 11 0
-102 18 0
-11 -18 102 0
-103 12 0
-103 19 0
-12 -19 103 0
-104 13 0
-104 20 0
-13 -20 104 0
-105 14 0
-105 21 0
-14 -21 105 0
-99 793 0
-793 794 0
-100 -793 0
-100 794 0
-794 795 0
-101 -794 0
-101 795 0
-795 796 0
-102 -795 0
-102 796 0
-796 797 0
-103 -796 0
-103 797 0
-797 798 0
-104 -797 0
-104 798 0
-105 -798 0
-99 210 0
-100 210 0
-101 210 0
-102 210 0
-103 210 0
-104 210 0
-105 210 0
-210 99 100 101 102 103 104 105 0
-106 8 0
-106 22 0
-8 -22 106 0
-107 9 0
-107 23 0
-9 -23 107 0
-108 10 0
-108 24 0
-10 -24 108 0
-109 11 0
-109 25 0
-11 -25 109 0
-110 12 0
-110 26 0
-12 -26 110 0
-111 13 0
-111 27 0
-13 -27 111 0
-112 14 0
-112 28 0
-14 -28 112 0
-106 799 0
-799 800 0
-107 -799 0
-107 800 0
-800 801 0
-108 -800 0
-108 801 0
-801 802 0
-109 -801 0
-109 802 0
-802 803 0
-110 -802 0
-110 803 0
-803 804 0
-111 -803 0
-111 804 0
-112 -804 0
-106 211 0
-107 211 0
-108 211 0
-109 211 0
-110 211 0
-111 211 0
-112 211 0
-211 106 107 108 109 110 111 112 0
-113 8 0
-113 29 0
-8 -29 113 0
-114 9 0
-114 30 0
-9 -30 114 0
-115 10 0
-115 31 0
-10 -31 115 0
-116 11 0
-116 32 0
-11 -32 116 0
-117 12 0
-117 33 0
-12 -33 117 0
-118 13 0
-118 34 0
-13 -34 118 0
-119 14 0
-119 35 0
-14 -35 119 0
-113 805 0
-805 806 0
-114 -805 0
-114 806 0
-806 807 0
-115 -806 0
-115 807 0
-807 808 0
-116 -807 0
-116 808 0
-808 809 0
-117 -808 0
-117 809 0
-809 810 0
-118 -809 0
-118 810 0
-119 -810 0
-113 212 0
-114 212 0
-115 212 0
-116 212 0
-117 212 0
-118 212 0
-119 212 0
-212 113 114 115 116 117 118 119 0
-120 8 0
-120 36 0
-8 -36 120 0
-121 9 0
-121 37 0
-9 -37 121 0
-122 10 0
-122 38 0
-10 -38 122 0
-123 11 0
-123 39 0
-11 -39 123 0
-124 12 0
-124 40 0
-12 -40 124 0
-125 13 0
-125 41 0
-13 -41 125 0
-126 14 0
-126 42 0
-14 -42 126 0
-120 811 0
-811 812 0
-121 -811 0
-121 812 0
-812 813 0
-122 -812 0
-122 813 0
-813 814 0
-123 -813 0
-123 814 0
-814 815 0
-124 -814 0
-124 815 0
-815 816 0
-125 -815 0
-125 816 0
-126 -816 0
-120 213 0
-121 213 0
-122 213 0
-123 213 0
-124 213 0
-125 213 0
-126 213 0
-213 120 121 122 123 124 125 126 0
-127 8 0
-127 43 0
-8 -43 127 0
-128 9 0
-128 44 0
-9 -44 128 0
-129 10 0
-129 45 0
-10 -45 129 0
-130 11 0
-130 46 0
-11 -46 130 0
-131 12 0
-131 47 0
-12 -47 131 0
-132 13 0
-132 48 0
-13 -48 132 0
-133 14 0
-133 49 0
-14 -49 133 0
-127 817 0
-817 818 0
-128 -817 0
-128 818 0
-818 819 0
-129 -818 0
-129 819 0
-819 820 0
-130 -819 0
-130 820 0
-820 821 0
-131 -820 0
-131 821 0
-821 822 0
-132 -821 0
-132 822 0
-133 -822 0
-127 214 0
-128 214 0
-129 214 0
-130 214 0
-131 214 0
-132 214 0
-133 214 0
-214 127 128 129 130 131 132 133 0
-134 15 0
-134 22 0
-15 -22 134 0
-135 16 0
-135 23 0
-16 -23 135 0
-136 17 0
-136 24 0
-17 -24 136 0
-137 18 0
-137 25 0
-18 -25 137 0
-138 19 0
-138 26 0
-19 -26 138 0
-139 20 0
-139 27 0
-20 -27 139 0
-140 21 0
-140 28 0
-21 -28 140 0
-134 823 0
-823 824 0
-135 -823 0
-135 824 0
-824 825 0
-136 -824 0
-136 825 0
-825 826 0
-137 -825 0
-137 826 0
-826 827 0
-138 -826 0
-138 827 0
-827 828 0
-139 -827 0
-139 828 0
-140 -828 0
-134 215 0
-135 215 0
-136 215 0
-137 215 0
-138 215 0
-139 215 0
-140 215 0
-215 134 135 136 137 138 139 140 0
-141 15 0
-141 29 0
-15 -29 141 0
-142 16 0
-142 30 0
-16 -30 142 0
-143 17 0
-143 31 0
-17 -31 143 0
-144 18 0
-144 32 0
-18 -32 144 0
-145 19 0
-145 33 0
-19 -33 145 0
-146 20 0
-146 34 0
-20 -34 146 0
-147 21 0
-147 35 0
-21 -35 147 0
-141 829 0
-829 830 0
-142 -829 0
-142 830 0
-830 831 0
-143 -830 0
-143 831 0
-831 832 0
-144 -831 0
-144 832 0
-832 833 0
-145 -832 0
-145 833 0
-833 834 0
-146 -833 0
-146 834 0
-147 -834 0
-141 216 0
-142 216 0
-143 216 0
-144 216 0
-145 216 0
-146 216 0
-147 216 0
-216 141 142 143 144 145 146 147 0
-148 15 0
-148 36 0
-15 -36 148 0
-149 16 0
-149 37 0
-16 -37 149 0
-150 17 0
-150 38 0
-17 -38 150 0
-151 18 0
-151 39 0
-18 -39 151 0
-152 19 0
-152 40 0
-19 -40 152 0
-153 20 0
-153 41 0
-20 -41 153 0
-154 21 0
-154 42 0
-21 -42 154 0
-148 835 0
-835 836 0
-149 -835 0
-149 836 0
-836 837 0
-150 -836 0
-150 837 0
-837 838 0
-151 -837 0
-151 838 0
-838 839 0
-152 -838 0
-152 839 0
-839 840 0
-153 -839 0
-153 840 0
-154 -840 0
-148 217 0
-149 217 0
-150 217 0
-151 217 0
-152 217 0
-153 217 0
-154 217 0
-217 148 149 150 151 152 153 154 0
-155 15 0
-155 43 0
-15 -43 155 0
-156 16 0
-156 44 0
-16 -44 156 0
-157 17 0
-157 45 0
-17 -45 157 0
-158 18 0
-158 46 0
-18 -46 158 0
-159 19 0
-159 47 0
-19 -47 159 0
-160 20 0
-160 48 0
-20 -48 160 0
-161 21 0
-161 49 0
-21 -49 161 0
-155 841 0
-841 842 0
-156 -841 0
-156 842 0
-842 843 0
-157 -842 0
-157 843 0
-843 844 0
-158 -843 0
-158 844 0
-844 845 0
-159 -844 0
-159 845 0
-845 846 0
-160 -845 0
-160 846 0
-161 -846 0
-155 218 0
-156 218 0
-157 218 0
-158 218 0
-159 218 0
-160 218 0
-161 218 0
-218 155 156 157 158 159 160 161 0
-162 22 0
-162 29 0
-22 -29 162 0
-163 23 0
-163 30 0
-23 -30 163 0
-164 24 0
-164 31 0
-24 -31 164 0
-165 25 0
-165 32 0
-25 -32 165 0
-166 26 0
-166 33 0
-26 -33 166 0
-167 27 0
-167 34 0
-27 -34 167 0
-168 28 0
-168 35 0
-28 -35 168 0
-162 847 0
-847 848 0
-163 -847 0
-163 848 0
-848 849 0
-164 -848 0
-164 849 0
-849 850 0
-165 -849 0
-165 850 0
-850 851 0
-166 -850 0
-166 851 0
-851 852 0
-167 -851 0
-167 852 0
-168 -852 0
-162 219 0
-163 219 0
-164 219 0
-165 219 0
-166 219 0
-167 219 0
-168 219 0
-219 162 163 164 165 166 167 168 0
-169 22 0
-169 36 0
-22 -36 169 0
-170 23 0
-170 37 0
-23 -37 170 0
-171 24 0
-171 38 0
-24 -38 171 0
-172 25 0
-172 39 0
-25 -39 172 0
-173 26 0
-173 40 0
-26 -40 173 0
-174 27 0
-174 41 0
-27 -41 174 0
-175 28 0
-175 42 0
-28 -42 175 0
-169 853 0
-853 854 0
-170 -853 0
-170 854 0
-854 855 0
-171 -854 0
-171 855 0
-855 856 0
-172 -855 0
-172 856 0
-856 857 0
-173 -856 0
-173 857 0
-857 858 0
-174 -857 0
-174 858 0
-175 -858 0
-169 220 0
-170 220 0
-171 220 0
-172 220 0
-173 220 0
-174 220 0
-175 220 0
-220 169 170 171 172 173 174 175 0
-176 22 0
-176 43 0
-22 -43 176 0
-177 23 0
-177 44 0
-23 -44 177 0
-178 24 0
-178 45 0
-24 -45 178 0
-179 25 0
-179 46 0
-25 -46 179 0
-180 26 0
-180 47 0
-26 -47 180 0
-181 27 0
-181 48 0
-27 -48 181 0
-182 28 0
-182 49 0
-28 -49 182 0
-176 859 0
-859 860 0
-177 -859 0
-177 860 0
-860 861 0
-178 -860 0
-178 861 0
-861 862 0
-179 -861 0
-179 862 0
-862 863 0
-180 -862 0
-180 863 0
-863 864 0
-181 -863 0
-181 864 0
-182 -864 0
-176 221 0
-177 221 0
-178 221 0
-179 221 0
-180 221 0
-181 221 0
-182 221 0
-221 176 177 178 179 180 181 182 0
-183 29 0
-183 36 0
-29 -36 183 0
-184 30 0
-184 37 0
-30 -37 184 0
-185 31 0
-185 38 0
-31 -38 185 0
-186 32 0
-186 39 0
-32 -39 186 0
-187 33 0
-187 40 0
-33 -40 187 0
-188 34 0
-188 41 0
-34 -41 188 0
-189 35 0
-189 42 0
-35 -42 189 0
-183 865 0
-865 866 0
-184 -865 0
-184 866 0
-866 867 0
-185 -866 0
-185 867 0
-867 868 0
-186 -867 0
-186 868 0
-868 869 0
-187 -868 0
-187 869 0
-869 870 0
-188 -869 0
-188 870 0
-189 -870 0
-183 222 0
-184 222 0
-185 222 0
-186 222 0
-187 222 0
-188 222 0
-189 222 0
-222 183 184 185 186 187 188 189 0
-190 29 0
-190 43 0
-29 -43 190 0
-191 30 0
-191 44 0
-30 -44 191 0
-192 31 0
-192 45 0
-31 -45 192 0
-193 32 0
-193 46 0
-32 -46 193 0
-194 33 0
-194 47 0
-33 -47 194 0
-195 34 0
-195 48 0
-34 -48 195 0
-196 35 0
-196 49 0
-35 -49 196 0
-190 871 0
-871 872 0
-191 -871 0
-191 872 0
-872 873 0
-192 -872 0
-192 873 0
-873 874 0
-193 -873 0
-193 874 0
-874 875 0
-194 -874 0
-194 875 0
-875 876 0
-195 -875 0
-195 876 0
-196 -876 0
-190 223 0
-191 223 0
-192 223 0
-193 223 0
-194 223 0
-195 223 0
-196 223 0
-223 190 191 192 193 194 195 196 0
-197 36 0
-197 43 0
-36 -43 197 0
-198 37 0
-198 44 0
-37 -44 198 0
-199 38 0
-199 45 0
-38 -45 199 0
-200 39 0
-200 46 0
-39 -46 200 0
-201 40 0
-201 47 0
-40 -47 201 0
-202 41 0
-202 48 0
-41 -48 202 0
-203 42 0
-203 49 0
-42 -49 203 0
-197 877 0
-877 878 0
-198 -877 0
-198 878 0
-878 879 0
-199 -878 0
-199 879 0
-879 880 0
-200 -879 0
-200 880 0
-880 881 0
-201 -880 0
-201 881 0
-881 882 0
-202 -881 0
-202 882 0
-203 -882 0
-197 224 0
-198 224 0
-199 224 0
-200 224 0
-201 224 0
-202 224 0
-203 224 0
-224 197 198 199 200 201 202 203 0
-225 1 0
-225 8 0
-225 15 0
-1 -8 -15 225 0
-226 2 0
-226 9 0
-226 16 0
-2 -9 -16 226 0
-227 3 0
-227 10 0
-227 17 0
-3 -10 -17 227 0
-228 4 0
-228 11 0
-228 18 0
-4 -11 -18 228 0
-229 5 0
-229 12 0
-229 19 0
-5 -12 -19 229 0
-230 6 0
-230 13 0
-230 20 0
-6 -13 -20 230 0
-231 7 0
-231 14 0
-231 21 0
-7 -14 -21 231 0
-225 470 0
-226 470 0
-227 470 0
-228 470 0
-229 470 0
-230 470 0
-231 470 0
-470 225 226 227 228 229 230 231 0
-232 1 0
-232 8 0
-232 22 0
-1 -8 -22 232 0
-233 2 0
-233 9 0
-233 23 0
-2 -9 -23 233 0
-234 3 0
-234 10 0
-234 24 0
-3 -10 -24 234 0
-235 4 0
-235 11 0
-235 25 0
-4 -11 -25 235 0
-236 5 0
-236 12 0
-236 26 0
-5 -12 -26 236 0
-237 6 0
-237 13 0
-237 27 0
-6 -13 -27 237 0
-238 7 0
-238 14 0
-238 28 0
-7 -14 -28 238 0
-232 471 0
-233 471 0
-234 471 0
-235 471 0
-236 471 0
-237 471 0
-238 471 0
-471 232 233 234 235 236 237 238 0
-239 1 0
-239 8 0
-239 29 0
-1 -8 -29 239 0
-240 2 0
-240 9 0
-240 30 0
-2 -9 -30 240 0
-241 3 0
-241 10 0
-241 31 0
-3 -10 -31 241 0
-242 4 0
-242 11 0
-242 32 0
-4 -11 -32 242 0
-243 5 0
-243 12 0
-243 33 0
-5 -12 -33 243 0
-244 6 0
-244 13 0
-244 34 0
-6 -13 -34 244 0
-245 7 0
-245 14 0
-245 35 0
-7 -14 -35 245 0
-239 472 0
-240 472 0
-241 472 0
-242 472 0
-243 472 0
-244 472 0
-245 472 0
-472 239 240 241 242 243 244 245 0
-246 1 0
-246 8 0
-246 36 0
-1 -8 -36 246 0
-247 2 0
-247 9 0
-247 37 0
-2 -9 -37 247 0
-248 3 0
-248 10 0
-248 38 0
-3 -10 -38 248 0
-249 4 0
-249 11 0
-249 39 0
-4 -11 -39 249 0
-250 5 0
-250 12 0
-250 40 0
-5 -12 -40 250 0
-251 6 0
-251 13 0
-251 41 0
-6 -13 -41 251 0
-252 7 0
-252 14 0
-252 42 0
-7 -14 -42 252 0
-246 473 0
-247 473 0
-248 473 0
-249 473 0
-250 473 0
-251 473 0
-252 473 0
-473 246 247 248 249 250 251 252 0
-253 1 0
-253 8 0
-253 43 0
-1 -8 -43 253 0
-254 2 0
-254 9 0
-254 44 0
-2 -9 -44 254 0
-255 3 0
-255 10 0
-255 45 0
-3 -10 -45 255 0
-256 4 0
-256 11 0
-256 46 0
-4 -11 -46 256 0
-257 5 0
-257 12 0
-257 47 0
-5 -12 -47 257 0
-258 6 0
-258 13 0
-258 48 0
-6 -13 -48 258 0
-259 7 0
-259 14 0
-259 49 0
-7 -14 -49 259 0
-253 474 0
-254 474 0
-255 474 0
-256 474 0
-257 474 0
-258 474 0
-259 474 0
-474 253 254 255 256 257 258 259 0
-260 1 0
-260 15 0
-260 22 0
-1 -15 -22 260 0
-261 2 0
-261 16 0
-261 23 0
-2 -16 -23 261 0
-262 3 0
-262 17 0
-262 24 0
-3 -17 -24 262 0
-263 4 0
-263 18 0
-263 25 0
-4 -18 -25 263 0
-264 5 0
-264 19 0
-264 26 0
-5 -19 -26 264 0
-265 6 0
-265 20 0
-265 27 0
-6 -20 -27 265 0
-266 7 0
-266 21 0
-266 28 0
-7 -21 -28 266 0
-260 475 0
-261 475 0
-262 475 0
-263 475 0
-264 475 0
-265 475 0
-266 475 0
-475 260 261 262 263 264 265 266 0
-267 1 0
-267 15 0
-267 29 0
-1 -15 -29 267 0
-268 2 0
-268 16 0
-268 30 0
-2 -16 -30 268 0
-269 3 0
-269 17 0
-269 31 0
-3 -17 -31 269 0
-270 4 0
-270 18 0
-270 32 0
-4 -18 -32 270 0
-271 5 0
-271 19 0
-271 33 0
-5 -19 -33 271 0
-272 6 0
-272 20 0
-272 34 0
-6 -20 -34 272 0
-273 7 0
-273 21 0
-273 35 0
-7 -21 -35 273 0
-267 476 0
-268 476 0
-269 476 0
-270 476 0
-271 476 0
-272 476 0
-273 476 0
-476 267 268 269 270 271 272 273 0
-274 1 0
-274 15 0
-274 36 0
-1 -15 -36 274 0
-275 2 0
-275 16 0
-275 37 0
-2 -16 -37 275 0
-276 3 0
-276 17 0
-276 38 0
-3 -17 -38 276 0
-277 4 0
-277 18 0
-277 39 0
-4 -18 -39 277 0
-278 5 0
-278 19 0
-278 40 0
-5 -19 -40 278 0
-279 6 0
-279 20 0
-279 41 0
-6 -20 -41 279 0
-280 7 0
-280 21 0
-280 42 0
-7 -21 -42 280 0
-274 477 0
-275 477 0
-276 477 0
-277 477 0
-278 477 0
-279 477 0
-280 477 0
-477 274 275 276 277 278 279 280 0
-281 1 0
-281 15 0
-281 43 0
-1 -15 -43 281 0
-282 2 0
-282 16 0
-282 44 0
-2 -16 -44 282 0
-283 3 0
-283 17 0
-283 45 0
-3 -17 -45 283 0
-284 4 0
-284 18 0
-284 46 0
-4 -18 -46 284 0
-285 5 0
-285 19 0
-285 47 0
-5 -19 -47 285 0
-286 6 0
-286 20 0
-286 48 0
-6 -20 -48 286 0
-287 7 0
-287 21 0
-287 49 0
-7 -21 -49 287 0
-281 478 0
-282 478 0
-283 478 0
-284 478 0
-285 478 0
-286 478 0
-287 478 0
-478 281 282 283 284 285 286 287 0
-288 1 0
-288 22 0
-288 29 0
-1 -22 -29 288 0
-289 2 0
-289 23 0
-289 30 0
-2 -23 -30 289 0
-290 3 0
-290 24 0
-290 31 0
-3 -24 -31 290 0
-291 4 0
-291 25 0
-291 32 0
-4 -25 -32 291 0
-292 5 0
-292 26 0
-292 33 0
-5 -26 -33 292 0
-293 6 0
-293 27 0
-293 34 0
-6 -27 -34 293 0
-294 7 0
-294 28 0
-294 35 0
-7 -28 -35 294 0
-288 479 0
-289 479 0
-290 479 0
-291 479 0
-292 479 0
-293 479 0
-294 479 0
-479 288 289 290 291 292 293 294 0
-295 1 0
-295 22 0
-295 36 0
-1 -22 -36 295 0
-296 2 0
-296 23 0
-296 37 0
-2 -23 -37 296 0
-297 3 0
-297 24 0
-297 38 0
-3 -24 -38 297 0
-298 4 0
-298 25 0
-298 39 0
-4 -25 -39 298 0
-299 5 0
-299 26 0
-299 40 0
-5 -26 -40 299 0
-300 6 0
-300 27 0
-300 41 0
-6 -27 -41 300 0
-301 7 0
-301 28 0
-301 42 0
-7 -28 -42 301 0
-295 480 0
-296 480 0
-297 480 0
-298 480 0
-299 480 0
-300 480 0
-301 480 0
-480 295 296 297 298 299 300 301 0
-302 1 0
-302 22 0
-302 43 0
-1 -22 -43 302 0
-303 2 0
-303 23 0
-303 44 0
-2 -23 -44 303 0
-304 3 0
-304 24 0
-304 45 0
-3 -24 -45 304 0
-305 4 0
-305 25 0
-305 46 0
-4 -25 -46 305 0
-306 5 0
-306 26 0
-306 47 0
-5 -26 -47 306 0
-307 6 0
-307 27 0
-307 48 0
-6 -27 -48 307 0
-308 7 0
-308 28 0
-308 49 0
-7 -28 -49 308 0
-302 481 0
-303 481 0
-304 481 0
-305 481 0
-306 481 0
-307 481 0
-308 481 0
-481 302 303 304 305 306 307 308 0
-309 1 0
-309 29 0
-309 36 0
-1 -29 -36 309 0
-310 2 0
-310 30 0
-310 37 0
-2 -30 -37 310 0
-311 3 0
-311 31 0
-311 38 0
-3 -31 -38 311 0
-312 4 0
-312 32 0
-312 39 0
-4 -32 -39 312 0
-313 5 0
-313 33 0
-313 40 0
-5 -33 -40 313 0
-314 6 0
-314 34 0
-314 41 0
-6 -34 -41 314 0
-315 7 0
-315 35 0
-315 42 0
-7 -35 -42 315 0
-309 482 0
-310 482 0
-311 482 0
-312 482 0
-313 482 0
-314 482 0
-315 482 0
-482 309 310 311 312 313 314 315 0
-316 1 0
-316 29 0
-316 43 0
-1 -29 -43 316 0
-317 2 0
-317 30 0
-317 44 0
-2 -30 -44 317 0
-318 3 0
-318 31 0
-318 45 0
-3 -31 -45 318 0
-319 4 0
-319 32 0
-319 46 0
-4 -32 -46 319 0
-320 5 0
-320 33 0
-320 47 0
-5 -33 -47 320 0
-321 6 0
-321 34 0
-321 48 0
-6 -34 -48 321 0
-322 7 0
-322 35 0
-322 49 0
-7 -35 -49 322 0
-316 483 0
-317 483 0
-318 483 0
-319 483 0
-320 483 0
-321 483 0
-322 483 0
-483 316 317 318 319 320 321 322 0
-323 1 0
-323 36 0
-323 43 0
-1 -36 -43 323 0
-324 2 0
-324 37 0
-324 44 0
-2 -37 -44 324 0
-325 3 0
-325 38 0
-325 45 0
-3 -38 -45 325 0
-326 4 0
-326 39 0
-326 46 0
-4 -39 -46 326 0
-327 5 0
-327 40 0
-327 47 0
-5 -40 -47 327 0
-328 6 0
-328 41 0
-328 48 0
-6 -41 -48 328 0
-329 7 0
-329 42 0
-329 49 0
-7 -42 -49 329 0
-323 484 0
-324 484 0
-325 484 0
-326 484 0
-327 484 0
-328 484 0
-329 484 0
-484 323 324 325 326 327 328 329 0
-330 8 0
-330 15 0
-330 22 0
-8 -15 -22 330 0
-331 9 0
-331 16 0
-331 23 0
-9 -16 -23 331 0
-332 10 0
-332 17 0
-332 24 0
-10 -17 -24 332 0
-333 11 0
-333 18 0
-333 25 0
-11 -18 -25 333 0
-334 12 0
-334 19 0
-334 26 0
-12 -19 -26 334 0
-335 13 0
-335 20 0
-335 27 0
-13 -20 -27 335 0
-336 14 0
-336 21 0
-336 28 0
-14 -21 -28 336 0
-330 485 0
-331 485 0
-332 485 0
-333 485 0
-334 485 0
-335 485 0
-336 485 0
-485 330 331 332 333 334 335 336 0
-337 8 0
-337 15 0
-337 29 0
-8 -15 -29 337 0
-338 9 0
-338 16 0
-338 30 0
-9 -16 -30 338 0
-339 10 0
-339 17 0
-339 31 0
-10 -17 -31 339 0
-340 11 0
-340 18 0
-340 32 0
-11 -18 -32 340 0
-341 12 0
-341 19 0
-341 33 0
-12 -19 -33 341 0
-342 13 0
-342 20 0
-342 34 0
-13 -20 -34 342 0
-343 14 0
-343 21 0
-343 35 0
-14 -21 -35 343 0
-337 486 0
-338 486 0
-339 486 0
-340 486 0
-341 486 0
-342 486 0
-343 486 0
-486 337 338 339 340 341 342 343 0
-344 8 0
-344 15 0
-344 36 0
-8 -15 -36 344 0
-345 9 0
-345 16 0
-345 37 0
-9 -16 -37 345 0
-346 10 0
-346 17 0
-346 38 0
-10 -17 -38 346 0
-347 11 0
-347 18 0
-347 39 0
-11 -18 -39 347 0
-348 12 0
-348 19 0
-348 40 0
-12 -19 -40 348 0
-349 13 0
-349 20 0
-349 41 0
-13 -20 -41 349 0
-350 14 0
-350 21 0
-350 42 0
-14 -21 -42 350 0
-344 487 0
-345 487 0
-346 487 0
-347 487 0
-348 487 0
-349 487 0
-350 487 0
-487 344 345 346 347 348 349 350 0
-351 8 0
-351 15 0
-351 43 0
-8 -15 -43 351 0
-352 9 0
-352 16 0
-352 44 0
-9 -16 -44 352 0
-353 10 0
-353 17 0
-353 45 0
-10 -17 -45 353 0
-354 11 0
-354 18 0
-354 46 0
-11 -18 -46 354 0
-355 12 0
-355 19 0
-355 47 0
-12 -19 -47 355 0
-356 13 0
-356 20 0
-356 48 0
-13 -20 -48 356 0
-357 14 0
-357 21 0
-357 49 0
-14 -21 -49 357 0
-351 488 0
-352 488 0
-353 488 0
-354 488 0
-355 488 0
-356 488 0
-357 488 0
-488 351 352 353 354 355 356 357 0
-358 8 0
-358 22 0
-358 29 0
-8 -22 -29 358 0
-359 9 0
-359 23 0
-359 30 0
-9 -23 -30 359 0
-360 10 0
-360 24 0
-360 31 0
-10 -24 -31 360 0
-361 11 0
-361 25 0
-361 32 0
-11 -25 -32 361 0
-362 12 0
-362 26 0
-362 33 0
-12 -26 -33 362 0
-363 13 0
-363 27 0
-363 34 0
-13 -27 -34 363 0
-364 14 0
-364 28 0
-364 35 0
-14 -28 -35 364 0
-358 489 0
-359 489 0
-360 489 0
-361 489 0
-362 489 0
-363 489 0
-364 489 0
-489 358 359 360 361 362 363 364 0
-365 8 0
-365 22 0
-365 36 0
-8 -22 -36 365 0
-366 9 0
-366 23 0
-366 37 0
-9 -23 -37 366 0
-367 10 0
-367 24 0
-367 38 0
-10 -24 -38 367 0
-368 11 0
-368 25 0
-368 39 0
-11 -25 -39 368 0
-369 12 0
-369 26 0
-369 40 0
-12 -26 -40 369 0
-370 13 0
-370 27 0
-370 41 0
-13 -27 -41 370 0
-371 14 0
-371 28 0
-371 42 0
-14 -28 -42 371 0
-365 490 0
-366 490 0
-367 490 0
-368 490 0
-369 490 0
-370 490 0
-371 490 0
-490 365 366 367 368 369 370 371 0
-372 8 0
-372 22 0
-372 43 0
-8 -22 -43 372 0
-373 9 0
-373 23 0
-373 44 0
-9 -23 -44 373 0
-374 10 0
-374 24 0
-374 45 0
-10 -24 -45 374 0
-375 11 0
-375 25 0
-375 46 0
-11 -25 -46 375 0
-376 12 0
-376 26 0
-376 47 0
-12 -26 -47 376 0
-377 13 0
-377 27 0
-377 48 0
-13 -27 -48 377 0
-378 14 0
-378 28 0
-378 49 0
-14 -28 -49 378 0
-372 491 0
-373 491 0
-374 491 0
-375 491 0
-376 491 0
-377 491 0
-378 491 0
-491 372 373 374 375 376 377 378 0
-379 8 0
-379 29 0
-379 36 0
-8 -29 -36 379 0
-380 9 0
-380 30 0
-380 37 0
-9 -30 -37 380 0
-381 10 0
-381 31 0
-381 38 0
-10 -31 -38 381 0
-382 11 0
-382 32 0
-382 39 0
-11 -32 -39 382 0
-383 12 0
-383 33 0
-383 40 0
-12 -33 -40 383 0
-384 13 0
-384 34 0
-384 41 0
-13 -34 -41 384 0
-385 14 0
-385 35 0
-385 42 0
-14 -35 -42 385 0
-379 492 0
-380 492 0
-381 492 0
-382 492 0
-383 492 0
-384 492 0
-385 492 0
-492 379 380 381 382 383 384 385 0
-386 8 0
-386 29 0
-386 43 0
-8 -29 -43 386 0
-387 9 0
-387 30 0
-387 44 0
-9 -30 -44 387 0
-388 10 0
-388 31 0
-388 45 0
-10 -31 -45 388 0
-389 11 0
-389 32 0
-389 46 0
-11 -32 -46 389 0
-390 12 0
-390 33 0
-390 47 0
-12 -33 -47 390 0
-391 13 0
-391 34 0
-391 48 0
-13 -34 -48 391 0
-392 14 0
-392 35 0
-392 49 0
-14 -35 -49 392 0
-386 493 0
-387 493 0
-388 493 0
-389 493 0
-390 493 0
-391 493 0
-392 493 0
-493 386 387 388 389 390 391 392 0
-393 8 0
-393 36 0
-393 43 0
-8 -36 -43 393 0
-394 9 0
-394 37 0
-394 44 0
-9 -37 -44 394 0
-395 10 0
-395 38 0
-395 45 0
-10 -38 -45 395 0
-396 11 0
-396 39 0
-396 46 0
-11 -39 -46 396 0
-397 12 0
-397 40 0
-397 47 0
-12 -40 -47 397 0
-398 13 0
-398 41 0
-398 48 0
-13 -41 -48 398 0
-399 14 0
-399 42 0
-399 49 0
-14 -42 -49 399 0
-393 494 0
-394 494 0
-395 494 0
-396 494 0
-397 494 0
-398 494 0
-399 494 0
-494 393 394 395 396 397 398 399 0
-400 15 0
-400 22 0
-400 29 0
-15 -22 -29 400 0
-401 16 0
-401 23 0
-401 30 0
-16 -23 -30 401 0
-402 17 0
-402 24 0
-402 31 0
-17 -24 -31 402 0
-403 18 0
-403 25 0
-403 32 0
-18 -25 -32 403 0
-404 19 0
-404 26 0
-404 33 0
-19 -26 -33 404 0
-405 20 0
-405 27 0
-405 34 0
-20 -27 -34 405 0
-406 21 0
-406 28 0
-406 35 0
-21 -28 -35 406 0
-400 495 0
-401 495 0
-402 495 0
-403 495 0
-404 495 0
-405 495 0
-406 495 0
-495 400 401 402 403 404 405 406 0
-407 15 0
-407 22 0
-407 36 0
-15 -22 -36 407 0
-408 16 0
-408 23 0
-408 37 0
-16 -23 -37 408 0
-409 17 0
-409 24 0
-409 38 0
-17 -24 -38 409 0
-410 18 0
-410 25 0
-410 39 0
-18 -25 -39 410 0
-411 19 0
-411 26 0
-411 40 0
-19 -26 -40 411 0
-412 20 0
-412 27 0
-412 41 0
-20 -27 -41 412 0
-413 21 0
-413 28 0
-413 42 0
-21 -28 -42 413 0
-407 496 0
-408 496 0
-409 496 0
-410 496 0
-411 496 0
-412 496 0
-413 496 0
-496 407 408 409 410 411 412 413 0
-414 15 0
-414 22 0
-414 43 0
-15 -22 -43 414 0
-415 16 0
-415 23 0
-415 44 0
-16 -23 -44 415 0
-416 17 0
-416 24 0
-416 45 0
-17 -24 -45 416 0
-417 18 0
-417 25 0
-417 46 0
-18 -25 -46 417 0
-418 19 0
-418 26 0
-418 47 0
-19 -26 -47 418 0
-419 20 0
-419 27 0
-419 48 0
-20 -27 -48 419 0
-420 21 0
-420 28 0
-420 49 0
-21 -28 -49 420 0
-414 497 0
-415 497 0
-416 497 0
-417 497 0
-418 497 0
-419 497 0
-420 497 0
-497 414 415 416 417 418 419 420 0
-421 15 0
-421 29 0
-421 36 0
-15 -29 -36 421 0
-422 16 0
-422 30 0
-422 37 0
-16 -30 -37 422 0
-423 17 0
-423 31 0
-423 38 0
-17 -31 -38 423 0
-424 18 0
-424 32 0
-424 39 0
-18 -32 -39 424 0
-425 19 0
-425 33 0
-425 40 0
-19 -33 -40 425 0
-426 20 0
-426 34 0
-426 41 0
-20 -34 -41 426 0
-427 21 0
-427 35 0
-427 42 0
-21 -35 -42 427 0
-421 498 0
-422 498 0
-423 498 0
-424 498 0
-425 498 0
-426 498 0
-427 498 0
-498 421 422 423 424 425 426 427 0
-428 15 0
-428 29 0
-428 43 0
-15 -29 -43 428 0
-429 16 0
-429 30 0
-429 44 0
-16 -30 -44 429 0
-430 17 0
-430 31 0
-430 45 0
-17 -31 -45 430 0
-431 18 0
-431 32 0
-431 46 0
-18 -32 -46 431 0
-432 19 0
-432 33 0
-432 47 0
-19 -33 -47 432 0
-433 20 0
-433 34 0
-433 48 0
-20 -34 -48 433 0
-434 21 0
-434 35 0
-434 49 0
-21 -35 -49 434 0
-428 499 0
-429 499 0
-430 499 0
-431 499 0
-432 499 0
-433 499 0
-434 499 0
-499 428 429 430 431 432 433 434 0
-435 15 0
-435 36 0
-435 43 0
-15 -36 -43 435 0
-436 16 0
-436 37 0
-436 44 0
-16 -37 -44 436 0
-437 17 0
-437 38 0
-437 45 0
-17 -38 -45 437 0
-438 18 0
-438 39 0
-438 46 0
-18 -39 -46 438 0
-439 19 0
-439 40 0
-439 47 0
-19 -40 -47 439 0
-440 20 0
-440 41 0
-440 48 0
-20 -41 -48 440 0
-441 21 0
-441 42 0
-441 49 0
-21 -42 -49 441 0
-435 500 0
-436 500 0
-437 500 0
-438 500 0
-439 500 0
-440 500 0
-441 500 0
-500 435 436 437 438 439 440 441 0
-442 22 0
-442 29 0
-442 36 0
-22 -29 -36 442 0
-443 23 0
-443 30 0
-443 37 0
-23 -30 -37 443 0
-444 24 0
-444 31 0
-444 38 0
-24 -31 -38 444 0
-445 25 0
-445 32 0
-445 39 0
-25 -32 -39 445 0
-446 26 0
-446 33 0
-446 40 0
-26 -33 -40 446 0
-447 27 0
-447 34 0
-447 41 0
-27 -34 -41 447 0
-448 28 0
-448 35 0
-448 42 0
-28 -35 -42 448 0
-442 501 0
-443 501 0
-444 501 0
-445 501 0
-446 501 0
-447 501 0
-448 501 0
-501 442 443 444 445 446 447 448 0
-449 22 0
-449 29 0
-449 43 0
-22 -29 -43 449 0
-450 23 0
-450 30 0
-450 44 0
-23 -30 -44 450 0
-451 24 0
-451 31 0
-451 45 0
-24 -31 -45 451 0
-452 25 0
-452 32 0
-452 46 0
-25 -32 -46 452 0
-453 26 0
-453 33 0
-453 47 0
-26 -33 -47 453 0
-454 27 0
-454 34 0
-454 48 0
-27 -34 -48 454 0
-455 28 0
-455 35 0
-455 49 0
-28 -35 -49 455 0
-449 502 0
-450 502 0
-451 502 0
-452 502 0
-453 502 0
-454 502 0
-455 502 0
-502 449 450 451 452 453 454 455 0
-456 22 0
-456 36 0
-456 43 0
-22 -36 -43 456 0
-457 23 0
-457 37 0
-457 44 0
-23 -37 -44 457 0
-458 24 0
-458 38 0
-458 45 0
-24 -38 -45 458 0
-459 25 0
-459 39 0
-459 46 0
-25 -39 -46 459 0
-460 26 0
-460 40 0
-460 47 0
-26 -40 -47 460 0
-461 27 0
-461 41 0
-461 48 0
-27 -41 -48 461 0
-462 28 0
-462 42 0
-462 49 0
-28 -42 -49 462 0
-456 503 0
-457 503 0
-458 503 0
-459 503 0
-460 503 0
-461 503 0
-462 503 0
-503 456 457 458 459 460 461 462 0
-463 29 0
-463 36 0
-463 43 0
-29 -36 -43 463 0
-464 30 0
-464 37 0
-464 44 0
-30 -37 -44 464 0
-465 31 0
-465 38 0
-465 45 0
-31 -38 -45 465 0
-466 32 0
-466 39 0
-466 46 0
-32 -39 -46 466 0
-467 33 0
-467 40 0
-467 47 0
-33 -40 -47 467 0
-468 34 0
-468 41 0
-468 48 0
-34 -41 -48 468 0
-469 35 0
-469 42 0
-469 49 0
-35 -42 -49 469 0
-463 504 0
-464 504 0
-465 504 0
-466 504 0
-467 504 0
-468 504 0
-469 504 0
-504 463 464 465 466 467 468 469 0
-204 -210 -215 -206 470 485 475 471 0
-204 -211 -215 -205 471 485 475 470 0
-205 -210 -211 -206 470 485 471 475 0
-204 -210 -216 -207 470 486 476 472 0
-204 -212 -216 -205 472 486 476 470 0
-205 -210 -212 -207 470 486 472 476 0
-204 -210 -217 -208 470 487 477 473 0
-204 -213 -217 -205 473 487 477 470 0
-205 -210 -213 -208 470 487 473 477 0
-204 -210 -218 -209 470 488 478 474 0
-204 -214 -218 -205 474 488 478 470 0
-205 -210 -214 -209 470 488 474 478 0
-204 -211 -219 -207 471 489 479 472 0
-204 -212 -219 -206 472 489 479 471 0
-206 -211 -212 -207 471 489 472 479 0
-204 -211 -220 -208 471 490 480 473 0
-204 -213 -220 -206 473 490 480 471 0
-206 -211 -213 -208 471 490 473 480 0
-204 -211 -221 -209 471 491 481 474 0
-204 -214 -221 -206 474 491 481 471 0
-206 -211 -214 -209 471 491 474 481 0
-204 -212 -222 -208 472 492 482 473 0
-204 -213 -222 -207 473 492 482 472 0
-207 -212 -213 -208 472 492 473 482 0
-204 -212 -223 -209 472 493 483 474 0
-204 -214 -223 -207 474 493 483 472 0
-207 -212 -214 -209 472 493 474 483 0
-204 -213 -224 -209 473 494 484 474 0
-204 -214 -224 -208 474 494 484 473 0
-208 -213 -214 -209 473 494 474 484 0
-205 -215 -219 -207 475 495 479 476 0
-205 -216 -219 -206 476 495 479 475 0
-206 -215 -216 -207 475 495 476 479 0
-205 -215 -220 -208 475 496 480 477 0
-205 -217 -220 -206 477 496 480 475 0
-206 -215 -217 -208 475 496 477 480 0
-205 -215 -221 -209 475 497 481 478 0
-205 -218 -221 -206 478 497 481 475 0
-206 -215 -218 -209 475 497 478 481 0
-205 -216 -222 -208 476 498 482 477 0
-205 -217 -222 -207 477 498 482 476 0
-207 -216 -217 -208 476 498 477 482 0
-205 -216 -223 -209 476 499 483 478 0
-205 -218 -223 -207 478 499 483 476 0
-207 -216 -218 -209 476 499 478 483 0
-205 -217 -224 -209 477 500 484 478 0
-205 -218 -224 -208 478 500 484 477 0
-208 -217 -218 -209 477 500 478 484 0
-206 -219 -222 -208 479 501 482 480 0
-206 -220 -222 -207 480 501 482 479 0
-207 -219 -220 -208 479 501 480 482 0
-206 -219 -223 -209 479 502 483 481 0
-206 -221 -223 -207 481 502 483 479 0
-207 -219 -221 -209 479 502 481 483 0
-206 -220 -224 -209 480 503 484 481 0
-206 -221 -224 -208 481 503 484 480 0
-208 -220 -221 -209 480 503 481 484 0
-207 -222 -224 -209 482 504 484 483 0
-207 -223 -224 -208 483 504 484 482 0
-208 -222 -223 -209 482 504 483 484 0
-210 -215 -219 -212 485 495 489 486 0
-210 -216 -219 -211 486 495 489 485 0
-211 -215 -216 -212 485 495 486 489 0
-210 -215 -220 -213 485 496 490 487 0
-210 -217 -220 -211 487 496 490 485 0
-211 -215 -217 -213 485 496 487 490 0
-210 -215 -221 -214 485 497 491 488 0
-210 -218 -221 -211 488 497 491 485 0
-211 -215 -218 -214 485 497 488 491 0
-210 -216 -222 -213 486 498 492 487 0
-210 -217 -222 -212 487 498 492 486 0
-212 -216 -217 -213 486 498 487 492 0
-210 -216 -223 -214 486 499 493 488 0
-210 -218 -223 -212 488 499 493 486 0
-212 -216 -218 -214 486 499 488 493 0
-210 -217 -224 -214 487 500 494 488 0
-210 -218 -224 -213 488 500 494 487 0
-213 -217 -218 -214 487 500 488 494 0
-211 -219 -222 -213 489 501 492 490 0
-211 -220 -222 -212 490 501 492 489 0
-212 -219 -220 -213 489 501 490 492 0
-211 -219 -223 -214 489 502 493 491 0
-211 -221 -223 -212 491 502 493 489 0
-212 -219 -221 -214 489 502 491 493 0
-211 -220 -224 -214 490 503 494 491 0
-211 -221 -224 -213 491 503 494 490 0
-213 -220 -221 -214 490 503 491 494 0
-212 -222 -224 -214 492 504 494 493 0
-212 -223 -224 -213 493 504 494 492 0
-213 -222 -223 -214 492 504 493 494 0
-215 -219 -222 -217 495 501 498 496 0
-215 -220 -222 -216 496 501 498 495 0
-216 -219 -220 -217 495 501 496 498 0
-215 -219 -223 -218 495 502 499 497 0
-215 -221 -223 -216 497 502 499 495 0
-216 -219 -221 -218 495 502 497 499 0
-215 -220 -224 -218 496 503 500 497 0
-215 -221 -224 -217 497 503 500 496 0
-217 -220 -221 -218 496 503 497 500 0
-216 -222 -224 -218 498 504 500 499 0
-216 -223 -224 -217 499 504 500 498 0
-217 -222 -223 -218 498 504 499 500 0
-219 -222 -224 -221 501 504 503 502 0
-219 -223 -224 -220 502 504 503 501 0
-220 -222 -223 -221 501 504 502 503 0
883 0
-883 1 -2 0
-884 883 0
-884 1 -2 0
-884 -1 2 0
-883 -1 -2 884 0
-883 1 2 884 0
-884 8 -9 0
-885 884 0
-885 8 -9 0
-885 -8 9 0
-884 -8 -9 885 0
-884 8 9 885 0
-885 15 -16 0
-886 885 0
-886 15 -16 0
-886 -15 16 0
-885 -15 -16 886 0
-885 15 16 886 0
-886 22 -23 0
-887 886 0
-887 22 -23 0
-887 -22 23 0
-886 -22 -23 887 0
-886 22 23 887 0
-887 29 -30 0
-888 887 0
-888 29 -30 0
-888 -29 30 0
-887 -29 -30 888 0
-887 29 30 888 0
-888 36 -37 0
-889 888 0
-889 36 -37 0
-889 -36 37 0
-888 -36 -37 889 0
-888 36 37 889 0
-889 43 -44 0
-890 889 0
-890 43 -44 0
-890 -43 44 0
-889 -43 -44 890 0
-889 43 44 890 0
891 0
-891 2 -3 0
-892 891 0
-892 2 -3 0
-892 -2 3 0
-891 -2 -3 892 0
-891 2 3 892 0
-892 9 -10 0
-893 892 0
-893 9 -10 0
-893 -9 10 0
-892 -9 -10 893 0
-892 9 10 893 0
-893 16 -17 0
-894 893 0
-894 16 -17 0
-894 -16 17 0
-893 -16 -17 894 0
-893 16 17 894 0
-894 23 -24 0
-895 894 0
-895 23 -24 0
-895 -23 24 0
-894 -23 -24 895 0
-894 23 24 895 0
-895 30 -31 0
-896 895 0
-896 30 -31 0
-896 -30 31 0
-895 -30 -31 896 0
-895 30 31 896 0
-896 37 -38 0
-897 896 0
-897 37 -38 0
-897 -37 38 0
-896 -37 -38 897 0
-896 37 38 897 0
-897 44 -45 0
-898 897 0
-898 44 -45 0
-898 -44 45 0
-897 -44 -45 898 0
-897 44 45 898 0
899 0
-899 3 -4 0
-900 899 0
-900 3 -4 0
-900 -3 4 0
-899 -3 -4 900 0
-899 3 4 900 0
-900 10 -11 0
-901 900 0
-901 10 -11 0
-901 -10 11 0
-900 -10 -11 901 0
-900 10 11 901 0
-901 17 -18 0
-902 901 0
-902 17 -18 0
-902 -17 18 0
-901 -17 -18 902 0
-901 17 18 902 0
-902 24 -25 0
-903 902 0
-903 24 -25 0
-903 -24 25 0
-902 -24 -25 903 0
-902 24 25 903 0
-903 31 -32 0
-904 903 0
-904 31 -32 0
-904 -31 32 0
-903 -31 -32 904 0
-903 31 32 904 0
-904 38 -39 0
-905 904 0
-905 38 -39 0
-905 -38 39 0
-904 -38 -39 905 0
-904 38 39 905 0
-905 45 -46 0
-906 905 0
-906 45 -46 0
-906 -45 46 0
-905 -45 -46 906 0
-905 45 46 906 0
907 0
-907 4 -5 0
-908 907 0
-908 4 -5 0
-908 -4 5 0
-907 -4 -5 908 0
-907 4 5 908 0
-908 11 -12 0
-909 908 0
-909 11 -12 0
-909 -11 12 0
-908 -11 -12 909 0
-908 11 12 909 0
-909 18 -19 0
-910 909 0
-910 18 -19 0
-910 -18 19 0
-909 -18 -19 910 0
-909 18 19 910 0
-910 25 -26 0
-911 910 0
-911 25 -26 0
-911 -25 26 0
-910 -25 -26 911 0
-910 25 26 911 0
-911 32 -33 0
-912 911 0
-912 32 -33 0
-912 -32 33 0
-911 -32 -33 912 0
-911 32 33 912 0
-912 39 -40 0
-913 912 0
-913 39 -40 0
-913 -39 40 0
-912 -39 -40 913 0
-912 39 40 913 0
-913 46 -47 0
-914 913 0
-914 46 -47 0
-914 -46 47 0
-913 -46 -47 914 0
-913 46 47 914 0
915 0
-915 5 -6 0
-916 915 0
-916 5 -6 0
-916 -5 6 0
-915 -5 -6 916 0
-915 5 6 916 0
-916 12 -13 0
-917 916 0
-917 12 -13 0
-917 -12 13 0
-916 -12 -13 917 0
-916 12 13 917 0
-917 19 -20 0
-918 917 0
-918 19 -20 0
-918 -19 20 0
-917 -19 -20 918 0
-917 19 20 918 0
-918 26 -27 0
-919 918 0
-919 26 -27 0
-919 -26 27 0
-918 -26 -27 919 0
-918 26 27 919 0
-919 33 -34 0
-920 919 0
-920 33 -34 0
-920 -33 34 0
-919 -33 -34 920 0
-919 33 34 920 0
-920 40 -41 0
-921 920 0
-921 40 -41 0
-921 -40 41 0
-920 -40 -41 921 0
-920 40 41 921 0
-921 47 -48 0
-922 921 0
-922 47 -48 0
-922 -47 48 0
-921 -47 -48 922 0
-921 47 48 922 0
923 0
-923 6 -7 0
-924 923 0
-924 6 -7 0
-924 -6 7 0
-923 -6 -7 924 0
-923 6 7 924 0
-924 13 -14 0
-925 924 0
-925 13 -14 0
-925 -13 14 0
-924 -13 -14 925 0
-924 13 14 925 0
-925 20 -21 0
-926 925 0
-926 20 -21 0
-926 -20 21 0
-925 -20 -21 926 0
-925 20 21 926 0
-926 27 -28 0
-927 926 0
-927 27 -28 0
-927 -27 28 0
-926 -27 -28 927 0
-926 27 28 927 0
-927 34 -35 0
-928 927 0
-928 34 -35 0
-928 -34 35 0
-927 -34 -35 928 0
-927 34 35 928 0
-928 41 -42 0
-929 928 0
-929 41 -42 0
-929 -41 42 0
-928 -41 -42 929 0
-928 41 42 929 0
-929 48 -49 0
-930 929 0
-930 48 -49 0
-930 -48 49 0
-929 -48 -49 930 0
-929 48 49 930 0
931 0
-931 1 -8 0
-932 931 0
-932 1 -8 0
-932 -1 8 0
-931 -1 -8 932 0
-931 1 8 932 0
-932 2 -9 0
-933 932 0
-933 2 -9 0
-933 -2 9 0
-932 -2 -9 933 0
-932 2 9 933 0
-933 3 -10 0
-934 933 0
-934 3 -10 0
-934 -3 10 0
-933 -3 -10 934 0
-933 3 10 934 0
-934 4 -11 0
-935 934 0
-935 4 -11 0
-935 -4 11 0
-934 -4 -11 935 0
-934 4 11 935 0
-935 5 -12 0
-936 935 0
-936 5 -12 0
-936 -5 12 0
-935 -5 -12 936 0
-935 5 12 936 0
-936 6 -13 0
-937 936 0
-937 6 -13 0
-937 -6 13 0
-936 -6 -13 937 0
-936 6 13 937 0
-937 7 -14 0
-938 937 0
-938 7 -14 0
-938 -7 14 0
-937 -7 -14 938 0
-937 7 14 938 0
939 0
-939 8 -15 0
-940 939 0
-940 8 -15 0
-940 -8 15 0
-939 -8 -15 940 0
-939 8 15 940 0
-940 9 -16 0
-941 940 0
-941 9 -16 0
-941 -9 16 0
-940 -9 -16 941 0
-940 9 16 941 0
-941 10 -17 0
-942 941 0
-942 10 -17 0
-942 -10 17 0
-941 -10 -17 942 0
-941 10 17 942 0
-942 11 -18 0
-943 942 0
-943 11 -18 0
-943 -11 18 0
-942 -11 -18 943 0
-942 11 18 943 0
-943 12 -19 0
-944 943 0
-944 12 -19 0
-944 -12 19 0
-943 -12 -19 944 0
-943 12 19 944 0
-944 13 -20 0
-945 944 0
-945 13 -20 0
-945 -13 20 0
-944 -13 -20 945 0
-944 13 20 945 0
-945 14 -21 0
-946 945 0
-946 14 -21 0
-946 -14 21 0
-945 -14 -21 946 0
-945 14 21 946 0
947 0
-947 15 -22 0
-948 947 0
-948 15 -22 0
-948 -15 22 0
-947 -15 -22 948 0
-947 15 22 948 0
-948 16 -23 0
-949 948 0
-949 16 -23 0
-949 -16 23 0
-948 -16 -23 949 0
-948 16 23 949 0
-949 17 -24 0
-950 949 0
-950 17 -24 0
-950 -17 24 0
-949 -17 -24 950 0
-949 17 24 950 0
-950 18 -25 0
-951 950 0
-951 18 -25 0
-951 -18 25 0
-950 -18 -25 951 0
-950 18 25 951 0
-951 19 -26 0
-952 951 0
-952 19 -26 0
-952 -19 26 0
-951 -19 -26 952 0
-951 19 26 952 0
-952 20 -27 0
-953 952 0
-953 20 -27 0
-953 -20 27 0
-952 -20 -27 953 0
-952 20 27 953 0
-953 21 -28 0
-954 953 0
-954 21 -28 0
-954 -21 28 0
-953 -21 -28 954 0
-953 21 28 954 0
955 0
-955 22 -29 0
-956 955 0
-956 22 -29 0
-956 -22 29 0
-955 -22 -29 956 0
-955 22 29 956 0
-956 23 -30 0
-957 956 0
-957 23 -30 0
-957 -23 30 0
-956 -23 -30 957 0
-956 23 30 957 0
-957 24 -31 0
-958 957 0
-958 24 -31 0
-958 -24 31 0
-957 -24 -31 958 0
-957 24 31 958 0
-958 25 -32 0
-959 958 0
-959 25 -32 0
-959 -25 32 0
-958 -25 -32 959 0
-958 25 32 959 0
-959 26 -33 0
-960 959 0
-960 26 -33 0
-960 -26 33 0
-959 -26 -33 960 0
-959 26 33 960 0
-960 27 -34 0
-961 960 0
-961 27 -34 0
-961 -27 34 0
-960 -27 -34 961 0
-960 27 34 961 0
-961 28 -35 0
-962 961 0
-962 28 -35 0
-962 -28 35 0
-961 -28 -35 962 0
-961 28 35 962 0
963 0
-963 29 -36 0
-964 963 0
-964 29 -36 0
-964 -29 36 0
-963 -29 -36 964 0
-963 29 36 964 0
-964 30 -37 0
-965 964 0
-965 30 -37 0
-965 -30 37 0
-964 -30 -37 965 0
-964 30 37 965 0
-965 31 -38 0
-966 965 0
-966 31 -38 0
-966 -31 38 0
-965 -31 -38 966 0
-965 31 38 966 0
-966 32 -39 0
-967 966 0
-967 32 -39 0
-967 -32 39 0
-966 -32 -39 967 0
-966 32 39 967 0
-967 33 -40 0
-968 967 0
-968 33 -40 0
-968 -33 40 0
-967 -33 -40 968 0
-967 33 40 968 0
-968 34 -41 0
-969 968 0
-969 34 -41 0
-969 -34 41 0
-968 -34 -41 969 0
-968 34 41 969 0
-969 35 -42 0
-970 969 0
-970 35 -42 0
-970 -35 42 0
-969 -35 -42 970 0
-969 35 42 970 0
971 0
-971 36 -43 0
-972 971 0
-972 36 -43 0
-972 -36 43 0
-971 -36 -43 972 0
-971 36 43 972 0
-972 37 -44 0
-973 972 0
-973 37 -44 0
-973 -37 44 0
-972 -37 -44 973 0
-972 37 44 973 0
-973 38 -45 0
-974 973 0
-974 38 -45 0
-974 -38 45 0
-973 -38 -45 974 0
-973 38 45 974 0
-974 39 -46 0
-975 974 0
-975 39 -46 0
-975 -39 46 0
-974 -39 -46 975 0
-974 39 46 975 0
-975 40 -47 0
-976 975 0
-976 40 -47 0
-976 -40 47 0
-975 -40 -47 976 0
-975 40 47 976 0
-976 41 -48 0
-977 976 0
-977 41 -48 0
-977 -41 48 0
-976 -41 -48 977 0
-976 41 48 977 0
-977 42 -49 0
-978 977 0
-978 42 -49 0
-978 -42 49 0
-977 -42 -49 978 0
-977 42 49 978 0
