p cnf 14805 61253
-1 339 0
-27 339 0
-53 339 0
-79 339 0
-105 339 0
-131 339 0
-157 339 0
-183 339 0
-209 339 0
-235 339 0
-261 339 0
-287 339 0
-313 339 0
-2 340 0
-28 340 0
-54 340 0
-80 340 0
-106 340 0
-132 340 0
-158 340 0
-184 340 0
-210 340 0
-236 340 0
-262 340 0
-288 340 0
-314 340 0
-3 341 0
-29 341 0
-55 341 0
-81 341 0
-107 341 0
-133 341 0
-159 341 0
-185 341 0
-211 341 0
-237 341 0
-263 341 0
-289 341 0
-315 341 0
-4 342 0
-30 342 0
-56 342 0
-82 342 0
-108 342 0
-134 342 0
-160 342 0
-186 342 0
-212 342 0
-238 342 0
-264 342 0
-290 342 0
-316 342 0
-5 343 0
-31 343 0
-57 343 0
-83 343 0
-109 343 0
-135 343 0
-161 343 0
-187 343 0
-213 343 0
-239 343 0
-265 343 0
-291 343 0
-317 343 0
-6 344 0
-32 344 0
-58 344 0
-84 344 0
-110 344 0
-136 344 0
-162 344 0
-188 344 0
-214 344 0
-240 344 0
-266 344 0
-292 344 0
-318 344 0
-7 345 0
-33 345 0
-59 345 0
-85 345 0
-111 345 0
-137 345 0
-163 345 0
-189 345 0
-215 345 0
-241 345 0
-267 345 0
-293 345 0
-319 345 0
-8 346 0
-34 346 0
-60 346 0
-86 346 0
-112 346 0
-138 346 0
-164 346 0
-190 346 0
-216 346 0
-242 346 0
-268 346 0
-294 346 0
-320 346 0
-9 347 0
-35 347 0
-61 347 0
-87 347 0
-113 347 0
-139 347 0
-165 347 0
-191 347 0
-217 347 0
-243 347 0
-269 347 0
-295 347 0
-321 347 0
-10 348 0
-36 348 0
-62 348 0
-88 348 0
-114 348 0
-140 348 0
-166 348 0
-192 348 0
-218 348 0
-244 348 0
-270 348 0
-296 348 0
-322 348 0
-11 349 0
-37 349 0
-63 349 0
-89 349 0
-115 349 0
-141 349 0
-167 349 0
-193 349 0
-219 349 0
-245 349 0
-271 349 0
-297 349 0
-323 349 0
-12 350 0
-38 350 0
-64 350 0
-90 350 0
-116 350 0
-142 350 0
-168 350 0
-194 350 0
-220 350 0
-246 350 0
-272 350 0
-298 350 0
-324 350 0
-13 351 0
-39 351 0
-65 351 0
-91 351 0
-117 351 0
-143 351 0
-169 351 0
-195 351 0
-221 351 0
-247 351 0
-273 351 0
-299 351 0
-325 351 0
-14 352 0
-40 352 0
-66 352 0
-92 352 0
-118 352 0
-144 352 0
-170 352 0
-196 352 0
-222 352 0
-248 352 0
-274 352 0
-300 352 0
-326 352 0
-15 353 0
-41 353 0
-67 353 0
-93 353 0
-119 353 0
-145 353 0
-171 353 0
-197 353 0
-223 353 0
-249 353 0
-275 353 0
-301 353 0
-327 353 0
-16 354 0
-42 354 0
-68 354 0
-94 354 0
-120 354 0
-146 354 0
-172 354 0
-198 354 0
-224 354 0
-250 354 0
-276 354 0
-302 354 0
-328 354 0
-17 355 0
-43 355 0
-69 355 0
-95 355 0
-121 355 0
-147 355 0
-173 355 0
-199 355 0
-225 355 0
-251 355 0
-277 355 0
-303 355 0
-329 355 0
-18 356 0
-44 356 0
-70 356 0
-96 356 0
-122 356 0
-148 356 0
-174 356 0
-200 356 0
-226 356 0
-252 356 0
-278 356 0
-304 356 0
-330 356 0
-19 357 0
-45 357 0
-71 357 0
-97 357 0
-123 357 0
-149 357 0
-175 357 0
-201 357 0
-227 357 0
-253 357 0
-279 357 0
-305 357 0
-331 357 0
-20 358 0
-46 358 0
-72 358 0
-98 358 0
-124 358 0
-150 358 0
-176 358 0
-202 358 0
-228 358 0
-254 358 0
-280 358 0
-306 358 0
-332 358 0
-21 359 0
-47 359 0
-73 359 0
-99 359 0
-125 359 0
-151 359 0
-177 359 0
-203 359 0
-229 359 0
-255 359 0
-281 359 0
-307 359 0
-333 359 0
-22 360 0
-48 360 0
-74 360 0
-100 360 0
-126 360 0
-152 360 0
-178 360 0
-204 360 0
-230 360 0
-256 360 0
-282 360 0
-308 360 0
-334 360 0
-23 361 0
-49 361 0
-75 361 0
-101 361 0
-127 361 0
-153 361 0
-179 361 0
-205 361 0
-231 361 0
-257 361 0
-283 361 0
-309 361 0
-335 361 0
-24 362 0
-50 362 0
-76 362 0
-102 362 0
-128 362 0
-154 362 0
-180 362 0
-206 362 0
-232 362 0
-258 362 0
-284 362 0
-310 362 0
-336 362 0
-25 363 0
-51 363 0
-77 363 0
-103 363 0
-129 363 0
-155 363 0
-181 363 0
-207 363 0
-233 363 0
-259 363 0
-285 363 0
-311 363 0
-337 363 0
-26 364 0
-52 364 0
-78 364 0
-104 364 0
-130 364 0
-156 364 0
-182 364 0
-208 364 0
-234 364 0
-260 364 0
-286 364 0
-312 364 0
-338 364 0
-340 339 0
-341 340 0
-342 341 0
-343 342 0
-344 343 0
-345 344 0
-346 345 0
-347 346 0
-348 347 0
-349 348 0
-350 349 0
-351 350 0
-352 351 0
-353 352 0
-354 353 0
-355 354 0
-356 355 0
-357 356 0
-358 357 0
-359 358 0
-360 359 0
-361 360 0
-362 361 0
-363 362 0
-364 363 0
339 10193 0
-10193 -339 0
339 10194 0
-10194 -339 0
339 10195 0
-10195 -339 0
1 10196 0
-10196 10197 0
27 -10196 10198 0
-10198 10199 0
53 -10198 10200 0
-10200 10201 0
79 -10200 10202 0
-10202 10203 0
105 -10202 10204 0
-10204 10205 0
131 -10204 10206 0
-10206 10207 0
157 -10206 10208 0
-10208 10209 0
183 -10208 10210 0
-10210 10211 0
209 -10210 10212 0
-10212 10213 0
235 -10212 10214 0
-10214 10215 0
261 -10214 10216 0
-10216 10217 0
287 -10216 10218 0
-10218 10219 0
313 -10218 10220 0
-10220 10221 0
10193 -10220 0
27 10197 0
-10197 10222 0
53 -10197 10199 0
-10199 10223 0
79 -10199 10201 0
-10201 10224 0
105 -10201 10203 0
-10203 10225 0
131 -10203 10205 0
-10205 10226 0
157 -10205 10207 0
-10207 10227 0
183 -10207 10209 0
-10209 10228 0
209 -10209 10211 0
-10211 10229 0
235 -10211 10213 0
-10213 10230 0
261 -10213 10215 0
-10215 10231 0
287 -10215 10217 0
-10217 10232 0
313 -10217 10219 0
-10219 10233 0
10193 -10219 10221 0
-10221 10234 0
10194 -10221 0
53 10222 0
79 -10222 10223 0
105 -10223 10224 0
131 -10224 10225 0
157 -10225 10226 0
183 -10226 10227 0
209 -10227 10228 0
235 -10228 10229 0
261 -10229 10230 0
287 -10230 10231 0
313 -10231 10232 0
10193 -10232 10233 0
10194 -10233 10234 0
10195 -10234 0
340 10235 0
-10235 -340 0
340 10236 0
-10236 -340 0
340 10237 0
-10237 -340 0
2 10238 0
-10238 10239 0
28 -10238 10240 0
-10240 10241 0
54 -10240 10242 0
-10242 10243 0
80 -10242 10244 0
-10244 10245 0
106 -10244 10246 0
-10246 10247 0
132 -10246 10248 0
-10248 10249 0
158 -10248 10250 0
-10250 10251 0
184 -10250 10252 0
-10252 10253 0
210 -10252 10254 0
-10254 10255 0
236 -10254 10256 0
-10256 10257 0
262 -10256 10258 0
-10258 10259 0
288 -10258 10260 0
-10260 10261 0
314 -10260 10262 0
-10262 10263 0
10235 -10262 0
28 10239 0
-10239 10264 0
54 -10239 10241 0
-10241 10265 0
80 -10241 10243 0
-10243 10266 0
106 -10243 10245 0
-10245 10267 0
132 -10245 10247 0
-10247 10268 0
158 -10247 10249 0
-10249 10269 0
184 -10249 10251 0
-10251 10270 0
210 -10251 10253 0
-10253 10271 0
236 -10253 10255 0
-10255 10272 0
262 -10255 10257 0
-10257 10273 0
288 -10257 10259 0
-10259 10274 0
314 -10259 10261 0
-10261 10275 0
10235 -10261 10263 0
-10263 10276 0
10236 -10263 0
54 10264 0
80 -10264 10265 0
106 -10265 10266 0
132 -10266 10267 0
158 -10267 10268 0
184 -10268 10269 0
210 -10269 10270 0
236 -10270 10271 0
262 -10271 10272 0
288 -10272 10273 0
314 -10273 10274 0
10235 -10274 10275 0
10236 -10275 10276 0
10237 -10276 0
341 10277 0
-10277 -341 0
341 10278 0
-10278 -341 0
341 10279 0
-10279 -341 0
3 10280 0
-10280 10281 0
29 -10280 10282 0
-10282 10283 0
55 -10282 10284 0
-10284 10285 0
81 -10284 10286 0
-10286 10287 0
107 -10286 10288 0
-10288 10289 0
133 -10288 10290 0
-10290 10291 0
159 -10290 10292 0
-10292 10293 0
185 -10292 10294 0
-10294 10295 0
211 -10294 10296 0
-10296 10297 0
237 -10296 10298 0
-10298 10299 0
263 -10298 10300 0
-10300 10301 0
289 -10300 10302 0
-10302 10303 0
315 -10302 10304 0
-10304 10305 0
10277 -10304 0
29 10281 0
-10281 10306 0
55 -10281 10283 0
-10283 10307 0
81 -10283 10285 0
-10285 10308 0
107 -10285 10287 0
-10287 10309 0
133 -10287 10289 0
-10289 10310 0
159 -10289 10291 0
-10291 10311 0
185 -10291 10293 0
-10293 10312 0
211 -10293 10295 0
-10295 10313 0
237 -10295 10297 0
-10297 10314 0
263 -10297 10299 0
-10299 10315 0
289 -10299 10301 0
-10301 10316 0
315 -10301 10303 0
-10303 10317 0
10277 -10303 10305 0
-10305 10318 0
10278 -10305 0
55 10306 0
81 -10306 10307 0
107 -10307 10308 0
133 -10308 10309 0
159 -10309 10310 0
185 -10310 10311 0
211 -10311 10312 0
237 -10312 10313 0
263 -10313 10314 0
289 -10314 10315 0
315 -10315 10316 0
10277 -10316 10317 0
10278 -10317 10318 0
10279 -10318 0
342 10319 0
-10319 -342 0
342 10320 0
-10320 -342 0
342 10321 0
-10321 -342 0
4 10322 0
-10322 10323 0
30 -10322 10324 0
-10324 10325 0
56 -10324 10326 0
-10326 10327 0
82 -10326 10328 0
-10328 10329 0
108 -10328 10330 0
-10330 10331 0
134 -10330 10332 0
-10332 10333 0
160 -10332 10334 0
-10334 10335 0
186 -10334 10336 0
-10336 10337 0
212 -10336 10338 0
-10338 10339 0
238 -10338 10340 0
-10340 10341 0
264 -10340 10342 0
-10342 10343 0
290 -10342 10344 0
-10344 10345 0
316 -10344 10346 0
-10346 10347 0
10319 -10346 0
30 10323 0
-10323 10348 0
56 -10323 10325 0
-10325 10349 0
82 -10325 10327 0
-10327 10350 0
108 -10327 10329 0
-10329 10351 0
134 -10329 10331 0
-10331 10352 0
160 -10331 10333 0
-10333 10353 0
186 -10333 10335 0
-10335 10354 0
212 -10335 10337 0
-10337 10355 0
238 -10337 10339 0
-10339 10356 0
264 -10339 10341 0
-10341 10357 0
290 -10341 10343 0
-10343 10358 0
316 -10343 10345 0
-10345 10359 0
10319 -10345 10347 0
-10347 10360 0
10320 -10347 0
56 10348 0
82 -10348 10349 0
108 -10349 10350 0
134 -10350 10351 0
160 -10351 10352 0
186 -10352 10353 0
212 -10353 10354 0
238 -10354 10355 0
264 -10355 10356 0
290 -10356 10357 0
316 -10357 10358 0
10319 -10358 10359 0
10320 -10359 10360 0
10321 -10360 0
343 10361 0
-10361 -343 0
343 10362 0
-10362 -343 0
343 10363 0
-10363 -343 0
5 10364 0
-10364 10365 0
31 -10364 10366 0
-10366 10367 0
57 -10366 10368 0
-10368 10369 0
83 -10368 10370 0
-10370 10371 0
109 -10370 10372 0
-10372 10373 0
135 -10372 10374 0
-10374 10375 0
161 -10374 10376 0
-10376 10377 0
187 -10376 10378 0
-10378 10379 0
213 -10378 10380 0
-10380 10381 0
239 -10380 10382 0
-10382 10383 0
265 -10382 10384 0
-10384 10385 0
291 -10384 10386 0
-10386 10387 0
317 -10386 10388 0
-10388 10389 0
10361 -10388 0
31 10365 0
-10365 10390 0
57 -10365 10367 0
-10367 10391 0
83 -10367 10369 0
-10369 10392 0
109 -10369 10371 0
-10371 10393 0
135 -10371 10373 0
-10373 10394 0
161 -10373 10375 0
-10375 10395 0
187 -10375 10377 0
-10377 10396 0
213 -10377 10379 0
-10379 10397 0
239 -10379 10381 0
-10381 10398 0
265 -10381 10383 0
-10383 10399 0
291 -10383 10385 0
-10385 10400 0
317 -10385 10387 0
-10387 10401 0
10361 -10387 10389 0
-10389 10402 0
10362 -10389 0
57 10390 0
83 -10390 10391 0
109 -10391 10392 0
135 -10392 10393 0
161 -10393 10394 0
187 -10394 10395 0
213 -10395 10396 0
239 -10396 10397 0
265 -10397 10398 0
291 -10398 10399 0
317 -10399 10400 0
10361 -10400 10401 0
10362 -10401 10402 0
10363 -10402 0
344 10403 0
-10403 -344 0
344 10404 0
-10404 -344 0
344 10405 0
-10405 -344 0
6 10406 0
-10406 10407 0
32 -10406 10408 0
-10408 10409 0
58 -10408 10410 0
-10410 10411 0
84 -10410 10412 0
-10412 10413 0
110 -10412 10414 0
-10414 10415 0
136 -10414 10416 0
-10416 10417 0
162 -10416 10418 0
-10418 10419 0
188 -10418 10420 0
-10420 10421 0
214 -10420 10422 0
-10422 10423 0
240 -10422 10424 0
-10424 10425 0
266 -10424 10426 0
-10426 10427 0
292 -10426 10428 0
-10428 10429 0
318 -10428 10430 0
-10430 10431 0
10403 -10430 0
32 10407 0
-10407 10432 0
58 -10407 10409 0
-10409 10433 0
84 -10409 10411 0
-10411 10434 0
110 -10411 10413 0
-10413 10435 0
136 -10413 10415 0
-10415 10436 0
162 -10415 10417 0
-10417 10437 0
188 -10417 10419 0
-10419 10438 0
214 -10419 10421 0
-10421 10439 0
240 -10421 10423 0
-10423 10440 0
266 -10423 10425 0
-10425 10441 0
292 -10425 10427 0
-10427 10442 0
318 -10427 10429 0
-10429 10443 0
10403 -10429 10431 0
-10431 10444 0
10404 -10431 0
58 10432 0
84 -10432 10433 0
110 -10433 10434 0
136 -10434 10435 0
162 -10435 10436 0
188 -10436 10437 0
214 -10437 10438 0
240 -10438 10439 0
266 -10439 10440 0
292 -10440 10441 0
318 -10441 10442 0
10403 -10442 10443 0
10404 -10443 10444 0
10405 -10444 0
345 10445 0
-10445 -345 0
345 10446 0
-10446 -345 0
345 10447 0
-10447 -345 0
7 10448 0
-10448 10449 0
33 -10448 10450 0
-10450 10451 0
59 -10450 10452 0
-10452 10453 0
85 -10452 10454 0
-10454 10455 0
111 -10454 10456 0
-10456 10457 0
137 -10456 10458 0
-10458 10459 0
163 -10458 10460 0
-10460 10461 0
189 -10460 10462 0
-10462 10463 0
215 -10462 10464 0
-10464 10465 0
241 -10464 10466 0
-10466 10467 0
267 -10466 10468 0
-10468 10469 0
293 -10468 10470 0
-10470 10471 0
319 -10470 10472 0
-10472 10473 0
10445 -10472 0
33 10449 0
-10449 10474 0
59 -10449 10451 0
-10451 10475 0
85 -10451 10453 0
-10453 10476 0
111 -10453 10455 0
-10455 10477 0
137 -10455 10457 0
-10457 10478 0
163 -10457 10459 0
-10459 10479 0
189 -10459 10461 0
-10461 10480 0
215 -10461 10463 0
-10463 10481 0
241 -10463 10465 0
-10465 10482 0
267 -10465 10467 0
-10467 10483 0
293 -10467 10469 0
-10469 10484 0
319 -10469 10471 0
-10471 10485 0
10445 -10471 10473 0
-10473 10486 0
10446 -10473 0
59 10474 0
85 -10474 10475 0
111 -10475 10476 0
137 -10476 10477 0
163 -10477 10478 0
189 -10478 10479 0
215 -10479 10480 0
241 -10480 10481 0
267 -10481 10482 0
293 -10482 10483 0
319 -10483 10484 0
10445 -10484 10485 0
10446 -10485 10486 0
10447 -10486 0
346 10487 0
-10487 -346 0
346 10488 0
-10488 -346 0
346 10489 0
-10489 -346 0
8 10490 0
-10490 10491 0
34 -10490 10492 0
-10492 10493 0
60 -10492 10494 0
-10494 10495 0
86 -10494 10496 0
-10496 10497 0
112 -10496 10498 0
-10498 10499 0
138 -10498 10500 0
-10500 10501 0
164 -10500 10502 0
-10502 10503 0
190 -10502 10504 0
-10504 10505 0
216 -10504 10506 0
-10506 10507 0
242 -10506 10508 0
-10508 10509 0
268 -10508 10510 0
-10510 10511 0
294 -10510 10512 0
-10512 10513 0
320 -10512 10514 0
-10514 10515 0
10487 -10514 0
34 10491 0
-10491 10516 0
60 -10491 10493 0
-10493 10517 0
86 -10493 10495 0
-10495 10518 0
112 -10495 10497 0
-10497 10519 0
138 -10497 10499 0
-10499 10520 0
164 -10499 10501 0
-10501 10521 0
190 -10501 10503 0
-10503 10522 0
216 -10503 10505 0
-10505 10523 0
242 -10505 10507 0
-10507 10524 0
268 -10507 10509 0
-10509 10525 0
294 -10509 10511 0
-10511 10526 0
320 -10511 10513 0
-10513 10527 0
10487 -10513 10515 0
-10515 10528 0
10488 -10515 0
60 10516 0
86 -10516 10517 0
112 -10517 10518 0
138 -10518 10519 0
164 -10519 10520 0
190 -10520 10521 0
216 -10521 10522 0
242 -10522 10523 0
268 -10523 10524 0
294 -10524 10525 0
320 -10525 10526 0
10487 -10526 10527 0
10488 -10527 10528 0
10489 -10528 0
347 10529 0
-10529 -347 0
347 10530 0
-10530 -347 0
347 10531 0
-10531 -347 0
9 10532 0
-10532 10533 0
35 -10532 10534 0
-10534 10535 0
61 -10534 10536 0
-10536 10537 0
87 -10536 10538 0
-10538 10539 0
113 -10538 10540 0
-10540 10541 0
139 -10540 10542 0
-10542 10543 0
165 -10542 10544 0
-10544 10545 0
191 -10544 10546 0
-10546 10547 0
217 -10546 10548 0
-10548 10549 0
243 -10548 10550 0
-10550 10551 0
269 -10550 10552 0
-10552 10553 0
295 -10552 10554 0
-10554 10555 0
321 -10554 10556 0
-10556 10557 0
10529 -10556 0
35 10533 0
-10533 10558 0
61 -10533 10535 0
-10535 10559 0
87 -10535 10537 0
-10537 10560 0
113 -10537 10539 0
-10539 10561 0
139 -10539 10541 0
-10541 10562 0
165 -10541 10543 0
-10543 10563 0
191 -10543 10545 0
-10545 10564 0
217 -10545 10547 0
-10547 10565 0
243 -10547 10549 0
-10549 10566 0
269 -10549 10551 0
-10551 10567 0
295 -10551 10553 0
-10553 10568 0
321 -10553 10555 0
-10555 10569 0
10529 -10555 10557 0
-10557 10570 0
10530 -10557 0
61 10558 0
87 -10558 10559 0
113 -10559 10560 0
139 -10560 10561 0
165 -10561 10562 0
191 -10562 10563 0
217 -10563 10564 0
243 -10564 10565 0
269 -10565 10566 0
295 -10566 10567 0
321 -10567 10568 0
10529 -10568 10569 0
10530 -10569 10570 0
10531 -10570 0
348 10571 0
-10571 -348 0
348 10572 0
-10572 -348 0
348 10573 0
-10573 -348 0
10 10574 0
-10574 10575 0
36 -10574 10576 0
-10576 10577 0
62 -10576 10578 0
-10578 10579 0
88 -10578 10580 0
-10580 10581 0
114 -10580 10582 0
-10582 10583 0
140 -10582 10584 0
-10584 10585 0
166 -10584 10586 0
-10586 10587 0
192 -10586 10588 0
-10588 10589 0
218 -10588 10590 0
-10590 10591 0
244 -10590 10592 0
-10592 10593 0
270 -10592 10594 0
-10594 10595 0
296 -10594 10596 0
-10596 10597 0
322 -10596 10598 0
-10598 10599 0
10571 -10598 0
36 10575 0
-10575 10600 0
62 -10575 10577 0
-10577 10601 0
88 -10577 10579 0
-10579 10602 0
114 -10579 10581 0
-10581 10603 0
140 -10581 10583 0
-10583 10604 0
166 -10583 10585 0
-10585 10605 0
192 -10585 10587 0
-10587 10606 0
218 -10587 10589 0
-10589 10607 0
244 -10589 10591 0
-10591 10608 0
270 -10591 10593 0
-10593 10609 0
296 -10593 10595 0
-10595 10610 0
322 -10595 10597 0
-10597 10611 0
10571 -10597 10599 0
-10599 10612 0
10572 -10599 0
62 10600 0
88 -10600 10601 0
114 -10601 10602 0
140 -10602 10603 0
166 -10603 10604 0
192 -10604 10605 0
218 -10605 10606 0
244 -10606 10607 0
270 -10607 10608 0
296 -10608 10609 0
322 -10609 10610 0
10571 -10610 10611 0
10572 -10611 10612 0
10573 -10612 0
349 10613 0
-10613 -349 0
349 10614 0
-10614 -349 0
349 10615 0
-10615 -349 0
11 10616 0
-10616 10617 0
37 -10616 10618 0
-10618 10619 0
63 -10618 10620 0
-10620 10621 0
89 -10620 10622 0
-10622 10623 0
115 -10622 10624 0
-10624 10625 0
141 -10624 10626 0
-10626 10627 0
167 -10626 10628 0
-10628 10629 0
193 -10628 10630 0
-10630 10631 0
219 -10630 10632 0
-10632 10633 0
245 -10632 10634 0
-10634 10635 0
271 -10634 10636 0
-10636 10637 0
297 -10636 10638 0
-10638 10639 0
323 -10638 10640 0
-10640 10641 0
10613 -10640 0
37 10617 0
-10617 10642 0
63 -10617 10619 0
-10619 10643 0
89 -10619 10621 0
-10621 10644 0
115 -10621 10623 0
-10623 10645 0
141 -10623 10625 0
-10625 10646 0
167 -10625 10627 0
-10627 10647 0
193 -10627 10629 0
-10629 10648 0
219 -10629 10631 0
-10631 10649 0
245 -10631 10633 0
-10633 10650 0
271 -10633 10635 0
-10635 10651 0
297 -10635 10637 0
-10637 10652 0
323 -10637 10639 0
-10639 10653 0
10613 -10639 10641 0
-10641 10654 0
10614 -10641 0
63 10642 0
89 -10642 10643 0
115 -10643 10644 0
141 -10644 10645 0
167 -10645 10646 0
193 -10646 10647 0
219 -10647 10648 0
245 -10648 10649 0
271 -10649 10650 0
297 -10650 10651 0
323 -10651 10652 0
10613 -10652 10653 0
10614 -10653 10654 0
10615 -10654 0
350 10655 0
-10655 -350 0
350 10656 0
-10656 -350 0
350 10657 0
-10657 -350 0
12 10658 0
-10658 10659 0
38 -10658 10660 0
-10660 10661 0
64 -10660 10662 0
-10662 10663 0
90 -10662 10664 0
-10664 10665 0
116 -10664 10666 0
-10666 10667 0
142 -10666 10668 0
-10668 10669 0
168 -10668 10670 0
-10670 10671 0
194 -10670 10672 0
-10672 10673 0
220 -10672 10674 0
-10674 10675 0
246 -10674 10676 0
-10676 10677 0
272 -10676 10678 0
-10678 10679 0
298 -10678 10680 0
-10680 10681 0
324 -10680 10682 0
-10682 10683 0
10655 -10682 0
38 10659 0
-10659 10684 0
64 -10659 10661 0
-10661 10685 0
90 -10661 10663 0
-10663 10686 0
116 -10663 10665 0
-10665 10687 0
142 -10665 10667 0
-10667 10688 0
168 -10667 10669 0
-10669 10689 0
194 -10669 10671 0
-10671 10690 0
220 -10671 10673 0
-10673 10691 0
246 -10673 10675 0
-10675 10692 0
272 -10675 10677 0
-10677 10693 0
298 -10677 10679 0
-10679 10694 0
324 -10679 10681 0
-10681 10695 0
10655 -10681 10683 0
-10683 10696 0
10656 -10683 0
64 10684 0
90 -10684 10685 0
116 -10685 10686 0
142 -10686 10687 0
168 -10687 10688 0
194 -10688 10689 0
220 -10689 10690 0
246 -10690 10691 0
272 -10691 10692 0
298 -10692 10693 0
324 -10693 10694 0
10655 -10694 10695 0
10656 -10695 10696 0
10657 -10696 0
351 10697 0
-10697 -351 0
351 10698 0
-10698 -351 0
351 10699 0
-10699 -351 0
13 10700 0
-10700 10701 0
39 -10700 10702 0
-10702 10703 0
65 -10702 10704 0
-10704 10705 0
91 -10704 10706 0
-10706 10707 0
117 -10706 10708 0
-10708 10709 0
143 -10708 10710 0
-10710 10711 0
169 -10710 10712 0
-10712 10713 0
195 -10712 10714 0
-10714 10715 0
221 -10714 10716 0
-10716 10717 0
247 -10716 10718 0
-10718 10719 0
273 -10718 10720 0
-10720 10721 0
299 -10720 10722 0
-10722 10723 0
325 -10722 10724 0
-10724 10725 0
10697 -10724 0
39 10701 0
-10701 10726 0
65 -10701 10703 0
-10703 10727 0
91 -10703 10705 0
-10705 10728 0
117 -10705 10707 0
-10707 10729 0
143 -10707 10709 0
-10709 10730 0
169 -10709 10711 0
-10711 10731 0
195 -10711 10713 0
-10713 10732 0
221 -10713 10715 0
-10715 10733 0
247 -10715 10717 0
-10717 10734 0
273 -10717 10719 0
-10719 10735 0
299 -10719 10721 0
-10721 10736 0
325 -10721 10723 0
-10723 10737 0
10697 -10723 10725 0
-10725 10738 0
10698 -10725 0
65 10726 0
91 -10726 10727 0
117 -10727 10728 0
143 -10728 10729 0
169 -10729 10730 0
195 -10730 10731 0
221 -10731 10732 0
247 -10732 10733 0
273 -10733 10734 0
299 -10734 10735 0
325 -10735 10736 0
10697 -10736 10737 0
10698 -10737 10738 0
10699 -10738 0
352 10739 0
-10739 -352 0
352 10740 0
-10740 -352 0
352 10741 0
-10741 -352 0
14 10742 0
-10742 10743 0
40 -10742 10744 0
-10744 10745 0
66 -10744 10746 0
-10746 10747 0
92 -10746 10748 0
-10748 10749 0
118 -10748 10750 0
-10750 10751 0
144 -10750 10752 0
-10752 10753 0
170 -10752 10754 0
-10754 10755 0
196 -10754 10756 0
-10756 10757 0
222 -10756 10758 0
-10758 10759 0
248 -10758 10760 0
-10760 10761 0
274 -10760 10762 0
-10762 10763 0
300 -10762 10764 0
-10764 10765 0
326 -10764 10766 0
-10766 10767 0
10739 -10766 0
40 10743 0
-10743 10768 0
66 -10743 10745 0
-10745 10769 0
92 -10745 10747 0
-10747 10770 0
118 -10747 10749 0
-10749 10771 0
144 -10749 10751 0
-10751 10772 0
170 -10751 10753 0
-10753 10773 0
196 -10753 10755 0
-10755 10774 0
222 -10755 10757 0
-10757 10775 0
248 -10757 10759 0
-10759 10776 0
274 -10759 10761 0
-10761 10777 0
300 -10761 10763 0
-10763 10778 0
326 -10763 10765 0
-10765 10779 0
10739 -10765 10767 0
-10767 10780 0
10740 -10767 0
66 10768 0
92 -10768 10769 0
118 -10769 10770 0
144 -10770 10771 0
170 -10771 10772 0
196 -10772 10773 0
222 -10773 10774 0
248 -10774 10775 0
274 -10775 10776 0
300 -10776 10777 0
326 -10777 10778 0
10739 -10778 10779 0
10740 -10779 10780 0
10741 -10780 0
353 10781 0
-10781 -353 0
353 10782 0
-10782 -353 0
353 10783 0
-10783 -353 0
15 10784 0
-10784 10785 0
41 -10784 10786 0
-10786 10787 0
67 -10786 10788 0
-10788 10789 0
93 -10788 10790 0
-10790 10791 0
119 -10790 10792 0
-10792 10793 0
145 -10792 10794 0
-10794 10795 0
171 -10794 10796 0
-10796 10797 0
197 -10796 10798 0
-10798 10799 0
223 -10798 10800 0
-10800 10801 0
249 -10800 10802 0
-10802 10803 0
275 -10802 10804 0
-10804 10805 0
301 -10804 10806 0
-10806 10807 0
327 -10806 10808 0
-10808 10809 0
10781 -10808 0
41 10785 0
-10785 10810 0
67 -10785 10787 0
-10787 10811 0
93 -10787 10789 0
-10789 10812 0
119 -10789 10791 0
-10791 10813 0
145 -10791 10793 0
-10793 10814 0
171 -10793 10795 0
-10795 10815 0
197 -10795 10797 0
-10797 10816 0
223 -10797 10799 0
-10799 10817 0
249 -10799 10801 0
-10801 10818 0
275 -10801 10803 0
-10803 10819 0
301 -10803 10805 0
-10805 10820 0
327 -10805 10807 0
-10807 10821 0
10781 -10807 10809 0
-10809 10822 0
10782 -10809 0
67 10810 0
93 -10810 10811 0
119 -10811 10812 0
145 -10812 10813 0
171 -10813 10814 0
197 -10814 10815 0
223 -10815 10816 0
249 -10816 10817 0
275 -10817 10818 0
301 -10818 10819 0
327 -10819 10820 0
10781 -10820 10821 0
10782 -10821 10822 0
10783 -10822 0
354 10823 0
-10823 -354 0
354 10824 0
-10824 -354 0
354 10825 0
-10825 -354 0
16 10826 0
-10826 10827 0
42 -10826 10828 0
-10828 10829 0
68 -10828 10830 0
-10830 10831 0
94 -10830 10832 0
-10832 10833 0
120 -10832 10834 0
-10834 10835 0
146 -10834 10836 0
-10836 10837 0
172 -10836 10838 0
-10838 10839 0
198 -10838 10840 0
-10840 10841 0
224 -10840 10842 0
-10842 10843 0
250 -10842 10844 0
-10844 10845 0
276 -10844 10846 0
-10846 10847 0
302 -10846 10848 0
-10848 10849 0
328 -10848 10850 0
-10850 10851 0
10823 -10850 0
42 10827 0
-10827 10852 0
68 -10827 10829 0
-10829 10853 0
94 -10829 10831 0
-10831 10854 0
120 -10831 10833 0
-10833 10855 0
146 -10833 10835 0
-10835 10856 0
172 -10835 10837 0
-10837 10857 0
198 -10837 10839 0
-10839 10858 0
224 -10839 10841 0
-10841 10859 0
250 -10841 10843 0
-10843 10860 0
276 -10843 10845 0
-10845 10861 0
302 -10845 10847 0
-10847 10862 0
328 -10847 10849 0
-10849 10863 0
10823 -10849 10851 0
-10851 10864 0
10824 -10851 0
68 10852 0
94 -10852 10853 0
120 -10853 10854 0
146 -10854 10855 0
172 -10855 10856 0
198 -10856 10857 0
224 -10857 10858 0
250 -10858 10859 0
276 -10859 10860 0
302 -10860 10861 0
328 -10861 10862 0
10823 -10862 10863 0
10824 -10863 10864 0
10825 -10864 0
355 10865 0
-10865 -355 0
355 10866 0
-10866 -355 0
355 10867 0
-10867 -355 0
17 10868 0
-10868 10869 0
43 -10868 10870 0
-10870 10871 0
69 -10870 10872 0
-10872 10873 0
95 -10872 10874 0
-10874 10875 0
121 -10874 10876 0
-10876 10877 0
147 -10876 10878 0
-10878 10879 0
173 -10878 10880 0
-10880 10881 0
199 -10880 10882 0
-10882 10883 0
225 -10882 10884 0
-10884 10885 0
251 -10884 10886 0
-10886 10887 0
277 -10886 10888 0
-10888 10889 0
303 -10888 10890 0
-10890 10891 0
329 -10890 10892 0
-10892 10893 0
10865 -10892 0
43 10869 0
-10869 10894 0
69 -10869 10871 0
-10871 10895 0
95 -10871 10873 0
-10873 10896 0
121 -10873 10875 0
-10875 10897 0
147 -10875 10877 0
-10877 10898 0
173 -10877 10879 0
-10879 10899 0
199 -10879 10881 0
-10881 10900 0
225 -10881 10883 0
-10883 10901 0
251 -10883 10885 0
-10885 10902 0
277 -10885 10887 0
-10887 10903 0
303 -10887 10889 0
-10889 10904 0
329 -10889 10891 0
-10891 10905 0
10865 -10891 10893 0
-10893 10906 0
10866 -10893 0
69 10894 0
95 -10894 10895 0
121 -10895 10896 0
147 -10896 10897 0
173 -10897 10898 0
199 -10898 10899 0
225 -10899 10900 0
251 -10900 10901 0
277 -10901 10902 0
303 -10902 10903 0
329 -10903 10904 0
10865 -10904 10905 0
10866 -10905 10906 0
10867 -10906 0
356 10907 0
-10907 -356 0
356 10908 0
-10908 -356 0
356 10909 0
-10909 -356 0
18 10910 0
-10910 10911 0
44 -10910 10912 0
-10912 10913 0
70 -10912 10914 0
-10914 10915 0
96 -10914 10916 0
-10916 10917 0
122 -10916 10918 0
-10918 10919 0
148 -10918 10920 0
-10920 10921 0
174 -10920 10922 0
-10922 10923 0
200 -10922 10924 0
-10924 10925 0
226 -10924 10926 0
-10926 10927 0
252 -10926 10928 0
-10928 10929 0
278 -10928 10930 0
-10930 10931 0
304 -10930 10932 0
-10932 10933 0
330 -10932 10934 0
-10934 10935 0
10907 -10934 0
44 10911 0
-10911 10936 0
70 -10911 10913 0
-10913 10937 0
96 -10913 10915 0
-10915 10938 0
122 -10915 10917 0
-10917 10939 0
148 -10917 10919 0
-10919 10940 0
174 -10919 10921 0
-10921 10941 0
200 -10921 10923 0
-10923 10942 0
226 -10923 10925 0
-10925 10943 0
252 -10925 10927 0
-10927 10944 0
278 -10927 10929 0
-10929 10945 0
304 -10929 10931 0
-10931 10946 0
330 -10931 10933 0
-10933 10947 0
10907 -10933 10935 0
-10935 10948 0
10908 -10935 0
70 10936 0
96 -10936 10937 0
122 -10937 10938 0
148 -10938 10939 0
174 -10939 10940 0
200 -10940 10941 0
226 -10941 10942 0
252 -10942 10943 0
278 -10943 10944 0
304 -10944 10945 0
330 -10945 10946 0
10907 -10946 10947 0
10908 -10947 10948 0
10909 -10948 0
357 10949 0
-10949 -357 0
357 10950 0
-10950 -357 0
357 10951 0
-10951 -357 0
19 10952 0
-10952 10953 0
45 -10952 10954 0
-10954 10955 0
71 -10954 10956 0
-10956 10957 0
97 -10956 10958 0
-10958 10959 0
123 -10958 10960 0
-10960 10961 0
149 -10960 10962 0
-10962 10963 0
175 -10962 10964 0
-10964 10965 0
201 -10964 10966 0
-10966 10967 0
227 -10966 10968 0
-10968 10969 0
253 -10968 10970 0
-10970 10971 0
279 -10970 10972 0
-10972 10973 0
305 -10972 10974 0
-10974 10975 0
331 -10974 10976 0
-10976 10977 0
10949 -10976 0
45 10953 0
-10953 10978 0
71 -10953 10955 0
-10955 10979 0
97 -10955 10957 0
-10957 10980 0
123 -10957 10959 0
-10959 10981 0
149 -10959 10961 0
-10961 10982 0
175 -10961 10963 0
-10963 10983 0
201 -10963 10965 0
-10965 10984 0
227 -10965 10967 0
-10967 10985 0
253 -10967 10969 0
-10969 10986 0
279 -10969 10971 0
-10971 10987 0
305 -10971 10973 0
-10973 10988 0
331 -10973 10975 0
-10975 10989 0
10949 -10975 10977 0
-10977 10990 0
10950 -10977 0
71 10978 0
97 -10978 10979 0
123 -10979 10980 0
149 -10980 10981 0
175 -10981 10982 0
201 -10982 10983 0
227 -10983 10984 0
253 -10984 10985 0
279 -10985 10986 0
305 -10986 10987 0
331 -10987 10988 0
10949 -10988 10989 0
10950 -10989 10990 0
10951 -10990 0
358 10991 0
-10991 -358 0
358 10992 0
-10992 -358 0
358 10993 0
-10993 -358 0
20 10994 0
-10994 10995 0
46 -10994 10996 0
-10996 10997 0
72 -10996 10998 0
-10998 10999 0
98 -10998 11000 0
-11000 11001 0
124 -11000 11002 0
-11002 11003 0
150 -11002 11004 0
-11004 11005 0
176 -11004 11006 0
-11006 11007 0
202 -11006 11008 0
-11008 11009 0
228 -11008 11010 0
-11010 11011 0
254 -11010 11012 0
-11012 11013 0
280 -11012 11014 0
-11014 11015 0
306 -11014 11016 0
-11016 11017 0
332 -11016 11018 0
-11018 11019 0
10991 -11018 0
46 10995 0
-10995 11020 0
72 -10995 10997 0
-10997 11021 0
98 -10997 10999 0
-10999 11022 0
124 -10999 11001 0
-11001 11023 0
150 -11001 11003 0
-11003 11024 0
176 -11003 11005 0
-11005 11025 0
202 -11005 11007 0
-11007 11026 0
228 -11007 11009 0
-11009 11027 0
254 -11009 11011 0
-11011 11028 0
280 -11011 11013 0
-11013 11029 0
306 -11013 11015 0
-11015 11030 0
332 -11015 11017 0
-11017 11031 0
10991 -11017 11019 0
-11019 11032 0
10992 -11019 0
72 11020 0
98 -11020 11021 0
124 -11021 11022 0
150 -11022 11023 0
176 -11023 11024 0
202 -11024 11025 0
228 -11025 11026 0
254 -11026 11027 0
280 -11027 11028 0
306 -11028 11029 0
332 -11029 11030 0
10991 -11030 11031 0
10992 -11031 11032 0
10993 -11032 0
359 11033 0
-11033 -359 0
359 11034 0
-11034 -359 0
359 11035 0
-11035 -359 0
21 11036 0
-11036 11037 0
47 -11036 11038 0
-11038 11039 0
73 -11038 11040 0
-11040 11041 0
99 -11040 11042 0
-11042 11043 0
125 -11042 11044 0
-11044 11045 0
151 -11044 11046 0
-11046 11047 0
177 -11046 11048 0
-11048 11049 0
203 -11048 11050 0
-11050 11051 0
229 -11050 11052 0
-11052 11053 0
255 -11052 11054 0
-11054 11055 0
281 -11054 11056 0
-11056 11057 0
307 -11056 11058 0
-11058 11059 0
333 -11058 11060 0
-11060 11061 0
11033 -11060 0
47 11037 0
-11037 11062 0
73 -11037 11039 0
-11039 11063 0
99 -11039 11041 0
-11041 11064 0
125 -11041 11043 0
-11043 11065 0
151 -11043 11045 0
-11045 11066 0
177 -11045 11047 0
-11047 11067 0
203 -11047 11049 0
-11049 11068 0
229 -11049 11051 0
-11051 11069 0
255 -11051 11053 0
-11053 11070 0
281 -11053 11055 0
-11055 11071 0
307 -11055 11057 0
-11057 11072 0
333 -11057 11059 0
-11059 11073 0
11033 -11059 11061 0
-11061 11074 0
11034 -11061 0
73 11062 0
99 -11062 11063 0
125 -11063 11064 0
151 -11064 11065 0
177 -11065 11066 0
203 -11066 11067 0
229 -11067 11068 0
255 -11068 11069 0
281 -11069 11070 0
307 -11070 11071 0
333 -11071 11072 0
11033 -11072 11073 0
11034 -11073 11074 0
11035 -11074 0
360 11075 0
-11075 -360 0
360 11076 0
-11076 -360 0
360 11077 0
-11077 -360 0
22 11078 0
-11078 11079 0
48 -11078 11080 0
-11080 11081 0
74 -11080 11082 0
-11082 11083 0
100 -11082 11084 0
-11084 11085 0
126 -11084 11086 0
-11086 11087 0
152 -11086 11088 0
-11088 11089 0
178 -11088 11090 0
-11090 11091 0
204 -11090 11092 0
-11092 11093 0
230 -11092 11094 0
-11094 11095 0
256 -11094 11096 0
-11096 11097 0
282 -11096 11098 0
-11098 11099 0
308 -11098 11100 0
-11100 11101 0
334 -11100 11102 0
-11102 11103 0
11075 -11102 0
48 11079 0
-11079 11104 0
74 -11079 11081 0
-11081 11105 0
100 -11081 11083 0
-11083 11106 0
126 -11083 11085 0
-11085 11107 0
152 -11085 11087 0
-11087 11108 0
178 -11087 11089 0
-11089 11109 0
204 -11089 11091 0
-11091 11110 0
230 -11091 11093 0
-11093 11111 0
256 -11093 11095 0
-11095 11112 0
282 -11095 11097 0
-11097 11113 0
308 -11097 11099 0
-11099 11114 0
334 -11099 11101 0
-11101 11115 0
11075 -11101 11103 0
-11103 11116 0
11076 -11103 0
74 11104 0
100 -11104 11105 0
126 -11105 11106 0
152 -11106 11107 0
178 -11107 11108 0
204 -11108 11109 0
230 -11109 11110 0
256 -11110 11111 0
282 -11111 11112 0
308 -11112 11113 0
334 -11113 11114 0
11075 -11114 11115 0
11076 -11115 11116 0
11077 -11116 0
361 11117 0
-11117 -361 0
361 11118 0
-11118 -361 0
361 11119 0
-11119 -361 0
23 11120 0
-11120 11121 0
49 -11120 11122 0
-11122 11123 0
75 -11122 11124 0
-11124 11125 0
101 -11124 11126 0
-11126 11127 0
127 -11126 11128 0
-11128 11129 0
153 -11128 11130 0
-11130 11131 0
179 -11130 11132 0
-11132 11133 0
205 -11132 11134 0
-11134 11135 0
231 -11134 11136 0
-11136 11137 0
257 -11136 11138 0
-11138 11139 0
283 -11138 11140 0
-11140 11141 0
309 -11140 11142 0
-11142 11143 0
335 -11142 11144 0
-11144 11145 0
11117 -11144 0
49 11121 0
-11121 11146 0
75 -11121 11123 0
-11123 11147 0
101 -11123 11125 0
-11125 11148 0
127 -11125 11127 0
-11127 11149 0
153 -11127 11129 0
-11129 11150 0
179 -11129 11131 0
-11131 11151 0
205 -11131 11133 0
-11133 11152 0
231 -11133 11135 0
-11135 11153 0
257 -11135 11137 0
-11137 11154 0
283 -11137 11139 0
-11139 11155 0
309 -11139 11141 0
-11141 11156 0
335 -11141 11143 0
-11143 11157 0
11117 -11143 11145 0
-11145 11158 0
11118 -11145 0
75 11146 0
101 -11146 11147 0
127 -11147 11148 0
153 -11148 11149 0
179 -11149 11150 0
205 -11150 11151 0
231 -11151 11152 0
257 -11152 11153 0
283 -11153 11154 0
309 -11154 11155 0
335 -11155 11156 0
11117 -11156 11157 0
11118 -11157 11158 0
11119 -11158 0
362 11159 0
-11159 -362 0
362 11160 0
-11160 -362 0
362 11161 0
-11161 -362 0
24 11162 0
-11162 11163 0
50 -11162 11164 0
-11164 11165 0
76 -11164 11166 0
-11166 11167 0
102 -11166 11168 0
-11168 11169 0
128 -11168 11170 0
-11170 11171 0
154 -11170 11172 0
-11172 11173 0
180 -11172 11174 0
-11174 11175 0
206 -11174 11176 0
-11176 11177 0
232 -11176 11178 0
-11178 11179 0
258 -11178 11180 0
-11180 11181 0
284 -11180 11182 0
-11182 11183 0
310 -11182 11184 0
-11184 11185 0
336 -11184 11186 0
-11186 11187 0
11159 -11186 0
50 11163 0
-11163 11188 0
76 -11163 11165 0
-11165 11189 0
102 -11165 11167 0
-11167 11190 0
128 -11167 11169 0
-11169 11191 0
154 -11169 11171 0
-11171 11192 0
180 -11171 11173 0
-11173 11193 0
206 -11173 11175 0
-11175 11194 0
232 -11175 11177 0
-11177 11195 0
258 -11177 11179 0
-11179 11196 0
284 -11179 11181 0
-11181 11197 0
310 -11181 11183 0
-11183 11198 0
336 -11183 11185 0
-11185 11199 0
11159 -11185 11187 0
-11187 11200 0
11160 -11187 0
76 11188 0
102 -11188 11189 0
128 -11189 11190 0
154 -11190 11191 0
180 -11191 11192 0
206 -11192 11193 0
232 -11193 11194 0
258 -11194 11195 0
284 -11195 11196 0
310 -11196 11197 0
336 -11197 11198 0
11159 -11198 11199 0
11160 -11199 11200 0
11161 -11200 0
363 11201 0
-11201 -363 0
363 11202 0
-11202 -363 0
363 11203 0
-11203 -363 0
25 11204 0
-11204 11205 0
51 -11204 11206 0
-11206 11207 0
77 -11206 11208 0
-11208 11209 0
103 -11208 11210 0
-11210 11211 0
129 -11210 11212 0
-11212 11213 0
155 -11212 11214 0
-11214 11215 0
181 -11214 11216 0
-11216 11217 0
207 -11216 11218 0
-11218 11219 0
233 -11218 11220 0
-11220 11221 0
259 -11220 11222 0
-11222 11223 0
285 -11222 11224 0
-11224 11225 0
311 -11224 11226 0
-11226 11227 0
337 -11226 11228 0
-11228 11229 0
11201 -11228 0
51 11205 0
-11205 11230 0
77 -11205 11207 0
-11207 11231 0
103 -11207 11209 0
-11209 11232 0
129 -11209 11211 0
-11211 11233 0
155 -11211 11213 0
-11213 11234 0
181 -11213 11215 0
-11215 11235 0
207 -11215 11217 0
-11217 11236 0
233 -11217 11219 0
-11219 11237 0
259 -11219 11221 0
-11221 11238 0
285 -11221 11223 0
-11223 11239 0
311 -11223 11225 0
-11225 11240 0
337 -11225 11227 0
-11227 11241 0
11201 -11227 11229 0
-11229 11242 0
11202 -11229 0
77 11230 0
103 -11230 11231 0
129 -11231 11232 0
155 -11232 11233 0
181 -11233 11234 0
207 -11234 11235 0
233 -11235 11236 0
259 -11236 11237 0
285 -11237 11238 0
311 -11238 11239 0
337 -11239 11240 0
11201 -11240 11241 0
11202 -11241 11242 0
11203 -11242 0
364 11243 0
-11243 -364 0
364 11244 0
-11244 -364 0
364 11245 0
-11245 -364 0
26 11246 0
-11246 11247 0
52 -11246 11248 0
-11248 11249 0
78 -11248 11250 0
-11250 11251 0
104 -11250 11252 0
-11252 11253 0
130 -11252 11254 0
-11254 11255 0
156 -11254 11256 0
-11256 11257 0
182 -11256 11258 0
-11258 11259 0
208 -11258 11260 0
-11260 11261 0
234 -11260 11262 0
-11262 11263 0
260 -11262 11264 0
-11264 11265 0
286 -11264 11266 0
-11266 11267 0
312 -11266 11268 0
-11268 11269 0
338 -11268 11270 0
-11270 11271 0
11243 -11270 0
52 11247 0
-11247 11272 0
78 -11247 11249 0
-11249 11273 0
104 -11249 11251 0
-11251 11274 0
130 -11251 11253 0
-11253 11275 0
156 -11253 11255 0
-11255 11276 0
182 -11255 11257 0
-11257 11277 0
208 -11257 11259 0
-11259 11278 0
234 -11259 11261 0
-11261 11279 0
260 -11261 11263 0
-11263 11280 0
286 -11263 11265 0
-11265 11281 0
312 -11265 11267 0
-11267 11282 0
338 -11267 11269 0
-11269 11283 0
11243 -11269 11271 0
-11271 11284 0
11244 -11271 0
78 11272 0
104 -11272 11273 0
130 -11273 11274 0
156 -11274 11275 0
182 -11275 11276 0
208 -11276 11277 0
234 -11277 11278 0
260 -11278 11279 0
286 -11279 11280 0
312 -11280 11281 0
338 -11281 11282 0
11243 -11282 11283 0
11244 -11283 11284 0
11245 -11284 0
1 11285 0
-11285 11286 0
2 -11285 11287 0
-11287 11288 0
3 -11287 11289 0
-11289 11290 0
4 -11289 11291 0
-11291 11292 0
5 -11291 11293 0
-11293 11294 0
6 -11293 11295 0
-11295 11296 0
7 -11295 11297 0
-11297 11298 0
8 -11297 11299 0
-11299 11300 0
9 -11299 11301 0
-11301 11302 0
10 -11301 11303 0
-11303 11304 0
11 -11303 11305 0
-11305 11306 0
12 -11305 11307 0
-11307 11308 0
13 -11307 11309 0
-11309 11310 0
14 -11309 11311 0
-11311 11312 0
15 -11311 11313 0
-11313 11314 0
16 -11313 11315 0
-11315 11316 0
17 -11315 11317 0
-11317 11318 0
18 -11317 11319 0
-11319 11320 0
19 -11319 11321 0
-11321 11322 0
20 -11321 11323 0
-11323 11324 0
21 -11323 11325 0
-11325 11326 0
22 -11325 11327 0
-11327 11328 0
23 -11327 11329 0
-11329 11330 0
24 -11329 0
2 11286 0
-11286 11331 0
3 -11286 11288 0
-11288 11332 0
4 -11288 11290 0
-11290 11333 0
5 -11290 11292 0
-11292 11334 0
6 -11292 11294 0
-11294 11335 0
7 -11294 11296 0
-11296 11336 0
8 -11296 11298 0
-11298 11337 0
9 -11298 11300 0
-11300 11338 0
10 -11300 11302 0
-11302 11339 0
11 -11302 11304 0
-11304 11340 0
12 -11304 11306 0
-11306 11341 0
13 -11306 11308 0
-11308 11342 0
14 -11308 11310 0
-11310 11343 0
15 -11310 11312 0
-11312 11344 0
16 -11312 11314 0
-11314 11345 0
17 -11314 11316 0
-11316 11346 0
18 -11316 11318 0
-11318 11347 0
19 -11318 11320 0
-11320 11348 0
20 -11320 11322 0
-11322 11349 0
21 -11322 11324 0
-11324 11350 0
22 -11324 11326 0
-11326 11351 0
23 -11326 11328 0
-11328 11352 0
24 -11328 11330 0
-11330 11353 0
25 -11330 0
3 11331 0
4 -11331 11332 0
5 -11332 11333 0
6 -11333 11334 0
7 -11334 11335 0
8 -11335 11336 0
9 -11336 11337 0
10 -11337 11338 0
11 -11338 11339 0
12 -11339 11340 0
13 -11340 11341 0
14 -11341 11342 0
15 -11342 11343 0
16 -11343 11344 0
17 -11344 11345 0
18 -11345 11346 0
19 -11346 11347 0
20 -11347 11348 0
21 -11348 11349 0
22 -11349 11350 0
23 -11350 11351 0
24 -11351 11352 0
25 -11352 11353 0
26 -11353 0
27 11354 0
-11354 11355 0
28 -11354 11356 0
-11356 11357 0
29 -11356 11358 0
-11358 11359 0
30 -11358 11360 0
-11360 11361 0
31 -11360 11362 0
-11362 11363 0
32 -11362 11364 0
-11364 11365 0
33 -11364 11366 0
-11366 11367 0
34 -11366 11368 0
-11368 11369 0
35 -11368 11370 0
-11370 11371 0
36 -11370 11372 0
-11372 11373 0
37 -11372 11374 0
-11374 11375 0
38 -11374 11376 0
-11376 11377 0
39 -11376 11378 0
-11378 11379 0
40 -11378 11380 0
-11380 11381 0
41 -11380 11382 0
-11382 11383 0
42 -11382 11384 0
-11384 11385 0
43 -11384 11386 0
-11386 11387 0
44 -11386 11388 0
-11388 11389 0
45 -11388 11390 0
-11390 11391 0
46 -11390 11392 0
-11392 11393 0
47 -11392 11394 0
-11394 11395 0
48 -11394 11396 0
-11396 11397 0
49 -11396 11398 0
-11398 11399 0
50 -11398 0
28 11355 0
-11355 11400 0
29 -11355 11357 0
-11357 11401 0
30 -11357 11359 0
-11359 11402 0
31 -11359 11361 0
-11361 11403 0
32 -11361 11363 0
-11363 11404 0
33 -11363 11365 0
-11365 11405 0
34 -11365 11367 0
-11367 11406 0
35 -11367 11369 0
-11369 11407 0
36 -11369 11371 0
-11371 11408 0
37 -11371 11373 0
-11373 11409 0
38 -11373 11375 0
-11375 11410 0
39 -11375 11377 0
-11377 11411 0
40 -11377 11379 0
-11379 11412 0
41 -11379 11381 0
-11381 11413 0
42 -11381 11383 0
-11383 11414 0
43 -11383 11385 0
-11385 11415 0
44 -11385 11387 0
-11387 11416 0
45 -11387 11389 0
-11389 11417 0
46 -11389 11391 0
-11391 11418 0
47 -11391 11393 0
-11393 11419 0
48 -11393 11395 0
-11395 11420 0
49 -11395 11397 0
-11397 11421 0
50 -11397 11399 0
-11399 11422 0
51 -11399 0
29 11400 0
30 -11400 11401 0
31 -11401 11402 0
32 -11402 11403 0
33 -11403 11404 0
34 -11404 11405 0
35 -11405 11406 0
36 -11406 11407 0
37 -11407 11408 0
38 -11408 11409 0
39 -11409 11410 0
40 -11410 11411 0
41 -11411 11412 0
42 -11412 11413 0
43 -11413 11414 0
44 -11414 11415 0
45 -11415 11416 0
46 -11416 11417 0
47 -11417 11418 0
48 -11418 11419 0
49 -11419 11420 0
50 -11420 11421 0
51 -11421 11422 0
52 -11422 0
53 11423 0
-11423 11424 0
54 -11423 11425 0
-11425 11426 0
55 -11425 11427 0
-11427 11428 0
56 -11427 11429 0
-11429 11430 0
57 -11429 11431 0
-11431 11432 0
58 -11431 11433 0
-11433 11434 0
59 -11433 11435 0
-11435 11436 0
60 -11435 11437 0
-11437 11438 0
61 -11437 11439 0
-11439 11440 0
62 -11439 11441 0
-11441 11442 0
63 -11441 11443 0
-11443 11444 0
64 -11443 11445 0
-11445 11446 0
65 -11445 11447 0
-11447 11448 0
66 -11447 11449 0
-11449 11450 0
67 -11449 11451 0
-11451 11452 0
68 -11451 11453 0
-11453 11454 0
69 -11453 11455 0
-11455 11456 0
70 -11455 11457 0
-11457 11458 0
71 -11457 11459 0
-11459 11460 0
72 -11459 11461 0
-11461 11462 0
73 -11461 11463 0
-11463 11464 0
74 -11463 11465 0
-11465 11466 0
75 -11465 11467 0
-11467 11468 0
76 -11467 0
54 11424 0
-11424 11469 0
55 -11424 11426 0
-11426 11470 0
56 -11426 11428 0
-11428 11471 0
57 -11428 11430 0
-11430 11472 0
58 -11430 11432 0
-11432 11473 0
59 -11432 11434 0
-11434 11474 0
60 -11434 11436 0
-11436 11475 0
61 -11436 11438 0
-11438 11476 0
62 -11438 11440 0
-11440 11477 0
63 -11440 11442 0
-11442 11478 0
64 -11442 11444 0
-11444 11479 0
65 -11444 11446 0
-11446 11480 0
66 -11446 11448 0
-11448 11481 0
67 -11448 11450 0
-11450 11482 0
68 -11450 11452 0
-11452 11483 0
69 -11452 11454 0
-11454 11484 0
70 -11454 11456 0
-11456 11485 0
71 -11456 11458 0
-11458 11486 0
72 -11458 11460 0
-11460 11487 0
73 -11460 11462 0
-11462 11488 0
74 -11462 11464 0
-11464 11489 0
75 -11464 11466 0
-11466 11490 0
76 -11466 11468 0
-11468 11491 0
77 -11468 0
55 11469 0
56 -11469 11470 0
57 -11470 11471 0
58 -11471 11472 0
59 -11472 11473 0
60 -11473 11474 0
61 -11474 11475 0
62 -11475 11476 0
63 -11476 11477 0
64 -11477 11478 0
65 -11478 11479 0
66 -11479 11480 0
67 -11480 11481 0
68 -11481 11482 0
69 -11482 11483 0
70 -11483 11484 0
71 -11484 11485 0
72 -11485 11486 0
73 -11486 11487 0
74 -11487 11488 0
75 -11488 11489 0
76 -11489 11490 0
77 -11490 11491 0
78 -11491 0
79 11492 0
-11492 11493 0
80 -11492 11494 0
-11494 11495 0
81 -11494 11496 0
-11496 11497 0
82 -11496 11498 0
-11498 11499 0
83 -11498 11500 0
-11500 11501 0
84 -11500 11502 0
-11502 11503 0
85 -11502 11504 0
-11504 11505 0
86 -11504 11506 0
-11506 11507 0
87 -11506 11508 0
-11508 11509 0
88 -11508 11510 0
-11510 11511 0
89 -11510 11512 0
-11512 11513 0
90 -11512 11514 0
-11514 11515 0
91 -11514 11516 0
-11516 11517 0
92 -11516 11518 0
-11518 11519 0
93 -11518 11520 0
-11520 11521 0
94 -11520 11522 0
-11522 11523 0
95 -11522 11524 0
-11524 11525 0
96 -11524 11526 0
-11526 11527 0
97 -11526 11528 0
-11528 11529 0
98 -11528 11530 0
-11530 11531 0
99 -11530 11532 0
-11532 11533 0
100 -11532 11534 0
-11534 11535 0
101 -11534 11536 0
-11536 11537 0
102 -11536 0
80 11493 0
-11493 11538 0
81 -11493 11495 0
-11495 11539 0
82 -11495 11497 0
-11497 11540 0
83 -11497 11499 0
-11499 11541 0
84 -11499 11501 0
-11501 11542 0
85 -11501 11503 0
-11503 11543 0
86 -11503 11505 0
-11505 11544 0
87 -11505 11507 0
-11507 11545 0
88 -11507 11509 0
-11509 11546 0
89 -11509 11511 0
-11511 11547 0
90 -11511 11513 0
-11513 11548 0
91 -11513 11515 0
-11515 11549 0
92 -11515 11517 0
-11517 11550 0
93 -11517 11519 0
-11519 11551 0
94 -11519 11521 0
-11521 11552 0
95 -11521 11523 0
-11523 11553 0
96 -11523 11525 0
-11525 11554 0
97 -11525 11527 0
-11527 11555 0
98 -11527 11529 0
-11529 11556 0
99 -11529 11531 0
-11531 11557 0
100 -11531 11533 0
-11533 11558 0
101 -11533 11535 0
-11535 11559 0
102 -11535 11537 0
-11537 11560 0
103 -11537 0
81 11538 0
82 -11538 11539 0
83 -11539 11540 0
84 -11540 11541 0
85 -11541 11542 0
86 -11542 11543 0
87 -11543 11544 0
88 -11544 11545 0
89 -11545 11546 0
90 -11546 11547 0
91 -11547 11548 0
92 -11548 11549 0
93 -11549 11550 0
94 -11550 11551 0
95 -11551 11552 0
96 -11552 11553 0
97 -11553 11554 0
98 -11554 11555 0
99 -11555 11556 0
100 -11556 11557 0
101 -11557 11558 0
102 -11558 11559 0
103 -11559 11560 0
104 -11560 0
105 11561 0
-11561 11562 0
106 -11561 11563 0
-11563 11564 0
107 -11563 11565 0
-11565 11566 0
108 -11565 11567 0
-11567 11568 0
109 -11567 11569 0
-11569 11570 0
110 -11569 11571 0
-11571 11572 0
111 -11571 11573 0
-11573 11574 0
112 -11573 11575 0
-11575 11576 0
113 -11575 11577 0
-11577 11578 0
114 -11577 11579 0
-11579 11580 0
115 -11579 11581 0
-11581 11582 0
116 -11581 11583 0
-11583 11584 0
117 -11583 11585 0
-11585 11586 0
118 -11585 11587 0
-11587 11588 0
119 -11587 11589 0
-11589 11590 0
120 -11589 11591 0
-11591 11592 0
121 -11591 11593 0
-11593 11594 0
122 -11593 11595 0
-11595 11596 0
123 -11595 11597 0
-11597 11598 0
124 -11597 11599 0
-11599 11600 0
125 -11599 11601 0
-11601 11602 0
126 -11601 11603 0
-11603 11604 0
127 -11603 11605 0
-11605 11606 0
128 -11605 0
106 11562 0
-11562 11607 0
107 -11562 11564 0
-11564 11608 0
108 -11564 11566 0
-11566 11609 0
109 -11566 11568 0
-11568 11610 0
110 -11568 11570 0
-11570 11611 0
111 -11570 11572 0
-11572 11612 0
112 -11572 11574 0
-11574 11613 0
113 -11574 11576 0
-11576 11614 0
114 -11576 11578 0
-11578 11615 0
115 -11578 11580 0
-11580 11616 0
116 -11580 11582 0
-11582 11617 0
117 -11582 11584 0
-11584 11618 0
118 -11584 11586 0
-11586 11619 0
119 -11586 11588 0
-11588 11620 0
120 -11588 11590 0
-11590 11621 0
121 -11590 11592 0
-11592 11622 0
122 -11592 11594 0
-11594 11623 0
123 -11594 11596 0
-11596 11624 0
124 -11596 11598 0
-11598 11625 0
125 -11598 11600 0
-11600 11626 0
126 -11600 11602 0
-11602 11627 0
127 -11602 11604 0
-11604 11628 0
128 -11604 11606 0
-11606 11629 0
129 -11606 0
107 11607 0
108 -11607 11608 0
109 -11608 11609 0
110 -11609 11610 0
111 -11610 11611 0
112 -11611 11612 0
113 -11612 11613 0
114 -11613 11614 0
115 -11614 11615 0
116 -11615 11616 0
117 -11616 11617 0
118 -11617 11618 0
119 -11618 11619 0
120 -11619 11620 0
121 -11620 11621 0
122 -11621 11622 0
123 -11622 11623 0
124 -11623 11624 0
125 -11624 11625 0
126 -11625 11626 0
127 -11626 11627 0
128 -11627 11628 0
129 -11628 11629 0
130 -11629 0
131 11630 0
-11630 11631 0
132 -11630 11632 0
-11632 11633 0
133 -11632 11634 0
-11634 11635 0
134 -11634 11636 0
-11636 11637 0
135 -11636 11638 0
-11638 11639 0
136 -11638 11640 0
-11640 11641 0
137 -11640 11642 0
-11642 11643 0
138 -11642 11644 0
-11644 11645 0
139 -11644 11646 0
-11646 11647 0
140 -11646 11648 0
-11648 11649 0
141 -11648 11650 0
-11650 11651 0
142 -11650 11652 0
-11652 11653 0
143 -11652 11654 0
-11654 11655 0
144 -11654 11656 0
-11656 11657 0
145 -11656 11658 0
-11658 11659 0
146 -11658 11660 0
-11660 11661 0
147 -11660 11662 0
-11662 11663 0
148 -11662 11664 0
-11664 11665 0
149 -11664 11666 0
-11666 11667 0
150 -11666 11668 0
-11668 11669 0
151 -11668 11670 0
-11670 11671 0
152 -11670 11672 0
-11672 11673 0
153 -11672 11674 0
-11674 11675 0
154 -11674 0
132 11631 0
-11631 11676 0
133 -11631 11633 0
-11633 11677 0
134 -11633 11635 0
-11635 11678 0
135 -11635 11637 0
-11637 11679 0
136 -11637 11639 0
-11639 11680 0
137 -11639 11641 0
-11641 11681 0
138 -11641 11643 0
-11643 11682 0
139 -11643 11645 0
-11645 11683 0
140 -11645 11647 0
-11647 11684 0
141 -11647 11649 0
-11649 11685 0
142 -11649 11651 0
-11651 11686 0
143 -11651 11653 0
-11653 11687 0
144 -11653 11655 0
-11655 11688 0
145 -11655 11657 0
-11657 11689 0
146 -11657 11659 0
-11659 11690 0
147 -11659 11661 0
-11661 11691 0
148 -11661 11663 0
-11663 11692 0
149 -11663 11665 0
-11665 11693 0
150 -11665 11667 0
-11667 11694 0
151 -11667 11669 0
-11669 11695 0
152 -11669 11671 0
-11671 11696 0
153 -11671 11673 0
-11673 11697 0
154 -11673 11675 0
-11675 11698 0
155 -11675 0
133 11676 0
134 -11676 11677 0
135 -11677 11678 0
136 -11678 11679 0
137 -11679 11680 0
138 -11680 11681 0
139 -11681 11682 0
140 -11682 11683 0
141 -11683 11684 0
142 -11684 11685 0
143 -11685 11686 0
144 -11686 11687 0
145 -11687 11688 0
146 -11688 11689 0
147 -11689 11690 0
148 -11690 11691 0
149 -11691 11692 0
150 -11692 11693 0
151 -11693 11694 0
152 -11694 11695 0
153 -11695 11696 0
154 -11696 11697 0
155 -11697 11698 0
156 -11698 0
157 11699 0
-11699 11700 0
158 -11699 11701 0
-11701 11702 0
159 -11701 11703 0
-11703 11704 0
160 -11703 11705 0
-11705 11706 0
161 -11705 11707 0
-11707 11708 0
162 -11707 11709 0
-11709 11710 0
163 -11709 11711 0
-11711 11712 0
164 -11711 11713 0
-11713 11714 0
165 -11713 11715 0
-11715 11716 0
166 -11715 11717 0
-11717 11718 0
167 -11717 11719 0
-11719 11720 0
168 -11719 11721 0
-11721 11722 0
169 -11721 11723 0
-11723 11724 0
170 -11723 11725 0
-11725 11726 0
171 -11725 11727 0
-11727 11728 0
172 -11727 11729 0
-11729 11730 0
173 -11729 11731 0
-11731 11732 0
174 -11731 11733 0
-11733 11734 0
175 -11733 11735 0
-11735 11736 0
176 -11735 11737 0
-11737 11738 0
177 -11737 11739 0
-11739 11740 0
178 -11739 11741 0
-11741 11742 0
179 -11741 11743 0
-11743 11744 0
180 -11743 0
158 11700 0
-11700 11745 0
159 -11700 11702 0
-11702 11746 0
160 -11702 11704 0
-11704 11747 0
161 -11704 11706 0
-11706 11748 0
162 -11706 11708 0
-11708 11749 0
163 -11708 11710 0
-11710 11750 0
164 -11710 11712 0
-11712 11751 0
165 -11712 11714 0
-11714 11752 0
166 -11714 11716 0
-11716 11753 0
167 -11716 11718 0
-11718 11754 0
168 -11718 11720 0
-11720 11755 0
169 -11720 11722 0
-11722 11756 0
170 -11722 11724 0
-11724 11757 0
171 -11724 11726 0
-11726 11758 0
172 -11726 11728 0
-11728 11759 0
173 -11728 11730 0
-11730 11760 0
174 -11730 11732 0
-11732 11761 0
175 -11732 11734 0
-11734 11762 0
176 -11734 11736 0
-11736 11763 0
177 -11736 11738 0
-11738 11764 0
178 -11738 11740 0
-11740 11765 0
179 -11740 11742 0
-11742 11766 0
180 -11742 11744 0
-11744 11767 0
181 -11744 0
159 11745 0
160 -11745 11746 0
161 -11746 11747 0
162 -11747 11748 0
163 -11748 11749 0
164 -11749 11750 0
165 -11750 11751 0
166 -11751 11752 0
167 -11752 11753 0
168 -11753 11754 0
169 -11754 11755 0
170 -11755 11756 0
171 -11756 11757 0
172 -11757 11758 0
173 -11758 11759 0
174 -11759 11760 0
175 -11760 11761 0
176 -11761 11762 0
177 -11762 11763 0
178 -11763 11764 0
179 -11764 11765 0
180 -11765 11766 0
181 -11766 11767 0
182 -11767 0
183 11768 0
-11768 11769 0
184 -11768 11770 0
-11770 11771 0
185 -11770 11772 0
-11772 11773 0
186 -11772 11774 0
-11774 11775 0
187 -11774 11776 0
-11776 11777 0
188 -11776 11778 0
-11778 11779 0
189 -11778 11780 0
-11780 11781 0
190 -11780 11782 0
-11782 11783 0
191 -11782 11784 0
-11784 11785 0
192 -11784 11786 0
-11786 11787 0
193 -11786 11788 0
-11788 11789 0
194 -11788 11790 0
-11790 11791 0
195 -11790 11792 0
-11792 11793 0
196 -11792 11794 0
-11794 11795 0
197 -11794 11796 0
-11796 11797 0
198 -11796 11798 0
-11798 11799 0
199 -11798 11800 0
-11800 11801 0
200 -11800 11802 0
-11802 11803 0
201 -11802 11804 0
-11804 11805 0
202 -11804 11806 0
-11806 11807 0
203 -11806 11808 0
-11808 11809 0
204 -11808 11810 0
-11810 11811 0
205 -11810 11812 0
-11812 11813 0
206 -11812 0
184 11769 0
-11769 11814 0
185 -11769 11771 0
-11771 11815 0
186 -11771 11773 0
-11773 11816 0
187 -11773 11775 0
-11775 11817 0
188 -11775 11777 0
-11777 11818 0
189 -11777 11779 0
-11779 11819 0
190 -11779 11781 0
-11781 11820 0
191 -11781 11783 0
-11783 11821 0
192 -11783 11785 0
-11785 11822 0
193 -11785 11787 0
-11787 11823 0
194 -11787 11789 0
-11789 11824 0
195 -11789 11791 0
-11791 11825 0
196 -11791 11793 0
-11793 11826 0
197 -11793 11795 0
-11795 11827 0
198 -11795 11797 0
-11797 11828 0
199 -11797 11799 0
-11799 11829 0
200 -11799 11801 0
-11801 11830 0
201 -11801 11803 0
-11803 11831 0
202 -11803 11805 0
-11805 11832 0
203 -11805 11807 0
-11807 11833 0
204 -11807 11809 0
-11809 11834 0
205 -11809 11811 0
-11811 11835 0
206 -11811 11813 0
-11813 11836 0
207 -11813 0
185 11814 0
186 -11814 11815 0
187 -11815 11816 0
188 -11816 11817 0
189 -11817 11818 0
190 -11818 11819 0
191 -11819 11820 0
192 -11820 11821 0
193 -11821 11822 0
194 -11822 11823 0
195 -11823 11824 0
196 -11824 11825 0
197 -11825 11826 0
198 -11826 11827 0
199 -11827 11828 0
200 -11828 11829 0
201 -11829 11830 0
202 -11830 11831 0
203 -11831 11832 0
204 -11832 11833 0
205 -11833 11834 0
206 -11834 11835 0
207 -11835 11836 0
208 -11836 0
209 11837 0
-11837 11838 0
210 -11837 11839 0
-11839 11840 0
211 -11839 11841 0
-11841 11842 0
212 -11841 11843 0
-11843 11844 0
213 -11843 11845 0
-11845 11846 0
214 -11845 11847 0
-11847 11848 0
215 -11847 11849 0
-11849 11850 0
216 -11849 11851 0
-11851 11852 0
217 -11851 11853 0
-11853 11854 0
218 -11853 11855 0
-11855 11856 0
219 -11855 11857 0
-11857 11858 0
220 -11857 11859 0
-11859 11860 0
221 -11859 11861 0
-11861 11862 0
222 -11861 11863 0
-11863 11864 0
223 -11863 11865 0
-11865 11866 0
224 -11865 11867 0
-11867 11868 0
225 -11867 11869 0
-11869 11870 0
226 -11869 11871 0
-11871 11872 0
227 -11871 11873 0
-11873 11874 0
228 -11873 11875 0
-11875 11876 0
229 -11875 11877 0
-11877 11878 0
230 -11877 11879 0
-11879 11880 0
231 -11879 11881 0
-11881 11882 0
232 -11881 0
210 11838 0
-11838 11883 0
211 -11838 11840 0
-11840 11884 0
212 -11840 11842 0
-11842 11885 0
213 -11842 11844 0
-11844 11886 0
214 -11844 11846 0
-11846 11887 0
215 -11846 11848 0
-11848 11888 0
216 -11848 11850 0
-11850 11889 0
217 -11850 11852 0
-11852 11890 0
218 -11852 11854 0
-11854 11891 0
219 -11854 11856 0
-11856 11892 0
220 -11856 11858 0
-11858 11893 0
221 -11858 11860 0
-11860 11894 0
222 -11860 11862 0
-11862 11895 0
223 -11862 11864 0
-11864 11896 0
224 -11864 11866 0
-11866 11897 0
225 -11866 11868 0
-11868 11898 0
226 -11868 11870 0
-11870 11899 0
227 -11870 11872 0
-11872 11900 0
228 -11872 11874 0
-11874 11901 0
229 -11874 11876 0
-11876 11902 0
230 -11876 11878 0
-11878 11903 0
231 -11878 11880 0
-11880 11904 0
232 -11880 11882 0
-11882 11905 0
233 -11882 0
211 11883 0
212 -11883 11884 0
213 -11884 11885 0
214 -11885 11886 0
215 -11886 11887 0
216 -11887 11888 0
217 -11888 11889 0
218 -11889 11890 0
219 -11890 11891 0
220 -11891 11892 0
221 -11892 11893 0
222 -11893 11894 0
223 -11894 11895 0
224 -11895 11896 0
225 -11896 11897 0
226 -11897 11898 0
227 -11898 11899 0
228 -11899 11900 0
229 -11900 11901 0
230 -11901 11902 0
231 -11902 11903 0
232 -11903 11904 0
233 -11904 11905 0
234 -11905 0
235 11906 0
-11906 11907 0
236 -11906 11908 0
-11908 11909 0
237 -11908 11910 0
-11910 11911 0
238 -11910 11912 0
-11912 11913 0
239 -11912 11914 0
-11914 11915 0
240 -11914 11916 0
-11916 11917 0
241 -11916 11918 0
-11918 11919 0
242 -11918 11920 0
-11920 11921 0
243 -11920 11922 0
-11922 11923 0
244 -11922 11924 0
-11924 11925 0
245 -11924 11926 0
-11926 11927 0
246 -11926 11928 0
-11928 11929 0
247 -11928 11930 0
-11930 11931 0
248 -11930 11932 0
-11932 11933 0
249 -11932 11934 0
-11934 11935 0
250 -11934 11936 0
-11936 11937 0
251 -11936 11938 0
-11938 11939 0
252 -11938 11940 0
-11940 11941 0
253 -11940 11942 0
-11942 11943 0
254 -11942 11944 0
-11944 11945 0
255 -11944 11946 0
-11946 11947 0
256 -11946 11948 0
-11948 11949 0
257 -11948 11950 0
-11950 11951 0
258 -11950 0
236 11907 0
-11907 11952 0
237 -11907 11909 0
-11909 11953 0
238 -11909 11911 0
-11911 11954 0
239 -11911 11913 0
-11913 11955 0
240 -11913 11915 0
-11915 11956 0
241 -11915 11917 0
-11917 11957 0
242 -11917 11919 0
-11919 11958 0
243 -11919 11921 0
-11921 11959 0
244 -11921 11923 0
-11923 11960 0
245 -11923 11925 0
-11925 11961 0
246 -11925 11927 0
-11927 11962 0
247 -11927 11929 0
-11929 11963 0
248 -11929 11931 0
-11931 11964 0
249 -11931 11933 0
-11933 11965 0
250 -11933 11935 0
-11935 11966 0
251 -11935 11937 0
-11937 11967 0
252 -11937 11939 0
-11939 11968 0
253 -11939 11941 0
-11941 11969 0
254 -11941 11943 0
-11943 11970 0
255 -11943 11945 0
-11945 11971 0
256 -11945 11947 0
-11947 11972 0
257 -11947 11949 0
-11949 11973 0
258 -11949 11951 0
-11951 11974 0
259 -11951 0
237 11952 0
238 -11952 11953 0
239 -11953 11954 0
240 -11954 11955 0
241 -11955 11956 0
242 -11956 11957 0
243 -11957 11958 0
244 -11958 11959 0
245 -11959 11960 0
246 -11960 11961 0
247 -11961 11962 0
248 -11962 11963 0
249 -11963 11964 0
250 -11964 11965 0
251 -11965 11966 0
252 -11966 11967 0
253 -11967 11968 0
254 -11968 11969 0
255 -11969 11970 0
256 -11970 11971 0
257 -11971 11972 0
258 -11972 11973 0
259 -11973 11974 0
260 -11974 0
261 11975 0
-11975 11976 0
262 -11975 11977 0
-11977 11978 0
263 -11977 11979 0
-11979 11980 0
264 -11979 11981 0
-11981 11982 0
265 -11981 11983 0
-11983 11984 0
266 -11983 11985 0
-11985 11986 0
267 -11985 11987 0
-11987 11988 0
268 -11987 11989 0
-11989 11990 0
269 -11989 11991 0
-11991 11992 0
270 -11991 11993 0
-11993 11994 0
271 -11993 11995 0
-11995 11996 0
272 -11995 11997 0
-11997 11998 0
273 -11997 11999 0
-11999 12000 0
274 -11999 12001 0
-12001 12002 0
275 -12001 12003 0
-12003 12004 0
276 -12003 12005 0
-12005 12006 0
277 -12005 12007 0
-12007 12008 0
278 -12007 12009 0
-12009 12010 0
279 -12009 12011 0
-12011 12012 0
280 -12011 12013 0
-12013 12014 0
281 -12013 12015 0
-12015 12016 0
282 -12015 12017 0
-12017 12018 0
283 -12017 12019 0
-12019 12020 0
284 -12019 0
262 11976 0
-11976 12021 0
263 -11976 11978 0
-11978 12022 0
264 -11978 11980 0
-11980 12023 0
265 -11980 11982 0
-11982 12024 0
266 -11982 11984 0
-11984 12025 0
267 -11984 11986 0
-11986 12026 0
268 -11986 11988 0
-11988 12027 0
269 -11988 11990 0
-11990 12028 0
270 -11990 11992 0
-11992 12029 0
271 -11992 11994 0
-11994 12030 0
272 -11994 11996 0
-11996 12031 0
273 -11996 11998 0
-11998 12032 0
274 -11998 12000 0
-12000 12033 0
275 -12000 12002 0
-12002 12034 0
276 -12002 12004 0
-12004 12035 0
277 -12004 12006 0
-12006 12036 0
278 -12006 12008 0
-12008 12037 0
279 -12008 12010 0
-12010 12038 0
280 -12010 12012 0
-12012 12039 0
281 -12012 12014 0
-12014 12040 0
282 -12014 12016 0
-12016 12041 0
283 -12016 12018 0
-12018 12042 0
284 -12018 12020 0
-12020 12043 0
285 -12020 0
263 12021 0
264 -12021 12022 0
265 -12022 12023 0
266 -12023 12024 0
267 -12024 12025 0
268 -12025 12026 0
269 -12026 12027 0
270 -12027 12028 0
271 -12028 12029 0
272 -12029 12030 0
273 -12030 12031 0
274 -12031 12032 0
275 -12032 12033 0
276 -12033 12034 0
277 -12034 12035 0
278 -12035 12036 0
279 -12036 12037 0
280 -12037 12038 0
281 -12038 12039 0
282 -12039 12040 0
283 -12040 12041 0
284 -12041 12042 0
285 -12042 12043 0
286 -12043 0
287 12044 0
-12044 12045 0
288 -12044 12046 0
-12046 12047 0
289 -12046 12048 0
-12048 12049 0
290 -12048 12050 0
-12050 12051 0
291 -12050 12052 0
-12052 12053 0
292 -12052 12054 0
-12054 12055 0
293 -12054 12056 0
-12056 12057 0
294 -12056 12058 0
-12058 12059 0
295 -12058 12060 0
-12060 12061 0
296 -12060 12062 0
-12062 12063 0
297 -12062 12064 0
-12064 12065 0
298 -12064 12066 0
-12066 12067 0
299 -12066 12068 0
-12068 12069 0
300 -12068 12070 0
-12070 12071 0
301 -12070 12072 0
-12072 12073 0
302 -12072 12074 0
-12074 12075 0
303 -12074 12076 0
-12076 12077 0
304 -12076 12078 0
-12078 12079 0
305 -12078 12080 0
-12080 12081 0
306 -12080 12082 0
-12082 12083 0
307 -12082 12084 0
-12084 12085 0
308 -12084 12086 0
-12086 12087 0
309 -12086 12088 0
-12088 12089 0
310 -12088 0
288 12045 0
-12045 12090 0
289 -12045 12047 0
-12047 12091 0
290 -12047 12049 0
-12049 12092 0
291 -12049 12051 0
-12051 12093 0
292 -12051 12053 0
-12053 12094 0
293 -12053 12055 0
-12055 12095 0
294 -12055 12057 0
-12057 12096 0
295 -12057 12059 0
-12059 12097 0
296 -12059 12061 0
-12061 12098 0
297 -12061 12063 0
-12063 12099 0
298 -12063 12065 0
-12065 12100 0
299 -12065 12067 0
-12067 12101 0
300 -12067 12069 0
-12069 12102 0
301 -12069 12071 0
-12071 12103 0
302 -12071 12073 0
-12073 12104 0
303 -12073 12075 0
-12075 12105 0
304 -12075 12077 0
-12077 12106 0
305 -12077 12079 0
-12079 12107 0
306 -12079 12081 0
-12081 12108 0
307 -12081 12083 0
-12083 12109 0
308 -12083 12085 0
-12085 12110 0
309 -12085 12087 0
-12087 12111 0
310 -12087 12089 0
-12089 12112 0
311 -12089 0
289 12090 0
290 -12090 12091 0
291 -12091 12092 0
292 -12092 12093 0
293 -12093 12094 0
294 -12094 12095 0
295 -12095 12096 0
296 -12096 12097 0
297 -12097 12098 0
298 -12098 12099 0
299 -12099 12100 0
300 -12100 12101 0
301 -12101 12102 0
302 -12102 12103 0
303 -12103 12104 0
304 -12104 12105 0
305 -12105 12106 0
306 -12106 12107 0
307 -12107 12108 0
308 -12108 12109 0
309 -12109 12110 0
310 -12110 12111 0
311 -12111 12112 0
312 -12112 0
313 12113 0
-12113 12114 0
314 -12113 12115 0
-12115 12116 0
315 -12115 12117 0
-12117 12118 0
316 -12117 12119 0
-12119 12120 0
317 -12119 12121 0
-12121 12122 0
318 -12121 12123 0
-12123 12124 0
319 -12123 12125 0
-12125 12126 0
320 -12125 12127 0
-12127 12128 0
321 -12127 12129 0
-12129 12130 0
322 -12129 12131 0
-12131 12132 0
323 -12131 12133 0
-12133 12134 0
324 -12133 12135 0
-12135 12136 0
325 -12135 12137 0
-12137 12138 0
326 -12137 12139 0
-12139 12140 0
327 -12139 12141 0
-12141 12142 0
328 -12141 12143 0
-12143 12144 0
329 -12143 12145 0
-12145 12146 0
330 -12145 12147 0
-12147 12148 0
331 -12147 12149 0
-12149 12150 0
332 -12149 12151 0
-12151 12152 0
333 -12151 12153 0
-12153 12154 0
334 -12153 12155 0
-12155 12156 0
335 -12155 12157 0
-12157 12158 0
336 -12157 0
314 12114 0
-12114 12159 0
315 -12114 12116 0
-12116 12160 0
316 -12116 12118 0
-12118 12161 0
317 -12118 12120 0
-12120 12162 0
318 -12120 12122 0
-12122 12163 0
319 -12122 12124 0
-12124 12164 0
320 -12124 12126 0
-12126 12165 0
321 -12126 12128 0
-12128 12166 0
322 -12128 12130 0
-12130 12167 0
323 -12130 12132 0
-12132 12168 0
324 -12132 12134 0
-12134 12169 0
325 -12134 12136 0
-12136 12170 0
326 -12136 12138 0
-12138 12171 0
327 -12138 12140 0
-12140 12172 0
328 -12140 12142 0
-12142 12173 0
329 -12142 12144 0
-12144 12174 0
330 -12144 12146 0
-12146 12175 0
331 -12146 12148 0
-12148 12176 0
332 -12148 12150 0
-12150 12177 0
333 -12150 12152 0
-12152 12178 0
334 -12152 12154 0
-12154 12179 0
335 -12154 12156 0
-12156 12180 0
336 -12156 12158 0
-12158 12181 0
337 -12158 0
315 12159 0
316 -12159 12160 0
317 -12160 12161 0
318 -12161 12162 0
319 -12162 12163 0
320 -12163 12164 0
321 -12164 12165 0
322 -12165 12166 0
323 -12166 12167 0
324 -12167 12168 0
325 -12168 12169 0
326 -12169 12170 0
327 -12170 12171 0
328 -12171 12172 0
329 -12172 12173 0
330 -12173 12174 0
331 -12174 12175 0
332 -12175 12176 0
333 -12176 12177 0
334 -12177 12178 0
335 -12178 12179 0
336 -12179 12180 0
337 -12180 12181 0
338 -12181 0
-365 1 0
-365 27 0
-1 -27 365 0
-366 2 0
-366 28 0
-2 -28 366 0
-367 3 0
-367 29 0
-3 -29 367 0
-368 4 0
-368 30 0
-4 -30 368 0
-369 5 0
-369 31 0
-5 -31 369 0
-370 6 0
-370 32 0
-6 -32 370 0
-371 7 0
-371 33 0
-7 -33 371 0
-372 8 0
-372 34 0
-8 -34 372 0
-373 9 0
-373 35 0
-9 -35 373 0
-374 10 0
-374 36 0
-10 -36 374 0
-375 11 0
-375 37 0
-11 -37 375 0
-376 12 0
-376 38 0
-12 -38 376 0
-377 13 0
-377 39 0
-13 -39 377 0
-378 14 0
-378 40 0
-14 -40 378 0
-379 15 0
-379 41 0
-15 -41 379 0
-380 16 0
-380 42 0
-16 -42 380 0
-381 17 0
-381 43 0
-17 -43 381 0
-382 18 0
-382 44 0
-18 -44 382 0
-383 19 0
-383 45 0
-19 -45 383 0
-384 20 0
-384 46 0
-20 -46 384 0
-385 21 0
-385 47 0
-21 -47 385 0
-386 22 0
-386 48 0
-22 -48 386 0
-387 23 0
-387 49 0
-23 -49 387 0
-388 24 0
-388 50 0
-24 -50 388 0
-389 25 0
-389 51 0
-25 -51 389 0
-390 26 0
-390 52 0
-26 -52 390 0
-365 12182 0
-12182 12183 0
-366 -12182 0
-366 12183 0
-12183 12184 0
-367 -12183 0
-367 12184 0
-12184 12185 0
-368 -12184 0
-368 12185 0
-12185 12186 0
-369 -12185 0
-369 12186 0
-12186 12187 0
-370 -12186 0
-370 12187 0
-12187 12188 0
-371 -12187 0
-371 12188 0
-12188 12189 0
-372 -12188 0
-372 12189 0
-12189 12190 0
-373 -12189 0
-373 12190 0
-12190 12191 0
-374 -12190 0
-374 12191 0
-12191 12192 0
-375 -12191 0
-375 12192 0
-12192 12193 0
-376 -12192 0
-376 12193 0
-12193 12194 0
-377 -12193 0
-377 12194 0
-12194 12195 0
-378 -12194 0
-378 12195 0
-12195 12196 0
-379 -12195 0
-379 12196 0
-12196 12197 0
-380 -12196 0
-380 12197 0
-12197 12198 0
-381 -12197 0
-381 12198 0
-12198 12199 0
-382 -12198 0
-382 12199 0
-12199 12200 0
-383 -12199 0
-383 12200 0
-12200 12201 0
-384 -12200 0
-384 12201 0
-12201 12202 0
-385 -12201 0
-385 12202 0
-12202 12203 0
-386 -12202 0
-386 12203 0
-12203 12204 0
-387 -12203 0
-387 12204 0
-12204 12205 0
-388 -12204 0
-388 12205 0
-12205 12206 0
-389 -12205 0
-389 12206 0
-390 -12206 0
-365 2393 0
-366 2393 0
-367 2393 0
-368 2393 0
-369 2393 0
-370 2393 0
-371 2393 0
-372 2393 0
-373 2393 0
-374 2393 0
-375 2393 0
-376 2393 0
-377 2393 0
-378 2393 0
-379 2393 0
-380 2393 0
-381 2393 0
-382 2393 0
-383 2393 0
-384 2393 0
-385 2393 0
-386 2393 0
-387 2393 0
-388 2393 0
-389 2393 0
-390 2393 0
-2393 365 366 367 368 369 370 371 372 373 374 375 376 377 378 379 380 381 382 383 384 385 386 387 388 389 390 0
-391 1 0
-391 53 0
-1 -53 391 0
-392 2 0
-392 54 0
-2 -54 392 0
-393 3 0
-393 55 0
-3 -55 393 0
-394 4 0
-394 56 0
-4 -56 394 0
-395 5 0
-395 57 0
-5 -57 395 0
-396 6 0
-396 58 0
-6 -58 396 0
-397 7 0
-397 59 0
-7 -59 397 0
-398 8 0
-398 60 0
-8 -60 398 0
-399 9 0
-399 61 0
-9 -61 399 0
-400 10 0
-400 62 0
-10 -62 400 0
-401 11 0
-401 63 0
-11 -63 401 0
-402 12 0
-402 64 0
-12 -64 402 0
-403 13 0
-403 65 0
-13 -65 403 0
-404 14 0
-404 66 0
-14 -66 404 0
-405 15 0
-405 67 0
-15 -67 405 0
-406 16 0
-406 68 0
-16 -68 406 0
-407 17 0
-407 69 0
-17 -69 407 0
-408 18 0
-408 70 0
-18 -70 408 0
-409 19 0
-409 71 0
-19 -71 409 0
-410 20 0
-410 72 0
-20 -72 410 0
-411 21 0
-411 73 0
-21 -73 411 0
-412 22 0
-412 74 0
-22 -74 412 0
-413 23 0
-413 75 0
-23 -75 413 0
-414 24 0
-414 76 0
-24 -76 414 0
-415 25 0
-415 77 0
-25 -77 415 0
-416 26 0
-416 78 0
-26 -78 416 0
-391 12207 0
-12207 12208 0
-392 -12207 0
-392 12208 0
-12208 12209 0
-393 -12208 0
-393 12209 0
-12209 12210 0
-394 -12209 0
-394 12210 0
-12210 12211 0
-395 -12210 0
-395 12211 0
-12211 12212 0
-396 -12211 0
-396 12212 0
-12212 12213 0
-397 -12212 0
-397 12213 0
-12213 12214 0
-398 -12213 0
-398 12214 0
-12214 12215 0
-399 -12214 0
-399 12215 0
-12215 12216 0
-400 -12215 0
-400 12216 0
-12216 12217 0
-401 -12216 0
-401 12217 0
-12217 12218 0
-402 -12217 0
-402 12218 0
-12218 12219 0
-403 -12218 0
-403 12219 0
-12219 12220 0
-404 -12219 0
-404 12220 0
-12220 12221 0
-405 -12220 0
-405 12221 0
-12221 12222 0
-406 -12221 0
-406 12222 0
-12222 12223 0
-407 -12222 0
-407 12223 0
-12223 12224 0
-408 -12223 0
-408 12224 0
-12224 12225 0
-409 -12224 0
-409 12225 0
-12225 12226 0
-410 -12225 0
-410 12226 0
-12226 12227 0
-411 -12226 0
-411 12227 0
-12227 12228 0
-412 -12227 0
-412 12228 0
-12228 12229 0
-413 -12228 0
-413 12229 0
-12229 12230 0
-414 -12229 0
-414 12230 0
-12230 12231 0
-415 -12230 0
-415 12231 0
-416 -12231 0
-391 2394 0
-392 2394 0
-393 2394 0
-394 2394 0
-395 2394 0
-396 2394 0
-397 2394 0
-398 2394 0
-399 2394 0
-400 2394 0
-401 2394 0
-402 2394 0
-403 2394 0
-404 2394 0
-405 2394 0
-406 2394 0
-407 2394 0
-408 2394 0
-409 2394 0
-410 2394 0
-411 2394 0
-412 2394 0
-413 2394 0
-414 2394 0
-415 2394 0
-416 2394 0
-2394 391 392 393 394 395 396 397 398 399 400 401 402 403 404 405 406 407 408 409 410 411 412 413 414 415 416 0
-417 1 0
-417 79 0
-1 -79 417 0
-418 2 0
-418 80 0
-2 -80 418 0
-419 3 0
-419 81 0
-3 -81 419 0
-420 4 0
-420 82 0
-4 -82 420 0
-421 5 0
-421 83 0
-5 -83 421 0
-422 6 0
-422 84 0
-6 -84 422 0
-423 7 0
-423 85 0
-7 -85 423 0
-424 8 0
-424 86 0
-8 -86 424 0
-425 9 0
-425 87 0
-9 -87 425 0
-426 10 0
-426 88 0
-10 -88 426 0
-427 11 0
-427 89 0
-11 -89 427 0
-428 12 0
-428 90 0
-12 -90 428 0
-429 13 0
-429 91 0
-13 -91 429 0
-430 14 0
-430 92 0
-14 -92 430 0
-431 15 0
-431 93 0
-15 -93 431 0
-432 16 0
-432 94 0
-16 -94 432 0
-433 17 0
-433 95 0
-17 -95 433 0
-434 18 0
-434 96 0
-18 -96 434 0
-435 19 0
-435 97 0
-19 -97 435 0
-436 20 0
-436 98 0
-20 -98 436 0
-437 21 0
-437 99 0
-21 -99 437 0
-438 22 0
-438 100 0
-22 -100 438 0
-439 23 0
-439 101 0
-23 -101 439 0
-440 24 0
-440 102 0
-24 -102 440 0
-441 25 0
-441 103 0
-25 -103 441 0
-442 26 0
-442 104 0
-26 -104 442 0
-417 12232 0
-12232 12233 0
-418 -12232 0
-418 12233 0
-12233 12234 0
-419 -12233 0
-419 12234 0
-12234 12235 0
-420 -12234 0
-420 12235 0
-12235 12236 0
-421 -12235 0
-421 12236 0
-12236 12237 0
-422 -12236 0
-422 12237 0
-12237 12238 0
-423 -12237 0
-423 12238 0
-12238 12239 0
-424 -12238 0
-424 12239 0
-12239 12240 0
-425 -12239 0
-425 12240 0
-12240 12241 0
-426 -12240 0
-426 12241 0
-12241 12242 0
-427 -12241 0
-427 12242 0
-12242 12243 0
-428 -12242 0
-428 12243 0
-12243 12244 0
-429 -12243 0
-429 12244 0
-12244 12245 0
-430 -12244 0
-430 12245 0
-12245 12246 0
-431 -12245 0
-431 12246 0
-12246 12247 0
-432 -12246 0
-432 12247 0
-12247 12248 0
-433 -12247 0
-433 12248 0
-12248 12249 0
-434 -12248 0
-434 12249 0
-12249 12250 0
-435 -12249 0
-435 12250 0
-12250 12251 0
-436 -12250 0
-436 12251 0
-12251 12252 0
-437 -12251 0
-437 12252 0
-12252 12253 0
-438 -12252 0
-438 12253 0
-12253 12254 0
-439 -12253 0
-439 12254 0
-12254 12255 0
-440 -12254 0
-440 12255 0
-12255 12256 0
-441 -12255 0
-441 12256 0
-442 -12256 0
-417 2395 0
-418 2395 0
-419 2395 0
-420 2395 0
-421 2395 0
-422 2395 0
-423 2395 0
-424 2395 0
-425 2395 0
-426 2395 0
-427 2395 0
-428 2395 0
-429 2395 0
-430 2395 0
-431 2395 0
-432 2395 0
-433 2395 0
-434 2395 0
-435 2395 0
-436 2395 0
-437 2395 0
-438 2395 0
-439 2395 0
-440 2395 0
-441 2395 0
-442 2395 0
-2395 417 418 419 420 421 422 423 424 425 426 427 428 429 430 431 432 433 434 435 436 437 438 439 440 441 442 0
-443 1 0
-443 105 0
-1 -105 443 0
-444 2 0
-444 106 0
-2 -106 444 0
-445 3 0
-445 107 0
-3 -107 445 0
-446 4 0
-446 108 0
-4 -108 446 0
-447 5 0
-447 109 0
-5 -109 447 0
-448 6 0
-448 110 0
-6 -110 448 0
-449 7 0
-449 111 0
-7 -111 449 0
-450 8 0
-450 112 0
-8 -112 450 0
-451 9 0
-451 113 0
-9 -113 451 0
-452 10 0
-452 114 0
-10 -114 452 0
-453 11 0
-453 115 0
-11 -115 453 0
-454 12 0
-454 116 0
-12 -116 454 0
-455 13 0
-455 117 0
-13 -117 455 0
-456 14 0
-456 118 0
-14 -118 456 0
-457 15 0
-457 119 0
-15 -119 457 0
-458 16 0
-458 120 0
-16 -120 458 0
-459 17 0
-459 121 0
-17 -121 459 0
-460 18 0
-460 122 0
-18 -122 460 0
-461 19 0
-461 123 0
-19 -123 461 0
-462 20 0
-462 124 0
-20 -124 462 0
-463 21 0
-463 125 0
-21 -125 463 0
-464 22 0
-464 126 0
-22 -126 464 0
-465 23 0
-465 127 0
-23 -127 465 0
-466 24 0
-466 128 0
-24 -128 466 0
-467 25 0
-467 129 0
-25 -129 467 0
-468 26 0
-468 130 0
-26 -130 468 0
-443 12257 0
-12257 12258 0
-444 -12257 0
-444 12258 0
-12258 12259 0
-445 -12258 0
-445 12259 0
-12259 12260 0
-446 -12259 0
-446 12260 0
-12260 12261 0
-447 -12260 0
-447 12261 0
-12261 12262 0
-448 -12261 0
-448 12262 0
-12262 12263 0
-449 -12262 0
-449 12263 0
-12263 12264 0
-450 -12263 0
-450 12264 0
-12264 12265 0
-451 -12264 0
-451 12265 0
-12265 12266 0
-452 -12265 0
-452 12266 0
-12266 12267 0
-453 -12266 0
-453 12267 0
-12267 12268 0
-454 -12267 0
-454 12268 0
-12268 12269 0
-455 -12268 0
-455 12269 0
-12269 12270 0
-456 -12269 0
-456 12270 0
-12270 12271 0
-457 -12270 0
-457 12271 0
-12271 12272 0
-458 -12271 0
-458 12272 0
-12272 12273 0
-459 -12272 0
-459 12273 0
-12273 12274 0
-460 -12273 0
-460 12274 0
-12274 12275 0
-461 -12274 0
-461 12275 0
-12275 12276 0
-462 -12275 0
-462 12276 0
-12276 12277 0
-463 -12276 0
-463 12277 0
-12277 12278 0
-464 -12277 0
-464 12278 0
-12278 12279 0
-465 -12278 0
-465 12279 0
-12279 12280 0
-466 -12279 0
-466 12280 0
-12280 12281 0
-467 -12280 0
-467 12281 0
-468 -12281 0
-443 2396 0
-444 2396 0
-445 2396 0
-446 2396 0
-447 2396 0
-448 2396 0
-449 2396 0
-450 2396 0
-451 2396 0
-452 2396 0
-453 2396 0
-454 2396 0
-455 2396 0
-456 2396 0
-457 2396 0
-458 2396 0
-459 2396 0
-460 2396 0
-461 2396 0
-462 2396 0
-463 2396 0
-464 2396 0
-465 2396 0
-466 2396 0
-467 2396 0
-468 2396 0
-2396 443 444 445 446 447 448 449 450 451 452 453 454 455 456 457 458 459 460 461 462 463 464 465 466 467 468 0
-469 1 0
-469 131 0
-1 -131 469 0
-470 2 0
-470 132 0
-2 -132 470 0
-471 3 0
-471 133 0
-3 -133 471 0
-472 4 0
-472 134 0
-4 -134 472 0
-473 5 0
-473 135 0
-5 -135 473 0
-474 6 0
-474 136 0
-6 -136 474 0
-475 7 0
-475 137 0
-7 -137 475 0
-476 8 0
-476 138 0
-8 -138 476 0
-477 9 0
-477 139 0
-9 -139 477 0
-478 10 0
-478 140 0
-10 -140 478 0
-479 11 0
-479 141 0
-11 -141 479 0
-480 12 0
-480 142 0
-12 -142 480 0
-481 13 0
-481 143 0
-13 -143 481 0
-482 14 0
-482 144 0
-14 -144 482 0
-483 15 0
-483 145 0
-15 -145 483 0
-484 16 0
-484 146 0
-16 -146 484 0
-485 17 0
-485 147 0
-17 -147 485 0
-486 18 0
-486 148 0
-18 -148 486 0
-487 19 0
-487 149 0
-19 -149 487 0
-488 20 0
-488 150 0
-20 -150 488 0
-489 21 0
-489 151 0
-21 -151 489 0
-490 22 0
-490 152 0
-22 -152 490 0
-491 23 0
-491 153 0
-23 -153 491 0
-492 24 0
-492 154 0
-24 -154 492 0
-493 25 0
-493 155 0
-25 -155 493 0
-494 26 0
-494 156 0
-26 -156 494 0
-469 12282 0
-12282 12283 0
-470 -12282 0
-470 12283 0
-12283 12284 0
-471 -12283 0
-471 12284 0
-12284 12285 0
-472 -12284 0
-472 12285 0
-12285 12286 0
-473 -12285 0
-473 12286 0
-12286 12287 0
-474 -12286 0
-474 12287 0
-12287 12288 0
-475 -12287 0
-475 12288 0
-12288 12289 0
-476 -12288 0
-476 12289 0
-12289 12290 0
-477 -12289 0
-477 12290 0
-12290 12291 0
-478 -12290 0
-478 12291 0
-12291 12292 0
-479 -12291 0
-479 12292 0
-12292 12293 0
-480 -12292 0
-480 12293 0
-12293 12294 0
-481 -12293 0
-481 12294 0
-12294 12295 0
-482 -12294 0
-482 12295 0
-12295 12296 0
-483 -12295 0
-483 12296 0
-12296 12297 0
-484 -12296 0
-484 12297 0
-12297 12298 0
-485 -12297 0
-485 12298 0
-12298 12299 0
-486 -12298 0
-486 12299 0
-12299 12300 0
-487 -12299 0
-487 12300 0
-12300 12301 0
-488 -12300 0
-488 12301 0
-12301 12302 0
-489 -12301 0
-489 12302 0
-12302 12303 0
-490 -12302 0
-490 12303 0
-12303 12304 0
-491 -12303 0
-491 12304 0
-12304 12305 0
-492 -12304 0
-492 12305 0
-12305 12306 0
-493 -12305 0
-493 12306 0
-494 -12306 0
-469 2397 0
-470 2397 0
-471 2397 0
-472 2397 0
-473 2397 0
-474 2397 0
-475 2397 0
-476 2397 0
-477 2397 0
-478 2397 0
-479 2397 0
-480 2397 0
-481 2397 0
-482 2397 0
-483 2397 0
-484 2397 0
-485 2397 0
-486 2397 0
-487 2397 0
-488 2397 0
-489 2397 0
-490 2397 0
-491 2397 0
-492 2397 0
-493 2397 0
-494 2397 0
-2397 469 470 471 472 473 474 475 476 477 478 479 480 481 482 483 484 485 486 487 488 489 490 491 492 493 494 0
-495 1 0
-495 157 0
-1 -157 495 0
-496 2 0
-496 158 0
-2 -158 496 0
-497 3 0
-497 159 0
-3 -159 497 0
-498 4 0
-498 160 0
-4 -160 498 0
-499 5 0
-499 161 0
-5 -161 499 0
-500 6 0
-500 162 0
-6 -162 500 0
-501 7 0
-501 163 0
-7 -163 501 0
-502 8 0
-502 164 0
-8 -164 502 0
-503 9 0
-503 165 0
-9 -165 503 0
-504 10 0
-504 166 0
-10 -166 504 0
-505 11 0
-505 167 0
-11 -167 505 0
-506 12 0
-506 168 0
-12 -168 506 0
-507 13 0
-507 169 0
-13 -169 507 0
-508 14 0
-508 170 0
-14 -170 508 0
-509 15 0
-509 171 0
-15 -171 509 0
-510 16 0
-510 172 0
-16 -172 510 0
-511 17 0
-511 173 0
-17 -173 511 0
-512 18 0
-512 174 0
-18 -174 512 0
-513 19 0
-513 175 0
-19 -175 513 0
-514 20 0
-514 176 0
-20 -176 514 0
-515 21 0
-515 177 0
-21 -177 515 0
-516 22 0
-516 178 0
-22 -178 516 0
-517 23 0
-517 179 0
-23 -179 517 0
-518 24 0
-518 180 0
-24 -180 518 0
-519 25 0
-519 181 0
-25 -181 519 0
-520 26 0
-520 182 0
-26 -182 520 0
-495 12307 0
-12307 12308 0
-496 -12307 0
-496 12308 0
-12308 12309 0
-497 -12308 0
-497 12309 0
-12309 12310 0
-498 -12309 0
-498 12310 0
-12310 12311 0
-499 -12310 0
-499 12311 0
-12311 12312 0
-500 -12311 0
-500 12312 0
-12312 12313 0
-501 -12312 0
-501 12313 0
-12313 12314 0
-502 -12313 0
-502 12314 0
-12314 12315 0
-503 -12314 0
-503 12315 0
-12315 12316 0
-504 -12315 0
-504 12316 0
-12316 12317 0
-505 -12316 0
-505 12317 0
-12317 12318 0
-506 -12317 0
-506 12318 0
-12318 12319 0
-507 -12318 0
-507 12319 0
-12319 12320 0
-508 -12319 0
-508 12320 0
-12320 12321 0
-509 -12320 0
-509 12321 0
-12321 12322 0
-510 -12321 0
-510 12322 0
-12322 12323 0
-511 -12322 0
-511 12323 0
-12323 12324 0
-512 -12323 0
-512 12324 0
-12324 12325 0
-513 -12324 0
-513 12325 0
-12325 12326 0
-514 -12325 0
-514 12326 0
-12326 12327 0
-515 -12326 0
-515 12327 0
-12327 12328 0
-516 -12327 0
-516 12328 0
-12328 12329 0
-517 -12328 0
-517 12329 0
-12329 12330 0
-518 -12329 0
-518 12330 0
-12330 12331 0
-519 -12330 0
-519 12331 0
-520 -12331 0
-495 2398 0
-496 2398 0
-497 2398 0
-498 2398 0
-499 2398 0
-500 2398 0
-501 2398 0
-502 2398 0
-503 2398 0
-504 2398 0
-505 2398 0
-506 2398 0
-507 2398 0
-508 2398 0
-509 2398 0
-510 2398 0
-511 2398 0
-512 2398 0
-513 2398 0
-514 2398 0
-515 2398 0
-516 2398 0
-517 2398 0
-518 2398 0
-519 2398 0
-520 2398 0
-2398 495 496 497 498 499 500 501 502 503 504 505 506 507 508 509 510 511 512 513 514 515 516 517 518 519 520 0
-521 1 0
-521 183 0
-1 -183 521 0
-522 2 0
-522 184 0
-2 -184 522 0
-523 3 0
-523 185 0
-3 -185 523 0
-524 4 0
-524 186 0
-4 -186 524 0
-525 5 0
-525 187 0
-5 -187 525 0
-526 6 0
-526 188 0
-6 -188 526 0
-527 7 0
-527 189 0
-7 -189 527 0
-528 8 0
-528 190 0
-8 -190 528 0
-529 9 0
-529 191 0
-9 -191 529 0
-530 10 0
-530 192 0
-10 -192 530 0
-531 11 0
-531 193 0
-11 -193 531 0
-532 12 0
-532 194 0
-12 -194 532 0
-533 13 0
-533 195 0
-13 -195 533 0
-534 14 0
-534 196 0
-14 -196 534 0
-535 15 0
-535 197 0
-15 -197 535 0
-536 16 0
-536 198 0
-16 -198 536 0
-537 17 0
-537 199 0
-17 -199 537 0
-538 18 0
-538 200 0
-18 -200 538 0
-539 19 0
-539 201 0
-19 -201 539 0
-540 20 0
-540 202 0
-20 -202 540 0
-541 21 0
-541 203 0
-21 -203 541 0
-542 22 0
-542 204 0
-22 -204 542 0
-543 23 0
-543 205 0
-23 -205 543 0
-544 24 0
-544 206 0
-24 -206 544 0
-545 25 0
-545 207 0
-25 -207 545 0
-546 26 0
-546 208 0
-26 -208 546 0
-521 12332 0
-12332 12333 0
-522 -12332 0
-522 12333 0
-12333 12334 0
-523 -12333 0
-523 12334 0
-12334 12335 0
-524 -12334 0
-524 12335 0
-12335 12336 0
-525 -12335 0
-525 12336 0
-12336 12337 0
-526 -12336 0
-526 12337 0
-12337 12338 0
-527 -12337 0
-527 12338 0
-12338 12339 0
-528 -12338 0
-528 12339 0
-12339 12340 0
-529 -12339 0
-529 12340 0
-12340 12341 0
-530 -12340 0
-530 12341 0
-12341 12342 0
-531 -12341 0
-531 12342 0
-12342 12343 0
-532 -12342 0
-532 12343 0
-12343 12344 0
-533 -12343 0
-533 12344 0
-12344 12345 0
-534 -12344 0
-534 12345 0
-12345 12346 0
-535 -12345 0
-535 12346 0
-12346 12347 0
-536 -12346 0
-536 12347 0
-12347 12348 0
-537 -12347 0
-537 12348 0
-12348 12349 0
-538 -12348 0
-538 12349 0
-12349 12350 0
-539 -12349 0
-539 12350 0
-12350 12351 0
-540 -12350 0
-540 12351 0
-12351 12352 0
-541 -12351 0
-541 12352 0
-12352 12353 0
-542 -12352 0
-542 12353 0
-12353 12354 0
-543 -12353 0
-543 12354 0
-12354 12355 0
-544 -12354 0
-544 12355 0
-12355 12356 0
-545 -12355 0
-545 12356 0
-546 -12356 0
-521 2399 0
-522 2399 0
-523 2399 0
-524 2399 0
-525 2399 0
-526 2399 0
-527 2399 0
-528 2399 0
-529 2399 0
-530 2399 0
-531 2399 0
-532 2399 0
-533 2399 0
-534 2399 0
-535 2399 0
-536 2399 0
-537 2399 0
-538 2399 0
-539 2399 0
-540 2399 0
-541 2399 0
-542 2399 0
-543 2399 0
-544 2399 0
-545 2399 0
-546 2399 0
-2399 521 522 523 524 525 526 527 528 529 530 531 532 533 534 535 536 537 538 539 540 541 542 543 544 545 546 0
-547 1 0
-547 209 0
-1 -209 547 0
-548 2 0
-548 210 0
-2 -210 548 0
-549 3 0
-549 211 0
-3 -211 549 0
-550 4 0
-550 212 0
-4 -212 550 0
-551 5 0
-551 213 0
-5 -213 551 0
-552 6 0
-552 214 0
-6 -214 552 0
-553 7 0
-553 215 0
-7 -215 553 0
-554 8 0
-554 216 0
-8 -216 554 0
-555 9 0
-555 217 0
-9 -217 555 0
-556 10 0
-556 218 0
-10 -218 556 0
-557 11 0
-557 219 0
-11 -219 557 0
-558 12 0
-558 220 0
-12 -220 558 0
-559 13 0
-559 221 0
-13 -221 559 0
-560 14 0
-560 222 0
-14 -222 560 0
-561 15 0
-561 223 0
-15 -223 561 0
-562 16 0
-562 224 0
-16 -224 562 0
-563 17 0
-563 225 0
-17 -225 563 0
-564 18 0
-564 226 0
-18 -226 564 0
-565 19 0
-565 227 0
-19 -227 565 0
-566 20 0
-566 228 0
-20 -228 566 0
-567 21 0
-567 229 0
-21 -229 567 0
-568 22 0
-568 230 0
-22 -230 568 0
-569 23 0
-569 231 0
-23 -231 569 0
-570 24 0
-570 232 0
-24 -232 570 0
-571 25 0
-571 233 0
-25 -233 571 0
-572 26 0
-572 234 0
-26 -234 572 0
-547 12357 0
-12357 12358 0
-548 -12357 0
-548 12358 0
-12358 12359 0
-549 -12358 0
-549 12359 0
-12359 12360 0
-550 -12359 0
-550 12360 0
-12360 12361 0
-551 -12360 0
-551 12361 0
-12361 12362 0
-552 -12361 0
-552 12362 0
-12362 12363 0
-553 -12362 0
-553 12363 0
-12363 12364 0
-554 -12363 0
-554 12364 0
-12364 12365 0
-555 -12364 0
-555 12365 0
-12365 12366 0
-556 -12365 0
-556 12366 0
-12366 12367 0
-557 -12366 0
-557 12367 0
-12367 12368 0
-558 -12367 0
-558 12368 0
-12368 12369 0
-559 -12368 0
-559 12369 0
-12369 12370 0
-560 -12369 0
-560 12370 0
-12370 12371 0
-561 -12370 0
-561 12371 0
-12371 12372 0
-562 -12371 0
-562 12372 0
-12372 12373 0
-563 -12372 0
-563 12373 0
-12373 12374 0
-564 -12373 0
-564 12374 0
-12374 12375 0
-565 -12374 0
-565 12375 0
-12375 12376 0
-566 -12375 0
-566 12376 0
-12376 12377 0
-567 -12376 0
-567 12377 0
-12377 12378 0
-568 -12377 0
-568 12378 0
-12378 12379 0
-569 -12378 0
-569 12379 0
-12379 12380 0
-570 -12379 0
-570 12380 0
-12380 12381 0
-571 -12380 0
-571 12381 0
-572 -12381 0
-547 2400 0
-548 2400 0
-549 2400 0
-550 2400 0
-551 2400 0
-552 2400 0
-553 2400 0
-554 2400 0
-555 2400 0
-556 2400 0
-557 2400 0
-558 2400 0
-559 2400 0
-560 2400 0
-561 2400 0
-562 2400 0
-563 2400 0
-564 2400 0
-565 2400 0
-566 2400 0
-567 2400 0
-568 2400 0
-569 2400 0
-570 2400 0
-571 2400 0
-572 2400 0
-2400 547 548 549 550 551 552 553 554 555 556 557 558 559 560 561 562 563 564 565 566 567 568 569 570 571 572 0
-573 1 0
-573 235 0
-1 -235 573 0
-574 2 0
-574 236 0
-2 -236 574 0
-575 3 0
-575 237 0
-3 -237 575 0
-576 4 0
-576 238 0
-4 -238 576 0
-577 5 0
-577 239 0
-5 -239 577 0
-578 6 0
-578 240 0
-6 -240 578 0
-579 7 0
-579 241 0
-7 -241 579 0
-580 8 0
-580 242 0
-8 -242 580 0
-581 9 0
-581 243 0
-9 -243 581 0
-582 10 0
-582 244 0
-10 -244 582 0
-583 11 0
-583 245 0
-11 -245 583 0
-584 12 0
-584 246 0
-12 -246 584 0
-585 13 0
-585 247 0
-13 -247 585 0
-586 14 0
-586 248 0
-14 -248 586 0
-587 15 0
-587 249 0
-15 -249 587 0
-588 16 0
-588 250 0
-16 -250 588 0
-589 17 0
-589 251 0
-17 -251 589 0
-590 18 0
-590 252 0
-18 -252 590 0
-591 19 0
-591 253 0
-19 -253 591 0
-592 20 0
-592 254 0
-20 -254 592 0
-593 21 0
-593 255 0
-21 -255 593 0
-594 22 0
-594 256 0
-22 -256 594 0
-595 23 0
-595 257 0
-23 -257 595 0
-596 24 0
-596 258 0
-24 -258 596 0
-597 25 0
-597 259 0
-25 -259 597 0
-598 26 0
-598 260 0
-26 -260 598 0
-573 12382 0
-12382 12383 0
-574 -12382 0
-574 12383 0
-12383 12384 0
-575 -12383 0
-575 12384 0
-12384 12385 0
-576 -12384 0
-576 12385 0
-12385 12386 0
-577 -12385 0
-577 12386 0
-12386 12387 0
-578 -12386 0
-578 12387 0
-12387 12388 0
-579 -12387 0
-579 12388 0
-12388 12389 0
-580 -12388 0
-580 12389 0
-12389 12390 0
-581 -12389 0
-581 12390 0
-12390 12391 0
-582 -12390 0
-582 12391 0
-12391 12392 0
-583 -12391 0
-583 12392 0
-12392 12393 0
-584 -12392 0
-584 12393 0
-12393 12394 0
-585 -12393 0
-585 12394 0
-12394 12395 0
-586 -12394 0
-586 12395 0
-12395 12396 0
-587 -12395 0
-587 12396 0
-12396 12397 0
-588 -12396 0
-588 12397 0
-12397 12398 0
-589 -12397 0
-589 12398 0
-12398 12399 0
-590 -12398 0
-590 12399 0
-12399 12400 0
-591 -12399 0
-591 12400 0
-12400 12401 0
-592 -12400 0
-592 12401 0
-12401 12402 0
-593 -12401 0
-593 12402 0
-12402 12403 0
-594 -12402 0
-594 12403 0
-12403 12404 0
-595 -12403 0
-595 12404 0
-12404 12405 0
-596 -12404 0
-596 12405 0
-12405 12406 0
-597 -12405 0
-597 12406 0
-598 -12406 0
-573 2401 0
-574 2401 0
-575 2401 0
-576 2401 0
-577 2401 0
-578 2401 0
-579 2401 0
-580 2401 0
-581 2401 0
-582 2401 0
-583 2401 0
-584 2401 0
-585 2401 0
-586 2401 0
-587 2401 0
-588 2401 0
-589 2401 0
-590 2401 0
-591 2401 0
-592 2401 0
-593 2401 0
-594 2401 0
-595 2401 0
-596 2401 0
-597 2401 0
-598 2401 0
-2401 573 574 575 576 577 578 579 580 581 582 583 584 585 586 587 588 589 590 591 592 593 594 595 596 597 598 0
-599 1 0
-599 261 0
-1 -261 599 0
-600 2 0
-600 262 0
-2 -262 600 0
-601 3 0
-601 263 0
-3 -263 601 0
-602 4 0
-602 264 0
-4 -264 602 0
-603 5 0
-603 265 0
-5 -265 603 0
-604 6 0
-604 266 0
-6 -266 604 0
-605 7 0
-605 267 0
-7 -267 605 0
-606 8 0
-606 268 0
-8 -268 606 0
-607 9 0
-607 269 0
-9 -269 607 0
-608 10 0
-608 270 0
-10 -270 608 0
-609 11 0
-609 271 0
-11 -271 609 0
-610 12 0
-610 272 0
-12 -272 610 0
-611 13 0
-611 273 0
-13 -273 611 0
-612 14 0
-612 274 0
-14 -274 612 0
-613 15 0
-613 275 0
-15 -275 613 0
-614 16 0
-614 276 0
-16 -276 614 0
-615 17 0
-615 277 0
-17 -277 615 0
-616 18 0
-616 278 0
-18 -278 616 0
-617 19 0
-617 279 0
-19 -279 617 0
-618 20 0
-618 280 0
-20 -280 618 0
-619 21 0
-619 281 0
-21 -281 619 0
-620 22 0
-620 282 0
-22 -282 620 0
-621 23 0
-621 283 0
-23 -283 621 0
-622 24 0
-622 284 0
-24 -284 622 0
-623 25 0
-623 285 0
-25 -285 623 0
-624 26 0
-624 286 0
-26 -286 624 0
-599 12407 0
-12407 12408 0
-600 -12407 0
-600 12408 0
-12408 12409 0
-601 -12408 0
-601 12409 0
-12409 12410 0
-602 -12409 0
-602 12410 0
-12410 12411 0
-603 -12410 0
-603 12411 0
-12411 12412 0
-604 -12411 0
-604 12412 0
-12412 12413 0
-605 -12412 0
-605 12413 0
-12413 12414 0
-606 -12413 0
-606 12414 0
-12414 12415 0
-607 -12414 0
-607 12415 0
-12415 12416 0
-608 -12415 0
-608 12416 0
-12416 12417 0
-609 -12416 0
-609 12417 0
-12417 12418 0
-610 -12417 0
-610 12418 0
-12418 12419 0
-611 -12418 0
-611 12419 0
-12419 12420 0
-612 -12419 0
-612 12420 0
-12420 12421 0
-613 -12420 0
-613 12421 0
-12421 12422 0
-614 -12421 0
-614 12422 0
-12422 12423 0
-615 -12422 0
-615 12423 0
-12423 12424 0
-616 -12423 0
-616 12424 0
-12424 12425 0
-617 -12424 0
-617 12425 0
-12425 12426 0
-618 -12425 0
-618 12426 0
-12426 12427 0
-619 -12426 0
-619 12427 0
-12427 12428 0
-620 -12427 0
-620 12428 0
-12428 12429 0
-621 -12428 0
-621 12429 0
-12429 12430 0
-622 -12429 0
-622 12430 0
-12430 12431 0
-623 -12430 0
-623 12431 0
-624 -12431 0
-599 2402 0
-600 2402 0
-601 2402 0
-602 2402 0
-603 2402 0
-604 2402 0
-605 2402 0
-606 2402 0
-607 2402 0
-608 2402 0
-609 2402 0
-610 2402 0
-611 2402 0
-612 2402 0
-613 2402 0
-614 2402 0
-615 2402 0
-616 2402 0
-617 2402 0
-618 2402 0
-619 2402 0
-620 2402 0
-621 2402 0
-622 2402 0
-623 2402 0
-624 2402 0
-2402 599 600 601 602 603 604 605 606 607 608 609 610 611 612 613 614 615 616 617 618 619 620 621 622 623 624 0
-625 1 0
-625 287 0
-1 -287 625 0
-626 2 0
-626 288 0
-2 -288 626 0
-627 3 0
-627 289 0
-3 -289 627 0
-628 4 0
-628 290 0
-4 -290 628 0
-629 5 0
-629 291 0
-5 -291 629 0
-630 6 0
-630 292 0
-6 -292 630 0
-631 7 0
-631 293 0
-7 -293 631 0
-632 8 0
-632 294 0
-8 -294 632 0
-633 9 0
-633 295 0
-9 -295 633 0
-634 10 0
-634 296 0
-10 -296 634 0
-635 11 0
-635 297 0
-11 -297 635 0
-636 12 0
-636 298 0
-12 -298 636 0
-637 13 0
-637 299 0
-13 -299 637 0
-638 14 0
-638 300 0
-14 -300 638 0
-639 15 0
-639 301 0
-15 -301 639 0
-640 16 0
-640 302 0
-16 -302 640 0
-641 17 0
-641 303 0
-17 -303 641 0
-642 18 0
-642 304 0
-18 -304 642 0
-643 19 0
-643 305 0
-19 -305 643 0
-644 20 0
-644 306 0
-20 -306 644 0
-645 21 0
-645 307 0
-21 -307 645 0
-646 22 0
-646 308 0
-22 -308 646 0
-647 23 0
-647 309 0
-23 -309 647 0
-648 24 0
-648 310 0
-24 -310 648 0
-649 25 0
-649 311 0
-25 -311 649 0
-650 26 0
-650 312 0
-26 -312 650 0
-625 12432 0
-12432 12433 0
-626 -12432 0
-626 12433 0
-12433 12434 0
-627 -12433 0
-627 12434 0
-12434 12435 0
-628 -12434 0
-628 12435 0
-12435 12436 0
-629 -12435 0
-629 12436 0
-12436 12437 0
-630 -12436 0
-630 12437 0
-12437 12438 0
-631 -12437 0
-631 12438 0
-12438 12439 0
-632 -12438 0
-632 12439 0
-12439 12440 0
-633 -12439 0
-633 12440 0
-12440 12441 0
-634 -12440 0
-634 12441 0
-12441 12442 0
-635 -12441 0
-635 12442 0
-12442 12443 0
-636 -12442 0
-636 12443 0
-12443 12444 0
-637 -12443 0
-637 12444 0
-12444 12445 0
-638 -12444 0
-638 12445 0
-12445 12446 0
-639 -12445 0
-639 12446 0
-12446 12447 0
-640 -12446 0
-640 12447 0
-12447 12448 0
-641 -12447 0
-641 12448 0
-12448 12449 0
-642 -12448 0
-642 12449 0
-12449 12450 0
-643 -12449 0
-643 12450 0
-12450 12451 0
-644 -12450 0
-644 12451 0
-12451 12452 0
-645 -12451 0
-645 12452 0
-12452 12453 0
-646 -12452 0
-646 12453 0
-12453 12454 0
-647 -12453 0
-647 12454 0
-12454 12455 0
-648 -12454 0
-648 12455 0
-12455 12456 0
-649 -12455 0
-649 12456 0
-650 -12456 0
-625 2403 0
-626 2403 0
-627 2403 0
-628 2403 0
-629 2403 0
-630 2403 0
-631 2403 0
-632 2403 0
-633 2403 0
-634 2403 0
-635 2403 0
-636 2403 0
-637 2403 0
-638 2403 0
-639 2403 0
-640 2403 0
-641 2403 0
-642 2403 0
-643 2403 0
-644 2403 0
-645 2403 0
-646 2403 0
-647 2403 0
-648 2403 0
-649 2403 0
-650 2403 0
-2403 625 626 627 628 629 630 631 632 633 634 635 636 637 638 639 640 641 642 643 644 645 646 647 648 649 650 0
-651 1 0
-651 313 0
-1 -313 651 0
-652 2 0
-652 314 0
-2 -314 652 0
-653 3 0
-653 315 0
-3 -315 653 0
-654 4 0
-654 316 0
-4 -316 654 0
-655 5 0
-655 317 0
-5 -317 655 0
-656 6 0
-656 318 0
-6 -318 656 0
-657 7 0
-657 319 0
-7 -319 657 0
-658 8 0
-658 320 0
-8 -320 658 0
-659 9 0
-659 321 0
-9 -321 659 0
-660 10 0
-660 322 0
-10 -322 660 0
-661 11 0
-661 323 0
-11 -323 661 0
-662 12 0
-662 324 0
-12 -324 662 0
-663 13 0
-663 325 0
-13 -325 663 0
-664 14 0
-664 326 0
-14 -326 664 0
-665 15 0
-665 327 0
-15 -327 665 0
-666 16 0
-666 328 0
-16 -328 666 0
-667 17 0
-667 329 0
-17 -329 667 0
-668 18 0
-668 330 0
-18 -330 668 0
-669 19 0
-669 331 0
-19 -331 669 0
-670 20 0
-670 332 0
-20 -332 670 0
-671 21 0
-671 333 0
-21 -333 671 0
-672 22 0
-672 334 0
-22 -334 672 0
-673 23 0
-673 335 0
-23 -335 673 0
-674 24 0
-674 336 0
-24 -336 674 0
-675 25 0
-675 337 0
-25 -337 675 0
-676 26 0
-676 338 0
-26 -338 676 0
-651 12457 0
-12457 12458 0
-652 -12457 0
-652 12458 0
-12458 12459 0
-653 -12458 0
-653 12459 0
-12459 12460 0
-654 -12459 0
-654 12460 0
-12460 12461 0
-655 -12460 0
-655 12461 0
-12461 12462 0
-656 -12461 0
-656 12462 0
-12462 12463 0
-657 -12462 0
-657 12463 0
-12463 12464 0
-658 -12463 0
-658 12464 0
-12464 12465 0
-659 -12464 0
-659 12465 0
-12465 12466 0
-660 -12465 0
-660 12466 0
-12466 12467 0
-661 -12466 0
-661 12467 0
-12467 12468 0
-662 -12467 0
-662 12468 0
-12468 12469 0
-663 -12468 0
-663 12469 0
-12469 12470 0
-664 -12469 0
-664 12470 0
-12470 12471 0
-665 -12470 0
-665 12471 0
-12471 12472 0
-666 -12471 0
-666 12472 0
-12472 12473 0
-667 -12472 0
-667 12473 0
-12473 12474 0
-668 -12473 0
-668 12474 0
-12474 12475 0
-669 -12474 0
-669 12475 0
-12475 12476 0
-670 -12475 0
-670 12476 0
-12476 12477 0
-671 -12476 0
-671 12477 0
-12477 12478 0
-672 -12477 0
-672 12478 0
-12478 12479 0
-673 -12478 0
-673 12479 0
-12479 12480 0
-674 -12479 0
-674 12480 0
-12480 12481 0
-675 -12480 0
-675 12481 0
-676 -12481 0
-651 2404 0
-652 2404 0
-653 2404 0
-654 2404 0
-655 2404 0
-656 2404 0
-657 2404 0
-658 2404 0
-659 2404 0
-660 2404 0
-661 2404 0
-662 2404 0
-663 2404 0
-664 2404 0
-665 2404 0
-666 2404 0
-667 2404 0
-668 2404 0
-669 2404 0
-670 2404 0
-671 2404 0
-672 2404 0
-673 2404 0
-674 2404 0
-675 2404 0
-676 2404 0
-2404 651 652 653 654 655 656 657 658 659 660 661 662 663 664 665 666 667 668 669 670 671 672 673 674 675 676 0
-677 27 0
-677 53 0
-27 -53 677 0
-678 28 0
-678 54 0
-28 -54 678 0
-679 29 0
-679 55 0
-29 -55 679 0
-680 30 0
-680 56 0
-30 -56 680 0
-681 31 0
-681 57 0
-31 -57 681 0
-682 32 0
-682 58 0
-32 -58 682 0
-683 33 0
-683 59 0
-33 -59 683 0
-684 34 0
-684 60 0
-34 -60 684 0
-685 35 0
-685 61 0
-35 -61 685 0
-686 36 0
-686 62 0
-36 -62 686 0
-687 37 0
-687 63 0
-37 -63 687 0
-688 38 0
-688 64 0
-38 -64 688 0
-689 39 0
-689 65 0
-39 -65 689 0
-690 40 0
-690 66 0
-40 -66 690 0
-691 41 0
-691 67 0
-41 -67 691 0
-692 42 0
-692 68 0
-42 -68 692 0
-693 43 0
-693 69 0
-43 -69 693 0
-694 44 0
-694 70 0
-44 -70 694 0
-695 45 0
-695 71 0
-45 -71 695 0
-696 46 0
-696 72 0
-46 -72 696 0
-697 47 0
-697 73 0
-47 -73 697 0
-698 48 0
-698 74 0
-48 -74 698 0
-699 49 0
-699 75 0
-49 -75 699 0
-700 50 0
-700 76 0
-50 -76 700 0
-701 51 0
-701 77 0
-51 -77 701 0
-702 52 0
-702 78 0
-52 -78 702 0
-677 12482 0
-12482 12483 0
-678 -12482 0
-678 12483 0
-12483 12484 0
-679 -12483 0
-679 12484 0
-12484 12485 0
-680 -12484 0
-680 12485 0
-12485 12486 0
-681 -12485 0
-681 12486 0
-12486 12487 0
-682 -12486 0
-682 12487 0
-12487 12488 0
-683 -12487 0
-683 12488 0
-12488 12489 0
-684 -12488 0
-684 12489 0
-12489 12490 0
-685 -12489 0
-685 12490 0
-12490 12491 0
-686 -12490 0
-686 12491 0
-12491 12492 0
-687 -12491 0
-687 12492 0
-12492 12493 0
-688 -12492 0
-688 12493 0
-12493 12494 0
-689 -12493 0
-689 12494 0
-12494 12495 0
-690 -12494 0
-690 12495 0
-12495 12496 0
-691 -12495 0
-691 12496 0
-12496 12497 0
-692 -12496 0
-692 12497 0
-12497 12498 0
-693 -12497 0
-693 12498 0
-12498 12499 0
-694 -12498 0
-694 12499 0
-12499 12500 0
-695 -12499 0
-695 12500 0
-12500 12501 0
-696 -12500 0
-696 12501 0
-12501 12502 0
-697 -12501 0
-697 12502 0
-12502 12503 0
-698 -12502 0
-698 12503 0
-12503 12504 0
-699 -12503 0
-699 12504 0
-12504 12505 0
-700 -12504 0
-700 12505 0
-12505 12506 0
-701 -12505 0
-701 12506 0
-702 -12506 0
-677 2405 0
-678 2405 0
-679 2405 0
-680 2405 0
-681 2405 0
-682 2405 0
-683 2405 0
-684 2405 0
-685 2405 0
-686 2405 0
-687 2405 0
-688 2405 0
-689 2405 0
-690 2405 0
-691 2405 0
-692 2405 0
-693 2405 0
-694 2405 0
-695 2405 0
-696 2405 0
-697 2405 0
-698 2405 0
-699 2405 0
-700 2405 0
-701 2405 0
-702 2405 0
-2405 677 678 679 680 681 682 683 684 685 686 687 688 689 690 691 692 693 694 695 696 697 698 699 700 701 702 0
-703 27 0
-703 79 0
-27 -79 703 0
-704 28 0
-704 80 0
-28 -80 704 0
-705 29 0
-705 81 0
-29 -81 705 0
-706 30 0
-706 82 0
-30 -82 706 0
-707 31 0
-707 83 0
-31 -83 707 0
-708 32 0
-708 84 0
-32 -84 708 0
-709 33 0
-709 85 0
-33 -85 709 0
-710 34 0
-710 86 0
-34 -86 710 0
-711 35 0
-711 87 0
-35 -87 711 0
-712 36 0
-712 88 0
-36 -88 712 0
-713 37 0
-713 89 0
-37 -89 713 0
-714 38 0
-714 90 0
-38 -90 714 0
-715 39 0
-715 91 0
-39 -91 715 0
-716 40 0
-716 92 0
-40 -92 716 0
-717 41 0
-717 93 0
-41 -93 717 0
-718 42 0
-718 94 0
-42 -94 718 0
-719 43 0
-719 95 0
-43 -95 719 0
-720 44 0
-720 96 0
-44 -96 720 0
-721 45 0
-721 97 0
-45 -97 721 0
-722 46 0
-722 98 0
-46 -98 722 0
-723 47 0
-723 99 0
-47 -99 723 0
-724 48 0
-724 100 0
-48 -100 724 0
-725 49 0
-725 101 0
-49 -101 725 0
-726 50 0
-726 102 0
-50 -102 726 0
-727 51 0
-727 103 0
-51 -103 727 0
-728 52 0
-728 104 0
-52 -104 728 0
-703 12507 0
-12507 12508 0
-704 -12507 0
-704 12508 0
-12508 12509 0
-705 -12508 0
-705 12509 0
-12509 12510 0
-706 -12509 0
-706 12510 0
-12510 12511 0
-707 -12510 0
-707 12511 0
-12511 12512 0
-708 -12511 0
-708 12512 0
-12512 12513 0
-709 -12512 0
-709 12513 0
-12513 12514 0
-710 -12513 0
-710 12514 0
-12514 12515 0
-711 -12514 0
-711 12515 0
-12515 12516 0
-712 -12515 0
-712 12516 0
-12516 12517 0
-713 -12516 0
-713 12517 0
-12517 12518 0
-714 -12517 0
-714 12518 0
-12518 12519 0
-715 -12518 0
-715 12519 0
-12519 12520 0
-716 -12519 0
-716 12520 0
-12520 12521 0
-717 -12520 0
-717 12521 0
-12521 12522 0
-718 -12521 0
-718 12522 0
-12522 12523 0
-719 -12522 0
-719 12523 0
-12523 12524 0
-720 -12523 0
-720 12524 0
-12524 12525 0
-721 -12524 0
-721 12525 0
-12525 12526 0
-722 -12525 0
-722 12526 0
-12526 12527 0
-723 -12526 0
-723 12527 0
-12527 12528 0
-724 -12527 0
-724 12528 0
-12528 12529 0
-725 -12528 0
-725 12529 0
-12529 12530 0
-726 -12529 0
-726 12530 0
-12530 12531 0
-727 -12530 0
-727 12531 0
-728 -12531 0
-703 2406 0
-704 2406 0
-705 2406 0
-706 2406 0
-707 2406 0
-708 2406 0
-709 2406 0
-710 2406 0
-711 2406 0
-712 2406 0
-713 2406 0
-714 2406 0
-715 2406 0
-716 2406 0
-717 2406 0
-718 2406 0
-719 2406 0
-720 2406 0
-721 2406 0
-722 2406 0
-723 2406 0
-724 2406 0
-725 2406 0
-726 2406 0
-727 2406 0
-728 2406 0
-2406 703 704 705 706 707 708 709 710 711 712 713 714 715 716 717 718 719 720 721 722 723 724 725 726 727 728 0
-729 27 0
-729 105 0
-27 -105 729 0
-730 28 0
-730 106 0
-28 -106 730 0
-731 29 0
-731 107 0
-29 -107 731 0
-732 30 0
-732 108 0
-30 -108 732 0
-733 31 0
-733 109 0
-31 -109 733 0
-734 32 0
-734 110 0
-32 -110 734 0
-735 33 0
-735 111 0
-33 -111 735 0
-736 34 0
-736 112 0
-34 -112 736 0
-737 35 0
-737 113 0
-35 -113 737 0
-738 36 0
-738 114 0
-36 -114 738 0
-739 37 0
-739 115 0
-37 -115 739 0
-740 38 0
-740 116 0
-38 -116 740 0
-741 39 0
-741 117 0
-39 -117 741 0
-742 40 0
-742 118 0
-40 -118 742 0
-743 41 0
-743 119 0
-41 -119 743 0
-744 42 0
-744 120 0
-42 -120 744 0
-745 43 0
-745 121 0
-43 -121 745 0
-746 44 0
-746 122 0
-44 -122 746 0
-747 45 0
-747 123 0
-45 -123 747 0
-748 46 0
-748 124 0
-46 -124 748 0
-749 47 0
-749 125 0
-47 -125 749 0
-750 48 0
-750 126 0
-48 -126 750 0
-751 49 0
-751 127 0
-49 -127 751 0
-752 50 0
-752 128 0
-50 -128 752 0
-753 51 0
-753 129 0
-51 -129 753 0
-754 52 0
-754 130 0
-52 -130 754 0
-729 12532 0
-12532 12533 0
-730 -12532 0
-730 12533 0
-12533 12534 0
-731 -12533 0
-731 12534 0
-12534 12535 0
-732 -12534 0
-732 12535 0
-12535 12536 0
-733 -12535 0
-733 12536 0
-12536 12537 0
-734 -12536 0
-734 12537 0
-12537 12538 0
-735 -12537 0
-735 12538 0
-12538 12539 0
-736 -12538 0
-736 12539 0
-12539 12540 0
-737 -12539 0
-737 12540 0
-12540 12541 0
-738 -12540 0
-738 12541 0
-12541 12542 0
-739 -12541 0
-739 12542 0
-12542 12543 0
-740 -12542 0
-740 12543 0
-12543 12544 0
-741 -12543 0
-741 12544 0
-12544 12545 0
-742 -12544 0
-742 12545 0
-12545 12546 0
-743 -12545 0
-743 12546 0
-12546 12547 0
-744 -12546 0
-744 12547 0
-12547 12548 0
-745 -12547 0
-745 12548 0
-12548 12549 0
-746 -12548 0
-746 12549 0
-12549 12550 0
-747 -12549 0
-747 12550 0
-12550 12551 0
-748 -12550 0
-748 12551 0
-12551 12552 0
-749 -12551 0
-749 12552 0
-12552 12553 0
-750 -12552 0
-750 12553 0
-12553 12554 0
-751 -12553 0
-751 12554 0
-12554 12555 0
-752 -12554 0
-752 12555 0
-12555 12556 0
-753 -12555 0
-753 12556 0
-754 -12556 0
-729 2407 0
-730 2407 0
-731 2407 0
-732 2407 0
-733 2407 0
-734 2407 0
-735 2407 0
-736 2407 0
-737 2407 0
-738 2407 0
-739 2407 0
-740 2407 0
-741 2407 0
-742 2407 0
-743 2407 0
-744 2407 0
-745 2407 0
-746 2407 0
-747 2407 0
-748 2407 0
-749 2407 0
-750 2407 0
-751 2407 0
-752 2407 0
-753 2407 0
-754 2407 0
-2407 729 730 731 732 733 734 735 736 737 738 739 740 741 742 743 744 745 746 747 748 749 750 751 752 753 754 0
-755 27 0
-755 131 0
-27 -131 755 0
-756 28 0
-756 132 0
-28 -132 756 0
-757 29 0
-757 133 0
-29 -133 757 0
-758 30 0
-758 134 0
-30 -134 758 0
-759 31 0
-759 135 0
-31 -135 759 0
-760 32 0
-760 136 0
-32 -136 760 0
-761 33 0
-761 137 0
-33 -137 761 0
-762 34 0
-762 138 0
-34 -138 762 0
-763 35 0
-763 139 0
-35 -139 763 0
-764 36 0
-764 140 0
-36 -140 764 0
-765 37 0
-765 141 0
-37 -141 765 0
-766 38 0
-766 142 0
-38 -142 766 0
-767 39 0
-767 143 0
-39 -143 767 0
-768 40 0
-768 144 0
-40 -144 768 0
-769 41 0
-769 145 0
-41 -145 769 0
-770 42 0
-770 146 0
-42 -146 770 0
-771 43 0
-771 147 0
-43 -147 771 0
-772 44 0
-772 148 0
-44 -148 772 0
-773 45 0
-773 149 0
-45 -149 773 0
-774 46 0
-774 150 0
-46 -150 774 0
-775 47 0
-775 151 0
-47 -151 775 0
-776 48 0
-776 152 0
-48 -152 776 0
-777 49 0
-777 153 0
-49 -153 777 0
-778 50 0
-778 154 0
-50 -154 778 0
-779 51 0
-779 155 0
-51 -155 779 0
-780 52 0
-780 156 0
-52 -156 780 0
-755 12557 0
-12557 12558 0
-756 -12557 0
-756 12558 0
-12558 12559 0
-757 -12558 0
-757 12559 0
-12559 12560 0
-758 -12559 0
-758 12560 0
-12560 12561 0
-759 -12560 0
-759 12561 0
-12561 12562 0
-760 -12561 0
-760 12562 0
-12562 12563 0
-761 -12562 0
-761 12563 0
-12563 12564 0
-762 -12563 0
-762 12564 0
-12564 12565 0
-763 -12564 0
-763 12565 0
-12565 12566 0
-764 -12565 0
-764 12566 0
-12566 12567 0
-765 -12566 0
-765 12567 0
-12567 12568 0
-766 -12567 0
-766 12568 0
-12568 12569 0
-767 -12568 0
-767 12569 0
-12569 12570 0
-768 -12569 0
-768 12570 0
-12570 12571 0
-769 -12570 0
-769 12571 0
-12571 12572 0
-770 -12571 0
-770 12572 0
-12572 12573 0
-771 -12572 0
-771 12573 0
-12573 12574 0
-772 -12573 0
-772 12574 0
-12574 12575 0
-773 -12574 0
-773 12575 0
-12575 12576 0
-774 -12575 0
-774 12576 0
-12576 12577 0
-775 -12576 0
-775 12577 0
-12577 12578 0
-776 -12577 0
-776 12578 0
-12578 12579 0
-777 -12578 0
-777 12579 0
-12579 12580 0
-778 -12579 0
-778 12580 0
-12580 12581 0
-779 -12580 0
-779 12581 0
-780 -12581 0
-755 2408 0
-756 2408 0
-757 2408 0
-758 2408 0
-759 2408 0
-760 2408 0
-761 2408 0
-762 2408 0
-763 2408 0
-764 2408 0
-765 2408 0
-766 2408 0
-767 2408 0
-768 2408 0
-769 2408 0
-770 2408 0
-771 2408 0
-772 2408 0
-773 2408 0
-774 2408 0
-775 2408 0
-776 2408 0
-777 2408 0
-778 2408 0
-779 2408 0
-780 2408 0
-2408 755 756 757 758 759 760 761 762 763 764 765 766 767 768 769 770 771 772 773 774 775 776 777 778 779 780 0
-781 27 0
-781 157 0
-27 -157 781 0
-782 28 0
-782 158 0
-28 -158 782 0
-783 29 0
-783 159 0
-29 -159 783 0
-784 30 0
-784 160 0
-30 -160 784 0
-785 31 0
-785 161 0
-31 -161 785 0
-786 32 0
-786 162 0
-32 -162 786 0
-787 33 0
-787 163 0
-33 -163 787 0
-788 34 0
-788 164 0
-34 -164 788 0
-789 35 0
-789 165 0
-35 -165 789 0
-790 36 0
-790 166 0
-36 -166 790 0
-791 37 0
-791 167 0
-37 -167 791 0
-792 38 0
-792 168 0
-38 -168 792 0
-793 39 0
-793 169 0
-39 -169 793 0
-794 40 0
-794 170 0
-40 -170 794 0
-795 41 0
-795 171 0
-41 -171 795 0
-796 42 0
-796 172 0
-42 -172 796 0
-797 43 0
-797 173 0
-43 -173 797 0
-798 44 0
-798 174 0
-44 -174 798 0
-799 45 0
-799 175 0
-45 -175 799 0
-800 46 0
-800 176 0
-46 -176 800 0
-801 47 0
-801 177 0
-47 -177 801 0
-802 48 0
-802 178 0
-48 -178 802 0
-803 49 0
-803 179 0
-49 -179 803 0
-804 50 0
-804 180 0
-50 -180 804 0
-805 51 0
-805 181 0
-51 -181 805 0
-806 52 0
-806 182 0
-52 -182 806 0
-781 12582 0
-12582 12583 0
-782 -12582 0
-782 12583 0
-12583 12584 0
-783 -12583 0
-783 12584 0
-12584 12585 0
-784 -12584 0
-784 12585 0
-12585 12586 0
-785 -12585 0
-785 12586 0
-12586 12587 0
-786 -12586 0
-786 12587 0
-12587 12588 0
-787 -12587 0
-787 12588 0
-12588 12589 0
-788 -12588 0
-788 12589 0
-12589 12590 0
-789 -12589 0
-789 12590 0
-12590 12591 0
-790 -12590 0
-790 12591 0
-12591 12592 0
-791 -12591 0
-791 12592 0
-12592 12593 0
-792 -12592 0
-792 12593 0
-12593 12594 0
-793 -12593 0
-793 12594 0
-12594 12595 0
-794 -12594 0
-794 12595 0
-12595 12596 0
-795 -12595 0
-795 12596 0
-12596 12597 0
-796 -12596 0
-796 12597 0
-12597 12598 0
-797 -12597 0
-797 12598 0
-12598 12599 0
-798 -12598 0
-798 12599 0
-12599 12600 0
-799 -12599 0
-799 12600 0
-12600 12601 0
-800 -12600 0
-800 12601 0
-12601 12602 0
-801 -12601 0
-801 12602 0
-12602 12603 0
-802 -12602 0
-802 12603 0
-12603 12604 0
-803 -12603 0
-803 12604 0
-12604 12605 0
-804 -12604 0
-804 12605 0
-12605 12606 0
-805 -12605 0
-805 12606 0
-806 -12606 0
-781 2409 0
-782 2409 0
-783 2409 0
-784 2409 0
-785 2409 0
-786 2409 0
-787 2409 0
-788 2409 0
-789 2409 0
-790 2409 0
-791 2409 0
-792 2409 0
-793 2409 0
-794 2409 0
-795 2409 0
-796 2409 0
-797 2409 0
-798 2409 0
-799 2409 0
-800 2409 0
-801 2409 0
-802 2409 0
-803 2409 0
-804 2409 0
-805 2409 0
-806 2409 0
-2409 781 782 783 784 785 786 787 788 789 790 791 792 793 794 795 796 797 798 799 800 801 802 803 804 805 806 0
-807 27 0
-807 183 0
-27 -183 807 0
-808 28 0
-808 184 0
-28 -184 808 0
-809 29 0
-809 185 0
-29 -185 809 0
-810 30 0
-810 186 0
-30 -186 810 0
-811 31 0
-811 187 0
-31 -187 811 0
-812 32 0
-812 188 0
-32 -188 812 0
-813 33 0
-813 189 0
-33 -189 813 0
-814 34 0
-814 190 0
-34 -190 814 0
-815 35 0
-815 191 0
-35 -191 815 0
-816 36 0
-816 192 0
-36 -192 816 0
-817 37 0
-817 193 0
-37 -193 817 0
-818 38 0
-818 194 0
-38 -194 818 0
-819 39 0
-819 195 0
-39 -195 819 0
-820 40 0
-820 196 0
-40 -196 820 0
-821 41 0
-821 197 0
-41 -197 821 0
-822 42 0
-822 198 0
-42 -198 822 0
-823 43 0
-823 199 0
-43 -199 823 0
-824 44 0
-824 200 0
-44 -200 824 0
-825 45 0
-825 201 0
-45 -201 825 0
-826 46 0
-826 202 0
-46 -202 826 0
-827 47 0
-827 203 0
-47 -203 827 0
-828 48 0
-828 204 0
-48 -204 828 0
-829 49 0
-829 205 0
-49 -205 829 0
-830 50 0
-830 206 0
-50 -206 830 0
-831 51 0
-831 207 0
-51 -207 831 0
-832 52 0
-832 208 0
-52 -208 832 0
-807 12607 0
-12607 12608 0
-808 -12607 0
-808 12608 0
-12608 12609 0
-809 -12608 0
-809 12609 0
-12609 12610 0
-810 -12609 0
-810 12610 0
-12610 12611 0
-811 -12610 0
-811 12611 0
-12611 12612 0
-812 -12611 0
-812 12612 0
-12612 12613 0
-813 -12612 0
-813 12613 0
-12613 12614 0
-814 -12613 0
-814 12614 0
-12614 12615 0
-815 -12614 0
-815 12615 0
-12615 12616 0
-816 -12615 0
-816 12616 0
-12616 12617 0
-817 -12616 0
-817 12617 0
-12617 12618 0
-818 -12617 0
-818 12618 0
-12618 12619 0
-819 -12618 0
-819 12619 0
-12619 12620 0
-820 -12619 0
-820 12620 0
-12620 12621 0
-821 -12620 0
-821 12621 0
-12621 12622 0
-822 -12621 0
-822 12622 0
-12622 12623 0
-823 -12622 0
-823 12623 0
-12623 12624 0
-824 -12623 0
-824 12624 0
-12624 12625 0
-825 -12624 0
-825 12625 0
-12625 12626 0
-826 -12625 0
-826 12626 0
-12626 12627 0
-827 -12626 0
-827 12627 0
-12627 12628 0
-828 -12627 0
-828 12628 0
-12628 12629 0
-829 -12628 0
-829 12629 0
-12629 12630 0
-830 -12629 0
-830 12630 0
-12630 12631 0
-831 -12630 0
-831 12631 0
-832 -12631 0
-807 2410 0
-808 2410 0
-809 2410 0
-810 2410 0
-811 2410 0
-812 2410 0
-813 2410 0
-814 2410 0
-815 2410 0
-816 2410 0
-817 2410 0
-818 2410 0
-819 2410 0
-820 2410 0
-821 2410 0
-822 2410 0
-823 2410 0
-824 2410 0
-825 2410 0
-826 2410 0
-827 2410 0
-828 2410 0
-829 2410 0
-830 2410 0
-831 2410 0
-832 2410 0
-2410 807 808 809 810 811 812 813 814 815 816 817 818 819 820 821 822 823 824 825 826 827 828 829 830 831 832 0
-833 27 0
-833 209 0
-27 -209 833 0
-834 28 0
-834 210 0
-28 -210 834 0
-835 29 0
-835 211 0
-29 -211 835 0
-836 30 0
-836 212 0
-30 -212 836 0
-837 31 0
-837 213 0
-31 -213 837 0
-838 32 0
-838 214 0
-32 -214 838 0
-839 33 0
-839 215 0
-33 -215 839 0
-840 34 0
-840 216 0
-34 -216 840 0
-841 35 0
-841 217 0
-35 -217 841 0
-842 36 0
-842 218 0
-36 -218 842 0
-843 37 0
-843 219 0
-37 -219 843 0
-844 38 0
-844 220 0
-38 -220 844 0
-845 39 0
-845 221 0
-39 -221 845 0
-846 40 0
-846 222 0
-40 -222 846 0
-847 41 0
-847 223 0
-41 -223 847 0
-848 42 0
-848 224 0
-42 -224 848 0
-849 43 0
-849 225 0
-43 -225 849 0
-850 44 0
-850 226 0
-44 -226 850 0
-851 45 0
-851 227 0
-45 -227 851 0
-852 46 0
-852 228 0
-46 -228 852 0
-853 47 0
-853 229 0
-47 -229 853 0
-854 48 0
-854 230 0
-48 -230 854 0
-855 49 0
-855 231 0
-49 -231 855 0
-856 50 0
-856 232 0
-50 -232 856 0
-857 51 0
-857 233 0
-51 -233 857 0
-858 52 0
-858 234 0
-52 -234 858 0
-833 12632 0
-12632 12633 0
-834 -12632 0
-834 12633 0
-12633 12634 0
-835 -12633 0
-835 12634 0
-12634 12635 0
-836 -12634 0
-836 12635 0
-12635 12636 0
-837 -12635 0
-837 12636 0
-12636 12637 0
-838 -12636 0
-838 12637 0
-12637 12638 0
-839 -12637 0
-839 12638 0
-12638 12639 0
-840 -12638 0
-840 12639 0
-12639 12640 0
-841 -12639 0
-841 12640 0
-12640 12641 0
-842 -12640 0
-842 12641 0
-12641 12642 0
-843 -12641 0
-843 12642 0
-12642 12643 0
-844 -12642 0
-844 12643 0
-12643 12644 0
-845 -12643 0
-845 12644 0
-12644 12645 0
-846 -12644 0
-846 12645 0
-12645 12646 0
-847 -12645 0
-847 12646 0
-12646 12647 0
-848 -12646 0
-848 12647 0
-12647 12648 0
-849 -12647 0
-849 12648 0
-12648 12649 0
-850 -12648 0
-850 12649 0
-12649 12650 0
-851 -12649 0
-851 12650 0
-12650 12651 0
-852 -12650 0
-852 12651 0
-12651 12652 0
-853 -12651 0
-853 12652 0
-12652 12653 0
-854 -12652 0
-854 12653 0
-12653 12654 0
-855 -12653 0
-855 12654 0
-12654 12655 0
-856 -12654 0
-856 12655 0
-12655 12656 0
-857 -12655 0
-857 12656 0
-858 -12656 0
-833 2411 0
-834 2411 0
-835 2411 0
-836 2411 0
-837 2411 0
-838 2411 0
-839 2411 0
-840 2411 0
-841 2411 0
-842 2411 0
-843 2411 0
-844 2411 0
-845 2411 0
-846 2411 0
-847 2411 0
-848 2411 0
-849 2411 0
-850 2411 0
-851 2411 0
-852 2411 0
-853 2411 0
-854 2411 0
-855 2411 0
-856 2411 0
-857 2411 0
-858 2411 0
-2411 833 834 835 836 837 838 839 840 841 842 843 844 845 846 847 848 849 850 851 852 853 854 855 856 857 858 0
-859 27 0
-859 235 0
-27 -235 859 0
-860 28 0
-860 236 0
-28 -236 860 0
-861 29 0
-861 237 0
-29 -237 861 0
-862 30 0
-862 238 0
-30 -238 862 0
-863 31 0
-863 239 0
-31 -239 863 0
-864 32 0
-864 240 0
-32 -240 864 0
-865 33 0
-865 241 0
-33 -241 865 0
-866 34 0
-866 242 0
-34 -242 866 0
-867 35 0
-867 243 0
-35 -243 867 0
-868 36 0
-868 244 0
-36 -244 868 0
-869 37 0
-869 245 0
-37 -245 869 0
-870 38 0
-870 246 0
-38 -246 870 0
-871 39 0
-871 247 0
-39 -247 871 0
-872 40 0
-872 248 0
-40 -248 872 0
-873 41 0
-873 249 0
-41 -249 873 0
-874 42 0
-874 250 0
-42 -250 874 0
-875 43 0
-875 251 0
-43 -251 875 0
-876 44 0
-876 252 0
-44 -252 876 0
-877 45 0
-877 253 0
-45 -253 877 0
-878 46 0
-878 254 0
-46 -254 878 0
-879 47 0
-879 255 0
-47 -255 879 0
-880 48 0
-880 256 0
-48 -256 880 0
-881 49 0
-881 257 0
-49 -257 881 0
-882 50 0
-882 258 0
-50 -258 882 0
-883 51 0
-883 259 0
-51 -259 883 0
-884 52 0
-884 260 0
-52 -260 884 0
-859 12657 0
-12657 12658 0
-860 -12657 0
-860 12658 0
-12658 12659 0
-861 -12658 0
-861 12659 0
-12659 12660 0
-862 -12659 0
-862 12660 0
-12660 12661 0
-863 -12660 0
-863 12661 0
-12661 12662 0
-864 -12661 0
-864 12662 0
-12662 12663 0
-865 -12662 0
-865 12663 0
-12663 12664 0
-866 -12663 0
-866 12664 0
-12664 12665 0
-867 -12664 0
-867 12665 0
-12665 12666 0
-868 -12665 0
-868 12666 0
-12666 12667 0
-869 -12666 0
-869 12667 0
-12667 12668 0
-870 -12667 0
-870 12668 0
-12668 12669 0
-871 -12668 0
-871 12669 0
-12669 12670 0
-872 -12669 0
-872 12670 0
-12670 12671 0
-873 -12670 0
-873 12671 0
-12671 12672 0
-874 -12671 0
-874 12672 0
-12672 12673 0
-875 -12672 0
-875 12673 0
-12673 12674 0
-876 -12673 0
-876 12674 0
-12674 12675 0
-877 -12674 0
-877 12675 0
-12675 12676 0
-878 -12675 0
-878 12676 0
-12676 12677 0
-879 -12676 0
-879 12677 0
-12677 12678 0
-880 -12677 0
-880 12678 0
-12678 12679 0
-881 -12678 0
-881 12679 0
-12679 12680 0
-882 -12679 0
-882 12680 0
-12680 12681 0
-883 -12680 0
-883 12681 0
-884 -12681 0
-859 2412 0
-860 2412 0
-861 2412 0
-862 2412 0
-863 2412 0
-864 2412 0
-865 2412 0
-866 2412 0
-867 2412 0
-868 2412 0
-869 2412 0
-870 2412 0
-871 2412 0
-872 2412 0
-873 2412 0
-874 2412 0
-875 2412 0
-876 2412 0
-877 2412 0
-878 2412 0
-879 2412 0
-880 2412 0
-881 2412 0
-882 2412 0
-883 2412 0
-884 2412 0
-2412 859 860 861 862 863 864 865 866 867 868 869 870 871 872 873 874 875 876 877 878 879 880 881 882 883 884 0
-885 27 0
-885 261 0
-27 -261 885 0
-886 28 0
-886 262 0
-28 -262 886 0
-887 29 0
-887 263 0
-29 -263 887 0
-888 30 0
-888 264 0
-30 -264 888 0
-889 31 0
-889 265 0
-31 -265 889 0
-890 32 0
-890 266 0
-32 -266 890 0
-891 33 0
-891 267 0
-33 -267 891 0
-892 34 0
-892 268 0
-34 -268 892 0
-893 35 0
-893 269 0
-35 -269 893 0
-894 36 0
-894 270 0
-36 -270 894 0
-895 37 0
-895 271 0
-37 -271 895 0
-896 38 0
-896 272 0
-38 -272 896 0
-897 39 0
-897 273 0
-39 -273 897 0
-898 40 0
-898 274 0
-40 -274 898 0
-899 41 0
-899 275 0
-41 -275 899 0
-900 42 0
-900 276 0
-42 -276 900 0
-901 43 0
-901 277 0
-43 -277 901 0
-902 44 0
-902 278 0
-44 -278 902 0
-903 45 0
-903 279 0
-45 -279 903 0
-904 46 0
-904 280 0
-46 -280 904 0
-905 47 0
-905 281 0
-47 -281 905 0
-906 48 0
-906 282 0
-48 -282 906 0
-907 49 0
-907 283 0
-49 -283 907 0
-908 50 0
-908 284 0
-50 -284 908 0
-909 51 0
-909 285 0
-51 -285 909 0
-910 52 0
-910 286 0
-52 -286 910 0
-885 12682 0
-12682 12683 0
-886 -12682 0
-886 12683 0
-12683 12684 0
-887 -12683 0
-887 12684 0
-12684 12685 0
-888 -12684 0
-888 12685 0
-12685 12686 0
-889 -12685 0
-889 12686 0
-12686 12687 0
-890 -12686 0
-890 12687 0
-12687 12688 0
-891 -12687 0
-891 12688 0
-12688 12689 0
-892 -12688 0
-892 12689 0
-12689 12690 0
-893 -12689 0
-893 12690 0
-12690 12691 0
-894 -12690 0
-894 12691 0
-12691 12692 0
-895 -12691 0
-895 12692 0
-12692 12693 0
-896 -12692 0
-896 12693 0
-12693 12694 0
-897 -12693 0
-897 12694 0
-12694 12695 0
-898 -12694 0
-898 12695 0
-12695 12696 0
-899 -12695 0
-899 12696 0
-12696 12697 0
-900 -12696 0
-900 12697 0
-12697 12698 0
-901 -12697 0
-901 12698 0
-12698 12699 0
-902 -12698 0
-902 12699 0
-12699 12700 0
-903 -12699 0
-903 12700 0
-12700 12701 0
-904 -12700 0
-904 12701 0
-12701 12702 0
-905 -12701 0
-905 12702 0
-12702 12703 0
-906 -12702 0
-906 12703 0
-12703 12704 0
-907 -12703 0
-907 12704 0
-12704 12705 0
-908 -12704 0
-908 12705 0
-12705 12706 0
-909 -12705 0
-909 12706 0
-910 -12706 0
-885 2413 0
-886 2413 0
-887 2413 0
-888 2413 0
-889 2413 0
-890 2413 0
-891 2413 0
-892 2413 0
-893 2413 0
-894 2413 0
-895 2413 0
-896 2413 0
-897 2413 0
-898 2413 0
-899 2413 0
-900 2413 0
-901 2413 0
-902 2413 0
-903 2413 0
-904 2413 0
-905 2413 0
-906 2413 0
-907 2413 0
-908 2413 0
-909 2413 0
-910 2413 0
-2413 885 886 887 888 889 890 891 892 893 894 895 896 897 898 899 900 901 902 903 904 905 906 907 908 909 910 0
-911 27 0
-911 287 0
-27 -287 911 0
-912 28 0
-912 288 0
-28 -288 912 0
-913 29 0
-913 289 0
-29 -289 913 0
-914 30 0
-914 290 0
-30 -290 914 0
-915 31 0
-915 291 0
-31 -291 915 0
-916 32 0
-916 292 0
-32 -292 916 0
-917 33 0
-917 293 0
-33 -293 917 0
-918 34 0
-918 294 0
-34 -294 918 0
-919 35 0
-919 295 0
-35 -295 919 0
-920 36 0
-920 296 0
-36 -296 920 0
-921 37 0
-921 297 0
-37 -297 921 0
-922 38 0
-922 298 0
-38 -298 922 0
-923 39 0
-923 299 0
-39 -299 923 0
-924 40 0
-924 300 0
-40 -300 924 0
-925 41 0
-925 301 0
-41 -301 925 0
-926 42 0
-926 302 0
-42 -302 926 0
-927 43 0
-927 303 0
-43 -303 927 0
-928 44 0
-928 304 0
-44 -304 928 0
-929 45 0
-929 305 0
-45 -305 929 0
-930 46 0
-930 306 0
-46 -306 930 0
-931 47 0
-931 307 0
-47 -307 931 0
-932 48 0
-932 308 0
-48 -308 932 0
-933 49 0
-933 309 0
-49 -309 933 0
-934 50 0
-934 310 0
-50 -310 934 0
-935 51 0
-935 311 0
-51 -311 935 0
-936 52 0
-936 312 0
-52 -312 936 0
-911 12707 0
-12707 12708 0
-912 -12707 0
-912 12708 0
-12708 12709 0
-913 -12708 0
-913 12709 0
-12709 12710 0
-914 -12709 0
-914 12710 0
-12710 12711 0
-915 -12710 0
-915 12711 0
-12711 12712 0
-916 -12711 0
-916 12712 0
-12712 12713 0
-917 -12712 0
-917 12713 0
-12713 12714 0
-918 -12713 0
-918 12714 0
-12714 12715 0
-919 -12714 0
-919 12715 0
-12715 12716 0
-920 -12715 0
-920 12716 0
-12716 12717 0
-921 -12716 0
-921 12717 0
-12717 12718 0
-922 -12717 0
-922 12718 0
-12718 12719 0
-923 -12718 0
-923 12719 0
-12719 12720 0
-924 -12719 0
-924 12720 0
-12720 12721 0
-925 -12720 0
-925 12721 0
-12721 12722 0
-926 -12721 0
-926 12722 0
-12722 12723 0
-927 -12722 0
-927 12723 0
-12723 12724 0
-928 -12723 0
-928 12724 0
-12724 12725 0
-929 -12724 0
-929 12725 0
-12725 12726 0
-930 -12725 0
-930 12726 0
-12726 12727 0
-931 -12726 0
-931 12727 0
-12727 12728 0
-932 -12727 0
-932 12728 0
-12728 12729 0
-933 -12728 0
-933 12729 0
-12729 12730 0
-934 -12729 0
-934 12730 0
-12730 12731 0
-935 -12730 0
-935 12731 0
-936 -12731 0
-911 2414 0
-912 2414 0
-913 2414 0
-914 2414 0
-915 2414 0
-916 2414 0
-917 2414 0
-918 2414 0
-919 2414 0
-920 2414 0
-921 2414 0
-922 2414 0
-923 2414 0
-924 2414 0
-925 2414 0
-926 2414 0
-927 2414 0
-928 2414 0
-929 2414 0
-930 2414 0
-931 2414 0
-932 2414 0
-933 2414 0
-934 2414 0
-935 2414 0
-936 2414 0
-2414 911 912 913 914 915 916 917 918 919 920 921 922 923 924 925 926 927 928 929 930 931 932 933 934 935 936 0
-937 27 0
-937 313 0
-27 -313 937 0
-938 28 0
-938 314 0
-28 -314 938 0
-939 29 0
-939 315 0
-29 -315 939 0
-940 30 0
-940 316 0
-30 -316 940 0
-941 31 0
-941 317 0
-31 -317 941 0
-942 32 0
-942 318 0
-32 -318 942 0
-943 33 0
-943 319 0
-33 -319 943 0
-944 34 0
-944 320 0
-34 -320 944 0
-945 35 0
-945 321 0
-35 -321 945 0
-946 36 0
-946 322 0
-36 -322 946 0
-947 37 0
-947 323 0
-37 -323 947 0
-948 38 0
-948 324 0
-38 -324 948 0
-949 39 0
-949 325 0
-39 -325 949 0
-950 40 0
-950 326 0
-40 -326 950 0
-951 41 0
-951 327 0
-41 -327 951 0
-952 42 0
-952 328 0
-42 -328 952 0
-953 43 0
-953 329 0
-43 -329 953 0
-954 44 0
-954 330 0
-44 -330 954 0
-955 45 0
-955 331 0
-45 -331 955 0
-956 46 0
-956 332 0
-46 -332 956 0
-957 47 0
-957 333 0
-47 -333 957 0
-958 48 0
-958 334 0
-48 -334 958 0
-959 49 0
-959 335 0
-49 -335 959 0
-960 50 0
-960 336 0
-50 -336 960 0
-961 51 0
-961 337 0
-51 -337 961 0
-962 52 0
-962 338 0
-52 -338 962 0
-937 12732 0
-12732 12733 0
-938 -12732 0
-938 12733 0
-12733 12734 0
-939 -12733 0
-939 12734 0
-12734 12735 0
-940 -12734 0
-940 12735 0
-12735 12736 0
-941 -12735 0
-941 12736 0
-12736 12737 0
-942 -12736 0
-942 12737 0
-12737 12738 0
-943 -12737 0
-943 12738 0
-12738 12739 0
-944 -12738 0
-944 12739 0
-12739 12740 0
-945 -12739 0
-945 12740 0
-12740 12741 0
-946 -12740 0
-946 12741 0
-12741 12742 0
-947 -12741 0
-947 12742 0
-12742 12743 0
-948 -12742 0
-948 12743 0
-12743 12744 0
-949 -12743 0
-949 12744 0
-12744 12745 0
-950 -12744 0
-950 12745 0
-12745 12746 0
-951 -12745 0
-951 12746 0
-12746 12747 0
-952 -12746 0
-952 12747 0
-12747 12748 0
-953 -12747 0
-953 12748 0
-12748 12749 0
-954 -12748 0
-954 12749 0
-12749 12750 0
-955 -12749 0
-955 12750 0
-12750 12751 0
-956 -12750 0
-956 12751 0
-12751 12752 0
-957 -12751 0
-957 12752 0
-12752 12753 0
-958 -12752 0
-958 12753 0
-12753 12754 0
-959 -12753 0
-959 12754 0
-12754 12755 0
-960 -12754 0
-960 12755 0
-12755 12756 0
-961 -12755 0
-961 12756 0
-962 -12756 0
-937 2415 0
-938 2415 0
-939 2415 0
-940 2415 0
-941 2415 0
-942 2415 0
-943 2415 0
-944 2415 0
-945 2415 0
-946 2415 0
-947 2415 0
-948 2415 0
-949 2415 0
-950 2415 0
-951 2415 0
-952 2415 0
-953 2415 0
-954 2415 0
-955 2415 0
-956 2415 0
-957 2415 0
-958 2415 0
-959 2415 0
-960 2415 0
-961 2415 0
-962 2415 0
-2415 937 938 939 940 941 942 943 944 945 946 947 948 949 950 951 952 953 954 955 956 957 958 959 960 961 962 0
-963 53 0
-963 79 0
-53 -79 963 0
-964 54 0
-964 80 0
-54 -80 964 0
-965 55 0
-965 81 0
-55 -81 965 0
-966 56 0
-966 82 0
-56 -82 966 0
-967 57 0
-967 83 0
-57 -83 967 0
-968 58 0
-968 84 0
-58 -84 968 0
-969 59 0
-969 85 0
-59 -85 969 0
-970 60 0
-970 86 0
-60 -86 970 0
-971 61 0
-971 87 0
-61 -87 971 0
-972 62 0
-972 88 0
-62 -88 972 0
-973 63 0
-973 89 0
-63 -89 973 0
-974 64 0
-974 90 0
-64 -90 974 0
-975 65 0
-975 91 0
-65 -91 975 0
-976 66 0
-976 92 0
-66 -92 976 0
-977 67 0
-977 93 0
-67 -93 977 0
-978 68 0
-978 94 0
-68 -94 978 0
-979 69 0
-979 95 0
-69 -95 979 0
-980 70 0
-980 96 0
-70 -96 980 0
-981 71 0
-981 97 0
-71 -97 981 0
-982 72 0
-982 98 0
-72 -98 982 0
-983 73 0
-983 99 0
-73 -99 983 0
-984 74 0
-984 100 0
-74 -100 984 0
-985 75 0
-985 101 0
-75 -101 985 0
-986 76 0
-986 102 0
-76 -102 986 0
-987 77 0
-987 103 0
-77 -103 987 0
-988 78 0
-988 104 0
-78 -104 988 0
-963 12757 0
-12757 12758 0
-964 -12757 0
-964 12758 0
-12758 12759 0
-965 -12758 0
-965 12759 0
-12759 12760 0
-966 -12759 0
-966 12760 0
-12760 12761 0
-967 -12760 0
-967 12761 0
-12761 12762 0
-968 -12761 0
-968 12762 0
-12762 12763 0
-969 -12762 0
-969 12763 0
-12763 12764 0
-970 -12763 0
-970 12764 0
-12764 12765 0
-971 -12764 0
-971 12765 0
-12765 12766 0
-972 -12765 0
-972 12766 0
-12766 12767 0
-973 -12766 0
-973 12767 0
-12767 12768 0
-974 -12767 0
-974 12768 0
-12768 12769 0
-975 -12768 0
-975 12769 0
-12769 12770 0
-976 -12769 0
-976 12770 0
-12770 12771 0
-977 -12770 0
-977 12771 0
-12771 12772 0
-978 -12771 0
-978 12772 0
-12772 12773 0
-979 -12772 0
-979 12773 0
-12773 12774 0
-980 -12773 0
-980 12774 0
-12774 12775 0
-981 -12774 0
-981 12775 0
-12775 12776 0
-982 -12775 0
-982 12776 0
-12776 12777 0
-983 -12776 0
-983 12777 0
-12777 12778 0
-984 -12777 0
-984 12778 0
-12778 12779 0
-985 -12778 0
-985 12779 0
-12779 12780 0
-986 -12779 0
-986 12780 0
-12780 12781 0
-987 -12780 0
-987 12781 0
-988 -12781 0
-963 2416 0
-964 2416 0
-965 2416 0
-966 2416 0
-967 2416 0
-968 2416 0
-969 2416 0
-970 2416 0
-971 2416 0
-972 2416 0
-973 2416 0
-974 2416 0
-975 2416 0
-976 2416 0
-977 2416 0
-978 2416 0
-979 2416 0
-980 2416 0
-981 2416 0
-982 2416 0
-983 2416 0
-984 2416 0
-985 2416 0
-986 2416 0
-987 2416 0
-988 2416 0
-2416 963 964 965 966 967 968 969 970 971 972 973 974 975 976 977 978 979 980 981 982 983 984 985 986 987 988 0
-989 53 0
-989 105 0
-53 -105 989 0
-990 54 0
-990 106 0
-54 -106 990 0
-991 55 0
-991 107 0
-55 -107 991 0
-992 56 0
-992 108 0
-56 -108 992 0
-993 57 0
-993 109 0
-57 -109 993 0
-994 58 0
-994 110 0
-58 -110 994 0
-995 59 0
-995 111 0
-59 -111 995 0
-996 60 0
-996 112 0
-60 -112 996 0
-997 61 0
-997 113 0
-61 -113 997 0
-998 62 0
-998 114 0
-62 -114 998 0
-999 63 0
-999 115 0
-63 -115 999 0
-1000 64 0
-1000 116 0
-64 -116 1000 0
-1001 65 0
-1001 117 0
-65 -117 1001 0
-1002 66 0
-1002 118 0
-66 -118 1002 0
-1003 67 0
-1003 119 0
-67 -119 1003 0
-1004 68 0
-1004 120 0
-68 -120 1004 0
-1005 69 0
-1005 121 0
-69 -121 1005 0
-1006 70 0
-1006 122 0
-70 -122 1006 0
-1007 71 0
-1007 123 0
-71 -123 1007 0
-1008 72 0
-1008 124 0
-72 -124 1008 0
-1009 73 0
-1009 125 0
-73 -125 1009 0
-1010 74 0
-1010 126 0
-74 -126 1010 0
-1011 75 0
-1011 127 0
-75 -127 1011 0
-1012 76 0
-1012 128 0
-76 -128 1012 0
-1013 77 0
-1013 129 0
-77 -129 1013 0
-1014 78 0
-1014 130 0
-78 -130 1014 0
-989 12782 0
-12782 12783 0
-990 -12782 0
-990 12783 0
-12783 12784 0
-991 -12783 0
-991 12784 0
-12784 12785 0
-992 -12784 0
-992 12785 0
-12785 12786 0
-993 -12785 0
-993 12786 0
-12786 12787 0
-994 -12786 0
-994 12787 0
-12787 12788 0
-995 -12787 0
-995 12788 0
-12788 12789 0
-996 -12788 0
-996 12789 0
-12789 12790 0
-997 -12789 0
-997 12790 0
-12790 12791 0
-998 -12790 0
-998 12791 0
-12791 12792 0
-999 -12791 0
-999 12792 0
-12792 12793 0
-1000 -12792 0
-1000 12793 0
-12793 12794 0
-1001 -12793 0
-1001 12794 0
-12794 12795 0
-1002 -12794 0
-1002 12795 0
-12795 12796 0
-1003 -12795 0
-1003 12796 0
-12796 12797 0
-1004 -12796 0
-1004 12797 0
-12797 12798 0
-1005 -12797 0
-1005 12798 0
-12798 12799 0
-1006 -12798 0
-1006 12799 0
-12799 12800 0
-1007 -12799 0
-1007 12800 0
-12800 12801 0
-1008 -12800 0
-1008 12801 0
-12801 12802 0
-1009 -12801 0
-1009 12802 0
-12802 12803 0
-1010 -12802 0
-1010 12803 0
-12803 12804 0
-1011 -12803 0
-1011 12804 0
-12804 12805 0
-1012 -12804 0
-1012 12805 0
-12805 12806 0
-1013 -12805 0
-1013 12806 0
-1014 -12806 0
-989 2417 0
-990 2417 0
-991 2417 0
-992 2417 0
-993 2417 0
-994 2417 0
-995 2417 0
-996 2417 0
-997 2417 0
-998 2417 0
-999 2417 0
-1000 2417 0
-1001 2417 0
-1002 2417 0
-1003 2417 0
-1004 2417 0
-1005 2417 0
-1006 2417 0
-1007 2417 0
-1008 2417 0
-1009 2417 0
-1010 2417 0
-1011 2417 0
-1012 2417 0
-1013 2417 0
-1014 2417 0
-2417 989 990 991 992 993 994 995 996 997 998 999 1000 1001 1002 1003 1004 1005 1006 1007 1008 1009 1010 1011 1012 1013 1014 0
-1015 53 0
-1015 131 0
-53 -131 1015 0
-1016 54 0
-1016 132 0
-54 -132 1016 0
-1017 55 0
-1017 133 0
-55 -133 1017 0
-1018 56 0
-1018 134 0
-56 -134 1018 0
-1019 57 0
-1019 135 0
-57 -135 1019 0
-1020 58 0
-1020 136 0
-58 -136 1020 0
-1021 59 0
-1021 137 0
-59 -137 1021 0
-1022 60 0
-1022 138 0
-60 -138 1022 0
-1023 61 0
-1023 139 0
-61 -139 1023 0
-1024 62 0
-1024 140 0
-62 -140 1024 0
-1025 63 0
-1025 141 0
-63 -141 1025 0
-1026 64 0
-1026 142 0
-64 -142 1026 0
-1027 65 0
-1027 143 0
-65 -143 1027 0
-1028 66 0
-1028 144 0
-66 -144 1028 0
-1029 67 0
-1029 145 0
-67 -145 1029 0
-1030 68 0
-1030 146 0
-68 -146 1030 0
-1031 69 0
-1031 147 0
-69 -147 1031 0
-1032 70 0
-1032 148 0
-70 -148 1032 0
-1033 71 0
-1033 149 0
-71 -149 1033 0
-1034 72 0
-1034 150 0
-72 -150 1034 0
-1035 73 0
-1035 151 0
-73 -151 1035 0
-1036 74 0
-1036 152 0
-74 -152 1036 0
-1037 75 0
-1037 153 0
-75 -153 1037 0
-1038 76 0
-1038 154 0
-76 -154 1038 0
-1039 77 0
-1039 155 0
-77 -155 1039 0
-1040 78 0
-1040 156 0
-78 -156 1040 0
-1015 12807 0
-12807 12808 0
-1016 -12807 0
-1016 12808 0
-12808 12809 0
-1017 -12808 0
-1017 12809 0
-12809 12810 0
-1018 -12809 0
-1018 12810 0
-12810 12811 0
-1019 -12810 0
-1019 12811 0
-12811 12812 0
-1020 -12811 0
-1020 12812 0
-12812 12813 0
-1021 -12812 0
-1021 12813 0
-12813 12814 0
-1022 -12813 0
-1022 12814 0
-12814 12815 0
-1023 -12814 0
-1023 12815 0
-12815 12816 0
-1024 -12815 0
-1024 12816 0
-12816 12817 0
-1025 -12816 0
-1025 12817 0
-12817 12818 0
-1026 -12817 0
-1026 12818 0
-12818 12819 0
-1027 -12818 0
-1027 12819 0
-12819 12820 0
-1028 -12819 0
-1028 12820 0
-12820 12821 0
-1029 -12820 0
-1029 12821 0
-12821 12822 0
-1030 -12821 0
-1030 12822 0
-12822 12823 0
-1031 -12822 0
-1031 12823 0
-12823 12824 0
-1032 -12823 0
-1032 12824 0
-12824 12825 0
-1033 -12824 0
-1033 12825 0
-12825 12826 0
-1034 -12825 0
-1034 12826 0
-12826 12827 0
-1035 -12826 0
-1035 12827 0
-12827 12828 0
-1036 -12827 0
-1036 12828 0
-12828 12829 0
-1037 -12828 0
-1037 12829 0
-12829 12830 0
-1038 -12829 0
-1038 12830 0
-12830 12831 0
-1039 -12830 0
-1039 12831 0
-1040 -12831 0
-1015 2418 0
-1016 2418 0
-1017 2418 0
-1018 2418 0
-1019 2418 0
-1020 2418 0
-1021 2418 0
-1022 2418 0
-1023 2418 0
-1024 2418 0
-1025 2418 0
-1026 2418 0
-1027 2418 0
-1028 2418 0
-1029 2418 0
-1030 2418 0
-1031 2418 0
-1032 2418 0
-1033 2418 0
-1034 2418 0
-1035 2418 0
-1036 2418 0
-1037 2418 0
-1038 2418 0
-1039 2418 0
-1040 2418 0
-2418 1015 1016 1017 1018 1019 1020 1021 1022 1023 1024 1025 1026 1027 1028 1029 1030 1031 1032 1033 1034 1035 1036 1037 1038 1039 1040 0
-1041 53 0
-1041 157 0
-53 -157 1041 0
-1042 54 0
-1042 158 0
-54 -158 1042 0
-1043 55 0
-1043 159 0
-55 -159 1043 0
-1044 56 0
-1044 160 0
-56 -160 1044 0
-1045 57 0
-1045 161 0
-57 -161 1045 0
-1046 58 0
-1046 162 0
-58 -162 1046 0
-1047 59 0
-1047 163 0
-59 -163 1047 0
-1048 60 0
-1048 164 0
-60 -164 1048 0
-1049 61 0
-1049 165 0
-61 -165 1049 0
-1050 62 0
-1050 166 0
-62 -166 1050 0
-1051 63 0
-1051 167 0
-63 -167 1051 0
-1052 64 0
-1052 168 0
-64 -168 1052 0
-1053 65 0
-1053 169 0
-65 -169 1053 0
-1054 66 0
-1054 170 0
-66 -170 1054 0
-1055 67 0
-1055 171 0
-67 -171 1055 0
-1056 68 0
-1056 172 0
-68 -172 1056 0
-1057 69 0
-1057 173 0
-69 -173 1057 0
-1058 70 0
-1058 174 0
-70 -174 1058 0
-1059 71 0
-1059 175 0
-71 -175 1059 0
-1060 72 0
-1060 176 0
-72 -176 1060 0
-1061 73 0
-1061 177 0
-73 -177 1061 0
-1062 74 0
-1062 178 0
-74 -178 1062 0
-1063 75 0
-1063 179 0
-75 -179 1063 0
-1064 76 0
-1064 180 0
-76 -180 1064 0
-1065 77 0
-1065 181 0
-77 -181 1065 0
-1066 78 0
-1066 182 0
-78 -182 1066 0
-1041 12832 0
-12832 12833 0
-1042 -12832 0
-1042 12833 0
-12833 12834 0
-1043 -12833 0
-1043 12834 0
-12834 12835 0
-1044 -12834 0
-1044 12835 0
-12835 12836 0
-1045 -12835 0
-1045 12836 0
-12836 12837 0
-1046 -12836 0
-1046 12837 0
-12837 12838 0
-1047 -12837 0
-1047 12838 0
-12838 12839 0
-1048 -12838 0
-1048 12839 0
-12839 12840 0
-1049 -12839 0
-1049 12840 0
-12840 12841 0
-1050 -12840 0
-1050 12841 0
-12841 12842 0
-1051 -12841 0
-1051 12842 0
-12842 12843 0
-1052 -12842 0
-1052 12843 0
-12843 12844 0
-1053 -12843 0
-1053 12844 0
-12844 12845 0
-1054 -12844 0
-1054 12845 0
-12845 12846 0
-1055 -12845 0
-1055 12846 0
-12846 12847 0
-1056 -12846 0
-1056 12847 0
-12847 12848 0
-1057 -12847 0
-1057 12848 0
-12848 12849 0
-1058 -12848 0
-1058 12849 0
-12849 12850 0
-1059 -12849 0
-1059 12850 0
-12850 12851 0
-1060 -12850 0
-1060 12851 0
-12851 12852 0
-1061 -12851 0
-1061 12852 0
-12852 12853 0
-1062 -12852 0
-1062 12853 0
-12853 12854 0
-1063 -12853 0
-1063 12854 0
-12854 12855 0
-1064 -12854 0
-1064 12855 0
-12855 12856 0
-1065 -12855 0
-1065 12856 0
-1066 -12856 0
-1041 2419 0
-1042 2419 0
-1043 2419 0
-1044 2419 0
-1045 2419 0
-1046 2419 0
-1047 2419 0
-1048 2419 0
-1049 2419 0
-1050 2419 0
-1051 2419 0
-1052 2419 0
-1053 2419 0
-1054 2419 0
-1055 2419 0
-1056 2419 0
-1057 2419 0
-1058 2419 0
-1059 2419 0
-1060 2419 0
-1061 2419 0
-1062 2419 0
-1063 2419 0
-1064 2419 0
-1065 2419 0
-1066 2419 0
-2419 1041 1042 1043 1044 1045 1046 1047 1048 1049 1050 1051 1052 1053 1054 1055 1056 1057 1058 1059 1060 1061 1062 1063 1064 1065 1066 0
-1067 53 0
-1067 183 0
-53 -183 1067 0
-1068 54 0
-1068 184 0
-54 -184 1068 0
-1069 55 0
-1069 185 0
-55 -185 1069 0
-1070 56 0
-1070 186 0
-56 -186 1070 0
-1071 57 0
-1071 187 0
-57 -187 1071 0
-1072 58 0
-1072 188 0
-58 -188 1072 0
-1073 59 0
-1073 189 0
-59 -189 1073 0
-1074 60 0
-1074 190 0
-60 -190 1074 0
-1075 61 0
-1075 191 0
-61 -191 1075 0
-1076 62 0
-1076 192 0
-62 -192 1076 0
-1077 63 0
-1077 193 0
-63 -193 1077 0
-1078 64 0
-1078 194 0
-64 -194 1078 0
-1079 65 0
-1079 195 0
-65 -195 1079 0
-1080 66 0
-1080 196 0
-66 -196 1080 0
-1081 67 0
-1081 197 0
-67 -197 1081 0
-1082 68 0
-1082 198 0
-68 -198 1082 0
-1083 69 0
-1083 199 0
-69 -199 1083 0
-1084 70 0
-1084 200 0
-70 -200 1084 0
-1085 71 0
-1085 201 0
-71 -201 1085 0
-1086 72 0
-1086 202 0
-72 -202 1086 0
-1087 73 0
-1087 203 0
-73 -203 1087 0
-1088 74 0
-1088 204 0
-74 -204 1088 0
-1089 75 0
-1089 205 0
-75 -205 1089 0
-1090 76 0
-1090 206 0
-76 -206 1090 0
-1091 77 0
-1091 207 0
-77 -207 1091 0
-1092 78 0
-1092 208 0
-78 -208 1092 0
-1067 12857 0
-12857 12858 0
-1068 -12857 0
-1068 12858 0
-12858 12859 0
-1069 -12858 0
-1069 12859 0
-12859 12860 0
-1070 -12859 0
-1070 12860 0
-12860 12861 0
-1071 -12860 0
-1071 12861 0
-12861 12862 0
-1072 -12861 0
-1072 12862 0
-12862 12863 0
-1073 -12862 0
-1073 12863 0
-12863 12864 0
-1074 -12863 0
-1074 12864 0
-12864 12865 0
-1075 -12864 0
-1075 12865 0
-12865 12866 0
-1076 -12865 0
-1076 12866 0
-12866 12867 0
-1077 -12866 0
-1077 12867 0
-12867 12868 0
-1078 -12867 0
-1078 12868 0
-12868 12869 0
-1079 -12868 0
-1079 12869 0
-12869 12870 0
-1080 -12869 0
-1080 12870 0
-12870 12871 0
-1081 -12870 0
-1081 12871 0
-12871 12872 0
-1082 -12871 0
-1082 12872 0
-12872 12873 0
-1083 -12872 0
-1083 12873 0
-12873 12874 0
-1084 -12873 0
-1084 12874 0
-12874 12875 0
-1085 -12874 0
-1085 12875 0
-12875 12876 0
-1086 -12875 0
-1086 12876 0
-12876 12877 0
-1087 -12876 0
-1087 12877 0
-12877 12878 0
-1088 -12877 0
-1088 12878 0
-12878 12879 0
-1089 -12878 0
-1089 12879 0
-12879 12880 0
-1090 -12879 0
-1090 12880 0
-12880 12881 0
-1091 -12880 0
-1091 12881 0
-1092 -12881 0
-1067 2420 0
-1068 2420 0
-1069 2420 0
-1070 2420 0
-1071 2420 0
-1072 2420 0
-1073 2420 0
-1074 2420 0
-1075 2420 0
-1076 2420 0
-1077 2420 0
-1078 2420 0
-1079 2420 0
-1080 2420 0
-1081 2420 0
-1082 2420 0
-1083 2420 0
-1084 2420 0
-1085 2420 0
-1086 2420 0
-1087 2420 0
-1088 2420 0
-1089 2420 0
-1090 2420 0
-1091 2420 0
-1092 2420 0
-2420 1067 1068 1069 1070 1071 1072 1073 1074 1075 1076 1077 1078 1079 1080 1081 1082 1083 1084 1085 1086 1087 1088 1089 1090 1091 1092 0
-1093 53 0
-1093 209 0
-53 -209 1093 0
-1094 54 0
-1094 210 0
-54 -210 1094 0
-1095 55 0
-1095 211 0
-55 -211 1095 0
-1096 56 0
-1096 212 0
-56 -212 1096 0
-1097 57 0
-1097 213 0
-57 -213 1097 0
-1098 58 0
-1098 214 0
-58 -214 1098 0
-1099 59 0
-1099 215 0
-59 -215 1099 0
-1100 60 0
-1100 216 0
-60 -216 1100 0
-1101 61 0
-1101 217 0
-61 -217 1101 0
-1102 62 0
-1102 218 0
-62 -218 1102 0
-1103 63 0
-1103 219 0
-63 -219 1103 0
-1104 64 0
-1104 220 0
-64 -220 1104 0
-1105 65 0
-1105 221 0
-65 -221 1105 0
-1106 66 0
-1106 222 0
-66 -222 1106 0
-1107 67 0
-1107 223 0
-67 -223 1107 0
-1108 68 0
-1108 224 0
-68 -224 1108 0
-1109 69 0
-1109 225 0
-69 -225 1109 0
-1110 70 0
-1110 226 0
-70 -226 1110 0
-1111 71 0
-1111 227 0
-71 -227 1111 0
-1112 72 0
-1112 228 0
-72 -228 1112 0
-1113 73 0
-1113 229 0
-73 -229 1113 0
-1114 74 0
-1114 230 0
-74 -230 1114 0
-1115 75 0
-1115 231 0
-75 -231 1115 0
-1116 76 0
-1116 232 0
-76 -232 1116 0
-1117 77 0
-1117 233 0
-77 -233 1117 0
-1118 78 0
-1118 234 0
-78 -234 1118 0
-1093 12882 0
-12882 12883 0
-1094 -12882 0
-1094 12883 0
-12883 12884 0
-1095 -12883 0
-1095 12884 0
-12884 12885 0
-1096 -12884 0
-1096 12885 0
-12885 12886 0
-1097 -12885 0
-1097 12886 0
-12886 12887 0
-1098 -12886 0
-1098 12887 0
-12887 12888 0
-1099 -12887 0
-1099 12888 0
-12888 12889 0
-1100 -12888 0
-1100 12889 0
-12889 12890 0
-1101 -12889 0
-1101 12890 0
-12890 12891 0
-1102 -12890 0
-1102 12891 0
-12891 12892 0
-1103 -12891 0
-1103 12892 0
-12892 12893 0
-1104 -12892 0
-1104 12893 0
-12893 12894 0
-1105 -12893 0
-1105 12894 0
-12894 12895 0
-1106 -12894 0
-1106 12895 0
-12895 12896 0
-1107 -12895 0
-1107 12896 0
-12896 12897 0
-1108 -12896 0
-1108 12897 0
-12897 12898 0
-1109 -12897 0
-1109 12898 0
-12898 12899 0
-1110 -12898 0
-1110 12899 0
-12899 12900 0
-1111 -12899 0
-1111 12900 0
-12900 12901 0
-1112 -12900 0
-1112 12901 0
-12901 12902 0
-1113 -12901 0
-1113 12902 0
-12902 12903 0
-1114 -12902 0
-1114 12903 0
-12903 12904 0
-1115 -12903 0
-1115 12904 0
-12904 12905 0
-1116 -12904 0
-1116 12905 0
-12905 12906 0
-1117 -12905 0
-1117 12906 0
-1118 -12906 0
-1093 2421 0
-1094 2421 0
-1095 2421 0
-1096 2421 0
-1097 2421 0
-1098 2421 0
-1099 2421 0
-1100 2421 0
-1101 2421 0
-1102 2421 0
-1103 2421 0
-1104 2421 0
-1105 2421 0
-1106 2421 0
-1107 2421 0
-1108 2421 0
-1109 2421 0
-1110 2421 0
-1111 2421 0
-1112 2421 0
-1113 2421 0
-1114 2421 0
-1115 2421 0
-1116 2421 0
-1117 2421 0
-1118 2421 0
-2421 1093 1094 1095 1096 1097 1098 1099 1100 1101 1102 1103 1104 1105 1106 1107 1108 1109 1110 1111 1112 1113 1114 1115 1116 1117 1118 0
-1119 53 0
-1119 235 0
-53 -235 1119 0
-1120 54 0
-1120 236 0
-54 -236 1120 0
-1121 55 0
-1121 237 0
-55 -237 1121 0
-1122 56 0
-1122 238 0
-56 -238 1122 0
-1123 57 0
-1123 239 0
-57 -239 1123 0
-1124 58 0
-1124 240 0
-58 -240 1124 0
-1125 59 0
-1125 241 0
-59 -241 1125 0
-1126 60 0
-1126 242 0
-60 -242 1126 0
-1127 61 0
-1127 243 0
-61 -243 1127 0
-1128 62 0
-1128 244 0
-62 -244 1128 0
-1129 63 0
-1129 245 0
-63 -245 1129 0
-1130 64 0
-1130 246 0
-64 -246 1130 0
-1131 65 0
-1131 247 0
-65 -247 1131 0
-1132 66 0
-1132 248 0
-66 -248 1132 0
-1133 67 0
-1133 249 0
-67 -249 1133 0
-1134 68 0
-1134 250 0
-68 -250 1134 0
-1135 69 0
-1135 251 0
-69 -251 1135 0
-1136 70 0
-1136 252 0
-70 -252 1136 0
-1137 71 0
-1137 253 0
-71 -253 1137 0
-1138 72 0
-1138 254 0
-72 -254 1138 0
-1139 73 0
-1139 255 0
-73 -255 1139 0
-1140 74 0
-1140 256 0
-74 -256 1140 0
-1141 75 0
-1141 257 0
-75 -257 1141 0
-1142 76 0
-1142 258 0
-76 -258 1142 0
-1143 77 0
-1143 259 0
-77 -259 1143 0
-1144 78 0
-1144 260 0
-78 -260 1144 0
-1119 12907 0
-12907 12908 0
-1120 -12907 0
-1120 12908 0
-12908 12909 0
-1121 -12908 0
-1121 12909 0
-12909 12910 0
-1122 -12909 0
-1122 12910 0
-12910 12911 0
-1123 -12910 0
-1123 12911 0
-12911 12912 0
-1124 -12911 0
-1124 12912 0
-12912 12913 0
-1125 -12912 0
-1125 12913 0
-12913 12914 0
-1126 -12913 0
-1126 12914 0
-12914 12915 0
-1127 -12914 0
-1127 12915 0
-12915 12916 0
-1128 -12915 0
-1128 12916 0
-12916 12917 0
-1129 -12916 0
-1129 12917 0
-12917 12918 0
-1130 -12917 0
-1130 12918 0
-12918 12919 0
-1131 -12918 0
-1131 12919 0
-12919 12920 0
-1132 -12919 0
-1132 12920 0
-12920 12921 0
-1133 -12920 0
-1133 12921 0
-12921 12922 0
-1134 -12921 0
-1134 12922 0
-12922 12923 0
-1135 -12922 0
-1135 12923 0
-12923 12924 0
-1136 -12923 0
-1136 12924 0
-12924 12925 0
-1137 -12924 0
-1137 12925 0
-12925 12926 0
-1138 -12925 0
-1138 12926 0
-12926 12927 0
-1139 -12926 0
-1139 12927 0
-12927 12928 0
-1140 -12927 0
-1140 12928 0
-12928 12929 0
-1141 -12928 0
-1141 12929 0
-12929 12930 0
-1142 -12929 0
-1142 12930 0
-12930 12931 0
-1143 -12930 0
-1143 12931 0
-1144 -12931 0
-1119 2422 0
-1120 2422 0
-1121 2422 0
-1122 2422 0
-1123 2422 0
-1124 2422 0
-1125 2422 0
-1126 2422 0
-1127 2422 0
-1128 2422 0
-1129 2422 0
-1130 2422 0
-1131 2422 0
-1132 2422 0
-1133 2422 0
-1134 2422 0
-1135 2422 0
-1136 2422 0
-1137 2422 0
-1138 2422 0
-1139 2422 0
-1140 2422 0
-1141 2422 0
-1142 2422 0
-1143 2422 0
-1144 2422 0
-2422 1119 1120 1121 1122 1123 1124 1125 1126 1127 1128 1129 1130 1131 1132 1133 1134 1135 1136 1137 1138 1139 1140 1141 1142 1143 1144 0
-1145 53 0
-1145 261 0
-53 -261 1145 0
-1146 54 0
-1146 262 0
-54 -262 1146 0
-1147 55 0
-1147 263 0
-55 -263 1147 0
-1148 56 0
-1148 264 0
-56 -264 1148 0
-1149 57 0
-1149 265 0
-57 -265 1149 0
-1150 58 0
-1150 266 0
-58 -266 1150 0
-1151 59 0
-1151 267 0
-59 -267 1151 0
-1152 60 0
-1152 268 0
-60 -268 1152 0
-1153 61 0
-1153 269 0
-61 -269 1153 0
-1154 62 0
-1154 270 0
-62 -270 1154 0
-1155 63 0
-1155 271 0
-63 -271 1155 0
-1156 64 0
-1156 272 0
-64 -272 1156 0
-1157 65 0
-1157 273 0
-65 -273 1157 0
-1158 66 0
-1158 274 0
-66 -274 1158 0
-1159 67 0
-1159 275 0
-67 -275 1159 0
-1160 68 0
-1160 276 0
-68 -276 1160 0
-1161 69 0
-1161 277 0
-69 -277 1161 0
-1162 70 0
-1162 278 0
-70 -278 1162 0
-1163 71 0
-1163 279 0
-71 -279 1163 0
-1164 72 0
-1164 280 0
-72 -280 1164 0
-1165 73 0
-1165 281 0
-73 -281 1165 0
-1166 74 0
-1166 282 0
-74 -282 1166 0
-1167 75 0
-1167 283 0
-75 -283 1167 0
-1168 76 0
-1168 284 0
-76 -284 1168 0
-1169 77 0
-1169 285 0
-77 -285 1169 0
-1170 78 0
-1170 286 0
-78 -286 1170 0
-1145 12932 0
-12932 12933 0
-1146 -12932 0
-1146 12933 0
-12933 12934 0
-1147 -12933 0
-1147 12934 0
-12934 12935 0
-1148 -12934 0
-1148 12935 0
-12935 12936 0
-1149 -12935 0
-1149 12936 0
-12936 12937 0
-1150 -12936 0
-1150 12937 0
-12937 12938 0
-1151 -12937 0
-1151 12938 0
-12938 12939 0
-1152 -12938 0
-1152 12939 0
-12939 12940 0
-1153 -12939 0
-1153 12940 0
-12940 12941 0
-1154 -12940 0
-1154 12941 0
-12941 12942 0
-1155 -12941 0
-1155 12942 0
-12942 12943 0
-1156 -12942 0
-1156 12943 0
-12943 12944 0
-1157 -12943 0
-1157 12944 0
-12944 12945 0
-1158 -12944 0
-1158 12945 0
-12945 12946 0
-1159 -12945 0
-1159 12946 0
-12946 12947 0
-1160 -12946 0
-1160 12947 0
-12947 12948 0
-1161 -12947 0
-1161 12948 0
-12948 12949 0
-1162 -12948 0
-1162 12949 0
-12949 12950 0
-1163 -12949 0
-1163 12950 0
-12950 12951 0
-1164 -12950 0
-1164 12951 0
-12951 12952 0
-1165 -12951 0
-1165 12952 0
-12952 12953 0
-1166 -12952 0
-1166 12953 0
-12953 12954 0
-1167 -12953 0
-1167 12954 0
-12954 12955 0
-1168 -12954 0
-1168 12955 0
-12955 12956 0
-1169 -12955 0
-1169 12956 0
-1170 -12956 0
-1145 2423 0
-1146 2423 0
-1147 2423 0
-1148 2423 0
-1149 2423 0
-1150 2423 0
-1151 2423 0
-1152 2423 0
-1153 2423 0
-1154 2423 0
-1155 2423 0
-1156 2423 0
-1157 2423 0
-1158 2423 0
-1159 2423 0
-1160 2423 0
-1161 2423 0
-1162 2423 0
-1163 2423 0
-1164 2423 0
-1165 2423 0
-1166 2423 0
-1167 2423 0
-1168 2423 0
-1169 2423 0
-1170 2423 0
-2423 1145 1146 1147 1148 1149 1150 1151 1152 1153 1154 1155 1156 1157 1158 1159 1160 1161 1162 1163 1164 1165 1166 1167 1168 1169 1170 0
-1171 53 0
-1171 287 0
-53 -287 1171 0
-1172 54 0
-1172 288 0
-54 -288 1172 0
-1173 55 0
-1173 289 0
-55 -289 1173 0
-1174 56 0
-1174 290 0
-56 -290 1174 0
-1175 57 0
-1175 291 0
-57 -291 1175 0
-1176 58 0
-1176 292 0
-58 -292 1176 0
-1177 59 0
-1177 293 0
-59 -293 1177 0
-1178 60 0
-1178 294 0
-60 -294 1178 0
-1179 61 0
-1179 295 0
-61 -295 1179 0
-1180 62 0
-1180 296 0
-62 -296 1180 0
-1181 63 0
-1181 297 0
-63 -297 1181 0
-1182 64 0
-1182 298 0
-64 -298 1182 0
-1183 65 0
-1183 299 0
-65 -299 1183 0
-1184 66 0
-1184 300 0
-66 -300 1184 0
-1185 67 0
-1185 301 0
-67 -301 1185 0
-1186 68 0
-1186 302 0
-68 -302 1186 0
-1187 69 0
-1187 303 0
-69 -303 1187 0
-1188 70 0
-1188 304 0
-70 -304 1188 0
-1189 71 0
-1189 305 0
-71 -305 1189 0
-1190 72 0
-1190 306 0
-72 -306 1190 0
-1191 73 0
-1191 307 0
-73 -307 1191 0
-1192 74 0
-1192 308 0
-74 -308 1192 0
-1193 75 0
-1193 309 0
-75 -309 1193 0
-1194 76 0
-1194 310 0
-76 -310 1194 0
-1195 77 0
-1195 311 0
-77 -311 1195 0
-1196 78 0
-1196 312 0
-78 -312 1196 0
-1171 12957 0
-12957 12958 0
-1172 -12957 0
-1172 12958 0
-12958 12959 0
-1173 -12958 0
-1173 12959 0
-12959 12960 0
-1174 -12959 0
-1174 12960 0
-12960 12961 0
-1175 -12960 0
-1175 12961 0
-12961 12962 0
-1176 -12961 0
-1176 12962 0
-12962 12963 0
-1177 -12962 0
-1177 12963 0
-12963 12964 0
-1178 -12963 0
-1178 12964 0
-12964 12965 0
-1179 -12964 0
-1179 12965 0
-12965 12966 0
-1180 -12965 0
-1180 12966 0
-12966 12967 0
-1181 -12966 0
-1181 12967 0
-12967 12968 0
-1182 -12967 0
-1182 12968 0
-12968 12969 0
-1183 -12968 0
-1183 12969 0
-12969 12970 0
-1184 -12969 0
-1184 12970 0
-12970 12971 0
-1185 -12970 0
-1185 12971 0
-12971 12972 0
-1186 -12971 0
-1186 12972 0
-12972 12973 0
-1187 -12972 0
-1187 12973 0
-12973 12974 0
-1188 -12973 0
-1188 12974 0
-12974 12975 0
-1189 -12974 0
-1189 12975 0
-12975 12976 0
-1190 -12975 0
-1190 12976 0
-12976 12977 0
-1191 -12976 0
-1191 12977 0
-12977 12978 0
-1192 -12977 0
-1192 12978 0
-12978 12979 0
-1193 -12978 0
-1193 12979 0
-12979 12980 0
-1194 -12979 0
-1194 12980 0
-12980 12981 0
-1195 -12980 0
-1195 12981 0
-1196 -12981 0
-1171 2424 0
-1172 2424 0
-1173 2424 0
-1174 2424 0
-1175 2424 0
-1176 2424 0
-1177 2424 0
-1178 2424 0
-1179 2424 0
-1180 2424 0
-1181 2424 0
-1182 2424 0
-1183 2424 0
-1184 2424 0
-1185 2424 0
-1186 2424 0
-1187 2424 0
-1188 2424 0
-1189 2424 0
-1190 2424 0
-1191 2424 0
-1192 2424 0
-1193 2424 0
-1194 2424 0
-1195 2424 0
-1196 2424 0
-2424 1171 1172 1173 1174 1175 1176 1177 1178 1179 1180 1181 1182 1183 1184 1185 1186 1187 1188 1189 1190 1191 1192 1193 1194 1195 1196 0
-1197 53 0
-1197 313 0
-53 -313 1197 0
-1198 54 0
-1198 314 0
-54 -314 1198 0
-1199 55 0
-1199 315 0
-55 -315 1199 0
-1200 56 0
-1200 316 0
-56 -316 1200 0
-1201 57 0
-1201 317 0
-57 -317 1201 0
-1202 58 0
-1202 318 0
-58 -318 1202 0
-1203 59 0
-1203 319 0
-59 -319 1203 0
-1204 60 0
-1204 320 0
-60 -320 1204 0
-1205 61 0
-1205 321 0
-61 -321 1205 0
-1206 62 0
-1206 322 0
-62 -322 1206 0
-1207 63 0
-1207 323 0
-63 -323 1207 0
-1208 64 0
-1208 324 0
-64 -324 1208 0
-1209 65 0
-1209 325 0
-65 -325 1209 0
-1210 66 0
-1210 326 0
-66 -326 1210 0
-1211 67 0
-1211 327 0
-67 -327 1211 0
-1212 68 0
-1212 328 0
-68 -328 1212 0
-1213 69 0
-1213 329 0
-69 -329 1213 0
-1214 70 0
-1214 330 0
-70 -330 1214 0
-1215 71 0
-1215 331 0
-71 -331 1215 0
-1216 72 0
-1216 332 0
-72 -332 1216 0
-1217 73 0
-1217 333 0
-73 -333 1217 0
-1218 74 0
-1218 334 0
-74 -334 1218 0
-1219 75 0
-1219 335 0
-75 -335 1219 0
-1220 76 0
-1220 336 0
-76 -336 1220 0
-1221 77 0
-1221 337 0
-77 -337 1221 0
-1222 78 0
-1222 338 0
-78 -338 1222 0
-1197 12982 0
-12982 12983 0
-1198 -12982 0
-1198 12983 0
-12983 12984 0
-1199 -12983 0
-1199 12984 0
-12984 12985 0
-1200 -12984 0
-1200 12985 0
-12985 12986 0
-1201 -12985 0
-1201 12986 0
-12986 12987 0
-1202 -12986 0
-1202 12987 0
-12987 12988 0
-1203 -12987 0
-1203 12988 0
-12988 12989 0
-1204 -12988 0
-1204 12989 0
-12989 12990 0
-1205 -12989 0
-1205 12990 0
-12990 12991 0
-1206 -12990 0
-1206 12991 0
-12991 12992 0
-1207 -12991 0
-1207 12992 0
-12992 12993 0
-1208 -12992 0
-1208 12993 0
-12993 12994 0
-1209 -12993 0
-1209 12994 0
-12994 12995 0
-1210 -12994 0
-1210 12995 0
-12995 12996 0
-1211 -12995 0
-1211 12996 0
-12996 12997 0
-1212 -12996 0
-1212 12997 0
-12997 12998 0
-1213 -12997 0
-1213 12998 0
-12998 12999 0
-1214 -12998 0
-1214 12999 0
-12999 13000 0
-1215 -12999 0
-1215 13000 0
-13000 13001 0
-1216 -13000 0
-1216 13001 0
-13001 13002 0
-1217 -13001 0
-1217 13002 0
-13002 13003 0
-1218 -13002 0
-1218 13003 0
-13003 13004 0
-1219 -13003 0
-1219 13004 0
-13004 13005 0
-1220 -13004 0
-1220 13005 0
-13005 13006 0
-1221 -13005 0
-1221 13006 0
-1222 -13006 0
-1197 2425 0
-1198 2425 0
-1199 2425 0
-1200 2425 0
-1201 2425 0
-1202 2425 0
-1203 2425 0
-1204 2425 0
-1205 2425 0
-1206 2425 0
-1207 2425 0
-1208 2425 0
-1209 2425 0
-1210 2425 0
-1211 2425 0
-1212 2425 0
-1213 2425 0
-1214 2425 0
-1215 2425 0
-1216 2425 0
-1217 2425 0
-1218 2425 0
-1219 2425 0
-1220 2425 0
-1221 2425 0
-1222 2425 0
-2425 1197 1198 1199 1200 1201 1202 1203 1204 1205 1206 1207 1208 1209 1210 1211 1212 1213 1214 1215 1216 1217 1218 1219 1220 1221 1222 0
-1223 79 0
-1223 105 0
-79 -105 1223 0
-1224 80 0
-1224 106 0
-80 -106 1224 0
-1225 81 0
-1225 107 0
-81 -107 1225 0
-1226 82 0
-1226 108 0
-82 -108 1226 0
-1227 83 0
-1227 109 0
-83 -109 1227 0
-1228 84 0
-1228 110 0
-84 -110 1228 0
-1229 85 0
-1229 111 0
-85 -111 1229 0
-1230 86 0
-1230 112 0
-86 -112 1230 0
-1231 87 0
-1231 113 0
-87 -113 1231 0
-1232 88 0
-1232 114 0
-88 -114 1232 0
-1233 89 0
-1233 115 0
-89 -115 1233 0
-1234 90 0
-1234 116 0
-90 -116 1234 0
-1235 91 0
-1235 117 0
-91 -117 1235 0
-1236 92 0
-1236 118 0
-92 -118 1236 0
-1237 93 0
-1237 119 0
-93 -119 1237 0
-1238 94 0
-1238 120 0
-94 -120 1238 0
-1239 95 0
-1239 121 0
-95 -121 1239 0
-1240 96 0
-1240 122 0
-96 -122 1240 0
-1241 97 0
-1241 123 0
-97 -123 1241 0
-1242 98 0
-1242 124 0
-98 -124 1242 0
-1243 99 0
-1243 125 0
-99 -125 1243 0
-1244 100 0
-1244 126 0
-100 -126 1244 0
-1245 101 0
-1245 127 0
-101 -127 1245 0
-1246 102 0
-1246 128 0
-102 -128 1246 0
-1247 103 0
-1247 129 0
-103 -129 1247 0
-1248 104 0
-1248 130 0
-104 -130 1248 0
-1223 13007 0
-13007 13008 0
-1224 -13007 0
-1224 13008 0
-13008 13009 0
-1225 -13008 0
-1225 13009 0
-13009 13010 0
-1226 -13009 0
-1226 13010 0
-13010 13011 0
-1227 -13010 0
-1227 13011 0
-13011 13012 0
-1228 -13011 0
-1228 13012 0
-13012 13013 0
-1229 -13012 0
-1229 13013 0
-13013 13014 0
-1230 -13013 0
-1230 13014 0
-13014 13015 0
-1231 -13014 0
-1231 13015 0
-13015 13016 0
-1232 -13015 0
-1232 13016 0
-13016 13017 0
-1233 -13016 0
-1233 13017 0
-13017 13018 0
-1234 -13017 0
-1234 13018 0
-13018 13019 0
-1235 -13018 0
-1235 13019 0
-13019 13020 0
-1236 -13019 0
-1236 13020 0
-13020 13021 0
-1237 -13020 0
-1237 13021 0
-13021 13022 0
-1238 -13021 0
-1238 13022 0
-13022 13023 0
-1239 -13022 0
-1239 13023 0
-13023 13024 0
-1240 -13023 0
-1240 13024 0
-13024 13025 0
-1241 -13024 0
-1241 13025 0
-13025 13026 0
-1242 -13025 0
-1242 13026 0
-13026 13027 0
-1243 -13026 0
-1243 13027 0
-13027 13028 0
-1244 -13027 0
-1244 13028 0
-13028 13029 0
-1245 -13028 0
-1245 13029 0
-13029 13030 0
-1246 -13029 0
-1246 13030 0
-13030 13031 0
-1247 -13030 0
-1247 13031 0
-1248 -13031 0
-1223 2426 0
-1224 2426 0
-1225 2426 0
-1226 2426 0
-1227 2426 0
-1228 2426 0
-1229 2426 0
-1230 2426 0
-1231 2426 0
-1232 2426 0
-1233 2426 0
-1234 2426 0
-1235 2426 0
-1236 2426 0
-1237 2426 0
-1238 2426 0
-1239 2426 0
-1240 2426 0
-1241 2426 0
-1242 2426 0
-1243 2426 0
-1244 2426 0
-1245 2426 0
-1246 2426 0
-1247 2426 0
-1248 2426 0
-2426 1223 1224 1225 1226 1227 1228 1229 1230 1231 1232 1233 1234 1235 1236 1237 1238 1239 1240 1241 1242 1243 1244 1245 1246 1247 1248 0
-1249 79 0
-1249 131 0
-79 -131 1249 0
-1250 80 0
-1250 132 0
-80 -132 1250 0
-1251 81 0
-1251 133 0
-81 -133 1251 0
-1252 82 0
-1252 134 0
-82 -134 1252 0
-1253 83 0
-1253 135 0
-83 -135 1253 0
-1254 84 0
-1254 136 0
-84 -136 1254 0
-1255 85 0
-1255 137 0
-85 -137 1255 0
-1256 86 0
-1256 138 0
-86 -138 1256 0
-1257 87 0
-1257 139 0
-87 -139 1257 0
-1258 88 0
-1258 140 0
-88 -140 1258 0
-1259 89 0
-1259 141 0
-89 -141 1259 0
-1260 90 0
-1260 142 0
-90 -142 1260 0
-1261 91 0
-1261 143 0
-91 -143 1261 0
-1262 92 0
-1262 144 0
-92 -144 1262 0
-1263 93 0
-1263 145 0
-93 -145 1263 0
-1264 94 0
-1264 146 0
-94 -146 1264 0
-1265 95 0
-1265 147 0
-95 -147 1265 0
-1266 96 0
-1266 148 0
-96 -148 1266 0
-1267 97 0
-1267 149 0
-97 -149 1267 0
-1268 98 0
-1268 150 0
-98 -150 1268 0
-1269 99 0
-1269 151 0
-99 -151 1269 0
-1270 100 0
-1270 152 0
-100 -152 1270 0
-1271 101 0
-1271 153 0
-101 -153 1271 0
-1272 102 0
-1272 154 0
-102 -154 1272 0
-1273 103 0
-1273 155 0
-103 -155 1273 0
-1274 104 0
-1274 156 0
-104 -156 1274 0
-1249 13032 0
-13032 13033 0
-1250 -13032 0
-1250 13033 0
-13033 13034 0
-1251 -13033 0
-1251 13034 0
-13034 13035 0
-1252 -13034 0
-1252 13035 0
-13035 13036 0
-1253 -13035 0
-1253 13036 0
-13036 13037 0
-1254 -13036 0
-1254 13037 0
-13037 13038 0
-1255 -13037 0
-1255 13038 0
-13038 13039 0
-1256 -13038 0
-1256 13039 0
-13039 13040 0
-1257 -13039 0
-1257 13040 0
-13040 13041 0
-1258 -13040 0
-1258 13041 0
-13041 13042 0
-1259 -13041 0
-1259 13042 0
-13042 13043 0
-1260 -13042 0
-1260 13043 0
-13043 13044 0
-1261 -13043 0
-1261 13044 0
-13044 13045 0
-1262 -13044 0
-1262 13045 0
-13045 13046 0
-1263 -13045 0
-1263 13046 0
-13046 13047 0
-1264 -13046 0
-1264 13047 0
-13047 13048 0
-1265 -13047 0
-1265 13048 0
-13048 13049 0
-1266 -13048 0
-1266 13049 0
-13049 13050 0
-1267 -13049 0
-1267 13050 0
-13050 13051 0
-1268 -13050 0
-1268 13051 0
-13051 13052 0
-1269 -13051 0
-1269 13052 0
-13052 13053 0
-1270 -13052 0
-1270 13053 0
-13053 13054 0
-1271 -13053 0
-1271 13054 0
-13054 13055 0
-1272 -13054 0
-1272 13055 0
-13055 13056 0
-1273 -13055 0
-1273 13056 0
-1274 -13056 0
-1249 2427 0
-1250 2427 0
-1251 2427 0
-1252 2427 0
-1253 2427 0
-1254 2427 0
-1255 2427 0
-1256 2427 0
-1257 2427 0
-1258 2427 0
-1259 2427 0
-1260 2427 0
-1261 2427 0
-1262 2427 0
-1263 2427 0
-1264 2427 0
-1265 2427 0
-1266 2427 0
-1267 2427 0
-1268 2427 0
-1269 2427 0
-1270 2427 0
-1271 2427 0
-1272 2427 0
-1273 2427 0
-1274 2427 0
-2427 1249 1250 1251 1252 1253 1254 1255 1256 1257 1258 1259 1260 1261 1262 1263 1264 1265 1266 1267 1268 1269 1270 1271 1272 1273 1274 0
-1275 79 0
-1275 157 0
-79 -157 1275 0
-1276 80 0
-1276 158 0
-80 -158 1276 0
-1277 81 0
-1277 159 0
-81 -159 1277 0
-1278 82 0
-1278 160 0
-82 -160 1278 0
-1279 83 0
-1279 161 0
-83 -161 1279 0
-1280 84 0
-1280 162 0
-84 -162 1280 0
-1281 85 0
-1281 163 0
-85 -163 1281 0
-1282 86 0
-1282 164 0
-86 -164 1282 0
-1283 87 0
-1283 165 0
-87 -165 1283 0
-1284 88 0
-1284 166 0
-88 -166 1284 0
-1285 89 0
-1285 167 0
-89 -167 1285 0
-1286 90 0
-1286 168 0
-90 -168 1286 0
-1287 91 0
-1287 169 0
-91 -169 1287 0
-1288 92 0
-1288 170 0
-92 -170 1288 0
-1289 93 0
-1289 171 0
-93 -171 1289 0
-1290 94 0
-1290 172 0
-94 -172 1290 0
-1291 95 0
-1291 173 0
-95 -173 1291 0
-1292 96 0
-1292 174 0
-96 -174 1292 0
-1293 97 0
-1293 175 0
-97 -175 1293 0
-1294 98 0
-1294 176 0
-98 -176 1294 0
-1295 99 0
-1295 177 0
-99 -177 1295 0
-1296 100 0
-1296 178 0
-100 -178 1296 0
-1297 101 0
-1297 179 0
-101 -179 1297 0
-1298 102 0
-1298 180 0
-102 -180 1298 0
-1299 103 0
-1299 181 0
-103 -181 1299 0
-1300 104 0
-1300 182 0
-104 -182 1300 0
-1275 13057 0
-13057 13058 0
-1276 -13057 0
-1276 13058 0
-13058 13059 0
-1277 -13058 0
-1277 13059 0
-13059 13060 0
-1278 -13059 0
-1278 13060 0
-13060 13061 0
-1279 -13060 0
-1279 13061 0
-13061 13062 0
-1280 -13061 0
-1280 13062 0
-13062 13063 0
-1281 -13062 0
-1281 13063 0
-13063 13064 0
-1282 -13063 0
-1282 13064 0
-13064 13065 0
-1283 -13064 0
-1283 13065 0
-13065 13066 0
-1284 -13065 0
-1284 13066 0
-13066 13067 0
-1285 -13066 0
-1285 13067 0
-13067 13068 0
-1286 -13067 0
-1286 13068 0
-13068 13069 0
-1287 -13068 0
-1287 13069 0
-13069 13070 0
-1288 -13069 0
-1288 13070 0
-13070 13071 0
-1289 -13070 0
-1289 13071 0
-13071 13072 0
-1290 -13071 0
-1290 13072 0
-13072 13073 0
-1291 -13072 0
-1291 13073 0
-13073 13074 0
-1292 -13073 0
-1292 13074 0
-13074 13075 0
-1293 -13074 0
-1293 13075 0
-13075 13076 0
-1294 -13075 0
-1294 13076 0
-13076 13077 0
-1295 -13076 0
-1295 13077 0
-13077 13078 0
-1296 -13077 0
-1296 13078 0
-13078 13079 0
-1297 -13078 0
-1297 13079 0
-13079 13080 0
-1298 -13079 0
-1298 13080 0
-13080 13081 0
-1299 -13080 0
-1299 13081 0
-1300 -13081 0
-1275 2428 0
-1276 2428 0
-1277 2428 0
-1278 2428 0
-1279 2428 0
-1280 2428 0
-1281 2428 0
-1282 2428 0
-1283 2428 0
-1284 2428 0
-1285 2428 0
-1286 2428 0
-1287 2428 0
-1288 2428 0
-1289 2428 0
-1290 2428 0
-1291 2428 0
-1292 2428 0
-1293 2428 0
-1294 2428 0
-1295 2428 0
-1296 2428 0
-1297 2428 0
-1298 2428 0
-1299 2428 0
-1300 2428 0
-2428 1275 1276 1277 1278 1279 1280 1281 1282 1283 1284 1285 1286 1287 1288 1289 1290 1291 1292 1293 1294 1295 1296 1297 1298 1299 1300 0
-1301 79 0
-1301 183 0
-79 -183 1301 0
-1302 80 0
-1302 184 0
-80 -184 1302 0
-1303 81 0
-1303 185 0
-81 -185 1303 0
-1304 82 0
-1304 186 0
-82 -186 1304 0
-1305 83 0
-1305 187 0
-83 -187 1305 0
-1306 84 0
-1306 188 0
-84 -188 1306 0
-1307 85 0
-1307 189 0
-85 -189 1307 0
-1308 86 0
-1308 190 0
-86 -190 1308 0
-1309 87 0
-1309 191 0
-87 -191 1309 0
-1310 88 0
-1310 192 0
-88 -192 1310 0
-1311 89 0
-1311 193 0
-89 -193 1311 0
-1312 90 0
-1312 194 0
-90 -194 1312 0
-1313 91 0
-1313 195 0
-91 -195 1313 0
-1314 92 0
-1314 196 0
-92 -196 1314 0
-1315 93 0
-1315 197 0
-93 -197 1315 0
-1316 94 0
-1316 198 0
-94 -198 1316 0
-1317 95 0
-1317 199 0
-95 -199 1317 0
-1318 96 0
-1318 200 0
-96 -200 1318 0
-1319 97 0
-1319 201 0
-97 -201 1319 0
-1320 98 0
-1320 202 0
-98 -202 1320 0
-1321 99 0
-1321 203 0
-99 -203 1321 0
-1322 100 0
-1322 204 0
-100 -204 1322 0
-1323 101 0
-1323 205 0
-101 -205 1323 0
-1324 102 0
-1324 206 0
-102 -206 1324 0
-1325 103 0
-1325 207 0
-103 -207 1325 0
-1326 104 0
-1326 208 0
-104 -208 1326 0
-1301 13082 0
-13082 13083 0
-1302 -13082 0
-1302 13083 0
-13083 13084 0
-1303 -13083 0
-1303 13084 0
-13084 13085 0
-1304 -13084 0
-1304 13085 0
-13085 13086 0
-1305 -13085 0
-1305 13086 0
-13086 13087 0
-1306 -13086 0
-1306 13087 0
-13087 13088 0
-1307 -13087 0
-1307 13088 0
-13088 13089 0
-1308 -13088 0
-1308 13089 0
-13089 13090 0
-1309 -13089 0
-1309 13090 0
-13090 13091 0
-1310 -13090 0
-1310 13091 0
-13091 13092 0
-1311 -13091 0
-1311 13092 0
-13092 13093 0
-1312 -13092 0
-1312 13093 0
-13093 13094 0
-1313 -13093 0
-1313 13094 0
-13094 13095 0
-1314 -13094 0
-1314 13095 0
-13095 13096 0
-1315 -13095 0
-1315 13096 0
-13096 13097 0
-1316 -13096 0
-1316 13097 0
-13097 13098 0
-1317 -13097 0
-1317 13098 0
-13098 13099 0
-1318 -13098 0
-1318 13099 0
-13099 13100 0
-1319 -13099 0
-1319 13100 0
-13100 13101 0
-1320 -13100 0
-1320 13101 0
-13101 13102 0
-1321 -13101 0
-1321 13102 0
-13102 13103 0
-1322 -13102 0
-1322 13103 0
-13103 13104 0
-1323 -13103 0
-1323 13104 0
-13104 13105 0
-1324 -13104 0
-1324 13105 0
-13105 13106 0
-1325 -13105 0
-1325 13106 0
-1326 -13106 0
-1301 2429 0
-1302 2429 0
-1303 2429 0
-1304 2429 0
-1305 2429 0
-1306 2429 0
-1307 2429 0
-1308 2429 0
-1309 2429 0
-1310 2429 0
-1311 2429 0
-1312 2429 0
-1313 2429 0
-1314 2429 0
-1315 2429 0
-1316 2429 0
-1317 2429 0
-1318 2429 0
-1319 2429 0
-1320 2429 0
-1321 2429 0
-1322 2429 0
-1323 2429 0
-1324 2429 0
-1325 2429 0
-1326 2429 0
-2429 1301 1302 1303 1304 1305 1306 1307 1308 1309 1310 1311 1312 1313 1314 1315 1316 1317 1318 1319 1320 1321 1322 1323 1324 1325 1326 0
-1327 79 0
-1327 209 0
-79 -209 1327 0
-1328 80 0
-1328 210 0
-80 -210 1328 0
-1329 81 0
-1329 211 0
-81 -211 1329 0
-1330 82 0
-1330 212 0
-82 -212 1330 0
-1331 83 0
-1331 213 0
-83 -213 1331 0
-1332 84 0
-1332 214 0
-84 -214 1332 0
-1333 85 0
-1333 215 0
-85 -215 1333 0
-1334 86 0
-1334 216 0
-86 -216 1334 0
-1335 87 0
-1335 217 0
-87 -217 1335 0
-1336 88 0
-1336 218 0
-88 -218 1336 0
-1337 89 0
-1337 219 0
-89 -219 1337 0
-1338 90 0
-1338 220 0
-90 -220 1338 0
-1339 91 0
-1339 221 0
-91 -221 1339 0
-1340 92 0
-1340 222 0
-92 -222 1340 0
-1341 93 0
-1341 223 0
-93 -223 1341 0
-1342 94 0
-1342 224 0
-94 -224 1342 0
-1343 95 0
-1343 225 0
-95 -225 1343 0
-1344 96 0
-1344 226 0
-96 -226 1344 0
-1345 97 0
-1345 227 0
-97 -227 1345 0
-1346 98 0
-1346 228 0
-98 -228 1346 0
-1347 99 0
-1347 229 0
-99 -229 1347 0
-1348 100 0
-1348 230 0
-100 -230 1348 0
-1349 101 0
-1349 231 0
-101 -231 1349 0
-1350 102 0
-1350 232 0
-102 -232 1350 0
-1351 103 0
-1351 233 0
-103 -233 1351 0
-1352 104 0
-1352 234 0
-104 -234 1352 0
-1327 13107 0
-13107 13108 0
-1328 -13107 0
-1328 13108 0
-13108 13109 0
-1329 -13108 0
-1329 13109 0
-13109 13110 0
-1330 -13109 0
-1330 13110 0
-13110 13111 0
-1331 -13110 0
-1331 13111 0
-13111 13112 0
-1332 -13111 0
-1332 13112 0
-13112 13113 0
-1333 -13112 0
-1333 13113 0
-13113 13114 0
-1334 -13113 0
-1334 13114 0
-13114 13115 0
-1335 -13114 0
-1335 13115 0
-13115 13116 0
-1336 -13115 0
-1336 13116 0
-13116 13117 0
-1337 -13116 0
-1337 13117 0
-13117 13118 0
-1338 -13117 0
-1338 13118 0
-13118 13119 0
-1339 -13118 0
-1339 13119 0
-13119 13120 0
-1340 -13119 0
-1340 13120 0
-13120 13121 0
-1341 -13120 0
-1341 13121 0
-13121 13122 0
-1342 -13121 0
-1342 13122 0
-13122 13123 0
-1343 -13122 0
-1343 13123 0
-13123 13124 0
-1344 -13123 0
-1344 13124 0
-13124 13125 0
-1345 -13124 0
-1345 13125 0
-13125 13126 0
-1346 -13125 0
-1346 13126 0
-13126 13127 0
-1347 -13126 0
-1347 13127 0
-13127 13128 0
-1348 -13127 0
-1348 13128 0
-13128 13129 0
-1349 -13128 0
-1349 13129 0
-13129 13130 0
-1350 -13129 0
-1350 13130 0
-13130 13131 0
-1351 -13130 0
-1351 13131 0
-1352 -13131 0
-1327 2430 0
-1328 2430 0
-1329 2430 0
-1330 2430 0
-1331 2430 0
-1332 2430 0
-1333 2430 0
-1334 2430 0
-1335 2430 0
-1336 2430 0
-1337 2430 0
-1338 2430 0
-1339 2430 0
-1340 2430 0
-1341 2430 0
-1342 2430 0
-1343 2430 0
-1344 2430 0
-1345 2430 0
-1346 2430 0
-1347 2430 0
-1348 2430 0
-1349 2430 0
-1350 2430 0
-1351 2430 0
-1352 2430 0
-2430 1327 1328 1329 1330 1331 1332 1333 1334 1335 1336 1337 1338 1339 1340 1341 1342 1343 1344 1345 1346 1347 1348 1349 1350 1351 1352 0
-1353 79 0
-1353 235 0
-79 -235 1353 0
-1354 80 0
-1354 236 0
-80 -236 1354 0
-1355 81 0
-1355 237 0
-81 -237 1355 0
-1356 82 0
-1356 238 0
-82 -238 1356 0
-1357 83 0
-1357 239 0
-83 -239 1357 0
-1358 84 0
-1358 240 0
-84 -240 1358 0
-1359 85 0
-1359 241 0
-85 -241 1359 0
-1360 86 0
-1360 242 0
-86 -242 1360 0
-1361 87 0
-1361 243 0
-87 -243 1361 0
-1362 88 0
-1362 244 0
-88 -244 1362 0
-1363 89 0
-1363 245 0
-89 -245 1363 0
-1364 90 0
-1364 246 0
-90 -246 1364 0
-1365 91 0
-1365 247 0
-91 -247 1365 0
-1366 92 0
-1366 248 0
-92 -248 1366 0
-1367 93 0
-1367 249 0
-93 -249 1367 0
-1368 94 0
-1368 250 0
-94 -250 1368 0
-1369 95 0
-1369 251 0
-95 -251 1369 0
-1370 96 0
-1370 252 0
-96 -252 1370 0
-1371 97 0
-1371 253 0
-97 -253 1371 0
-1372 98 0
-1372 254 0
-98 -254 1372 0
-1373 99 0
-1373 255 0
-99 -255 1373 0
-1374 100 0
-1374 256 0
-100 -256 1374 0
-1375 101 0
-1375 257 0
-101 -257 1375 0
-1376 102 0
-1376 258 0
-102 -258 1376 0
-1377 103 0
-1377 259 0
-103 -259 1377 0
-1378 104 0
-1378 260 0
-104 -260 1378 0
-1353 13132 0
-13132 13133 0
-1354 -13132 0
-1354 13133 0
-13133 13134 0
-1355 -13133 0
-1355 13134 0
-13134 13135 0
-1356 -13134 0
-1356 13135 0
-13135 13136 0
-1357 -13135 0
-1357 13136 0
-13136 13137 0
-1358 -13136 0
-1358 13137 0
-13137 13138 0
-1359 -13137 0
-1359 13138 0
-13138 13139 0
-1360 -13138 0
-1360 13139 0
-13139 13140 0
-1361 -13139 0
-1361 13140 0
-13140 13141 0
-1362 -13140 0
-1362 13141 0
-13141 13142 0
-1363 -13141 0
-1363 13142 0
-13142 13143 0
-1364 -13142 0
-1364 13143 0
-13143 13144 0
-1365 -13143 0
-1365 13144 0
-13144 13145 0
-1366 -13144 0
-1366 13145 0
-13145 13146 0
-1367 -13145 0
-1367 13146 0
-13146 13147 0
-1368 -13146 0
-1368 13147 0
-13147 13148 0
-1369 -13147 0
-1369 13148 0
-13148 13149 0
-1370 -13148 0
-1370 13149 0
-13149 13150 0
-1371 -13149 0
-1371 13150 0
-13150 13151 0
-1372 -13150 0
-1372 13151 0
-13151 13152 0
-1373 -13151 0
-1373 13152 0
-13152 13153 0
-1374 -13152 0
-1374 13153 0
-13153 13154 0
-1375 -13153 0
-1375 13154 0
-13154 13155 0
-1376 -13154 0
-1376 13155 0
-13155 13156 0
-1377 -13155 0
-1377 13156 0
-1378 -13156 0
-1353 2431 0
-1354 2431 0
-1355 2431 0
-1356 2431 0
-1357 2431 0
-1358 2431 0
-1359 2431 0
-1360 2431 0
-1361 2431 0
-1362 2431 0
-1363 2431 0
-1364 2431 0
-1365 2431 0
-1366 2431 0
-1367 2431 0
-1368 2431 0
-1369 2431 0
-1370 2431 0
-1371 2431 0
-1372 2431 0
-1373 2431 0
-1374 2431 0
-1375 2431 0
-1376 2431 0
-1377 2431 0
-1378 2431 0
-2431 1353 1354 1355 1356 1357 1358 1359 1360 1361 1362 1363 1364 1365 1366 1367 1368 1369 1370 1371 1372 1373 1374 1375 1376 1377 1378 0
-1379 79 0
-1379 261 0
-79 -261 1379 0
-1380 80 0
-1380 262 0
-80 -262 1380 0
-1381 81 0
-1381 263 0
-81 -263 1381 0
-1382 82 0
-1382 264 0
-82 -264 1382 0
-1383 83 0
-1383 265 0
-83 -265 1383 0
-1384 84 0
-1384 266 0
-84 -266 1384 0
-1385 85 0
-1385 267 0
-85 -267 1385 0
-1386 86 0
-1386 268 0
-86 -268 1386 0
-1387 87 0
-1387 269 0
-87 -269 1387 0
-1388 88 0
-1388 270 0
-88 -270 1388 0
-1389 89 0
-1389 271 0
-89 -271 1389 0
-1390 90 0
-1390 272 0
-90 -272 1390 0
-1391 91 0
-1391 273 0
-91 -273 1391 0
-1392 92 0
-1392 274 0
-92 -274 1392 0
-1393 93 0
-1393 275 0
-93 -275 1393 0
-1394 94 0
-1394 276 0
-94 -276 1394 0
-1395 95 0
-1395 277 0
-95 -277 1395 0
-1396 96 0
-1396 278 0
-96 -278 1396 0
-1397 97 0
-1397 279 0
-97 -279 1397 0
-1398 98 0
-1398 280 0
-98 -280 1398 0
-1399 99 0
-1399 281 0
-99 -281 1399 0
-1400 100 0
-1400 282 0
-100 -282 1400 0
-1401 101 0
-1401 283 0
-101 -283 1401 0
-1402 102 0
-1402 284 0
-102 -284 1402 0
-1403 103 0
-1403 285 0
-103 -285 1403 0
-1404 104 0
-1404 286 0
-104 -286 1404 0
-1379 13157 0
-13157 13158 0
-1380 -13157 0
-1380 13158 0
-13158 13159 0
-1381 -13158 0
-1381 13159 0
-13159 13160 0
-1382 -13159 0
-1382 13160 0
-13160 13161 0
-1383 -13160 0
-1383 13161 0
-13161 13162 0
-1384 -13161 0
-1384 13162 0
-13162 13163 0
-1385 -13162 0
-1385 13163 0
-13163 13164 0
-1386 -13163 0
-1386 13164 0
-13164 13165 0
-1387 -13164 0
-1387 13165 0
-13165 13166 0
-1388 -13165 0
-1388 13166 0
-13166 13167 0
-1389 -13166 0
-1389 13167 0
-13167 13168 0
-1390 -13167 0
-1390 13168 0
-13168 13169 0
-1391 -13168 0
-1391 13169 0
-13169 13170 0
-1392 -13169 0
-1392 13170 0
-13170 13171 0
-1393 -13170 0
-1393 13171 0
-13171 13172 0
-1394 -13171 0
-1394 13172 0
-13172 13173 0
-1395 -13172 0
-1395 13173 0
-13173 13174 0
-1396 -13173 0
-1396 13174 0
-13174 13175 0
-1397 -13174 0
-1397 13175 0
-13175 13176 0
-1398 -13175 0
-1398 13176 0
-13176 13177 0
-1399 -13176 0
-1399 13177 0
-13177 13178 0
-1400 -13177 0
-1400 13178 0
-13178 13179 0
-1401 -13178 0
-1401 13179 0
-13179 13180 0
-1402 -13179 0
-1402 13180 0
-13180 13181 0
-1403 -13180 0
-1403 13181 0
-1404 -13181 0
-1379 2432 0
-1380 2432 0
-1381 2432 0
-1382 2432 0
-1383 2432 0
-1384 2432 0
-1385 2432 0
-1386 2432 0
-1387 2432 0
-1388 2432 0
-1389 2432 0
-1390 2432 0
-1391 2432 0
-1392 2432 0
-1393 2432 0
-1394 2432 0
-1395 2432 0
-1396 2432 0
-1397 2432 0
-1398 2432 0
-1399 2432 0
-1400 2432 0
-1401 2432 0
-1402 2432 0
-1403 2432 0
-1404 2432 0
-2432 1379 1380 1381 1382 1383 1384 1385 1386 1387 1388 1389 1390 1391 1392 1393 1394 1395 1396 1397 1398 1399 1400 1401 1402 1403 1404 0
-1405 79 0
-1405 287 0
-79 -287 1405 0
-1406 80 0
-1406 288 0
-80 -288 1406 0
-1407 81 0
-1407 289 0
-81 -289 1407 0
-1408 82 0
-1408 290 0
-82 -290 1408 0
-1409 83 0
-1409 291 0
-83 -291 1409 0
-1410 84 0
-1410 292 0
-84 -292 1410 0
-1411 85 0
-1411 293 0
-85 -293 1411 0
-1412 86 0
-1412 294 0
-86 -294 1412 0
-1413 87 0
-1413 295 0
-87 -295 1413 0
-1414 88 0
-1414 296 0
-88 -296 1414 0
-1415 89 0
-1415 297 0
-89 -297 1415 0
-1416 90 0
-1416 298 0
-90 -298 1416 0
-1417 91 0
-1417 299 0
-91 -299 1417 0
-1418 92 0
-1418 300 0
-92 -300 1418 0
-1419 93 0
-1419 301 0
-93 -301 1419 0
-1420 94 0
-1420 302 0
-94 -302 1420 0
-1421 95 0
-1421 303 0
-95 -303 1421 0
-1422 96 0
-1422 304 0
-96 -304 1422 0
-1423 97 0
-1423 305 0
-97 -305 1423 0
-1424 98 0
-1424 306 0
-98 -306 1424 0
-1425 99 0
-1425 307 0
-99 -307 1425 0
-1426 100 0
-1426 308 0
-100 -308 1426 0
-1427 101 0
-1427 309 0
-101 -309 1427 0
-1428 102 0
-1428 310 0
-102 -310 1428 0
-1429 103 0
-1429 311 0
-103 -311 1429 0
-1430 104 0
-1430 312 0
-104 -312 1430 0
-1405 13182 0
-13182 13183 0
-1406 -13182 0
-1406 13183 0
-13183 13184 0
-1407 -13183 0
-1407 13184 0
-13184 13185 0
-1408 -13184 0
-1408 13185 0
-13185 13186 0
-1409 -13185 0
-1409 13186 0
-13186 13187 0
-1410 -13186 0
-1410 13187 0
-13187 13188 0
-1411 -13187 0
-1411 13188 0
-13188 13189 0
-1412 -13188 0
-1412 13189 0
-13189 13190 0
-1413 -13189 0
-1413 13190 0
-13190 13191 0
-1414 -13190 0
-1414 13191 0
-13191 13192 0
-1415 -13191 0
-1415 13192 0
-13192 13193 0
-1416 -13192 0
-1416 13193 0
-13193 13194 0
-1417 -13193 0
-1417 13194 0
-13194 13195 0
-1418 -13194 0
-1418 13195 0
-13195 13196 0
-1419 -13195 0
-1419 13196 0
-13196 13197 0
-1420 -13196 0
-1420 13197 0
-13197 13198 0
-1421 -13197 0
-1421 13198 0
-13198 13199 0
-1422 -13198 0
-1422 13199 0
-13199 13200 0
-1423 -13199 0
-1423 13200 0
-13200 13201 0
-1424 -13200 0
-1424 13201 0
-13201 13202 0
-1425 -13201 0
-1425 13202 0
-13202 13203 0
-1426 -13202 0
-1426 13203 0
-13203 13204 0
-1427 -13203 0
-1427 13204 0
-13204 13205 0
-1428 -13204 0
-1428 13205 0
-13205 13206 0
-1429 -13205 0
-1429 13206 0
-1430 -13206 0
-1405 2433 0
-1406 2433 0
-1407 2433 0
-1408 2433 0
-1409 2433 0
-1410 2433 0
-1411 2433 0
-1412 2433 0
-1413 2433 0
-1414 2433 0
-1415 2433 0
-1416 2433 0
-1417 2433 0
-1418 2433 0
-1419 2433 0
-1420 2433 0
-1421 2433 0
-1422 2433 0
-1423 2433 0
-1424 2433 0
-1425 2433 0
-1426 2433 0
-1427 2433 0
-1428 2433 0
-1429 2433 0
-1430 2433 0
-2433 1405 1406 1407 1408 1409 1410 1411 1412 1413 1414 1415 1416 1417 1418 1419 1420 1421 1422 1423 1424 1425 1426 1427 1428 1429 1430 0
-1431 79 0
-1431 313 0
-79 -313 1431 0
-1432 80 0
-1432 314 0
-80 -314 1432 0
-1433 81 0
-1433 315 0
-81 -315 1433 0
-1434 82 0
-1434 316 0
-82 -316 1434 0
-1435 83 0
-1435 317 0
-83 -317 1435 0
-1436 84 0
-1436 318 0
-84 -318 1436 0
-1437 85 0
-1437 319 0
-85 -319 1437 0
-1438 86 0
-1438 320 0
-86 -320 1438 0
-1439 87 0
-1439 321 0
-87 -321 1439 0
-1440 88 0
-1440 322 0
-88 -322 1440 0
-1441 89 0
-1441 323 0
-89 -323 1441 0
-1442 90 0
-1442 324 0
-90 -324 1442 0
-1443 91 0
-1443 325 0
-91 -325 1443 0
-1444 92 0
-1444 326 0
-92 -326 1444 0
-1445 93 0
-1445 327 0
-93 -327 1445 0
-1446 94 0
-1446 328 0
-94 -328 1446 0
-1447 95 0
-1447 329 0
-95 -329 1447 0
-1448 96 0
-1448 330 0
-96 -330 1448 0
-1449 97 0
-1449 331 0
-97 -331 1449 0
-1450 98 0
-1450 332 0
-98 -332 1450 0
-1451 99 0
-1451 333 0
-99 -333 1451 0
-1452 100 0
-1452 334 0
-100 -334 1452 0
-1453 101 0
-1453 335 0
-101 -335 1453 0
-1454 102 0
-1454 336 0
-102 -336 1454 0
-1455 103 0
-1455 337 0
-103 -337 1455 0
-1456 104 0
-1456 338 0
-104 -338 1456 0
-1431 13207 0
-13207 13208 0
-1432 -13207 0
-1432 13208 0
-13208 13209 0
-1433 -13208 0
-1433 13209 0
-13209 13210 0
-1434 -13209 0
-1434 13210 0
-13210 13211 0
-1435 -13210 0
-1435 13211 0
-13211 13212 0
-1436 -13211 0
-1436 13212 0
-13212 13213 0
-1437 -13212 0
-1437 13213 0
-13213 13214 0
-1438 -13213 0
-1438 13214 0
-13214 13215 0
-1439 -13214 0
-1439 13215 0
-13215 13216 0
-1440 -13215 0
-1440 13216 0
-13216 13217 0
-1441 -13216 0
-1441 13217 0
-13217 13218 0
-1442 -13217 0
-1442 13218 0
-13218 13219 0
-1443 -13218 0
-1443 13219 0
-13219 13220 0
-1444 -13219 0
-1444 13220 0
-13220 13221 0
-1445 -13220 0
-1445 13221 0
-13221 13222 0
-1446 -13221 0
-1446 13222 0
-13222 13223 0
-1447 -13222 0
-1447 13223 0
-13223 13224 0
-1448 -13223 0
-1448 13224 0
-13224 13225 0
-1449 -13224 0
-1449 13225 0
-13225 13226 0
-1450 -13225 0
-1450 13226 0
-13226 13227 0
-1451 -13226 0
-1451 13227 0
-13227 13228 0
-1452 -13227 0
-1452 13228 0
-13228 13229 0
-1453 -13228 0
-1453 13229 0
-13229 13230 0
-1454 -13229 0
-1454 13230 0
-13230 13231 0
-1455 -13230 0
-1455 13231 0
-1456 -13231 0
-1431 2434 0
-1432 2434 0
-1433 2434 0
-1434 2434 0
-1435 2434 0
-1436 2434 0
-1437 2434 0
-1438 2434 0
-1439 2434 0
-1440 2434 0
-1441 2434 0
-1442 2434 0
-1443 2434 0
-1444 2434 0
-1445 2434 0
-1446 2434 0
-1447 2434 0
-1448 2434 0
-1449 2434 0
-1450 2434 0
-1451 2434 0
-1452 2434 0
-1453 2434 0
-1454 2434 0
-1455 2434 0
-1456 2434 0
-2434 1431 1432 1433 1434 1435 1436 1437 1438 1439 1440 1441 1442 1443 1444 1445 1446 1447 1448 1449 1450 1451 1452 1453 1454 1455 1456 0
-1457 105 0
-1457 131 0
-105 -131 1457 0
-1458 106 0
-1458 132 0
-106 -132 1458 0
-1459 107 0
-1459 133 0
-107 -133 1459 0
-1460 108 0
-1460 134 0
-108 -134 1460 0
-1461 109 0
-1461 135 0
-109 -135 1461 0
-1462 110 0
-1462 136 0
-110 -136 1462 0
-1463 111 0
-1463 137 0
-111 -137 1463 0
-1464 112 0
-1464 138 0
-112 -138 1464 0
-1465 113 0
-1465 139 0
-113 -139 1465 0
-1466 114 0
-1466 140 0
-114 -140 1466 0
-1467 115 0
-1467 141 0
-115 -141 1467 0
-1468 116 0
-1468 142 0
-116 -142 1468 0
-1469 117 0
-1469 143 0
-117 -143 1469 0
-1470 118 0
-1470 144 0
-118 -144 1470 0
-1471 119 0
-1471 145 0
-119 -145 1471 0
-1472 120 0
-1472 146 0
-120 -146 1472 0
-1473 121 0
-1473 147 0
-121 -147 1473 0
-1474 122 0
-1474 148 0
-122 -148 1474 0
-1475 123 0
-1475 149 0
-123 -149 1475 0
-1476 124 0
-1476 150 0
-124 -150 1476 0
-1477 125 0
-1477 151 0
-125 -151 1477 0
-1478 126 0
-1478 152 0
-126 -152 1478 0
-1479 127 0
-1479 153 0
-127 -153 1479 0
-1480 128 0
-1480 154 0
-128 -154 1480 0
-1481 129 0
-1481 155 0
-129 -155 1481 0
-1482 130 0
-1482 156 0
-130 -156 1482 0
-1457 13232 0
-13232 13233 0
-1458 -13232 0
-1458 13233 0
-13233 13234 0
-1459 -13233 0
-1459 13234 0
-13234 13235 0
-1460 -13234 0
-1460 13235 0
-13235 13236 0
-1461 -13235 0
-1461 13236 0
-13236 13237 0
-1462 -13236 0
-1462 13237 0
-13237 13238 0
-1463 -13237 0
-1463 13238 0
-13238 13239 0
-1464 -13238 0
-1464 13239 0
-13239 13240 0
-1465 -13239 0
-1465 13240 0
-13240 13241 0
-1466 -13240 0
-1466 13241 0
-13241 13242 0
-1467 -13241 0
-1467 13242 0
-13242 13243 0
-1468 -13242 0
-1468 13243 0
-13243 13244 0
-1469 -13243 0
-1469 13244 0
-13244 13245 0
-1470 -13244 0
-1470 13245 0
-13245 13246 0
-1471 -13245 0
-1471 13246 0
-13246 13247 0
-1472 -13246 0
-1472 13247 0
-13247 13248 0
-1473 -13247 0
-1473 13248 0
-13248 13249 0
-1474 -13248 0
-1474 13249 0
-13249 13250 0
-1475 -13249 0
-1475 13250 0
-13250 13251 0
-1476 -13250 0
-1476 13251 0
-13251 13252 0
-1477 -13251 0
-1477 13252 0
-13252 13253 0
-1478 -13252 0
-1478 13253 0
-13253 13254 0
-1479 -13253 0
-1479 13254 0
-13254 13255 0
-1480 -13254 0
-1480 13255 0
-13255 13256 0
-1481 -13255 0
-1481 13256 0
-1482 -13256 0
-1457 2435 0
-1458 2435 0
-1459 2435 0
-1460 2435 0
-1461 2435 0
-1462 2435 0
-1463 2435 0
-1464 2435 0
-1465 2435 0
-1466 2435 0
-1467 2435 0
-1468 2435 0
-1469 2435 0
-1470 2435 0
-1471 2435 0
-1472 2435 0
-1473 2435 0
-1474 2435 0
-1475 2435 0
-1476 2435 0
-1477 2435 0
-1478 2435 0
-1479 2435 0
-1480 2435 0
-1481 2435 0
-1482 2435 0
-2435 1457 1458 1459 1460 1461 1462 1463 1464 1465 1466 1467 1468 1469 1470 1471 1472 1473 1474 1475 1476 1477 1478 1479 1480 1481 1482 0
-1483 105 0
-1483 157 0
-105 -157 1483 0
-1484 106 0
-1484 158 0
-106 -158 1484 0
-1485 107 0
-1485 159 0
-107 -159 1485 0
-1486 108 0
-1486 160 0
-108 -160 1486 0
-1487 109 0
-1487 161 0
-109 -161 1487 0
-1488 110 0
-1488 162 0
-110 -162 1488 0
-1489 111 0
-1489 163 0
-111 -163 1489 0
-1490 112 0
-1490 164 0
-112 -164 1490 0
-1491 113 0
-1491 165 0
-113 -165 1491 0
-1492 114 0
-1492 166 0
-114 -166 1492 0
-1493 115 0
-1493 167 0
-115 -167 1493 0
-1494 116 0
-1494 168 0
-116 -168 1494 0
-1495 117 0
-1495 169 0
-117 -169 1495 0
-1496 118 0
-1496 170 0
-118 -170 1496 0
-1497 119 0
-1497 171 0
-119 -171 1497 0
-1498 120 0
-1498 172 0
-120 -172 1498 0
-1499 121 0
-1499 173 0
-121 -173 1499 0
-1500 122 0
-1500 174 0
-122 -174 1500 0
-1501 123 0
-1501 175 0
-123 -175 1501 0
-1502 124 0
-1502 176 0
-124 -176 1502 0
-1503 125 0
-1503 177 0
-125 -177 1503 0
-1504 126 0
-1504 178 0
-126 -178 1504 0
-1505 127 0
-1505 179 0
-127 -179 1505 0
-1506 128 0
-1506 180 0
-128 -180 1506 0
-1507 129 0
-1507 181 0
-129 -181 1507 0
-1508 130 0
-1508 182 0
-130 -182 1508 0
-1483 13257 0
-13257 13258 0
-1484 -13257 0
-1484 13258 0
-13258 13259 0
-1485 -13258 0
-1485 13259 0
-13259 13260 0
-1486 -13259 0
-1486 13260 0
-13260 13261 0
-1487 -13260 0
-1487 13261 0
-13261 13262 0
-1488 -13261 0
-1488 13262 0
-13262 13263 0
-1489 -13262 0
-1489 13263 0
-13263 13264 0
-1490 -13263 0
-1490 13264 0
-13264 13265 0
-1491 -13264 0
-1491 13265 0
-13265 13266 0
-1492 -13265 0
-1492 13266 0
-13266 13267 0
-1493 -13266 0
-1493 13267 0
-13267 13268 0
-1494 -13267 0
-1494 13268 0
-13268 13269 0
-1495 -13268 0
-1495 13269 0
-13269 13270 0
-1496 -13269 0
-1496 13270 0
-13270 13271 0
-1497 -13270 0
-1497 13271 0
-13271 13272 0
-1498 -13271 0
-1498 13272 0
-13272 13273 0
-1499 -13272 0
-1499 13273 0
-13273 13274 0
-1500 -13273 0
-1500 13274 0
-13274 13275 0
-1501 -13274 0
-1501 13275 0
-13275 13276 0
-1502 -13275 0
-1502 13276 0
-13276 13277 0
-1503 -13276 0
-1503 13277 0
-13277 13278 0
-1504 -13277 0
-1504 13278 0
-13278 13279 0
-1505 -13278 0
-1505 13279 0
-13279 13280 0
-1506 -13279 0
-1506 13280 0
-13280 13281 0
-1507 -13280 0
-1507 13281 0
-1508 -13281 0
-1483 2436 0
-1484 2436 0
-1485 2436 0
-1486 2436 0
-1487 2436 0
-1488 2436 0
-1489 2436 0
-1490 2436 0
-1491 2436 0
-1492 2436 0
-1493 2436 0
-1494 2436 0
-1495 2436 0
-1496 2436 0
-1497 2436 0
-1498 2436 0
-1499 2436 0
-1500 2436 0
-1501 2436 0
-1502 2436 0
-1503 2436 0
-1504 2436 0
-1505 2436 0
-1506 2436 0
-1507 2436 0
-1508 2436 0
-2436 1483 1484 1485 1486 1487 1488 1489 1490 1491 1492 1493 1494 1495 1496 1497 1498 1499 1500 1501 1502 1503 1504 1505 1506 1507 1508 0
-1509 105 0
-1509 183 0
-105 -183 1509 0
-1510 106 0
-1510 184 0
-106 -184 1510 0
-1511 107 0
-1511 185 0
-107 -185 1511 0
-1512 108 0
-1512 186 0
-108 -186 1512 0
-1513 109 0
-1513 187 0
-109 -187 1513 0
-1514 110 0
-1514 188 0
-110 -188 1514 0
-1515 111 0
-1515 189 0
-111 -189 1515 0
-1516 112 0
-1516 190 0
-112 -190 1516 0
-1517 113 0
-1517 191 0
-113 -191 1517 0
-1518 114 0
-1518 192 0
-114 -192 1518 0
-1519 115 0
-1519 193 0
-115 -193 1519 0
-1520 116 0
-1520 194 0
-116 -194 1520 0
-1521 117 0
-1521 195 0
-117 -195 1521 0
-1522 118 0
-1522 196 0
-118 -196 1522 0
-1523 119 0
-1523 197 0
-119 -197 1523 0
-1524 120 0
-1524 198 0
-120 -198 1524 0
-1525 121 0
-1525 199 0
-121 -199 1525 0
-1526 122 0
-1526 200 0
-122 -200 1526 0
-1527 123 0
-1527 201 0
-123 -201 1527 0
-1528 124 0
-1528 202 0
-124 -202 1528 0
-1529 125 0
-1529 203 0
-125 -203 1529 0
-1530 126 0
-1530 204 0
-126 -204 1530 0
-1531 127 0
-1531 205 0
-127 -205 1531 0
-1532 128 0
-1532 206 0
-128 -206 1532 0
-1533 129 0
-1533 207 0
-129 -207 1533 0
-1534 130 0
-1534 208 0
-130 -208 1534 0
-1509 13282 0
-13282 13283 0
-1510 -13282 0
-1510 13283 0
-13283 13284 0
-1511 -13283 0
-1511 13284 0
-13284 13285 0
-1512 -13284 0
-1512 13285 0
-13285 13286 0
-1513 -13285 0
-1513 13286 0
-13286 13287 0
-1514 -13286 0
-1514 13287 0
-13287 13288 0
-1515 -13287 0
-1515 13288 0
-13288 13289 0
-1516 -13288 0
-1516 13289 0
-13289 13290 0
-1517 -13289 0
-1517 13290 0
-13290 13291 0
-1518 -13290 0
-1518 13291 0
-13291 13292 0
-1519 -13291 0
-1519 13292 0
-13292 13293 0
-1520 -13292 0
-1520 13293 0
-13293 13294 0
-1521 -13293 0
-1521 13294 0
-13294 13295 0
-1522 -13294 0
-1522 13295 0
-13295 13296 0
-1523 -13295 0
-1523 13296 0
-13296 13297 0
-1524 -13296 0
-1524 13297 0
-13297 13298 0
-1525 -13297 0
-1525 13298 0
-13298 13299 0
-1526 -13298 0
-1526 13299 0
-13299 13300 0
-1527 -13299 0
-1527 13300 0
-13300 13301 0
-1528 -13300 0
-1528 13301 0
-13301 13302 0
-1529 -13301 0
-1529 13302 0
-13302 13303 0
-1530 -13302 0
-1530 13303 0
-13303 13304 0
-1531 -13303 0
-1531 13304 0
-13304 13305 0
-1532 -13304 0
-1532 13305 0
-13305 13306 0
-1533 -13305 0
-1533 13306 0
-1534 -13306 0
-1509 2437 0
-1510 2437 0
-1511 2437 0
-1512 2437 0
-1513 2437 0
-1514 2437 0
-1515 2437 0
-1516 2437 0
-1517 2437 0
-1518 2437 0
-1519 2437 0
-1520 2437 0
-1521 2437 0
-1522 2437 0
-1523 2437 0
-1524 2437 0
-1525 2437 0
-1526 2437 0
-1527 2437 0
-1528 2437 0
-1529 2437 0
-1530 2437 0
-1531 2437 0
-1532 2437 0
-1533 2437 0
-1534 2437 0
-2437 1509 1510 1511 1512 1513 1514 1515 1516 1517 1518 1519 1520 1521 1522 1523 1524 1525 1526 1527 1528 1529 1530 1531 1532 1533 1534 0
-1535 105 0
-1535 209 0
-105 -209 1535 0
-1536 106 0
-1536 210 0
-106 -210 1536 0
-1537 107 0
-1537 211 0
-107 -211 1537 0
-1538 108 0
-1538 212 0
-108 -212 1538 0
-1539 109 0
-1539 213 0
-109 -213 1539 0
-1540 110 0
-1540 214 0
-110 -214 1540 0
-1541 111 0
-1541 215 0
-111 -215 1541 0
-1542 112 0
-1542 216 0
-112 -216 1542 0
-1543 113 0
-1543 217 0
-113 -217 1543 0
-1544 114 0
-1544 218 0
-114 -218 1544 0
-1545 115 0
-1545 219 0
-115 -219 1545 0
-1546 116 0
-1546 220 0
-116 -220 1546 0
-1547 117 0
-1547 221 0
-117 -221 1547 0
-1548 118 0
-1548 222 0
-118 -222 1548 0
-1549 119 0
-1549 223 0
-119 -223 1549 0
-1550 120 0
-1550 224 0
-120 -224 1550 0
-1551 121 0
-1551 225 0
-121 -225 1551 0
-1552 122 0
-1552 226 0
-122 -226 1552 0
-1553 123 0
-1553 227 0
-123 -227 1553 0
-1554 124 0
-1554 228 0
-124 -228 1554 0
-1555 125 0
-1555 229 0
-125 -229 1555 0
-1556 126 0
-1556 230 0
-126 -230 1556 0
-1557 127 0
-1557 231 0
-127 -231 1557 0
-1558 128 0
-1558 232 0
-128 -232 1558 0
-1559 129 0
-1559 233 0
-129 -233 1559 0
-1560 130 0
-1560 234 0
-130 -234 1560 0
-1535 13307 0
-13307 13308 0
-1536 -13307 0
-1536 13308 0
-13308 13309 0
-1537 -13308 0
-1537 13309 0
-13309 13310 0
-1538 -13309 0
-1538 13310 0
-13310 13311 0
-1539 -13310 0
-1539 13311 0
-13311 13312 0
-1540 -13311 0
-1540 13312 0
-13312 13313 0
-1541 -13312 0
-1541 13313 0
-13313 13314 0
-1542 -13313 0
-1542 13314 0
-13314 13315 0
-1543 -13314 0
-1543 13315 0
-13315 13316 0
-1544 -13315 0
-1544 13316 0
-13316 13317 0
-1545 -13316 0
-1545 13317 0
-13317 13318 0
-1546 -13317 0
-1546 13318 0
-13318 13319 0
-1547 -13318 0
-1547 13319 0
-13319 13320 0
-1548 -13319 0
-1548 13320 0
-13320 13321 0
-1549 -13320 0
-1549 13321 0
-13321 13322 0
-1550 -13321 0
-1550 13322 0
-13322 13323 0
-1551 -13322 0
-1551 13323 0
-13323 13324 0
-1552 -13323 0
-1552 13324 0
-13324 13325 0
-1553 -13324 0
-1553 13325 0
-13325 13326 0
-1554 -13325 0
-1554 13326 0
-13326 13327 0
-1555 -13326 0
-1555 13327 0
-13327 13328 0
-1556 -13327 0
-1556 13328 0
-13328 13329 0
-1557 -13328 0
-1557 13329 0
-13329 13330 0
-1558 -13329 0
-1558 13330 0
-13330 13331 0
-1559 -13330 0
-1559 13331 0
-1560 -13331 0
-1535 2438 0
-1536 2438 0
-1537 2438 0
-1538 2438 0
-1539 2438 0
-1540 2438 0
-1541 2438 0
-1542 2438 0
-1543 2438 0
-1544 2438 0
-1545 2438 0
-1546 2438 0
-1547 2438 0
-1548 2438 0
-1549 2438 0
-1550 2438 0
-1551 2438 0
-1552 2438 0
-1553 2438 0
-1554 2438 0
-1555 2438 0
-1556 2438 0
-1557 2438 0
-1558 2438 0
-1559 2438 0
-1560 2438 0
-2438 1535 1536 1537 1538 1539 1540 1541 1542 1543 1544 1545 1546 1547 1548 1549 1550 1551 1552 1553 1554 1555 1556 1557 1558 1559 1560 0
-1561 105 0
-1561 235 0
-105 -235 1561 0
-1562 106 0
-1562 236 0
-106 -236 1562 0
-1563 107 0
-1563 237 0
-107 -237 1563 0
-1564 108 0
-1564 238 0
-108 -238 1564 0
-1565 109 0
-1565 239 0
-109 -239 1565 0
-1566 110 0
-1566 240 0
-110 -240 1566 0
-1567 111 0
-1567 241 0
-111 -241 1567 0
-1568 112 0
-1568 242 0
-112 -242 1568 0
-1569 113 0
-1569 243 0
-113 -243 1569 0
-1570 114 0
-1570 244 0
-114 -244 1570 0
-1571 115 0
-1571 245 0
-115 -245 1571 0
-1572 116 0
-1572 246 0
-116 -246 1572 0
-1573 117 0
-1573 247 0
-117 -247 1573 0
-1574 118 0
-1574 248 0
-118 -248 1574 0
-1575 119 0
-1575 249 0
-119 -249 1575 0
-1576 120 0
-1576 250 0
-120 -250 1576 0
-1577 121 0
-1577 251 0
-121 -251 1577 0
-1578 122 0
-1578 252 0
-122 -252 1578 0
-1579 123 0
-1579 253 0
-123 -253 1579 0
-1580 124 0
-1580 254 0
-124 -254 1580 0
-1581 125 0
-1581 255 0
-125 -255 1581 0
-1582 126 0
-1582 256 0
-126 -256 1582 0
-1583 127 0
-1583 257 0
-127 -257 1583 0
-1584 128 0
-1584 258 0
-128 -258 1584 0
-1585 129 0
-1585 259 0
-129 -259 1585 0
-1586 130 0
-1586 260 0
-130 -260 1586 0
-1561 13332 0
-13332 13333 0
-1562 -13332 0
-1562 13333 0
-13333 13334 0
-1563 -13333 0
-1563 13334 0
-13334 13335 0
-1564 -13334 0
-1564 13335 0
-13335 13336 0
-1565 -13335 0
-1565 13336 0
-13336 13337 0
-1566 -13336 0
-1566 13337 0
-13337 13338 0
-1567 -13337 0
-1567 13338 0
-13338 13339 0
-1568 -13338 0
-1568 13339 0
-13339 13340 0
-1569 -13339 0
-1569 13340 0
-13340 13341 0
-1570 -13340 0
-1570 13341 0
-13341 13342 0
-1571 -13341 0
-1571 13342 0
-13342 13343 0
-1572 -13342 0
-1572 13343 0
-13343 13344 0
-1573 -13343 0
-1573 13344 0
-13344 13345 0
-1574 -13344 0
-1574 13345 0
-13345 13346 0
-1575 -13345 0
-1575 13346 0
-13346 13347 0
-1576 -13346 0
-1576 13347 0
-13347 13348 0
-1577 -13347 0
-1577 13348 0
-13348 13349 0
-1578 -13348 0
-1578 13349 0
-13349 13350 0
-1579 -13349 0
-1579 13350 0
-13350 13351 0
-1580 -13350 0
-1580 13351 0
-13351 13352 0
-1581 -13351 0
-1581 13352 0
-13352 13353 0
-1582 -13352 0
-1582 13353 0
-13353 13354 0
-1583 -13353 0
-1583 13354 0
-13354 13355 0
-1584 -13354 0
-1584 13355 0
-13355 13356 0
-1585 -13355 0
-1585 13356 0
-1586 -13356 0
-1561 2439 0
-1562 2439 0
-1563 2439 0
-1564 2439 0
-1565 2439 0
-1566 2439 0
-1567 2439 0
-1568 2439 0
-1569 2439 0
-1570 2439 0
-1571 2439 0
-1572 2439 0
-1573 2439 0
-1574 2439 0
-1575 2439 0
-1576 2439 0
-1577 2439 0
-1578 2439 0
-1579 2439 0
-1580 2439 0
-1581 2439 0
-1582 2439 0
-1583 2439 0
-1584 2439 0
-1585 2439 0
-1586 2439 0
-2439 1561 1562 1563 1564 1565 1566 1567 1568 1569 1570 1571 1572 1573 1574 1575 1576 1577 1578 1579 1580 1581 1582 1583 1584 1585 1586 0
-1587 105 0
-1587 261 0
-105 -261 1587 0
-1588 106 0
-1588 262 0
-106 -262 1588 0
-1589 107 0
-1589 263 0
-107 -263 1589 0
-1590 108 0
-1590 264 0
-108 -264 1590 0
-1591 109 0
-1591 265 0
-109 -265 1591 0
-1592 110 0
-1592 266 0
-110 -266 1592 0
-1593 111 0
-1593 267 0
-111 -267 1593 0
-1594 112 0
-1594 268 0
-112 -268 1594 0
-1595 113 0
-1595 269 0
-113 -269 1595 0
-1596 114 0
-1596 270 0
-114 -270 1596 0
-1597 115 0
-1597 271 0
-115 -271 1597 0
-1598 116 0
-1598 272 0
-116 -272 1598 0
-1599 117 0
-1599 273 0
-117 -273 1599 0
-1600 118 0
-1600 274 0
-118 -274 1600 0
-1601 119 0
-1601 275 0
-119 -275 1601 0
-1602 120 0
-1602 276 0
-120 -276 1602 0
-1603 121 0
-1603 277 0
-121 -277 1603 0
-1604 122 0
-1604 278 0
-122 -278 1604 0
-1605 123 0
-1605 279 0
-123 -279 1605 0
-1606 124 0
-1606 280 0
-124 -280 1606 0
-1607 125 0
-1607 281 0
-125 -281 1607 0
-1608 126 0
-1608 282 0
-126 -282 1608 0
-1609 127 0
-1609 283 0
-127 -283 1609 0
-1610 128 0
-1610 284 0
-128 -284 1610 0
-1611 129 0
-1611 285 0
-129 -285 1611 0
-1612 130 0
-1612 286 0
-130 -286 1612 0
-1587 13357 0
-13357 13358 0
-1588 -13357 0
-1588 13358 0
-13358 13359 0
-1589 -13358 0
-1589 13359 0
-13359 13360 0
-1590 -13359 0
-1590 13360 0
-13360 13361 0
-1591 -13360 0
-1591 13361 0
-13361 13362 0
-1592 -13361 0
-1592 13362 0
-13362 13363 0
-1593 -13362 0
-1593 13363 0
-13363 13364 0
-1594 -13363 0
-1594 13364 0
-13364 13365 0
-1595 -13364 0
-1595 13365 0
-13365 13366 0
-1596 -13365 0
-1596 13366 0
-13366 13367 0
-1597 -13366 0
-1597 13367 0
-13367 13368 0
-1598 -13367 0
-1598 13368 0
-13368 13369 0
-1599 -13368 0
-1599 13369 0
-13369 13370 0
-1600 -13369 0
-1600 13370 0
-13370 13371 0
-1601 -13370 0
-1601 13371 0
-13371 13372 0
-1602 -13371 0
-1602 13372 0
-13372 13373 0
-1603 -13372 0
-1603 13373 0
-13373 13374 0
-1604 -13373 0
-1604 13374 0
-13374 13375 0
-1605 -13374 0
-1605 13375 0
-13375 13376 0
-1606 -13375 0
-1606 13376 0
-13376 13377 0
-1607 -13376 0
-1607 13377 0
-13377 13378 0
-1608 -13377 0
-1608 13378 0
-13378 13379 0
-1609 -13378 0
-1609 13379 0
-13379 13380 0
-1610 -13379 0
-1610 13380 0
-13380 13381 0
-1611 -13380 0
-1611 13381 0
-1612 -13381 0
-1587 2440 0
-1588 2440 0
-1589 2440 0
-1590 2440 0
-1591 2440 0
-1592 2440 0
-1593 2440 0
-1594 2440 0
-1595 2440 0
-1596 2440 0
-1597 2440 0
-1598 2440 0
-1599 2440 0
-1600 2440 0
-1601 2440 0
-1602 2440 0
-1603 2440 0
-1604 2440 0
-1605 2440 0
-1606 2440 0
-1607 2440 0
-1608 2440 0
-1609 2440 0
-1610 2440 0
-1611 2440 0
-1612 2440 0
-2440 1587 1588 1589 1590 1591 1592 1593 1594 1595 1596 1597 1598 1599 1600 1601 1602 1603 1604 1605 1606 1607 1608 1609 1610 1611 1612 0
-1613 105 0
-1613 287 0
-105 -287 1613 0
-1614 106 0
-1614 288 0
-106 -288 1614 0
-1615 107 0
-1615 289 0
-107 -289 1615 0
-1616 108 0
-1616 290 0
-108 -290 1616 0
-1617 109 0
-1617 291 0
-109 -291 1617 0
-1618 110 0
-1618 292 0
-110 -292 1618 0
-1619 111 0
-1619 293 0
-111 -293 1619 0
-1620 112 0
-1620 294 0
-112 -294 1620 0
-1621 113 0
-1621 295 0
-113 -295 1621 0
-1622 114 0
-1622 296 0
-114 -296 1622 0
-1623 115 0
-1623 297 0
-115 -297 1623 0
-1624 116 0
-1624 298 0
-116 -298 1624 0
-1625 117 0
-1625 299 0
-117 -299 1625 0
-1626 118 0
-1626 300 0
-118 -300 1626 0
-1627 119 0
-1627 301 0
-119 -301 1627 0
-1628 120 0
-1628 302 0
-120 -302 1628 0
-1629 121 0
-1629 303 0
-121 -303 1629 0
-1630 122 0
-1630 304 0
-122 -304 1630 0
-1631 123 0
-1631 305 0
-123 -305 1631 0
-1632 124 0
-1632 306 0
-124 -306 1632 0
-1633 125 0
-1633 307 0
-125 -307 1633 0
-1634 126 0
-1634 308 0
-126 -308 1634 0
-1635 127 0
-1635 309 0
-127 -309 1635 0
-1636 128 0
-1636 310 0
-128 -310 1636 0
-1637 129 0
-1637 311 0
-129 -311 1637 0
-1638 130 0
-1638 312 0
-130 -312 1638 0
-1613 13382 0
-13382 13383 0
-1614 -13382 0
-1614 13383 0
-13383 13384 0
-1615 -13383 0
-1615 13384 0
-13384 13385 0
-1616 -13384 0
-1616 13385 0
-13385 13386 0
-1617 -13385 0
-1617 13386 0
-13386 13387 0
-1618 -13386 0
-1618 13387 0
-13387 13388 0
-1619 -13387 0
-1619 13388 0
-13388 13389 0
-1620 -13388 0
-1620 13389 0
-13389 13390 0
-1621 -13389 0
-1621 13390 0
-13390 13391 0
-1622 -13390 0
-1622 13391 0
-13391 13392 0
-1623 -13391 0
-1623 13392 0
-13392 13393 0
-1624 -13392 0
-1624 13393 0
-13393 13394 0
-1625 -13393 0
-1625 13394 0
-13394 13395 0
-1626 -13394 0
-1626 13395 0
-13395 13396 0
-1627 -13395 0
-1627 13396 0
-13396 13397 0
-1628 -13396 0
-1628 13397 0
-13397 13398 0
-1629 -13397 0
-1629 13398 0
-13398 13399 0
-1630 -13398 0
-1630 13399 0
-13399 13400 0
-1631 -13399 0
-1631 13400 0
-13400 13401 0
-1632 -13400 0
-1632 13401 0
-13401 13402 0
-1633 -13401 0
-1633 13402 0
-13402 13403 0
-1634 -13402 0
-1634 13403 0
-13403 13404 0
-1635 -13403 0
-1635 13404 0
-13404 13405 0
-1636 -13404 0
-1636 13405 0
-13405 13406 0
-1637 -13405 0
-1637 13406 0
-1638 -13406 0
-1613 2441 0
-1614 2441 0
-1615 2441 0
-1616 2441 0
-1617 2441 0
-1618 2441 0
-1619 2441 0
-1620 2441 0
-1621 2441 0
-1622 2441 0
-1623 2441 0
-1624 2441 0
-1625 2441 0
-1626 2441 0
-1627 2441 0
-1628 2441 0
-1629 2441 0
-1630 2441 0
-1631 2441 0
-1632 2441 0
-1633 2441 0
-1634 2441 0
-1635 2441 0
-1636 2441 0
-1637 2441 0
-1638 2441 0
-2441 1613 1614 1615 1616 1617 1618 1619 1620 1621 1622 1623 1624 1625 1626 1627 1628 1629 1630 1631 1632 1633 1634 1635 1636 1637 1638 0
-1639 105 0
-1639 313 0
-105 -313 1639 0
-1640 106 0
-1640 314 0
-106 -314 1640 0
-1641 107 0
-1641 315 0
-107 -315 1641 0
-1642 108 0
-1642 316 0
-108 -316 1642 0
-1643 109 0
-1643 317 0
-109 -317 1643 0
-1644 110 0
-1644 318 0
-110 -318 1644 0
-1645 111 0
-1645 319 0
-111 -319 1645 0
-1646 112 0
-1646 320 0
-112 -320 1646 0
-1647 113 0
-1647 321 0
-113 -321 1647 0
-1648 114 0
-1648 322 0
-114 -322 1648 0
-1649 115 0
-1649 323 0
-115 -323 1649 0
-1650 116 0
-1650 324 0
-116 -324 1650 0
-1651 117 0
-1651 325 0
-117 -325 1651 0
-1652 118 0
-1652 326 0
-118 -326 1652 0
-1653 119 0
-1653 327 0
-119 -327 1653 0
-1654 120 0
-1654 328 0
-120 -328 1654 0
-1655 121 0
-1655 329 0
-121 -329 1655 0
-1656 122 0
-1656 330 0
-122 -330 1656 0
-1657 123 0
-1657 331 0
-123 -331 1657 0
-1658 124 0
-1658 332 0
-124 -332 1658 0
-1659 125 0
-1659 333 0
-125 -333 1659 0
-1660 126 0
-1660 334 0
-126 -334 1660 0
-1661 127 0
-1661 335 0
-127 -335 1661 0
-1662 128 0
-1662 336 0
-128 -336 1662 0
-1663 129 0
-1663 337 0
-129 -337 1663 0
-1664 130 0
-1664 338 0
-130 -338 1664 0
-1639 13407 0
-13407 13408 0
-1640 -13407 0
-1640 13408 0
-13408 13409 0
-1641 -13408 0
-1641 13409 0
-13409 13410 0
-1642 -13409 0
-1642 13410 0
-13410 13411 0
-1643 -13410 0
-1643 13411 0
-13411 13412 0
-1644 -13411 0
-1644 13412 0
-13412 13413 0
-1645 -13412 0
-1645 13413 0
-13413 13414 0
-1646 -13413 0
-1646 13414 0
-13414 13415 0
-1647 -13414 0
-1647 13415 0
-13415 13416 0
-1648 -13415 0
-1648 13416 0
-13416 13417 0
-1649 -13416 0
-1649 13417 0
-13417 13418 0
-1650 -13417 0
-1650 13418 0
-13418 13419 0
-1651 -13418 0
-1651 13419 0
-13419 13420 0
-1652 -13419 0
-1652 13420 0
-13420 13421 0
-1653 -13420 0
-1653 13421 0
-13421 13422 0
-1654 -13421 0
-1654 13422 0
-13422 13423 0
-1655 -13422 0
-1655 13423 0
-13423 13424 0
-1656 -13423 0
-1656 13424 0
-13424 13425 0
-1657 -13424 0
-1657 13425 0
-13425 13426 0
-1658 -13425 0
-1658 13426 0
-13426 13427 0
-1659 -13426 0
-1659 13427 0
-13427 13428 0
-1660 -13427 0
-1660 13428 0
-13428 13429 0
-1661 -13428 0
-1661 13429 0
-13429 13430 0
-1662 -13429 0
-1662 13430 0
-13430 13431 0
-1663 -13430 0
-1663 13431 0
-1664 -13431 0
-1639 2442 0
-1640 2442 0
-1641 2442 0
-1642 2442 0
-1643 2442 0
-1644 2442 0
-1645 2442 0
-1646 2442 0
-1647 2442 0
-1648 2442 0
-1649 2442 0
-1650 2442 0
-1651 2442 0
-1652 2442 0
-1653 2442 0
-1654 2442 0
-1655 2442 0
-1656 2442 0
-1657 2442 0
-1658 2442 0
-1659 2442 0
-1660 2442 0
-1661 2442 0
-1662 2442 0
-1663 2442 0
-1664 2442 0
-2442 1639 1640 1641 1642 1643 1644 1645 1646 1647 1648 1649 1650 1651 1652 1653 1654 1655 1656 1657 1658 1659 1660 1661 1662 1663 1664 0
-1665 131 0
-1665 157 0
-131 -157 1665 0
-1666 132 0
-1666 158 0
-132 -158 1666 0
-1667 133 0
-1667 159 0
-133 -159 1667 0
-1668 134 0
-1668 160 0
-134 -160 1668 0
-1669 135 0
-1669 161 0
-135 -161 1669 0
-1670 136 0
-1670 162 0
-136 -162 1670 0
-1671 137 0
-1671 163 0
-137 -163 1671 0
-1672 138 0
-1672 164 0
-138 -164 1672 0
-1673 139 0
-1673 165 0
-139 -165 1673 0
-1674 140 0
-1674 166 0
-140 -166 1674 0
-1675 141 0
-1675 167 0
-141 -167 1675 0
-1676 142 0
-1676 168 0
-142 -168 1676 0
-1677 143 0
-1677 169 0
-143 -169 1677 0
-1678 144 0
-1678 170 0
-144 -170 1678 0
-1679 145 0
-1679 171 0
-145 -171 1679 0
-1680 146 0
-1680 172 0
-146 -172 1680 0
-1681 147 0
-1681 173 0
-147 -173 1681 0
-1682 148 0
-1682 174 0
-148 -174 1682 0
-1683 149 0
-1683 175 0
-149 -175 1683 0
-1684 150 0
-1684 176 0
-150 -176 1684 0
-1685 151 0
-1685 177 0
-151 -177 1685 0
-1686 152 0
-1686 178 0
-152 -178 1686 0
-1687 153 0
-1687 179 0
-153 -179 1687 0
-1688 154 0
-1688 180 0
-154 -180 1688 0
-1689 155 0
-1689 181 0
-155 -181 1689 0
-1690 156 0
-1690 182 0
-156 -182 1690 0
-1665 13432 0
-13432 13433 0
-1666 -13432 0
-1666 13433 0
-13433 13434 0
-1667 -13433 0
-1667 13434 0
-13434 13435 0
-1668 -13434 0
-1668 13435 0
-13435 13436 0
-1669 -13435 0
-1669 13436 0
-13436 13437 0
-1670 -13436 0
-1670 13437 0
-13437 13438 0
-1671 -13437 0
-1671 13438 0
-13438 13439 0
-1672 -13438 0
-1672 13439 0
-13439 13440 0
-1673 -13439 0
-1673 13440 0
-13440 13441 0
-1674 -13440 0
-1674 13441 0
-13441 13442 0
-1675 -13441 0
-1675 13442 0
-13442 13443 0
-1676 -13442 0
-1676 13443 0
-13443 13444 0
-1677 -13443 0
-1677 13444 0
-13444 13445 0
-1678 -13444 0
-1678 13445 0
-13445 13446 0
-1679 -13445 0
-1679 13446 0
-13446 13447 0
-1680 -13446 0
-1680 13447 0
-13447 13448 0
-1681 -13447 0
-1681 13448 0
-13448 13449 0
-1682 -13448 0
-1682 13449 0
-13449 13450 0
-1683 -13449 0
-1683 13450 0
-13450 13451 0
-1684 -13450 0
-1684 13451 0
-13451 13452 0
-1685 -13451 0
-1685 13452 0
-13452 13453 0
-1686 -13452 0
-1686 13453 0
-13453 13454 0
-1687 -13453 0
-1687 13454 0
-13454 13455 0
-1688 -13454 0
-1688 13455 0
-13455 13456 0
-1689 -13455 0
-1689 13456 0
-1690 -13456 0
-1665 2443 0
-1666 2443 0
-1667 2443 0
-1668 2443 0
-1669 2443 0
-1670 2443 0
-1671 2443 0
-1672 2443 0
-1673 2443 0
-1674 2443 0
-1675 2443 0
-1676 2443 0
-1677 2443 0
-1678 2443 0
-1679 2443 0
-1680 2443 0
-1681 2443 0
-1682 2443 0
-1683 2443 0
-1684 2443 0
-1685 2443 0
-1686 2443 0
-1687 2443 0
-1688 2443 0
-1689 2443 0
-1690 2443 0
-2443 1665 1666 1667 1668 1669 1670 1671 1672 1673 1674 1675 1676 1677 1678 1679 1680 1681 1682 1683 1684 1685 1686 1687 1688 1689 1690 0
-1691 131 0
-1691 183 0
-131 -183 1691 0
-1692 132 0
-1692 184 0
-132 -184 1692 0
-1693 133 0
-1693 185 0
-133 -185 1693 0
-1694 134 0
-1694 186 0
-134 -186 1694 0
-1695 135 0
-1695 187 0
-135 -187 1695 0
-1696 136 0
-1696 188 0
-136 -188 1696 0
-1697 137 0
-1697 189 0
-137 -189 1697 0
-1698 138 0
-1698 190 0
-138 -190 1698 0
-1699 139 0
-1699 191 0
-139 -191 1699 0
-1700 140 0
-1700 192 0
-140 -192 1700 0
-1701 141 0
-1701 193 0
-141 -193 1701 0
-1702 142 0
-1702 194 0
-142 -194 1702 0
-1703 143 0
-1703 195 0
-143 -195 1703 0
-1704 144 0
-1704 196 0
-144 -196 1704 0
-1705 145 0
-1705 197 0
-145 -197 1705 0
-1706 146 0
-1706 198 0
-146 -198 1706 0
-1707 147 0
-1707 199 0
-147 -199 1707 0
-1708 148 0
-1708 200 0
-148 -200 1708 0
-1709 149 0
-1709 201 0
-149 -201 1709 0
-1710 150 0
-1710 202 0
-150 -202 1710 0
-1711 151 0
-1711 203 0
-151 -203 1711 0
-1712 152 0
-1712 204 0
-152 -204 1712 0
-1713 153 0
-1713 205 0
-153 -205 1713 0
-1714 154 0
-1714 206 0
-154 -206 1714 0
-1715 155 0
-1715 207 0
-155 -207 1715 0
-1716 156 0
-1716 208 0
-156 -208 1716 0
-1691 13457 0
-13457 13458 0
-1692 -13457 0
-1692 13458 0
-13458 13459 0
-1693 -13458 0
-1693 13459 0
-13459 13460 0
-1694 -13459 0
-1694 13460 0
-13460 13461 0
-1695 -13460 0
-1695 13461 0
-13461 13462 0
-1696 -13461 0
-1696 13462 0
-13462 13463 0
-1697 -13462 0
-1697 13463 0
-13463 13464 0
-1698 -13463 0
-1698 13464 0
-13464 13465 0
-1699 -13464 0
-1699 13465 0
-13465 13466 0
-1700 -13465 0
-1700 13466 0
-13466 13467 0
-1701 -13466 0
-1701 13467 0
-13467 13468 0
-1702 -13467 0
-1702 13468 0
-13468 13469 0
-1703 -13468 0
-1703 13469 0
-13469 13470 0
-1704 -13469 0
-1704 13470 0
-13470 13471 0
-1705 -13470 0
-1705 13471 0
-13471 13472 0
-1706 -13471 0
-1706 13472 0
-13472 13473 0
-1707 -13472 0
-1707 13473 0
-13473 13474 0
-1708 -13473 0
-1708 13474 0
-13474 13475 0
-1709 -13474 0
-1709 13475 0
-13475 13476 0
-1710 -13475 0
-1710 13476 0
-13476 13477 0
-1711 -13476 0
-1711 13477 0
-13477 13478 0
-1712 -13477 0
-1712 13478 0
-13478 13479 0
-1713 -13478 0
-1713 13479 0
-13479 13480 0
-1714 -13479 0
-1714 13480 0
-13480 13481 0
-1715 -13480 0
-1715 13481 0
-1716 -13481 0
-1691 2444 0
-1692 2444 0
-1693 2444 0
-1694 2444 0
-1695 2444 0
-1696 2444 0
-1697 2444 0
-1698 2444 0
-1699 2444 0
-1700 2444 0
-1701 2444 0
-1702 2444 0
-1703 2444 0
-1704 2444 0
-1705 2444 0
-1706 2444 0
-1707 2444 0
-1708 2444 0
-1709 2444 0
-1710 2444 0
-1711 2444 0
-1712 2444 0
-1713 2444 0
-1714 2444 0
-1715 2444 0
-1716 2444 0
-2444 1691 1692 1693 1694 1695 1696 1697 1698 1699 1700 1701 1702 1703 1704 1705 1706 1707 1708 1709 1710 1711 1712 1713 1714 1715 1716 0
-1717 131 0
-1717 209 0
-131 -209 1717 0
-1718 132 0
-1718 210 0
-132 -210 1718 0
-1719 133 0
-1719 211 0
-133 -211 1719 0
-1720 134 0
-1720 212 0
-134 -212 1720 0
-1721 135 0
-1721 213 0
-135 -213 1721 0
-1722 136 0
-1722 214 0
-136 -214 1722 0
-1723 137 0
-1723 215 0
-137 -215 1723 0
-1724 138 0
-1724 216 0
-138 -216 1724 0
-1725 139 0
-1725 217 0
-139 -217 1725 0
-1726 140 0
-1726 218 0
-140 -218 1726 0
-1727 141 0
-1727 219 0
-141 -219 1727 0
-1728 142 0
-1728 220 0
-142 -220 1728 0
-1729 143 0
-1729 221 0
-143 -221 1729 0
-1730 144 0
-1730 222 0
-144 -222 1730 0
-1731 145 0
-1731 223 0
-145 -223 1731 0
-1732 146 0
-1732 224 0
-146 -224 1732 0
-1733 147 0
-1733 225 0
-147 -225 1733 0
-1734 148 0
-1734 226 0
-148 -226 1734 0
-1735 149 0
-1735 227 0
-149 -227 1735 0
-1736 150 0
-1736 228 0
-150 -228 1736 0
-1737 151 0
-1737 229 0
-151 -229 1737 0
-1738 152 0
-1738 230 0
-152 -230 1738 0
-1739 153 0
-1739 231 0
-153 -231 1739 0
-1740 154 0
-1740 232 0
-154 -232 1740 0
-1741 155 0
-1741 233 0
-155 -233 1741 0
-1742 156 0
-1742 234 0
-156 -234 1742 0
-1717 13482 0
-13482 13483 0
-1718 -13482 0
-1718 13483 0
-13483 13484 0
-1719 -13483 0
-1719 13484 0
-13484 13485 0
-1720 -13484 0
-1720 13485 0
-13485 13486 0
-1721 -13485 0
-1721 13486 0
-13486 13487 0
-1722 -13486 0
-1722 13487 0
-13487 13488 0
-1723 -13487 0
-1723 13488 0
-13488 13489 0
-1724 -13488 0
-1724 13489 0
-13489 13490 0
-1725 -13489 0
-1725 13490 0
-13490 13491 0
-1726 -13490 0
-1726 13491 0
-13491 13492 0
-1727 -13491 0
-1727 13492 0
-13492 13493 0
-1728 -13492 0
-1728 13493 0
-13493 13494 0
-1729 -13493 0
-1729 13494 0
-13494 13495 0
-1730 -13494 0
-1730 13495 0
-13495 13496 0
-1731 -13495 0
-1731 13496 0
-13496 13497 0
-1732 -13496 0
-1732 13497 0
-13497 13498 0
-1733 -13497 0
-1733 13498 0
-13498 13499 0
-1734 -13498 0
-1734 13499 0
-13499 13500 0
-1735 -13499 0
-1735 13500 0
-13500 13501 0
-1736 -13500 0
-1736 13501 0
-13501 13502 0
-1737 -13501 0
-1737 13502 0
-13502 13503 0
-1738 -13502 0
-1738 13503 0
-13503 13504 0
-1739 -13503 0
-1739 13504 0
-13504 13505 0
-1740 -13504 0
-1740 13505 0
-13505 13506 0
-1741 -13505 0
-1741 13506 0
-1742 -13506 0
-1717 2445 0
-1718 2445 0
-1719 2445 0
-1720 2445 0
-1721 2445 0
-1722 2445 0
-1723 2445 0
-1724 2445 0
-1725 2445 0
-1726 2445 0
-1727 2445 0
-1728 2445 0
-1729 2445 0
-1730 2445 0
-1731 2445 0
-1732 2445 0
-1733 2445 0
-1734 2445 0
-1735 2445 0
-1736 2445 0
-1737 2445 0
-1738 2445 0
-1739 2445 0
-1740 2445 0
-1741 2445 0
-1742 2445 0
-2445 1717 1718 1719 1720 1721 1722 1723 1724 1725 1726 1727 1728 1729 1730 1731 1732 1733 1734 1735 1736 1737 1738 1739 1740 1741 1742 0
-1743 131 0
-1743 235 0
-131 -235 1743 0
-1744 132 0
-1744 236 0
-132 -236 1744 0
-1745 133 0
-1745 237 0
-133 -237 1745 0
-1746 134 0
-1746 238 0
-134 -238 1746 0
-1747 135 0
-1747 239 0
-135 -239 1747 0
-1748 136 0
-1748 240 0
-136 -240 1748 0
-1749 137 0
-1749 241 0
-137 -241 1749 0
-1750 138 0
-1750 242 0
-138 -242 1750 0
-1751 139 0
-1751 243 0
-139 -243 1751 0
-1752 140 0
-1752 244 0
-140 -244 1752 0
-1753 141 0
-1753 245 0
-141 -245 1753 0
-1754 142 0
-1754 246 0
-142 -246 1754 0
-1755 143 0
-1755 247 0
-143 -247 1755 0
-1756 144 0
-1756 248 0
-144 -248 1756 0
-1757 145 0
-1757 249 0
-145 -249 1757 0
-1758 146 0
-1758 250 0
-146 -250 1758 0
-1759 147 0
-1759 251 0
-147 -251 1759 0
-1760 148 0
-1760 252 0
-148 -252 1760 0
-1761 149 0
-1761 253 0
-149 -253 1761 0
-1762 150 0
-1762 254 0
-150 -254 1762 0
-1763 151 0
-1763 255 0
-151 -255 1763 0
-1764 152 0
-1764 256 0
-152 -256 1764 0
-1765 153 0
-1765 257 0
-153 -257 1765 0
-1766 154 0
-1766 258 0
-154 -258 1766 0
-1767 155 0
-1767 259 0
-155 -259 1767 0
-1768 156 0
-1768 260 0
-156 -260 1768 0
-1743 13507 0
-13507 13508 0
-1744 -13507 0
-1744 13508 0
-13508 13509 0
-1745 -13508 0
-1745 13509 0
-13509 13510 0
-1746 -13509 0
-1746 13510 0
-13510 13511 0
-1747 -13510 0
-1747 13511 0
-13511 13512 0
-1748 -13511 0
-1748 13512 0
-13512 13513 0
-1749 -13512 0
-1749 13513 0
-13513 13514 0
-1750 -13513 0
-1750 13514 0
-13514 13515 0
-1751 -13514 0
-1751 13515 0
-13515 13516 0
-1752 -13515 0
-1752 13516 0
-13516 13517 0
-1753 -13516 0
-1753 13517 0
-13517 13518 0
-1754 -13517 0
-1754 13518 0
-13518 13519 0
-1755 -13518 0
-1755 13519 0
-13519 13520 0
-1756 -13519 0
-1756 13520 0
-13520 13521 0
-1757 -13520 0
-1757 13521 0
-13521 13522 0
-1758 -13521 0
-1758 13522 0
-13522 13523 0
-1759 -13522 0
-1759 13523 0
-13523 13524 0
-1760 -13523 0
-1760 13524 0
-13524 13525 0
-1761 -13524 0
-1761 13525 0
-13525 13526 0
-1762 -13525 0
-1762 13526 0
-13526 13527 0
-1763 -13526 0
-1763 13527 0
-13527 13528 0
-1764 -13527 0
-1764 13528 0
-13528 13529 0
-1765 -13528 0
-1765 13529 0
-13529 13530 0
-1766 -13529 0
-1766 13530 0
-13530 13531 0
-1767 -13530 0
-1767 13531 0
-1768 -13531 0
-1743 2446 0
-1744 2446 0
-1745 2446 0
-1746 2446 0
-1747 2446 0
-1748 2446 0
-1749 2446 0
-1750 2446 0
-1751 2446 0
-1752 2446 0
-1753 2446 0
-1754 2446 0
-1755 2446 0
-1756 2446 0
-1757 2446 0
-1758 2446 0
-1759 2446 0
-1760 2446 0
-1761 2446 0
-1762 2446 0
-1763 2446 0
-1764 2446 0
-1765 2446 0
-1766 2446 0
-1767 2446 0
-1768 2446 0
-2446 1743 1744 1745 1746 1747 1748 1749 1750 1751 1752 1753 1754 1755 1756 1757 1758 1759 1760 1761 1762 1763 1764 1765 1766 1767 1768 0
-1769 131 0
-1769 261 0
-131 -261 1769 0
-1770 132 0
-1770 262 0
-132 -262 1770 0
-1771 133 0
-1771 263 0
-133 -263 1771 0
-1772 134 0
-1772 264 0
-134 -264 1772 0
-1773 135 0
-1773 265 0
-135 -265 1773 0
-1774 136 0
-1774 266 0
-136 -266 1774 0
-1775 137 0
-1775 267 0
-137 -267 1775 0
-1776 138 0
-1776 268 0
-138 -268 1776 0
-1777 139 0
-1777 269 0
-139 -269 1777 0
-1778 140 0
-1778 270 0
-140 -270 1778 0
-1779 141 0
-1779 271 0
-141 -271 1779 0
-1780 142 0
-1780 272 0
-142 -272 1780 0
-1781 143 0
-1781 273 0
-143 -273 1781 0
-1782 144 0
-1782 274 0
-144 -274 1782 0
-1783 145 0
-1783 275 0
-145 -275 1783 0
-1784 146 0
-1784 276 0
-146 -276 1784 0
-1785 147 0
-1785 277 0
-147 -277 1785 0
-1786 148 0
-1786 278 0
-148 -278 1786 0
-1787 149 0
-1787 279 0
-149 -279 1787 0
-1788 150 0
-1788 280 0
-150 -280 1788 0
-1789 151 0
-1789 281 0
-151 -281 1789 0
-1790 152 0
-1790 282 0
-152 -282 1790 0
-1791 153 0
-1791 283 0
-153 -283 1791 0
-1792 154 0
-1792 284 0
-154 -284 1792 0
-1793 155 0
-1793 285 0
-155 -285 1793 0
-1794 156 0
-1794 286 0
-156 -286 1794 0
-1769 13532 0
-13532 13533 0
-1770 -13532 0
-1770 13533 0
-13533 13534 0
-1771 -13533 0
-1771 13534 0
-13534 13535 0
-1772 -13534 0
-1772 13535 0
-13535 13536 0
-1773 -13535 0
-1773 13536 0
-13536 13537 0
-1774 -13536 0
-1774 13537 0
-13537 13538 0
-1775 -13537 0
-1775 13538 0
-13538 13539 0
-1776 -13538 0
-1776 13539 0
-13539 13540 0
-1777 -13539 0
-1777 13540 0
-13540 13541 0
-1778 -13540 0
-1778 13541 0
-13541 13542 0
-1779 -13541 0
-1779 13542 0
-13542 13543 0
-1780 -13542 0
-1780 13543 0
-13543 13544 0
-1781 -13543 0
-1781 13544 0
-13544 13545 0
-1782 -13544 0
-1782 13545 0
-13545 13546 0
-1783 -13545 0
-1783 13546 0
-13546 13547 0
-1784 -13546 0
-1784 13547 0
-13547 13548 0
-1785 -13547 0
-1785 13548 0
-13548 13549 0
-1786 -13548 0
-1786 13549 0
-13549 13550 0
-1787 -13549 0
-1787 13550 0
-13550 13551 0
-1788 -13550 0
-1788 13551 0
-13551 13552 0
-1789 -13551 0
-1789 13552 0
-13552 13553 0
-1790 -13552 0
-1790 13553 0
-13553 13554 0
-1791 -13553 0
-1791 13554 0
-13554 13555 0
-1792 -13554 0
-1792 13555 0
-13555 13556 0
-1793 -13555 0
-1793 13556 0
-1794 -13556 0
-1769 2447 0
-1770 2447 0
-1771 2447 0
-1772 2447 0
-1773 2447 0
-1774 2447 0
-1775 2447 0
-1776 2447 0
-1777 2447 0
-1778 2447 0
-1779 2447 0
-1780 2447 0
-1781 2447 0
-1782 2447 0
-1783 2447 0
-1784 2447 0
-1785 2447 0
-1786 2447 0
-1787 2447 0
-1788 2447 0
-1789 2447 0
-1790 2447 0
-1791 2447 0
-1792 2447 0
-1793 2447 0
-1794 2447 0
-2447 1769 1770 1771 1772 1773 1774 1775 1776 1777 1778 1779 1780 1781 1782 1783 1784 1785 1786 1787 1788 1789 1790 1791 1792 1793 1794 0
-1795 131 0
-1795 287 0
-131 -287 1795 0
-1796 132 0
-1796 288 0
-132 -288 1796 0
-1797 133 0
-1797 289 0
-133 -289 1797 0
-1798 134 0
-1798 290 0
-134 -290 1798 0
-1799 135 0
-1799 291 0
-135 -291 1799 0
-1800 136 0
-1800 292 0
-136 -292 1800 0
-1801 137 0
-1801 293 0
-137 -293 1801 0
-1802 138 0
-1802 294 0
-138 -294 1802 0
-1803 139 0
-1803 295 0
-139 -295 1803 0
-1804 140 0
-1804 296 0
-140 -296 1804 0
-1805 141 0
-1805 297 0
-141 -297 1805 0
-1806 142 0
-1806 298 0
-142 -298 1806 0
-1807 143 0
-1807 299 0
-143 -299 1807 0
-1808 144 0
-1808 300 0
-144 -300 1808 0
-1809 145 0
-1809 301 0
-145 -301 1809 0
-1810 146 0
-1810 302 0
-146 -302 1810 0
-1811 147 0
-1811 303 0
-147 -303 1811 0
-1812 148 0
-1812 304 0
-148 -304 1812 0
-1813 149 0
-1813 305 0
-149 -305 1813 0
-1814 150 0
-1814 306 0
-150 -306 1814 0
-1815 151 0
-1815 307 0
-151 -307 1815 0
-1816 152 0
-1816 308 0
-152 -308 1816 0
-1817 153 0
-1817 309 0
-153 -309 1817 0
-1818 154 0
-1818 310 0
-154 -310 1818 0
-1819 155 0
-1819 311 0
-155 -311 1819 0
-1820 156 0
-1820 312 0
-156 -312 1820 0
-1795 13557 0
-13557 13558 0
-1796 -13557 0
-1796 13558 0
-13558 13559 0
-1797 -13558 0
-1797 13559 0
-13559 13560 0
-1798 -13559 0
-1798 13560 0
-13560 13561 0
-1799 -13560 0
-1799 13561 0
-13561 13562 0
-1800 -13561 0
-1800 13562 0
-13562 13563 0
-1801 -13562 0
-1801 13563 0
-13563 13564 0
-1802 -13563 0
-1802 13564 0
-13564 13565 0
-1803 -13564 0
-1803 13565 0
-13565 13566 0
-1804 -13565 0
-1804 13566 0
-13566 13567 0
-1805 -13566 0
-1805 13567 0
-13567 13568 0
-1806 -13567 0
-1806 13568 0
-13568 13569 0
-1807 -13568 0
-1807 13569 0
-13569 13570 0
-1808 -13569 0
-1808 13570 0
-13570 13571 0
-1809 -13570 0
-1809 13571 0
-13571 13572 0
-1810 -13571 0
-1810 13572 0
-13572 13573 0
-1811 -13572 0
-1811 13573 0
-13573 13574 0
-1812 -13573 0
-1812 13574 0
-13574 13575 0
-1813 -13574 0
-1813 13575 0
-13575 13576 0
-1814 -13575 0
-1814 13576 0
-13576 13577 0
-1815 -13576 0
-1815 13577 0
-13577 13578 0
-1816 -13577 0
-1816 13578 0
-13578 13579 0
-1817 -13578 0
-1817 13579 0
-13579 13580 0
-1818 -13579 0
-1818 13580 0
-13580 13581 0
-1819 -13580 0
-1819 13581 0
-1820 -13581 0
-1795 2448 0
-1796 2448 0
-1797 2448 0
-1798 2448 0
-1799 2448 0
-1800 2448 0
-1801 2448 0
-1802 2448 0
-1803 2448 0
-1804 2448 0
-1805 2448 0
-1806 2448 0
-1807 2448 0
-1808 2448 0
-1809 2448 0
-1810 2448 0
-1811 2448 0
-1812 2448 0
-1813 2448 0
-1814 2448 0
-1815 2448 0
-1816 2448 0
-1817 2448 0
-1818 2448 0
-1819 2448 0
-1820 2448 0
-2448 1795 1796 1797 1798 1799 1800 1801 1802 1803 1804 1805 1806 1807 1808 1809 1810 1811 1812 1813 1814 1815 1816 1817 1818 1819 1820 0
-1821 131 0
-1821 313 0
-131 -313 1821 0
-1822 132 0
-1822 314 0
-132 -314 1822 0
-1823 133 0
-1823 315 0
-133 -315 1823 0
-1824 134 0
-1824 316 0
-134 -316 1824 0
-1825 135 0
-1825 317 0
-135 -317 1825 0
-1826 136 0
-1826 318 0
-136 -318 1826 0
-1827 137 0
-1827 319 0
-137 -319 1827 0
-1828 138 0
-1828 320 0
-138 -320 1828 0
-1829 139 0
-1829 321 0
-139 -321 1829 0
-1830 140 0
-1830 322 0
-140 -322 1830 0
-1831 141 0
-1831 323 0
-141 -323 1831 0
-1832 142 0
-1832 324 0
-142 -324 1832 0
-1833 143 0
-1833 325 0
-143 -325 1833 0
-1834 144 0
-1834 326 0
-144 -326 1834 0
-1835 145 0
-1835 327 0
-145 -327 1835 0
-1836 146 0
-1836 328 0
-146 -328 1836 0
-1837 147 0
-1837 329 0
-147 -329 1837 0
-1838 148 0
-1838 330 0
-148 -330 1838 0
-1839 149 0
-1839 331 0
-149 -331 1839 0
-1840 150 0
-1840 332 0
-150 -332 1840 0
-1841 151 0
-1841 333 0
-151 -333 1841 0
-1842 152 0
-1842 334 0
-152 -334 1842 0
-1843 153 0
-1843 335 0
-153 -335 1843 0
-1844 154 0
-1844 336 0
-154 -336 1844 0
-1845 155 0
-1845 337 0
-155 -337 1845 0
-1846 156 0
-1846 338 0
-156 -338 1846 0
-1821 13582 0
-13582 13583 0
-1822 -13582 0
-1822 13583 0
-13583 13584 0
-1823 -13583 0
-1823 13584 0
-13584 13585 0
-1824 -13584 0
-1824 13585 0
-13585 13586 0
-1825 -13585 0
-1825 13586 0
-13586 13587 0
-1826 -13586 0
-1826 13587 0
-13587 13588 0
-1827 -13587 0
-1827 13588 0
-13588 13589 0
-1828 -13588 0
-1828 13589 0
-13589 13590 0
-1829 -13589 0
-1829 13590 0
-13590 13591 0
-1830 -13590 0
-1830 13591 0
-13591 13592 0
-1831 -13591 0
-1831 13592 0
-13592 13593 0
-1832 -13592 0
-1832 13593 0
-13593 13594 0
-1833 -13593 0
-1833 13594 0
-13594 13595 0
-1834 -13594 0
-1834 13595 0
-13595 13596 0
-1835 -13595 0
-1835 13596 0
-13596 13597 0
-1836 -13596 0
-1836 13597 0
-13597 13598 0
-1837 -13597 0
-1837 13598 0
-13598 13599 0
-1838 -13598 0
-1838 13599 0
-13599 13600 0
-1839 -13599 0
-1839 13600 0
-13600 13601 0
-1840 -13600 0
-1840 13601 0
-13601 13602 0
-1841 -13601 0
-1841 13602 0
-13602 13603 0
-1842 -13602 0
-1842 13603 0
-13603 13604 0
-1843 -13603 0
-1843 13604 0
-13604 13605 0
-1844 -13604 0
-1844 13605 0
-13605 13606 0
-1845 -13605 0
-1845 13606 0
-1846 -13606 0
-1821 2449 0
-1822 2449 0
-1823 2449 0
-1824 2449 0
-1825 2449 0
-1826 2449 0
-1827 2449 0
-1828 2449 0
-1829 2449 0
-1830 2449 0
-1831 2449 0
-1832 2449 0
-1833 2449 0
-1834 2449 0
-1835 2449 0
-1836 2449 0
-1837 2449 0
-1838 2449 0
-1839 2449 0
-1840 2449 0
-1841 2449 0
-1842 2449 0
-1843 2449 0
-1844 2449 0
-1845 2449 0
-1846 2449 0
-2449 1821 1822 1823 1824 1825 1826 1827 1828 1829 1830 1831 1832 1833 1834 1835 1836 1837 1838 1839 1840 1841 1842 1843 1844 1845 1846 0
-1847 157 0
-1847 183 0
-157 -183 1847 0
-1848 158 0
-1848 184 0
-158 -184 1848 0
-1849 159 0
-1849 185 0
-159 -185 1849 0
-1850 160 0
-1850 186 0
-160 -186 1850 0
-1851 161 0
-1851 187 0
-161 -187 1851 0
-1852 162 0
-1852 188 0
-162 -188 1852 0
-1853 163 0
-1853 189 0
-163 -189 1853 0
-1854 164 0
-1854 190 0
-164 -190 1854 0
-1855 165 0
-1855 191 0
-165 -191 1855 0
-1856 166 0
-1856 192 0
-166 -192 1856 0
-1857 167 0
-1857 193 0
-167 -193 1857 0
-1858 168 0
-1858 194 0
-168 -194 1858 0
-1859 169 0
-1859 195 0
-169 -195 1859 0
-1860 170 0
-1860 196 0
-170 -196 1860 0
-1861 171 0
-1861 197 0
-171 -197 1861 0
-1862 172 0
-1862 198 0
-172 -198 1862 0
-1863 173 0
-1863 199 0
-173 -199 1863 0
-1864 174 0
-1864 200 0
-174 -200 1864 0
-1865 175 0
-1865 201 0
-175 -201 1865 0
-1866 176 0
-1866 202 0
-176 -202 1866 0
-1867 177 0
-1867 203 0
-177 -203 1867 0
-1868 178 0
-1868 204 0
-178 -204 1868 0
-1869 179 0
-1869 205 0
-179 -205 1869 0
-1870 180 0
-1870 206 0
-180 -206 1870 0
-1871 181 0
-1871 207 0
-181 -207 1871 0
-1872 182 0
-1872 208 0
-182 -208 1872 0
-1847 13607 0
-13607 13608 0
-1848 -13607 0
-1848 13608 0
-13608 13609 0
-1849 -13608 0
-1849 13609 0
-13609 13610 0
-1850 -13609 0
-1850 13610 0
-13610 13611 0
-1851 -13610 0
-1851 13611 0
-13611 13612 0
-1852 -13611 0
-1852 13612 0
-13612 13613 0
-1853 -13612 0
-1853 13613 0
-13613 13614 0
-1854 -13613 0
-1854 13614 0
-13614 13615 0
-1855 -13614 0
-1855 13615 0
-13615 13616 0
-1856 -13615 0
-1856 13616 0
-13616 13617 0
-1857 -13616 0
-1857 13617 0
-13617 13618 0
-1858 -13617 0
-1858 13618 0
-13618 13619 0
-1859 -13618 0
-1859 13619 0
-13619 13620 0
-1860 -13619 0
-1860 13620 0
-13620 13621 0
-1861 -13620 0
-1861 13621 0
-13621 13622 0
-1862 -13621 0
-1862 13622 0
-13622 13623 0
-1863 -13622 0
-1863 13623 0
-13623 13624 0
-1864 -13623 0
-1864 13624 0
-13624 13625 0
-1865 -13624 0
-1865 13625 0
-13625 13626 0
-1866 -13625 0
-1866 13626 0
-13626 13627 0
-1867 -13626 0
-1867 13627 0
-13627 13628 0
-1868 -13627 0
-1868 13628 0
-13628 13629 0
-1869 -13628 0
-1869 13629 0
-13629 13630 0
-1870 -13629 0
-1870 13630 0
-13630 13631 0
-1871 -13630 0
-1871 13631 0
-1872 -13631 0
-1847 2450 0
-1848 2450 0
-1849 2450 0
-1850 2450 0
-1851 2450 0
-1852 2450 0
-1853 2450 0
-1854 2450 0
-1855 2450 0
-1856 2450 0
-1857 2450 0
-1858 2450 0
-1859 2450 0
-1860 2450 0
-1861 2450 0
-1862 2450 0
-1863 2450 0
-1864 2450 0
-1865 2450 0
-1866 2450 0
-1867 2450 0
-1868 2450 0
-1869 2450 0
-1870 2450 0
-1871 2450 0
-1872 2450 0
-2450 1847 1848 1849 1850 1851 1852 1853 1854 1855 1856 1857 1858 1859 1860 1861 1862 1863 1864 1865 1866 1867 1868 1869 1870 1871 1872 0
-1873 157 0
-1873 209 0
-157 -209 1873 0
-1874 158 0
-1874 210 0
-158 -210 1874 0
-1875 159 0
-1875 211 0
-159 -211 1875 0
-1876 160 0
-1876 212 0
-160 -212 1876 0
-1877 161 0
-1877 213 0
-161 -213 1877 0
-1878 162 0
-1878 214 0
-162 -214 1878 0
-1879 163 0
-1879 215 0
-163 -215 1879 0
-1880 164 0
-1880 216 0
-164 -216 1880 0
-1881 165 0
-1881 217 0
-165 -217 1881 0
-1882 166 0
-1882 218 0
-166 -218 1882 0
-1883 167 0
-1883 219 0
-167 -219 1883 0
-1884 168 0
-1884 220 0
-168 -220 1884 0
-1885 169 0
-1885 221 0
-169 -221 1885 0
-1886 170 0
-1886 222 0
-170 -222 1886 0
-1887 171 0
-1887 223 0
-171 -223 1887 0
-1888 172 0
-1888 224 0
-172 -224 1888 0
-1889 173 0
-1889 225 0
-173 -225 1889 0
-1890 174 0
-1890 226 0
-174 -226 1890 0
-1891 175 0
-1891 227 0
-175 -227 1891 0
-1892 176 0
-1892 228 0
-176 -228 1892 0
-1893 177 0
-1893 229 0
-177 -229 1893 0
-1894 178 0
-1894 230 0
-178 -230 1894 0
-1895 179 0
-1895 231 0
-179 -231 1895 0
-1896 180 0
-1896 232 0
-180 -232 1896 0
-1897 181 0
-1897 233 0
-181 -233 1897 0
-1898 182 0
-1898 234 0
-182 -234 1898 0
-1873 13632 0
-13632 13633 0
-1874 -13632 0
-1874 13633 0
-13633 13634 0
-1875 -13633 0
-1875 13634 0
-13634 13635 0
-1876 -13634 0
-1876 13635 0
-13635 13636 0
-1877 -13635 0
-1877 13636 0
-13636 13637 0
-1878 -13636 0
-1878 13637 0
-13637 13638 0
-1879 -13637 0
-1879 13638 0
-13638 13639 0
-1880 -13638 0
-1880 13639 0
-13639 13640 0
-1881 -13639 0
-1881 13640 0
-13640 13641 0
-1882 -13640 0
-1882 13641 0
-13641 13642 0
-1883 -13641 0
-1883 13642 0
-13642 13643 0
-1884 -13642 0
-1884 13643 0
-13643 13644 0
-1885 -13643 0
-1885 13644 0
-13644 13645 0
-1886 -13644 0
-1886 13645 0
-13645 13646 0
-1887 -13645 0
-1887 13646 0
-13646 13647 0
-1888 -13646 0
-1888 13647 0
-13647 13648 0
-1889 -13647 0
-1889 13648 0
-13648 13649 0
-1890 -13648 0
-1890 13649 0
-13649 13650 0
-1891 -13649 0
-1891 13650 0
-13650 13651 0
-1892 -13650 0
-1892 13651 0
-13651 13652 0
-1893 -13651 0
-1893 13652 0
-13652 13653 0
-1894 -13652 0
-1894 13653 0
-13653 13654 0
-1895 -13653 0
-1895 13654 0
-13654 13655 0
-1896 -13654 0
-1896 13655 0
-13655 13656 0
-1897 -13655 0
-1897 13656 0
-1898 -13656 0
-1873 2451 0
-1874 2451 0
-1875 2451 0
-1876 2451 0
-1877 2451 0
-1878 2451 0
-1879 2451 0
-1880 2451 0
-1881 2451 0
-1882 2451 0
-1883 2451 0
-1884 2451 0
-1885 2451 0
-1886 2451 0
-1887 2451 0
-1888 2451 0
-1889 2451 0
-1890 2451 0
-1891 2451 0
-1892 2451 0
-1893 2451 0
-1894 2451 0
-1895 2451 0
-1896 2451 0
-1897 2451 0
-1898 2451 0
-2451 1873 1874 1875 1876 1877 1878 1879 1880 1881 1882 1883 1884 1885 1886 1887 1888 1889 1890 1891 1892 1893 1894 1895 1896 1897 1898 0
-1899 157 0
-1899 235 0
-157 -235 1899 0
-1900 158 0
-1900 236 0
-158 -236 1900 0
-1901 159 0
-1901 237 0
-159 -237 1901 0
-1902 160 0
-1902 238 0
-160 -238 1902 0
-1903 161 0
-1903 239 0
-161 -239 1903 0
-1904 162 0
-1904 240 0
-162 -240 1904 0
-1905 163 0
-1905 241 0
-163 -241 1905 0
-1906 164 0
-1906 242 0
-164 -242 1906 0
-1907 165 0
-1907 243 0
-165 -243 1907 0
-1908 166 0
-1908 244 0
-166 -244 1908 0
-1909 167 0
-1909 245 0
-167 -245 1909 0
-1910 168 0
-1910 246 0
-168 -246 1910 0
-1911 169 0
-1911 247 0
-169 -247 1911 0
-1912 170 0
-1912 248 0
-170 -248 1912 0
-1913 171 0
-1913 249 0
-171 -249 1913 0
-1914 172 0
-1914 250 0
-172 -250 1914 0
-1915 173 0
-1915 251 0
-173 -251 1915 0
-1916 174 0
-1916 252 0
-174 -252 1916 0
-1917 175 0
-1917 253 0
-175 -253 1917 0
-1918 176 0
-1918 254 0
-176 -254 1918 0
-1919 177 0
-1919 255 0
-177 -255 1919 0
-1920 178 0
-1920 256 0
-178 -256 1920 0
-1921 179 0
-1921 257 0
-179 -257 1921 0
-1922 180 0
-1922 258 0
-180 -258 1922 0
-1923 181 0
-1923 259 0
-181 -259 1923 0
-1924 182 0
-1924 260 0
-182 -260 1924 0
-1899 13657 0
-13657 13658 0
-1900 -13657 0
-1900 13658 0
-13658 13659 0
-1901 -13658 0
-1901 13659 0
-13659 13660 0
-1902 -13659 0
-1902 13660 0
-13660 13661 0
-1903 -13660 0
-1903 13661 0
-13661 13662 0
-1904 -13661 0
-1904 13662 0
-13662 13663 0
-1905 -13662 0
-1905 13663 0
-13663 13664 0
-1906 -13663 0
-1906 13664 0
-13664 13665 0
-1907 -13664 0
-1907 13665 0
-13665 13666 0
-1908 -13665 0
-1908 13666 0
-13666 13667 0
-1909 -13666 0
-1909 13667 0
-13667 13668 0
-1910 -13667 0
-1910 13668 0
-13668 13669 0
-1911 -13668 0
-1911 13669 0
-13669 13670 0
-1912 -13669 0
-1912 13670 0
-13670 13671 0
-1913 -13670 0
-1913 13671 0
-13671 13672 0
-1914 -13671 0
-1914 13672 0
-13672 13673 0
-1915 -13672 0
-1915 13673 0
-13673 13674 0
-1916 -13673 0
-1916 13674 0
-13674 13675 0
-1917 -13674 0
-1917 13675 0
-13675 13676 0
-1918 -13675 0
-1918 13676 0
-13676 13677 0
-1919 -13676 0
-1919 13677 0
-13677 13678 0
-1920 -13677 0
-1920 13678 0
-13678 13679 0
-1921 -13678 0
-1921 13679 0
-13679 13680 0
-1922 -13679 0
-1922 13680 0
-13680 13681 0
-1923 -13680 0
-1923 13681 0
-1924 -13681 0
-1899 2452 0
-1900 2452 0
-1901 2452 0
-1902 2452 0
-1903 2452 0
-1904 2452 0
-1905 2452 0
-1906 2452 0
-1907 2452 0
-1908 2452 0
-1909 2452 0
-1910 2452 0
-1911 2452 0
-1912 2452 0
-1913 2452 0
-1914 2452 0
-1915 2452 0
-1916 2452 0
-1917 2452 0
-1918 2452 0
-1919 2452 0
-1920 2452 0
-1921 2452 0
-1922 2452 0
-1923 2452 0
-1924 2452 0
-2452 1899 1900 1901 1902 1903 1904 1905 1906 1907 1908 1909 1910 1911 1912 1913 1914 1915 1916 1917 1918 1919 1920 1921 1922 1923 1924 0
-1925 157 0
-1925 261 0
-157 -261 1925 0
-1926 158 0
-1926 262 0
-158 -262 1926 0
-1927 159 0
-1927 263 0
-159 -263 1927 0
-1928 160 0
-1928 264 0
-160 -264 1928 0
-1929 161 0
-1929 265 0
-161 -265 1929 0
-1930 162 0
-1930 266 0
-162 -266 1930 0
-1931 163 0
-1931 267 0
-163 -267 1931 0
-1932 164 0
-1932 268 0
-164 -268 1932 0
-1933 165 0
-1933 269 0
-165 -269 1933 0
-1934 166 0
-1934 270 0
-166 -270 1934 0
-1935 167 0
-1935 271 0
-167 -271 1935 0
-1936 168 0
-1936 272 0
-168 -272 1936 0
-1937 169 0
-1937 273 0
-169 -273 1937 0
-1938 170 0
-1938 274 0
-170 -274 1938 0
-1939 171 0
-1939 275 0
-171 -275 1939 0
-1940 172 0
-1940 276 0
-172 -276 1940 0
-1941 173 0
-1941 277 0
-173 -277 1941 0
-1942 174 0
-1942 278 0
-174 -278 1942 0
-1943 175 0
-1943 279 0
-175 -279 1943 0
-1944 176 0
-1944 280 0
-176 -280 1944 0
-1945 177 0
-1945 281 0
-177 -281 1945 0
-1946 178 0
-1946 282 0
-178 -282 1946 0
-1947 179 0
-1947 283 0
-179 -283 1947 0
-1948 180 0
-1948 284 0
-180 -284 1948 0
-1949 181 0
-1949 285 0
-181 -285 1949 0
-1950 182 0
-1950 286 0
-182 -286 1950 0
-1925 13682 0
-13682 13683 0
-1926 -13682 0
-1926 13683 0
-13683 13684 0
-1927 -13683 0
-1927 13684 0
-13684 13685 0
-1928 -13684 0
-1928 13685 0
-13685 13686 0
-1929 -13685 0
-1929 13686 0
-13686 13687 0
-1930 -13686 0
-1930 13687 0
-13687 13688 0
-1931 -13687 0
-1931 13688 0
-13688 13689 0
-1932 -13688 0
-1932 13689 0
-13689 13690 0
-1933 -13689 0
-1933 13690 0
-13690 13691 0
-1934 -13690 0
-1934 13691 0
-13691 13692 0
-1935 -13691 0
-1935 13692 0
-13692 13693 0
-1936 -13692 0
-1936 13693 0
-13693 13694 0
-1937 -13693 0
-1937 13694 0
-13694 13695 0
-1938 -13694 0
-1938 13695 0
-13695 13696 0
-1939 -13695 0
-1939 13696 0
-13696 13697 0
-1940 -13696 0
-1940 13697 0
-13697 13698 0
-1941 -13697 0
-1941 13698 0
-13698 13699 0
-1942 -13698 0
-1942 13699 0
-13699 13700 0
-1943 -13699 0
-1943 13700 0
-13700 13701 0
-1944 -13700 0
-1944 13701 0
-13701 13702 0
-1945 -13701 0
-1945 13702 0
-13702 13703 0
-1946 -13702 0
-1946 13703 0
-13703 13704 0
-1947 -13703 0
-1947 13704 0
-13704 13705 0
-1948 -13704 0
-1948 13705 0
-13705 13706 0
-1949 -13705 0
-1949 13706 0
-1950 -13706 0
-1925 2453 0
-1926 2453 0
-1927 2453 0
-1928 2453 0
-1929 2453 0
-1930 2453 0
-1931 2453 0
-1932 2453 0
-1933 2453 0
-1934 2453 0
-1935 2453 0
-1936 2453 0
-1937 2453 0
-1938 2453 0
-1939 2453 0
-1940 2453 0
-1941 2453 0
-1942 2453 0
-1943 2453 0
-1944 2453 0
-1945 2453 0
-1946 2453 0
-1947 2453 0
-1948 2453 0
-1949 2453 0
-1950 2453 0
-2453 1925 1926 1927 1928 1929 1930 1931 1932 1933 1934 1935 1936 1937 1938 1939 1940 1941 1942 1943 1944 1945 1946 1947 1948 1949 1950 0
-1951 157 0
-1951 287 0
-157 -287 1951 0
-1952 158 0
-1952 288 0
-158 -288 1952 0
-1953 159 0
-1953 289 0
-159 -289 1953 0
-1954 160 0
-1954 290 0
-160 -290 1954 0
-1955 161 0
-1955 291 0
-161 -291 1955 0
-1956 162 0
-1956 292 0
-162 -292 1956 0
-1957 163 0
-1957 293 0
-163 -293 1957 0
-1958 164 0
-1958 294 0
-164 -294 1958 0
-1959 165 0
-1959 295 0
-165 -295 1959 0
-1960 166 0
-1960 296 0
-166 -296 1960 0
-1961 167 0
-1961 297 0
-167 -297 1961 0
-1962 168 0
-1962 298 0
-168 -298 1962 0
-1963 169 0
-1963 299 0
-169 -299 1963 0
-1964 170 0
-1964 300 0
-170 -300 1964 0
-1965 171 0
-1965 301 0
-171 -301 1965 0
-1966 172 0
-1966 302 0
-172 -302 1966 0
-1967 173 0
-1967 303 0
-173 -303 1967 0
-1968 174 0
-1968 304 0
-174 -304 1968 0
-1969 175 0
-1969 305 0
-175 -305 1969 0
-1970 176 0
-1970 306 0
-176 -306 1970 0
-1971 177 0
-1971 307 0
-177 -307 1971 0
-1972 178 0
-1972 308 0
-178 -308 1972 0
-1973 179 0
-1973 309 0
-179 -309 1973 0
-1974 180 0
-1974 310 0
-180 -310 1974 0
-1975 181 0
-1975 311 0
-181 -311 1975 0
-1976 182 0
-1976 312 0
-182 -312 1976 0
-1951 13707 0
-13707 13708 0
-1952 -13707 0
-1952 13708 0
-13708 13709 0
-1953 -13708 0
-1953 13709 0
-13709 13710 0
-1954 -13709 0
-1954 13710 0
-13710 13711 0
-1955 -13710 0
-1955 13711 0
-13711 13712 0
-1956 -13711 0
-1956 13712 0
-13712 13713 0
-1957 -13712 0
-1957 13713 0
-13713 13714 0
-1958 -13713 0
-1958 13714 0
-13714 13715 0
-1959 -13714 0
-1959 13715 0
-13715 13716 0
-1960 -13715 0
-1960 13716 0
-13716 13717 0
-1961 -13716 0
-1961 13717 0
-13717 13718 0
-1962 -13717 0
-1962 13718 0
-13718 13719 0
-1963 -13718 0
-1963 13719 0
-13719 13720 0
-1964 -13719 0
-1964 13720 0
-13720 13721 0
-1965 -13720 0
-1965 13721 0
-13721 13722 0
-1966 -13721 0
-1966 13722 0
-13722 13723 0
-1967 -13722 0
-1967 13723 0
-13723 13724 0
-1968 -13723 0
-1968 13724 0
-13724 13725 0
-1969 -13724 0
-1969 13725 0
-13725 13726 0
-1970 -13725 0
-1970 13726 0
-13726 13727 0
-1971 -13726 0
-1971 13727 0
-13727 13728 0
-1972 -13727 0
-1972 13728 0
-13728 13729 0
-1973 -13728 0
-1973 13729 0
-13729 13730 0
-1974 -13729 0
-1974 13730 0
-13730 13731 0
-1975 -13730 0
-1975 13731 0
-1976 -13731 0
-1951 2454 0
-1952 2454 0
-1953 2454 0
-1954 2454 0
-1955 2454 0
-1956 2454 0
-1957 2454 0
-1958 2454 0
-1959 2454 0
-1960 2454 0
-1961 2454 0
-1962 2454 0
-1963 2454 0
-1964 2454 0
-1965 2454 0
-1966 2454 0
-1967 2454 0
-1968 2454 0
-1969 2454 0
-1970 2454 0
-1971 2454 0
-1972 2454 0
-1973 2454 0
-1974 2454 0
-1975 2454 0
-1976 2454 0
-2454 1951 1952 1953 1954 1955 1956 1957 1958 1959 1960 1961 1962 1963 1964 1965 1966 1967 1968 1969 1970 1971 1972 1973 1974 1975 1976 0
-1977 157 0
-1977 313 0
-157 -313 1977 0
-1978 158 0
-1978 314 0
-158 -314 1978 0
-1979 159 0
-1979 315 0
-159 -315 1979 0
-1980 160 0
-1980 316 0
-160 -316 1980 0
-1981 161 0
-1981 317 0
-161 -317 1981 0
-1982 162 0
-1982 318 0
-162 -318 1982 0
-1983 163 0
-1983 319 0
-163 -319 1983 0
-1984 164 0
-1984 320 0
-164 -320 1984 0
-1985 165 0
-1985 321 0
-165 -321 1985 0
-1986 166 0
-1986 322 0
-166 -322 1986 0
-1987 167 0
-1987 323 0
-167 -323 1987 0
-1988 168 0
-1988 324 0
-168 -324 1988 0
-1989 169 0
-1989 325 0
-169 -325 1989 0
-1990 170 0
-1990 326 0
-170 -326 1990 0
-1991 171 0
-1991 327 0
-171 -327 1991 0
-1992 172 0
-1992 328 0
-172 -328 1992 0
-1993 173 0
-1993 329 0
-173 -329 1993 0
-1994 174 0
-1994 330 0
-174 -330 1994 0
-1995 175 0
-1995 331 0
-175 -331 1995 0
-1996 176 0
-1996 332 0
-176 -332 1996 0
-1997 177 0
-1997 333 0
-177 -333 1997 0
-1998 178 0
-1998 334 0
-178 -334 1998 0
-1999 179 0
-1999 335 0
-179 -335 1999 0
-2000 180 0
-2000 336 0
-180 -336 2000 0
-2001 181 0
-2001 337 0
-181 -337 2001 0
-2002 182 0
-2002 338 0
-182 -338 2002 0
-1977 13732 0
-13732 13733 0
-1978 -13732 0
-1978 13733 0
-13733 13734 0
-1979 -13733 0
-1979 13734 0
-13734 13735 0
-1980 -13734 0
-1980 13735 0
-13735 13736 0
-1981 -13735 0
-1981 13736 0
-13736 13737 0
-1982 -13736 0
-1982 13737 0
-13737 13738 0
-1983 -13737 0
-1983 13738 0
-13738 13739 0
-1984 -13738 0
-1984 13739 0
-13739 13740 0
-1985 -13739 0
-1985 13740 0
-13740 13741 0
-1986 -13740 0
-1986 13741 0
-13741 13742 0
-1987 -13741 0
-1987 13742 0
-13742 13743 0
-1988 -13742 0
-1988 13743 0
-13743 13744 0
-1989 -13743 0
-1989 13744 0
-13744 13745 0
-1990 -13744 0
-1990 13745 0
-13745 13746 0
-1991 -13745 0
-1991 13746 0
-13746 13747 0
-1992 -13746 0
-1992 13747 0
-13747 13748 0
-1993 -13747 0
-1993 13748 0
-13748 13749 0
-1994 -13748 0
-1994 13749 0
-13749 13750 0
-1995 -13749 0
-1995 13750 0
-13750 13751 0
-1996 -13750 0
-1996 13751 0
-13751 13752 0
-1997 -13751 0
-1997 13752 0
-13752 13753 0
-1998 -13752 0
-1998 13753 0
-13753 13754 0
-1999 -13753 0
-1999 13754 0
-13754 13755 0
-2000 -13754 0
-2000 13755 0
-13755 13756 0
-2001 -13755 0
-2001 13756 0
-2002 -13756 0
-1977 2455 0
-1978 2455 0
-1979 2455 0
-1980 2455 0
-1981 2455 0
-1982 2455 0
-1983 2455 0
-1984 2455 0
-1985 2455 0
-1986 2455 0
-1987 2455 0
-1988 2455 0
-1989 2455 0
-1990 2455 0
-1991 2455 0
-1992 2455 0
-1993 2455 0
-1994 2455 0
-1995 2455 0
-1996 2455 0
-1997 2455 0
-1998 2455 0
-1999 2455 0
-2000 2455 0
-2001 2455 0
-2002 2455 0
-2455 1977 1978 1979 1980 1981 1982 1983 1984 1985 1986 1987 1988 1989 1990 1991 1992 1993 1994 1995 1996 1997 1998 1999 2000 2001 2002 0
-2003 183 0
-2003 209 0
-183 -209 2003 0
-2004 184 0
-2004 210 0
-184 -210 2004 0
-2005 185 0
-2005 211 0
-185 -211 2005 0
-2006 186 0
-2006 212 0
-186 -212 2006 0
-2007 187 0
-2007 213 0
-187 -213 2007 0
-2008 188 0
-2008 214 0
-188 -214 2008 0
-2009 189 0
-2009 215 0
-189 -215 2009 0
-2010 190 0
-2010 216 0
-190 -216 2010 0
-2011 191 0
-2011 217 0
-191 -217 2011 0
-2012 192 0
-2012 218 0
-192 -218 2012 0
-2013 193 0
-2013 219 0
-193 -219 2013 0
-2014 194 0
-2014 220 0
-194 -220 2014 0
-2015 195 0
-2015 221 0
-195 -221 2015 0
-2016 196 0
-2016 222 0
-196 -222 2016 0
-2017 197 0
-2017 223 0
-197 -223 2017 0
-2018 198 0
-2018 224 0
-198 -224 2018 0
-2019 199 0
-2019 225 0
-199 -225 2019 0
-2020 200 0
-2020 226 0
-200 -226 2020 0
-2021 201 0
-2021 227 0
-201 -227 2021 0
-2022 202 0
-2022 228 0
-202 -228 2022 0
-2023 203 0
-2023 229 0
-203 -229 2023 0
-2024 204 0
-2024 230 0
-204 -230 2024 0
-2025 205 0
-2025 231 0
-205 -231 2025 0
-2026 206 0
-2026 232 0
-206 -232 2026 0
-2027 207 0
-2027 233 0
-207 -233 2027 0
-2028 208 0
-2028 234 0
-208 -234 2028 0
-2003 13757 0
-13757 13758 0
-2004 -13757 0
-2004 13758 0
-13758 13759 0
-2005 -13758 0
-2005 13759 0
-13759 13760 0
-2006 -13759 0
-2006 13760 0
-13760 13761 0
-2007 -13760 0
-2007 13761 0
-13761 13762 0
-2008 -13761 0
-2008 13762 0
-13762 13763 0
-2009 -13762 0
-2009 13763 0
-13763 13764 0
-2010 -13763 0
-2010 13764 0
-13764 13765 0
-2011 -13764 0
-2011 13765 0
-13765 13766 0
-2012 -13765 0
-2012 13766 0
-13766 13767 0
-2013 -13766 0
-2013 13767 0
-13767 13768 0
-2014 -13767 0
-2014 13768 0
-13768 13769 0
-2015 -13768 0
-2015 13769 0
-13769 13770 0
-2016 -13769 0
-2016 13770 0
-13770 13771 0
-2017 -13770 0
-2017 13771 0
-13771 13772 0
-2018 -13771 0
-2018 13772 0
-13772 13773 0
-2019 -13772 0
-2019 13773 0
-13773 13774 0
-2020 -13773 0
-2020 13774 0
-13774 13775 0
-2021 -13774 0
-2021 13775 0
-13775 13776 0
-2022 -13775 0
-2022 13776 0
-13776 13777 0
-2023 -13776 0
-2023 13777 0
-13777 13778 0
-2024 -13777 0
-2024 13778 0
-13778 13779 0
-2025 -13778 0
-2025 13779 0
-13779 13780 0
-2026 -13779 0
-2026 13780 0
-13780 13781 0
-2027 -13780 0
-2027 13781 0
-2028 -13781 0
-2003 2456 0
-2004 2456 0
-2005 2456 0
-2006 2456 0
-2007 2456 0
-2008 2456 0
-2009 2456 0
-2010 2456 0
-2011 2456 0
-2012 2456 0
-2013 2456 0
-2014 2456 0
-2015 2456 0
-2016 2456 0
-2017 2456 0
-2018 2456 0
-2019 2456 0
-2020 2456 0
-2021 2456 0
-2022 2456 0
-2023 2456 0
-2024 2456 0
-2025 2456 0
-2026 2456 0
-2027 2456 0
-2028 2456 0
-2456 2003 2004 2005 2006 2007 2008 2009 2010 2011 2012 2013 2014 2015 2016 2017 2018 2019 2020 2021 2022 2023 2024 2025 2026 2027 2028 0
-2029 183 0
-2029 235 0
-183 -235 2029 0
-2030 184 0
-2030 236 0
-184 -236 2030 0
-2031 185 0
-2031 237 0
-185 -237 2031 0
-2032 186 0
-2032 238 0
-186 -238 2032 0
-2033 187 0
-2033 239 0
-187 -239 2033 0
-2034 188 0
-2034 240 0
-188 -240 2034 0
-2035 189 0
-2035 241 0
-189 -241 2035 0
-2036 190 0
-2036 242 0
-190 -242 2036 0
-2037 191 0
-2037 243 0
-191 -243 2037 0
-2038 192 0
-2038 244 0
-192 -244 2038 0
-2039 193 0
-2039 245 0
-193 -245 2039 0
-2040 194 0
-2040 246 0
-194 -246 2040 0
-2041 195 0
-2041 247 0
-195 -247 2041 0
-2042 196 0
-2042 248 0
-196 -248 2042 0
-2043 197 0
-2043 249 0
-197 -249 2043 0
-2044 198 0
-2044 250 0
-198 -250 2044 0
-2045 199 0
-2045 251 0
-199 -251 2045 0
-2046 200 0
-2046 252 0
-200 -252 2046 0
-2047 201 0
-2047 253 0
-201 -253 2047 0
-2048 202 0
-2048 254 0
-202 -254 2048 0
-2049 203 0
-2049 255 0
-203 -255 2049 0
-2050 204 0
-2050 256 0
-204 -256 2050 0
-2051 205 0
-2051 257 0
-205 -257 2051 0
-2052 206 0
-2052 258 0
-206 -258 2052 0
-2053 207 0
-2053 259 0
-207 -259 2053 0
-2054 208 0
-2054 260 0
-208 -260 2054 0
-2029 13782 0
-13782 13783 0
-2030 -13782 0
-2030 13783 0
-13783 13784 0
-2031 -13783 0
-2031 13784 0
-13784 13785 0
-2032 -13784 0
-2032 13785 0
-13785 13786 0
-2033 -13785 0
-2033 13786 0
-13786 13787 0
-2034 -13786 0
-2034 13787 0
-13787 13788 0
-2035 -13787 0
-2035 13788 0
-13788 13789 0
-2036 -13788 0
-2036 13789 0
-13789 13790 0
-2037 -13789 0
-2037 13790 0
-13790 13791 0
-2038 -13790 0
-2038 13791 0
-13791 13792 0
-2039 -13791 0
-2039 13792 0
-13792 13793 0
-2040 -13792 0
-2040 13793 0
-13793 13794 0
-2041 -13793 0
-2041 13794 0
-13794 13795 0
-2042 -13794 0
-2042 13795 0
-13795 13796 0
-2043 -13795 0
-2043 13796 0
-13796 13797 0
-2044 -13796 0
-2044 13797 0
-13797 13798 0
-2045 -13797 0
-2045 13798 0
-13798 13799 0
-2046 -13798 0
-2046 13799 0
-13799 13800 0
-2047 -13799 0
-2047 13800 0
-13800 13801 0
-2048 -13800 0
-2048 13801 0
-13801 13802 0
-2049 -13801 0
-2049 13802 0
-13802 13803 0
-2050 -13802 0
-2050 13803 0
-13803 13804 0
-2051 -13803 0
-2051 13804 0
-13804 13805 0
-2052 -13804 0
-2052 13805 0
-13805 13806 0
-2053 -13805 0
-2053 13806 0
-2054 -13806 0
-2029 2457 0
-2030 2457 0
-2031 2457 0
-2032 2457 0
-2033 2457 0
-2034 2457 0
-2035 2457 0
-2036 2457 0
-2037 2457 0
-2038 2457 0
-2039 2457 0
-2040 2457 0
-2041 2457 0
-2042 2457 0
-2043 2457 0
-2044 2457 0
-2045 2457 0
-2046 2457 0
-2047 2457 0
-2048 2457 0
-2049 2457 0
-2050 2457 0
-2051 2457 0
-2052 2457 0
-2053 2457 0
-2054 2457 0
-2457 2029 2030 2031 2032 2033 2034 2035 2036 2037 2038 2039 2040 2041 2042 2043 2044 2045 2046 2047 2048 2049 2050 2051 2052 2053 2054 0
-2055 183 0
-2055 261 0
-183 -261 2055 0
-2056 184 0
-2056 262 0
-184 -262 2056 0
-2057 185 0
-2057 263 0
-185 -263 2057 0
-2058 186 0
-2058 264 0
-186 -264 2058 0
-2059 187 0
-2059 265 0
-187 -265 2059 0
-2060 188 0
-2060 266 0
-188 -266 2060 0
-2061 189 0
-2061 267 0
-189 -267 2061 0
-2062 190 0
-2062 268 0
-190 -268 2062 0
-2063 191 0
-2063 269 0
-191 -269 2063 0
-2064 192 0
-2064 270 0
-192 -270 2064 0
-2065 193 0
-2065 271 0
-193 -271 2065 0
-2066 194 0
-2066 272 0
-194 -272 2066 0
-2067 195 0
-2067 273 0
-195 -273 2067 0
-2068 196 0
-2068 274 0
-196 -274 2068 0
-2069 197 0
-2069 275 0
-197 -275 2069 0
-2070 198 0
-2070 276 0
-198 -276 2070 0
-2071 199 0
-2071 277 0
-199 -277 2071 0
-2072 200 0
-2072 278 0
-200 -278 2072 0
-2073 201 0
-2073 279 0
-201 -279 2073 0
-2074 202 0
-2074 280 0
-202 -280 2074 0
-2075 203 0
-2075 281 0
-203 -281 2075 0
-2076 204 0
-2076 282 0
-204 -282 2076 0
-2077 205 0
-2077 283 0
-205 -283 2077 0
-2078 206 0
-2078 284 0
-206 -284 2078 0
-2079 207 0
-2079 285 0
-207 -285 2079 0
-2080 208 0
-2080 286 0
-208 -286 2080 0
-2055 13807 0
-13807 13808 0
-2056 -13807 0
-2056 13808 0
-13808 13809 0
-2057 -13808 0
-2057 13809 0
-13809 13810 0
-2058 -13809 0
-2058 13810 0
-13810 13811 0
-2059 -13810 0
-2059 13811 0
-13811 13812 0
-2060 -13811 0
-2060 13812 0
-13812 13813 0
-2061 -13812 0
-2061 13813 0
-13813 13814 0
-2062 -13813 0
-2062 13814 0
-13814 13815 0
-2063 -13814 0
-2063 13815 0
-13815 13816 0
-2064 -13815 0
-2064 13816 0
-13816 13817 0
-2065 -13816 0
-2065 13817 0
-13817 13818 0
-2066 -13817 0
-2066 13818 0
-13818 13819 0
-2067 -13818 0
-2067 13819 0
-13819 13820 0
-2068 -13819 0
-2068 13820 0
-13820 13821 0
-2069 -13820 0
-2069 13821 0
-13821 13822 0
-2070 -13821 0
-2070 13822 0
-13822 13823 0
-2071 -13822 0
-2071 13823 0
-13823 13824 0
-2072 -13823 0
-2072 13824 0
-13824 13825 0
-2073 -13824 0
-2073 13825 0
-13825 13826 0
-2074 -13825 0
-2074 13826 0
-13826 13827 0
-2075 -13826 0
-2075 13827 0
-13827 13828 0
-2076 -13827 0
-2076 13828 0
-13828 13829 0
-2077 -13828 0
-2077 13829 0
-13829 13830 0
-2078 -13829 0
-2078 13830 0
-13830 13831 0
-2079 -13830 0
-2079 13831 0
-2080 -13831 0
-2055 2458 0
-2056 2458 0
-2057 2458 0
-2058 2458 0
-2059 2458 0
-2060 2458 0
-2061 2458 0
-2062 2458 0
-2063 2458 0
-2064 2458 0
-2065 2458 0
-2066 2458 0
-2067 2458 0
-2068 2458 0
-2069 2458 0
-2070 2458 0
-2071 2458 0
-2072 2458 0
-2073 2458 0
-2074 2458 0
-2075 2458 0
-2076 2458 0
-2077 2458 0
-2078 2458 0
-2079 2458 0
-2080 2458 0
-2458 2055 2056 2057 2058 2059 2060 2061 2062 2063 2064 2065 2066 2067 2068 2069 2070 2071 2072 2073 2074 2075 2076 2077 2078 2079 2080 0
-2081 183 0
-2081 287 0
-183 -287 2081 0
-2082 184 0
-2082 288 0
-184 -288 2082 0
-2083 185 0
-2083 289 0
-185 -289 2083 0
-2084 186 0
-2084 290 0
-186 -290 2084 0
-2085 187 0
-2085 291 0
-187 -291 2085 0
-2086 188 0
-2086 292 0
-188 -292 2086 0
-2087 189 0
-2087 293 0
-189 -293 2087 0
-2088 190 0
-2088 294 0
-190 -294 2088 0
-2089 191 0
-2089 295 0
-191 -295 2089 0
-2090 192 0
-2090 296 0
-192 -296 2090 0
-2091 193 0
-2091 297 0
-193 -297 2091 0
-2092 194 0
-2092 298 0
-194 -298 2092 0
-2093 195 0
-2093 299 0
-195 -299 2093 0
-2094 196 0
-2094 300 0
-196 -300 2094 0
-2095 197 0
-2095 301 0
-197 -301 2095 0
-2096 198 0
-2096 302 0
-198 -302 2096 0
-2097 199 0
-2097 303 0
-199 -303 2097 0
-2098 200 0
-2098 304 0
-200 -304 2098 0
-2099 201 0
-2099 305 0
-201 -305 2099 0
-2100 202 0
-2100 306 0
-202 -306 2100 0
-2101 203 0
-2101 307 0
-203 -307 2101 0
-2102 204 0
-2102 308 0
-204 -308 2102 0
-2103 205 0
-2103 309 0
-205 -309 2103 0
-2104 206 0
-2104 310 0
-206 -310 2104 0
-2105 207 0
-2105 311 0
-207 -311 2105 0
-2106 208 0
-2106 312 0
-208 -312 2106 0
-2081 13832 0
-13832 13833 0
-2082 -13832 0
-2082 13833 0
-13833 13834 0
-2083 -13833 0
-2083 13834 0
-13834 13835 0
-2084 -13834 0
-2084 13835 0
-13835 13836 0
-2085 -13835 0
-2085 13836 0
-13836 13837 0
-2086 -13836 0
-2086 13837 0
-13837 13838 0
-2087 -13837 0
-2087 13838 0
-13838 13839 0
-2088 -13838 0
-2088 13839 0
-13839 13840 0
-2089 -13839 0
-2089 13840 0
-13840 13841 0
-2090 -13840 0
-2090 13841 0
-13841 13842 0
-2091 -13841 0
-2091 13842 0
-13842 13843 0
-2092 -13842 0
-2092 13843 0
-13843 13844 0
-2093 -13843 0
-2093 13844 0
-13844 13845 0
-2094 -13844 0
-2094 13845 0
-13845 13846 0
-2095 -13845 0
-2095 13846 0
-13846 13847 0
-2096 -13846 0
-2096 13847 0
-13847 13848 0
-2097 -13847 0
-2097 13848 0
-13848 13849 0
-2098 -13848 0
-2098 13849 0
-13849 13850 0
-2099 -13849 0
-2099 13850 0
-13850 13851 0
-2100 -13850 0
-2100 13851 0
-13851 13852 0
-2101 -13851 0
-2101 13852 0
-13852 13853 0
-2102 -13852 0
-2102 13853 0
-13853 13854 0
-2103 -13853 0
-2103 13854 0
-13854 13855 0
-2104 -13854 0
-2104 13855 0
-13855 13856 0
-2105 -13855 0
-2105 13856 0
-2106 -13856 0
-2081 2459 0
-2082 2459 0
-2083 2459 0
-2084 2459 0
-2085 2459 0
-2086 2459 0
-2087 2459 0
-2088 2459 0
-2089 2459 0
-2090 2459 0
-2091 2459 0
-2092 2459 0
-2093 2459 0
-2094 2459 0
-2095 2459 0
-2096 2459 0
-2097 2459 0
-2098 2459 0
-2099 2459 0
-2100 2459 0
-2101 2459 0
-2102 2459 0
-2103 2459 0
-2104 2459 0
-2105 2459 0
-2106 2459 0
-2459 2081 2082 2083 2084 2085 2086 2087 2088 2089 2090 2091 2092 2093 2094 2095 2096 2097 2098 2099 2100 2101 2102 2103 2104 2105 2106 0
-2107 183 0
-2107 313 0
-183 -313 2107 0
-2108 184 0
-2108 314 0
-184 -314 2108 0
-2109 185 0
-2109 315 0
-185 -315 2109 0
-2110 186 0
-2110 316 0
-186 -316 2110 0
-2111 187 0
-2111 317 0
-187 -317 2111 0
-2112 188 0
-2112 318 0
-188 -318 2112 0
-2113 189 0
-2113 319 0
-189 -319 2113 0
-2114 190 0
-2114 320 0
-190 -320 2114 0
-2115 191 0
-2115 321 0
-191 -321 2115 0
-2116 192 0
-2116 322 0
-192 -322 2116 0
-2117 193 0
-2117 323 0
-193 -323 2117 0
-2118 194 0
-2118 324 0
-194 -324 2118 0
-2119 195 0
-2119 325 0
-195 -325 2119 0
-2120 196 0
-2120 326 0
-196 -326 2120 0
-2121 197 0
-2121 327 0
-197 -327 2121 0
-2122 198 0
-2122 328 0
-198 -328 2122 0
-2123 199 0
-2123 329 0
-199 -329 2123 0
-2124 200 0
-2124 330 0
-200 -330 2124 0
-2125 201 0
-2125 331 0
-201 -331 2125 0
-2126 202 0
-2126 332 0
-202 -332 2126 0
-2127 203 0
-2127 333 0
-203 -333 2127 0
-2128 204 0
-2128 334 0
-204 -334 2128 0
-2129 205 0
-2129 335 0
-205 -335 2129 0
-2130 206 0
-2130 336 0
-206 -336 2130 0
-2131 207 0
-2131 337 0
-207 -337 2131 0
-2132 208 0
-2132 338 0
-208 -338 2132 0
-2107 13857 0
-13857 13858 0
-2108 -13857 0
-2108 13858 0
-13858 13859 0
-2109 -13858 0
-2109 13859 0
-13859 13860 0
-2110 -13859 0
-2110 13860 0
-13860 13861 0
-2111 -13860 0
-2111 13861 0
-13861 13862 0
-2112 -13861 0
-2112 13862 0
-13862 13863 0
-2113 -13862 0
-2113 13863 0
-13863 13864 0
-2114 -13863 0
-2114 13864 0
-13864 13865 0
-2115 -13864 0
-2115 13865 0
-13865 13866 0
-2116 -13865 0
-2116 13866 0
-13866 13867 0
-2117 -13866 0
-2117 13867 0
-13867 13868 0
-2118 -13867 0
-2118 13868 0
-13868 13869 0
-2119 -13868 0
-2119 13869 0
-13869 13870 0
-2120 -13869 0
-2120 13870 0
-13870 13871 0
-2121 -13870 0
-2121 13871 0
-13871 13872 0
-2122 -13871 0
-2122 13872 0
-13872 13873 0
-2123 -13872 0
-2123 13873 0
-13873 13874 0
-2124 -13873 0
-2124 13874 0
-13874 13875 0
-2125 -13874 0
-2125 13875 0
-13875 13876 0
-2126 -13875 0
-2126 13876 0
-13876 13877 0
-2127 -13876 0
-2127 13877 0
-13877 13878 0
-2128 -13877 0
-2128 13878 0
-13878 13879 0
-2129 -13878 0
-2129 13879 0
-13879 13880 0
-2130 -13879 0
-2130 13880 0
-13880 13881 0
-2131 -13880 0
-2131 13881 0
-2132 -13881 0
-2107 2460 0
-2108 2460 0
-2109 2460 0
-2110 2460 0
-2111 2460 0
-2112 2460 0
-2113 2460 0
-2114 2460 0
-2115 2460 0
-2116 2460 0
-2117 2460 0
-2118 2460 0
-2119 2460 0
-2120 2460 0
-2121 2460 0
-2122 2460 0
-2123 2460 0
-2124 2460 0
-2125 2460 0
-2126 2460 0
-2127 2460 0
-2128 2460 0
-2129 2460 0
-2130 2460 0
-2131 2460 0
-2132 2460 0
-2460 2107 2108 2109 2110 2111 2112 2113 2114 2115 2116 2117 2118 2119 2120 2121 2122 2123 2124 2125 2126 2127 2128 2129 2130 2131 2132 0
-2133 209 0
-2133 235 0
-209 -235 2133 0
-2134 210 0
-2134 236 0
-210 -236 2134 0
-2135 211 0
-2135 237 0
-211 -237 2135 0
-2136 212 0
-2136 238 0
-212 -238 2136 0
-2137 213 0
-2137 239 0
-213 -239 2137 0
-2138 214 0
-2138 240 0
-214 -240 2138 0
-2139 215 0
-2139 241 0
-215 -241 2139 0
-2140 216 0
-2140 242 0
-216 -242 2140 0
-2141 217 0
-2141 243 0
-217 -243 2141 0
-2142 218 0
-2142 244 0
-218 -244 2142 0
-2143 219 0
-2143 245 0
-219 -245 2143 0
-2144 220 0
-2144 246 0
-220 -246 2144 0
-2145 221 0
-2145 247 0
-221 -247 2145 0
-2146 222 0
-2146 248 0
-222 -248 2146 0
-2147 223 0
-2147 249 0
-223 -249 2147 0
-2148 224 0
-2148 250 0
-224 -250 2148 0
-2149 225 0
-2149 251 0
-225 -251 2149 0
-2150 226 0
-2150 252 0
-226 -252 2150 0
-2151 227 0
-2151 253 0
-227 -253 2151 0
-2152 228 0
-2152 254 0
-228 -254 2152 0
-2153 229 0
-2153 255 0
-229 -255 2153 0
-2154 230 0
-2154 256 0
-230 -256 2154 0
-2155 231 0
-2155 257 0
-231 -257 2155 0
-2156 232 0
-2156 258 0
-232 -258 2156 0
-2157 233 0
-2157 259 0
-233 -259 2157 0
-2158 234 0
-2158 260 0
-234 -260 2158 0
-2133 13882 0
-13882 13883 0
-2134 -13882 0
-2134 13883 0
-13883 13884 0
-2135 -13883 0
-2135 13884 0
-13884 13885 0
-2136 -13884 0
-2136 13885 0
-13885 13886 0
-2137 -13885 0
-2137 13886 0
-13886 13887 0
-2138 -13886 0
-2138 13887 0
-13887 13888 0
-2139 -13887 0
-2139 13888 0
-13888 13889 0
-2140 -13888 0
-2140 13889 0
-13889 13890 0
-2141 -13889 0
-2141 13890 0
-13890 13891 0
-2142 -13890 0
-2142 13891 0
-13891 13892 0
-2143 -13891 0
-2143 13892 0
-13892 13893 0
-2144 -13892 0
-2144 13893 0
-13893 13894 0
-2145 -13893 0
-2145 13894 0
-13894 13895 0
-2146 -13894 0
-2146 13895 0
-13895 13896 0
-2147 -13895 0
-2147 13896 0
-13896 13897 0
-2148 -13896 0
-2148 13897 0
-13897 13898 0
-2149 -13897 0
-2149 13898 0
-13898 13899 0
-2150 -13898 0
-2150 13899 0
-13899 13900 0
-2151 -13899 0
-2151 13900 0
-13900 13901 0
-2152 -13900 0
-2152 13901 0
-13901 13902 0
-2153 -13901 0
-2153 13902 0
-13902 13903 0
-2154 -13902 0
-2154 13903 0
-13903 13904 0
-2155 -13903 0
-2155 13904 0
-13904 13905 0
-2156 -13904 0
-2156 13905 0
-13905 13906 0
-2157 -13905 0
-2157 13906 0
-2158 -13906 0
-2133 2461 0
-2134 2461 0
-2135 2461 0
-2136 2461 0
-2137 2461 0
-2138 2461 0
-2139 2461 0
-2140 2461 0
-2141 2461 0
-2142 2461 0
-2143 2461 0
-2144 2461 0
-2145 2461 0
-2146 2461 0
-2147 2461 0
-2148 2461 0
-2149 2461 0
-2150 2461 0
-2151 2461 0
-2152 2461 0
-2153 2461 0
-2154 2461 0
-2155 2461 0
-2156 2461 0
-2157 2461 0
-2158 2461 0
-2461 2133 2134 2135 2136 2137 2138 2139 2140 2141 2142 2143 2144 2145 2146 2147 2148 2149 2150 2151 2152 2153 2154 2155 2156 2157 2158 0
-2159 209 0
-2159 261 0
-209 -261 2159 0
-2160 210 0
-2160 262 0
-210 -262 2160 0
-2161 211 0
-2161 263 0
-211 -263 2161 0
-2162 212 0
-2162 264 0
-212 -264 2162 0
-2163 213 0
-2163 265 0
-213 -265 2163 0
-2164 214 0
-2164 266 0
-214 -266 2164 0
-2165 215 0
-2165 267 0
-215 -267 2165 0
-2166 216 0
-2166 268 0
-216 -268 2166 0
-2167 217 0
-2167 269 0
-217 -269 2167 0
-2168 218 0
-2168 270 0
-218 -270 2168 0
-2169 219 0
-2169 271 0
-219 -271 2169 0
-2170 220 0
-2170 272 0
-220 -272 2170 0
-2171 221 0
-2171 273 0
-221 -273 2171 0
-2172 222 0
-2172 274 0
-222 -274 2172 0
-2173 223 0
-2173 275 0
-223 -275 2173 0
-2174 224 0
-2174 276 0
-224 -276 2174 0
-2175 225 0
-2175 277 0
-225 -277 2175 0
-2176 226 0
-2176 278 0
-226 -278 2176 0
-2177 227 0
-2177 279 0
-227 -279 2177 0
-2178 228 0
-2178 280 0
-228 -280 2178 0
-2179 229 0
-2179 281 0
-229 -281 2179 0
-2180 230 0
-2180 282 0
-230 -282 2180 0
-2181 231 0
-2181 283 0
-231 -283 2181 0
-2182 232 0
-2182 284 0
-232 -284 2182 0
-2183 233 0
-2183 285 0
-233 -285 2183 0
-2184 234 0
-2184 286 0
-234 -286 2184 0
-2159 13907 0
-13907 13908 0
-2160 -13907 0
-2160 13908 0
-13908 13909 0
-2161 -13908 0
-2161 13909 0
-13909 13910 0
-2162 -13909 0
-2162 13910 0
-13910 13911 0
-2163 -13910 0
-2163 13911 0
-13911 13912 0
-2164 -13911 0
-2164 13912 0
-13912 13913 0
-2165 -13912 0
-2165 13913 0
-13913 13914 0
-2166 -13913 0
-2166 13914 0
-13914 13915 0
-2167 -13914 0
-2167 13915 0
-13915 13916 0
-2168 -13915 0
-2168 13916 0
-13916 13917 0
-2169 -13916 0
-2169 13917 0
-13917 13918 0
-2170 -13917 0
-2170 13918 0
-13918 13919 0
-2171 -13918 0
-2171 13919 0
-13919 13920 0
-2172 -13919 0
-2172 13920 0
-13920 13921 0
-2173 -13920 0
-2173 13921 0
-13921 13922 0
-2174 -13921 0
-2174 13922 0
-13922 13923 0
-2175 -13922 0
-2175 13923 0
-13923 13924 0
-2176 -13923 0
-2176 13924 0
-13924 13925 0
-2177 -13924 0
-2177 13925 0
-13925 13926 0
-2178 -13925 0
-2178 13926 0
-13926 13927 0
-2179 -13926 0
-2179 13927 0
-13927 13928 0
-2180 -13927 0
-2180 13928 0
-13928 13929 0
-2181 -13928 0
-2181 13929 0
-13929 13930 0
-2182 -13929 0
-2182 13930 0
-13930 13931 0
-2183 -13930 0
-2183 13931 0
-2184 -13931 0
-2159 2462 0
-2160 2462 0
-2161 2462 0
-2162 2462 0
-2163 2462 0
-2164 2462 0
-2165 2462 0
-2166 2462 0
-2167 2462 0
-2168 2462 0
-2169 2462 0
-2170 2462 0
-2171 2462 0
-2172 2462 0
-2173 2462 0
-2174 2462 0
-2175 2462 0
-2176 2462 0
-2177 2462 0
-2178 2462 0
-2179 2462 0
-2180 2462 0
-2181 2462 0
-2182 2462 0
-2183 2462 0
-2184 2462 0
-2462 2159 2160 2161 2162 2163 2164 2165 2166 2167 2168 2169 2170 2171 2172 2173 2174 2175 2176 2177 2178 2179 2180 2181 2182 2183 2184 0
-2185 209 0
-2185 287 0
-209 -287 2185 0
-2186 210 0
-2186 288 0
-210 -288 2186 0
-2187 211 0
-2187 289 0
-211 -289 2187 0
-2188 212 0
-2188 290 0
-212 -290 2188 0
-2189 213 0
-2189 291 0
-213 -291 2189 0
-2190 214 0
-2190 292 0
-214 -292 2190 0
-2191 215 0
-2191 293 0
-215 -293 2191 0
-2192 216 0
-2192 294 0
-216 -294 2192 0
-2193 217 0
-2193 295 0
-217 -295 2193 0
-2194 218 0
-2194 296 0
-218 -296 2194 0
-2195 219 0
-2195 297 0
-219 -297 2195 0
-2196 220 0
-2196 298 0
-220 -298 2196 0
-2197 221 0
-2197 299 0
-221 -299 2197 0
-2198 222 0
-2198 300 0
-222 -300 2198 0
-2199 223 0
-2199 301 0
-223 -301 2199 0
-2200 224 0
-2200 302 0
-224 -302 2200 0
-2201 225 0
-2201 303 0
-225 -303 2201 0
-2202 226 0
-2202 304 0
-226 -304 2202 0
-2203 227 0
-2203 305 0
-227 -305 2203 0
-2204 228 0
-2204 306 0
-228 -306 2204 0
-2205 229 0
-2205 307 0
-229 -307 2205 0
-2206 230 0
-2206 308 0
-230 -308 2206 0
-2207 231 0
-2207 309 0
-231 -309 2207 0
-2208 232 0
-2208 310 0
-232 -310 2208 0
-2209 233 0
-2209 311 0
-233 -311 2209 0
-2210 234 0
-2210 312 0
-234 -312 2210 0
-2185 13932 0
-13932 13933 0
-2186 -13932 0
-2186 13933 0
-13933 13934 0
-2187 -13933 0
-2187 13934 0
-13934 13935 0
-2188 -13934 0
-2188 13935 0
-13935 13936 0
-2189 -13935 0
-2189 13936 0
-13936 13937 0
-2190 -13936 0
-2190 13937 0
-13937 13938 0
-2191 -13937 0
-2191 13938 0
-13938 13939 0
-2192 -13938 0
-2192 13939 0
-13939 13940 0
-2193 -13939 0
-2193 13940 0
-13940 13941 0
-2194 -13940 0
-2194 13941 0
-13941 13942 0
-2195 -13941 0
-2195 13942 0
-13942 13943 0
-2196 -13942 0
-2196 13943 0
-13943 13944 0
-2197 -13943 0
-2197 13944 0
-13944 13945 0
-2198 -13944 0
-2198 13945 0
-13945 13946 0
-2199 -13945 0
-2199 13946 0
-13946 13947 0
-2200 -13946 0
-2200 13947 0
-13947 13948 0
-2201 -13947 0
-2201 13948 0
-13948 13949 0
-2202 -13948 0
-2202 13949 0
-13949 13950 0
-2203 -13949 0
-2203 13950 0
-13950 13951 0
-2204 -13950 0
-2204 13951 0
-13951 13952 0
-2205 -13951 0
-2205 13952 0
-13952 13953 0
-2206 -13952 0
-2206 13953 0
-13953 13954 0
-2207 -13953 0
-2207 13954 0
-13954 13955 0
-2208 -13954 0
-2208 13955 0
-13955 13956 0
-2209 -13955 0
-2209 13956 0
-2210 -13956 0
-2185 2463 0
-2186 2463 0
-2187 2463 0
-2188 2463 0
-2189 2463 0
-2190 2463 0
-2191 2463 0
-2192 2463 0
-2193 2463 0
-2194 2463 0
-2195 2463 0
-2196 2463 0
-2197 2463 0
-2198 2463 0
-2199 2463 0
-2200 2463 0
-2201 2463 0
-2202 2463 0
-2203 2463 0
-2204 2463 0
-2205 2463 0
-2206 2463 0
-2207 2463 0
-2208 2463 0
-2209 2463 0
-2210 2463 0
-2463 2185 2186 2187 2188 2189 2190 2191 2192 2193 2194 2195 2196 2197 2198 2199 2200 2201 2202 2203 2204 2205 2206 2207 2208 2209 2210 0
-2211 209 0
-2211 313 0
-209 -313 2211 0
-2212 210 0
-2212 314 0
-210 -314 2212 0
-2213 211 0
-2213 315 0
-211 -315 2213 0
-2214 212 0
-2214 316 0
-212 -316 2214 0
-2215 213 0
-2215 317 0
-213 -317 2215 0
-2216 214 0
-2216 318 0
-214 -318 2216 0
-2217 215 0
-2217 319 0
-215 -319 2217 0
-2218 216 0
-2218 320 0
-216 -320 2218 0
-2219 217 0
-2219 321 0
-217 -321 2219 0
-2220 218 0
-2220 322 0
-218 -322 2220 0
-2221 219 0
-2221 323 0
-219 -323 2221 0
-2222 220 0
-2222 324 0
-220 -324 2222 0
-2223 221 0
-2223 325 0
-221 -325 2223 0
-2224 222 0
-2224 326 0
-222 -326 2224 0
-2225 223 0
-2225 327 0
-223 -327 2225 0
-2226 224 0
-2226 328 0
-224 -328 2226 0
-2227 225 0
-2227 329 0
-225 -329 2227 0
-2228 226 0
-2228 330 0
-226 -330 2228 0
-2229 227 0
-2229 331 0
-227 -331 2229 0
-2230 228 0
-2230 332 0
-228 -332 2230 0
-2231 229 0
-2231 333 0
-229 -333 2231 0
-2232 230 0
-2232 334 0
-230 -334 2232 0
-2233 231 0
-2233 335 0
-231 -335 2233 0
-2234 232 0
-2234 336 0
-232 -336 2234 0
-2235 233 0
-2235 337 0
-233 -337 2235 0
-2236 234 0
-2236 338 0
-234 -338 2236 0
-2211 13957 0
-13957 13958 0
-2212 -13957 0
-2212 13958 0
-13958 13959 0
-2213 -13958 0
-2213 13959 0
-13959 13960 0
-2214 -13959 0
-2214 13960 0
-13960 13961 0
-2215 -13960 0
-2215 13961 0
-13961 13962 0
-2216 -13961 0
-2216 13962 0
-13962 13963 0
-2217 -13962 0
-2217 13963 0
-13963 13964 0
-2218 -13963 0
-2218 13964 0
-13964 13965 0
-2219 -13964 0
-2219 13965 0
-13965 13966 0
-2220 -13965 0
-2220 13966 0
-13966 13967 0
-2221 -13966 0
-2221 13967 0
-13967 13968 0
-2222 -13967 0
-2222 13968 0
-13968 13969 0
-2223 -13968 0
-2223 13969 0
-13969 13970 0
-2224 -13969 0
-2224 13970 0
-13970 13971 0
-2225 -13970 0
-2225 13971 0
-13971 13972 0
-2226 -13971 0
-2226 13972 0
-13972 13973 0
-2227 -13972 0
-2227 13973 0
-13973 13974 0
-2228 -13973 0
-2228 13974 0
-13974 13975 0
-2229 -13974 0
-2229 13975 0
-13975 13976 0
-2230 -13975 0
-2230 13976 0
-13976 13977 0
-2231 -13976 0
-2231 13977 0
-13977 13978 0
-2232 -13977 0
-2232 13978 0
-13978 13979 0
-2233 -13978 0
-2233 13979 0
-13979 13980 0
-2234 -13979 0
-2234 13980 0
-13980 13981 0
-2235 -13980 0
-2235 13981 0
-2236 -13981 0
-2211 2464 0
-2212 2464 0
-2213 2464 0
-2214 2464 0
-2215 2464 0
-2216 2464 0
-2217 2464 0
-2218 2464 0
-2219 2464 0
-2220 2464 0
-2221 2464 0
-2222 2464 0
-2223 2464 0
-2224 2464 0
-2225 2464 0
-2226 2464 0
-2227 2464 0
-2228 2464 0
-2229 2464 0
-2230 2464 0
-2231 2464 0
-2232 2464 0
-2233 2464 0
-2234 2464 0
-2235 2464 0
-2236 2464 0
-2464 2211 2212 2213 2214 2215 2216 2217 2218 2219 2220 2221 2222 2223 2224 2225 2226 2227 2228 2229 2230 2231 2232 2233 2234 2235 2236 0
-2237 235 0
-2237 261 0
-235 -261 2237 0
-2238 236 0
-2238 262 0
-236 -262 2238 0
-2239 237 0
-2239 263 0
-237 -263 2239 0
-2240 238 0
-2240 264 0
-238 -264 2240 0
-2241 239 0
-2241 265 0
-239 -265 2241 0
-2242 240 0
-2242 266 0
-240 -266 2242 0
-2243 241 0
-2243 267 0
-241 -267 2243 0
-2244 242 0
-2244 268 0
-242 -268 2244 0
-2245 243 0
-2245 269 0
-243 -269 2245 0
-2246 244 0
-2246 270 0
-244 -270 2246 0
-2247 245 0
-2247 271 0
-245 -271 2247 0
-2248 246 0
-2248 272 0
-246 -272 2248 0
-2249 247 0
-2249 273 0
-247 -273 2249 0
-2250 248 0
-2250 274 0
-248 -274 2250 0
-2251 249 0
-2251 275 0
-249 -275 2251 0
-2252 250 0
-2252 276 0
-250 -276 2252 0
-2253 251 0
-2253 277 0
-251 -277 2253 0
-2254 252 0
-2254 278 0
-252 -278 2254 0
-2255 253 0
-2255 279 0
-253 -279 2255 0
-2256 254 0
-2256 280 0
-254 -280 2256 0
-2257 255 0
-2257 281 0
-255 -281 2257 0
-2258 256 0
-2258 282 0
-256 -282 2258 0
-2259 257 0
-2259 283 0
-257 -283 2259 0
-2260 258 0
-2260 284 0
-258 -284 2260 0
-2261 259 0
-2261 285 0
-259 -285 2261 0
-2262 260 0
-2262 286 0
-260 -286 2262 0
-2237 13982 0
-13982 13983 0
-2238 -13982 0
-2238 13983 0
-13983 13984 0
-2239 -13983 0
-2239 13984 0
-13984 13985 0
-2240 -13984 0
-2240 13985 0
-13985 13986 0
-2241 -13985 0
-2241 13986 0
-13986 13987 0
-2242 -13986 0
-2242 13987 0
-13987 13988 0
-2243 -13987 0
-2243 13988 0
-13988 13989 0
-2244 -13988 0
-2244 13989 0
-13989 13990 0
-2245 -13989 0
-2245 13990 0
-13990 13991 0
-2246 -13990 0
-2246 13991 0
-13991 13992 0
-2247 -13991 0
-2247 13992 0
-13992 13993 0
-2248 -13992 0
-2248 13993 0
-13993 13994 0
-2249 -13993 0
-2249 13994 0
-13994 13995 0
-2250 -13994 0
-2250 13995 0
-13995 13996 0
-2251 -13995 0
-2251 13996 0
-13996 13997 0
-2252 -13996 0
-2252 13997 0
-13997 13998 0
-2253 -13997 0
-2253 13998 0
-13998 13999 0
-2254 -13998 0
-2254 13999 0
-13999 14000 0
-2255 -13999 0
-2255 14000 0
-14000 14001 0
-2256 -14000 0
-2256 14001 0
-14001 14002 0
-2257 -14001 0
-2257 14002 0
-14002 14003 0
-2258 -14002 0
-2258 14003 0
-14003 14004 0
-2259 -14003 0
-2259 14004 0
-14004 14005 0
-2260 -14004 0
-2260 14005 0
-14005 14006 0
-2261 -14005 0
-2261 14006 0
-2262 -14006 0
-2237 2465 0
-2238 2465 0
-2239 2465 0
-2240 2465 0
-2241 2465 0
-2242 2465 0
-2243 2465 0
-2244 2465 0
-2245 2465 0
-2246 2465 0
-2247 2465 0
-2248 2465 0
-2249 2465 0
-2250 2465 0
-2251 2465 0
-2252 2465 0
-2253 2465 0
-2254 2465 0
-2255 2465 0
-2256 2465 0
-2257 2465 0
-2258 2465 0
-2259 2465 0
-2260 2465 0
-2261 2465 0
-2262 2465 0
-2465 2237 2238 2239 2240 2241 2242 2243 2244 2245 2246 2247 2248 2249 2250 2251 2252 2253 2254 2255 2256 2257 2258 2259 2260 2261 2262 0
-2263 235 0
-2263 287 0
-235 -287 2263 0
-2264 236 0
-2264 288 0
-236 -288 2264 0
-2265 237 0
-2265 289 0
-237 -289 2265 0
-2266 238 0
-2266 290 0
-238 -290 2266 0
-2267 239 0
-2267 291 0
-239 -291 2267 0
-2268 240 0
-2268 292 0
-240 -292 2268 0
-2269 241 0
-2269 293 0
-241 -293 2269 0
-2270 242 0
-2270 294 0
-242 -294 2270 0
-2271 243 0
-2271 295 0
-243 -295 2271 0
-2272 244 0
-2272 296 0
-244 -296 2272 0
-2273 245 0
-2273 297 0
-245 -297 2273 0
-2274 246 0
-2274 298 0
-246 -298 2274 0
-2275 247 0
-2275 299 0
-247 -299 2275 0
-2276 248 0
-2276 300 0
-248 -300 2276 0
-2277 249 0
-2277 301 0
-249 -301 2277 0
-2278 250 0
-2278 302 0
-250 -302 2278 0
-2279 251 0
-2279 303 0
-251 -303 2279 0
-2280 252 0
-2280 304 0
-252 -304 2280 0
-2281 253 0
-2281 305 0
-253 -305 2281 0
-2282 254 0
-2282 306 0
-254 -306 2282 0
-2283 255 0
-2283 307 0
-255 -307 2283 0
-2284 256 0
-2284 308 0
-256 -308 2284 0
-2285 257 0
-2285 309 0
-257 -309 2285 0
-2286 258 0
-2286 310 0
-258 -310 2286 0
-2287 259 0
-2287 311 0
-259 -311 2287 0
-2288 260 0
-2288 312 0
-260 -312 2288 0
-2263 14007 0
-14007 14008 0
-2264 -14007 0
-2264 14008 0
-14008 14009 0
-2265 -14008 0
-2265 14009 0
-14009 14010 0
-2266 -14009 0
-2266 14010 0
-14010 14011 0
-2267 -14010 0
-2267 14011 0
-14011 14012 0
-2268 -14011 0
-2268 14012 0
-14012 14013 0
-2269 -14012 0
-2269 14013 0
-14013 14014 0
-2270 -14013 0
-2270 14014 0
-14014 14015 0
-2271 -14014 0
-2271 14015 0
-14015 14016 0
-2272 -14015 0
-2272 14016 0
-14016 14017 0
-2273 -14016 0
-2273 14017 0
-14017 14018 0
-2274 -14017 0
-2274 14018 0
-14018 14019 0
-2275 -14018 0
-2275 14019 0
-14019 14020 0
-2276 -14019 0
-2276 14020 0
-14020 14021 0
-2277 -14020 0
-2277 14021 0
-14021 14022 0
-2278 -14021 0
-2278 14022 0
-14022 14023 0
-2279 -14022 0
-2279 14023 0
-14023 14024 0
-2280 -14023 0
-2280 14024 0
-14024 14025 0
-2281 -14024 0
-2281 14025 0
-14025 14026 0
-2282 -14025 0
-2282 14026 0
-14026 14027 0
-2283 -14026 0
-2283 14027 0
-14027 14028 0
-2284 -14027 0
-2284 14028 0
-14028 14029 0
-2285 -14028 0
-2285 14029 0
-14029 14030 0
-2286 -14029 0
-2286 14030 0
-14030 14031 0
-2287 -14030 0
-2287 14031 0
-2288 -14031 0
-2263 2466 0
-2264 2466 0
-2265 2466 0
-2266 2466 0
-2267 2466 0
-2268 2466 0
-2269 2466 0
-2270 2466 0
-2271 2466 0
-2272 2466 0
-2273 2466 0
-2274 2466 0
-2275 2466 0
-2276 2466 0
-2277 2466 0
-2278 2466 0
-2279 2466 0
-2280 2466 0
-2281 2466 0
-2282 2466 0
-2283 2466 0
-2284 2466 0
-2285 2466 0
-2286 2466 0
-2287 2466 0
-2288 2466 0
-2466 2263 2264 2265 2266 2267 2268 2269 2270 2271 2272 2273 2274 2275 2276 2277 2278 2279 2280 2281 2282 2283 2284 2285 2286 2287 2288 0
-2289 235 0
-2289 313 0
-235 -313 2289 0
-2290 236 0
-2290 314 0
-236 -314 2290 0
-2291 237 0
-2291 315 0
-237 -315 2291 0
-2292 238 0
-2292 316 0
-238 -316 2292 0
-2293 239 0
-2293 317 0
-239 -317 2293 0
-2294 240 0
-2294 318 0
-240 -318 2294 0
-2295 241 0
-2295 319 0
-241 -319 2295 0
-2296 242 0
-2296 320 0
-242 -320 2296 0
-2297 243 0
-2297 321 0
-243 -321 2297 0
-2298 244 0
-2298 322 0
-244 -322 2298 0
-2299 245 0
-2299 323 0
-245 -323 2299 0
-2300 246 0
-2300 324 0
-246 -324 2300 0
-2301 247 0
-2301 325 0
-247 -325 2301 0
-2302 248 0
-2302 326 0
-248 -326 2302 0
-2303 249 0
-2303 327 0
-249 -327 2303 0
-2304 250 0
-2304 328 0
-250 -328 2304 0
-2305 251 0
-2305 329 0
-251 -329 2305 0
-2306 252 0
-2306 330 0
-252 -330 2306 0
-2307 253 0
-2307 331 0
-253 -331 2307 0
-2308 254 0
-2308 332 0
-254 -332 2308 0
-2309 255 0
-2309 333 0
-255 -333 2309 0
-2310 256 0
-2310 334 0
-256 -334 2310 0
-2311 257 0
-2311 335 0
-257 -335 2311 0
-2312 258 0
-2312 336 0
-258 -336 2312 0
-2313 259 0
-2313 337 0
-259 -337 2313 0
-2314 260 0
-2314 338 0
-260 -338 2314 0
-2289 14032 0
-14032 14033 0
-2290 -14032 0
-2290 14033 0
-14033 14034 0
-2291 -14033 0
-2291 14034 0
-14034 14035 0
-2292 -14034 0
-2292 14035 0
-14035 14036 0
-2293 -14035 0
-2293 14036 0
-14036 14037 0
-2294 -14036 0
-2294 14037 0
-14037 14038 0
-2295 -14037 0
-2295 14038 0
-14038 14039 0
-2296 -14038 0
-2296 14039 0
-14039 14040 0
-2297 -14039 0
-2297 14040 0
-14040 14041 0
-2298 -14040 0
-2298 14041 0
-14041 14042 0
-2299 -14041 0
-2299 14042 0
-14042 14043 0
-2300 -14042 0
-2300 14043 0
-14043 14044 0
-2301 -14043 0
-2301 14044 0
-14044 14045 0
-2302 -14044 0
-2302 14045 0
-14045 14046 0
-2303 -14045 0
-2303 14046 0
-14046 14047 0
-2304 -14046 0
-2304 14047 0
-14047 14048 0
-2305 -14047 0
-2305 14048 0
-14048 14049 0
-2306 -14048 0
-2306 14049 0
-14049 14050 0
-2307 -14049 0
-2307 14050 0
-14050 14051 0
-2308 -14050 0
-2308 14051 0
-14051 14052 0
-2309 -14051 0
-2309 14052 0
-14052 14053 0
-2310 -14052 0
-2310 14053 0
-14053 14054 0
-2311 -14053 0
-2311 14054 0
-14054 14055 0
-2312 -14054 0
-2312 14055 0
-14055 14056 0
-2313 -14055 0
-2313 14056 0
-2314 -14056 0
-2289 2467 0
-2290 2467 0
-2291 2467 0
-2292 2467 0
-2293 2467 0
-2294 2467 0
-2295 2467 0
-2296 2467 0
-2297 2467 0
-2298 2467 0
-2299 2467 0
-2300 2467 0
-2301 2467 0
-2302 2467 0
-2303 2467 0
-2304 2467 0
-2305 2467 0
-2306 2467 0
-2307 2467 0
-2308 2467 0
-2309 2467 0
-2310 2467 0
-2311 2467 0
-2312 2467 0
-2313 2467 0
-2314 2467 0
-2467 2289 2290 2291 2292 2293 2294 2295 2296 2297 2298 2299 2300 2301 2302 2303 2304 2305 2306 2307 2308 2309 2310 2311 2312 2313 2314 0
-2315 261 0
-2315 287 0
-261 -287 2315 0
-2316 262 0
-2316 288 0
-262 -288 2316 0
-2317 263 0
-2317 289 0
-263 -289 2317 0
-2318 264 0
-2318 290 0
-264 -290 2318 0
-2319 265 0
-2319 291 0
-265 -291 2319 0
-2320 266 0
-2320 292 0
-266 -292 2320 0
-2321 267 0
-2321 293 0
-267 -293 2321 0
-2322 268 0
-2322 294 0
-268 -294 2322 0
-2323 269 0
-2323 295 0
-269 -295 2323 0
-2324 270 0
-2324 296 0
-270 -296 2324 0
-2325 271 0
-2325 297 0
-271 -297 2325 0
-2326 272 0
-2326 298 0
-272 -298 2326 0
-2327 273 0
-2327 299 0
-273 -299 2327 0
-2328 274 0
-2328 300 0
-274 -300 2328 0
-2329 275 0
-2329 301 0
-275 -301 2329 0
-2330 276 0
-2330 302 0
-276 -302 2330 0
-2331 277 0
-2331 303 0
-277 -303 2331 0
-2332 278 0
-2332 304 0
-278 -304 2332 0
-2333 279 0
-2333 305 0
-279 -305 2333 0
-2334 280 0
-2334 306 0
-280 -306 2334 0
-2335 281 0
-2335 307 0
-281 -307 2335 0
-2336 282 0
-2336 308 0
-282 -308 2336 0
-2337 283 0
-2337 309 0
-283 -309 2337 0
-2338 284 0
-2338 310 0
-284 -310 2338 0
-2339 285 0
-2339 311 0
-285 -311 2339 0
-2340 286 0
-2340 312 0
-286 -312 2340 0
-2315 14057 0
-14057 14058 0
-2316 -14057 0
-2316 14058 0
-14058 14059 0
-2317 -14058 0
-2317 14059 0
-14059 14060 0
-2318 -14059 0
-2318 14060 0
-14060 14061 0
-2319 -14060 0
-2319 14061 0
-14061 14062 0
-2320 -14061 0
-2320 14062 0
-14062 14063 0
-2321 -14062 0
-2321 14063 0
-14063 14064 0
-2322 -14063 0
-2322 14064 0
-14064 14065 0
-2323 -14064 0
-2323 14065 0
-14065 14066 0
-2324 -14065 0
-2324 14066 0
-14066 14067 0
-2325 -14066 0
-2325 14067 0
-14067 14068 0
-2326 -14067 0
-2326 14068 0
-14068 14069 0
-2327 -14068 0
-2327 14069 0
-14069 14070 0
-2328 -14069 0
-2328 14070 0
-14070 14071 0
-2329 -14070 0
-2329 14071 0
-14071 14072 0
-2330 -14071 0
-2330 14072 0
-14072 14073 0
-2331 -14072 0
-2331 14073 0
-14073 14074 0
-2332 -14073 0
-2332 14074 0
-14074 14075 0
-2333 -14074 0
-2333 14075 0
-14075 14076 0
-2334 -14075 0
-2334 14076 0
-14076 14077 0
-2335 -14076 0
-2335 14077 0
-14077 14078 0
-2336 -14077 0
-2336 14078 0
-14078 14079 0
-2337 -14078 0
-2337 14079 0
-14079 14080 0
-2338 -14079 0
-2338 14080 0
-14080 14081 0
-2339 -14080 0
-2339 14081 0
-2340 -14081 0
-2315 2468 0
-2316 2468 0
-2317 2468 0
-2318 2468 0
-2319 2468 0
-2320 2468 0
-2321 2468 0
-2322 2468 0
-2323 2468 0
-2324 2468 0
-2325 2468 0
-2326 2468 0
-2327 2468 0
-2328 2468 0
-2329 2468 0
-2330 2468 0
-2331 2468 0
-2332 2468 0
-2333 2468 0
-2334 2468 0
-2335 2468 0
-2336 2468 0
-2337 2468 0
-2338 2468 0
-2339 2468 0
-2340 2468 0
-2468 2315 2316 2317 2318 2319 2320 2321 2322 2323 2324 2325 2326 2327 2328 2329 2330 2331 2332 2333 2334 2335 2336 2337 2338 2339 2340 0
-2341 261 0
-2341 313 0
-261 -313 2341 0
-2342 262 0
-2342 314 0
-262 -314 2342 0
-2343 263 0
-2343 315 0
-263 -315 2343 0
-2344 264 0
-2344 316 0
-264 -316 2344 0
-2345 265 0
-2345 317 0
-265 -317 2345 0
-2346 266 0
-2346 318 0
-266 -318 2346 0
-2347 267 0
-2347 319 0
-267 -319 2347 0
-2348 268 0
-2348 320 0
-268 -320 2348 0
-2349 269 0
-2349 321 0
-269 -321 2349 0
-2350 270 0
-2350 322 0
-270 -322 2350 0
-2351 271 0
-2351 323 0
-271 -323 2351 0
-2352 272 0
-2352 324 0
-272 -324 2352 0
-2353 273 0
-2353 325 0
-273 -325 2353 0
-2354 274 0
-2354 326 0
-274 -326 2354 0
-2355 275 0
-2355 327 0
-275 -327 2355 0
-2356 276 0
-2356 328 0
-276 -328 2356 0
-2357 277 0
-2357 329 0
-277 -329 2357 0
-2358 278 0
-2358 330 0
-278 -330 2358 0
-2359 279 0
-2359 331 0
-279 -331 2359 0
-2360 280 0
-2360 332 0
-280 -332 2360 0
-2361 281 0
-2361 333 0
-281 -333 2361 0
-2362 282 0
-2362 334 0
-282 -334 2362 0
-2363 283 0
-2363 335 0
-283 -335 2363 0
-2364 284 0
-2364 336 0
-284 -336 2364 0
-2365 285 0
-2365 337 0
-285 -337 2365 0
-2366 286 0
-2366 338 0
-286 -338 2366 0
-2341 14082 0
-14082 14083 0
-2342 -14082 0
-2342 14083 0
-14083 14084 0
-2343 -14083 0
-2343 14084 0
-14084 14085 0
-2344 -14084 0
-2344 14085 0
-14085 14086 0
-2345 -14085 0
-2345 14086 0
-14086 14087 0
-2346 -14086 0
-2346 14087 0
-14087 14088 0
-2347 -14087 0
-2347 14088 0
-14088 14089 0
-2348 -14088 0
-2348 14089 0
-14089 14090 0
-2349 -14089 0
-2349 14090 0
-14090 14091 0
-2350 -14090 0
-2350 14091 0
-14091 14092 0
-2351 -14091 0
-2351 14092 0
-14092 14093 0
-2352 -14092 0
-2352 14093 0
-14093 14094 0
-2353 -14093 0
-2353 14094 0
-14094 14095 0
-2354 -14094 0
-2354 14095 0
-14095 14096 0
-2355 -14095 0
-2355 14096 0
-14096 14097 0
-2356 -14096 0
-2356 14097 0
-14097 14098 0
-2357 -14097 0
-2357 14098 0
-14098 14099 0
-2358 -14098 0
-2358 14099 0
-14099 14100 0
-2359 -14099 0
-2359 14100 0
-14100 14101 0
-2360 -14100 0
-2360 14101 0
-14101 14102 0
-2361 -14101 0
-2361 14102 0
-14102 14103 0
-2362 -14102 0
-2362 14103 0
-14103 14104 0
-2363 -14103 0
-2363 14104 0
-14104 14105 0
-2364 -14104 0
-2364 14105 0
-14105 14106 0
-2365 -14105 0
-2365 14106 0
-2366 -14106 0
-2341 2469 0
-2342 2469 0
-2343 2469 0
-2344 2469 0
-2345 2469 0
-2346 2469 0
-2347 2469 0
-2348 2469 0
-2349 2469 0
-2350 2469 0
-2351 2469 0
-2352 2469 0
-2353 2469 0
-2354 2469 0
-2355 2469 0
-2356 2469 0
-2357 2469 0
-2358 2469 0
-2359 2469 0
-2360 2469 0
-2361 2469 0
-2362 2469 0
-2363 2469 0
-2364 2469 0
-2365 2469 0
-2366 2469 0
-2469 2341 2342 2343 2344 2345 2346 2347 2348 2349 2350 2351 2352 2353 2354 2355 2356 2357 2358 2359 2360 2361 2362 2363 2364 2365 2366 0
-2367 287 0
-2367 313 0
-287 -313 2367 0
-2368 288 0
-2368 314 0
-288 -314 2368 0
-2369 289 0
-2369 315 0
-289 -315 2369 0
-2370 290 0
-2370 316 0
-290 -316 2370 0
-2371 291 0
-2371 317 0
-291 -317 2371 0
-2372 292 0
-2372 318 0
-292 -318 2372 0
-2373 293 0
-2373 319 0
-293 -319 2373 0
-2374 294 0
-2374 320 0
-294 -320 2374 0
-2375 295 0
-2375 321 0
-295 -321 2375 0
-2376 296 0
-2376 322 0
-296 -322 2376 0
-2377 297 0
-2377 323 0
-297 -323 2377 0
-2378 298 0
-2378 324 0
-298 -324 2378 0
-2379 299 0
-2379 325 0
-299 -325 2379 0
-2380 300 0
-2380 326 0
-300 -326 2380 0
-2381 301 0
-2381 327 0
-301 -327 2381 0
-2382 302 0
-2382 328 0
-302 -328 2382 0
-2383 303 0
-2383 329 0
-303 -329 2383 0
-2384 304 0
-2384 330 0
-304 -330 2384 0
-2385 305 0
-2385 331 0
-305 -331 2385 0
-2386 306 0
-2386 332 0
-306 -332 2386 0
-2387 307 0
-2387 333 0
-307 -333 2387 0
-2388 308 0
-2388 334 0
-308 -334 2388 0
-2389 309 0
-2389 335 0
-309 -335 2389 0
-2390 310 0
-2390 336 0
-310 -336 2390 0
-2391 311 0
-2391 337 0
-311 -337 2391 0
-2392 312 0
-2392 338 0
-312 -338 2392 0
-2367 14107 0
-14107 14108 0
-2368 -14107 0
-2368 14108 0
-14108 14109 0
-2369 -14108 0
-2369 14109 0
-14109 14110 0
-2370 -14109 0
-2370 14110 0
-14110 14111 0
-2371 -14110 0
-2371 14111 0
-14111 14112 0
-2372 -14111 0
-2372 14112 0
-14112 14113 0
-2373 -14112 0
-2373 14113 0
-14113 14114 0
-2374 -14113 0
-2374 14114 0
-14114 14115 0
-2375 -14114 0
-2375 14115 0
-14115 14116 0
-2376 -14115 0
-2376 14116 0
-14116 14117 0
-2377 -14116 0
-2377 14117 0
-14117 14118 0
-2378 -14117 0
-2378 14118 0
-14118 14119 0
-2379 -14118 0
-2379 14119 0
-14119 14120 0
-2380 -14119 0
-2380 14120 0
-14120 14121 0
-2381 -14120 0
-2381 14121 0
-14121 14122 0
-2382 -14121 0
-2382 14122 0
-14122 14123 0
-2383 -14122 0
-2383 14123 0
-14123 14124 0
-2384 -14123 0
-2384 14124 0
-14124 14125 0
-2385 -14124 0
-2385 14125 0
-14125 14126 0
-2386 -14125 0
-2386 14126 0
-14126 14127 0
-2387 -14126 0
-2387 14127 0
-14127 14128 0
-2388 -14127 0
-2388 14128 0
-14128 14129 0
-2389 -14128 0
-2389 14129 0
-14129 14130 0
-2390 -14129 0
-2390 14130 0
-14130 14131 0
-2391 -14130 0
-2391 14131 0
-2392 -14131 0
-2367 2470 0
-2368 2470 0
-2369 2470 0
-2370 2470 0
-2371 2470 0
-2372 2470 0
-2373 2470 0
-2374 2470 0
-2375 2470 0
-2376 2470 0
-2377 2470 0
-2378 2470 0
-2379 2470 0
-2380 2470 0
-2381 2470 0
-2382 2470 0
-2383 2470 0
-2384 2470 0
-2385 2470 0
-2386 2470 0
-2387 2470 0
-2388 2470 0
-2389 2470 0
-2390 2470 0
-2391 2470 0
-2392 2470 0
-2470 2367 2368 2369 2370 2371 2372 2373 2374 2375 2376 2377 2378 2379 2380 2381 2382 2383 2384 2385 2386 2387 2388 2389 2390 2391 2392 0
-2471 1 0
-2471 27 0
-2471 53 0
-1 -27 -53 2471 0
-2472 2 0
-2472 28 0
-2472 54 0
-2 -28 -54 2472 0
-2473 3 0
-2473 29 0
-2473 55 0
-3 -29 -55 2473 0
-2474 4 0
-2474 30 0
-2474 56 0
-4 -30 -56 2474 0
-2475 5 0
-2475 31 0
-2475 57 0
-5 -31 -57 2475 0
-2476 6 0
-2476 32 0
-2476 58 0
-6 -32 -58 2476 0
-2477 7 0
-2477 33 0
-2477 59 0
-7 -33 -59 2477 0
-2478 8 0
-2478 34 0
-2478 60 0
-8 -34 -60 2478 0
-2479 9 0
-2479 35 0
-2479 61 0
-9 -35 -61 2479 0
-2480 10 0
-2480 36 0
-2480 62 0
-10 -36 -62 2480 0
-2481 11 0
-2481 37 0
-2481 63 0
-11 -37 -63 2481 0
-2482 12 0
-2482 38 0
-2482 64 0
-12 -38 -64 2482 0
-2483 13 0
-2483 39 0
-2483 65 0
-13 -39 -65 2483 0
-2484 14 0
-2484 40 0
-2484 66 0
-14 -40 -66 2484 0
-2485 15 0
-2485 41 0
-2485 67 0
-15 -41 -67 2485 0
-2486 16 0
-2486 42 0
-2486 68 0
-16 -42 -68 2486 0
-2487 17 0
-2487 43 0
-2487 69 0
-17 -43 -69 2487 0
-2488 18 0
-2488 44 0
-2488 70 0
-18 -44 -70 2488 0
-2489 19 0
-2489 45 0
-2489 71 0
-19 -45 -71 2489 0
-2490 20 0
-2490 46 0
-2490 72 0
-20 -46 -72 2490 0
-2491 21 0
-2491 47 0
-2491 73 0
-21 -47 -73 2491 0
-2492 22 0
-2492 48 0
-2492 74 0
-22 -48 -74 2492 0
-2493 23 0
-2493 49 0
-2493 75 0
-23 -49 -75 2493 0
-2494 24 0
-2494 50 0
-2494 76 0
-24 -50 -76 2494 0
-2495 25 0
-2495 51 0
-2495 77 0
-25 -51 -77 2495 0
-2496 26 0
-2496 52 0
-2496 78 0
-26 -52 -78 2496 0
-2471 9907 0
-2472 9907 0
-2473 9907 0
-2474 9907 0
-2475 9907 0
-2476 9907 0
-2477 9907 0
-2478 9907 0
-2479 9907 0
-2480 9907 0
-2481 9907 0
-2482 9907 0
-2483 9907 0
-2484 9907 0
-2485 9907 0
-2486 9907 0
-2487 9907 0
-2488 9907 0
-2489 9907 0
-2490 9907 0
-2491 9907 0
-2492 9907 0
-2493 9907 0
-2494 9907 0
-2495 9907 0
-2496 9907 0
-9907 2471 2472 2473 2474 2475 2476 2477 2478 2479 2480 2481 2482 2483 2484 2485 2486 2487 2488 2489 2490 2491 2492 2493 2494 2495 2496 0
-2497 1 0
-2497 27 0
-2497 79 0
-1 -27 -79 2497 0
-2498 2 0
-2498 28 0
-2498 80 0
-2 -28 -80 2498 0
-2499 3 0
-2499 29 0
-2499 81 0
-3 -29 -81 2499 0
-2500 4 0
-2500 30 0
-2500 82 0
-4 -30 -82 2500 0
-2501 5 0
-2501 31 0
-2501 83 0
-5 -31 -83 2501 0
-2502 6 0
-2502 32 0
-2502 84 0
-6 -32 -84 2502 0
-2503 7 0
-2503 33 0
-2503 85 0
-7 -33 -85 2503 0
-2504 8 0
-2504 34 0
-2504 86 0
-8 -34 -86 2504 0
-2505 9 0
-2505 35 0
-2505 87 0
-9 -35 -87 2505 0
-2506 10 0
-2506 36 0
-2506 88 0
-10 -36 -88 2506 0
-2507 11 0
-2507 37 0
-2507 89 0
-11 -37 -89 2507 0
-2508 12 0
-2508 38 0
-2508 90 0
-12 -38 -90 2508 0
-2509 13 0
-2509 39 0
-2509 91 0
-13 -39 -91 2509 0
-2510 14 0
-2510 40 0
-2510 92 0
-14 -40 -92 2510 0
-2511 15 0
-2511 41 0
-2511 93 0
-15 -41 -93 2511 0
-2512 16 0
-2512 42 0
-2512 94 0
-16 -42 -94 2512 0
-2513 17 0
-2513 43 0
-2513 95 0
-17 -43 -95 2513 0
-2514 18 0
-2514 44 0
-2514 96 0
-18 -44 -96 2514 0
-2515 19 0
-2515 45 0
-2515 97 0
-19 -45 -97 2515 0
-2516 20 0
-2516 46 0
-2516 98 0
-20 -46 -98 2516 0
-2517 21 0
-2517 47 0
-2517 99 0
-21 -47 -99 2517 0
-2518 22 0
-2518 48 0
-2518 100 0
-22 -48 -100 2518 0
-2519 23 0
-2519 49 0
-2519 101 0
-23 -49 -101 2519 0
-2520 24 0
-2520 50 0
-2520 102 0
-24 -50 -102 2520 0
-2521 25 0
-2521 51 0
-2521 103 0
-25 -51 -103 2521 0
-2522 26 0
-2522 52 0
-2522 104 0
-26 -52 -104 2522 0
-2497 9908 0
-2498 9908 0
-2499 9908 0
-2500 9908 0
-2501 9908 0
-2502 9908 0
-2503 9908 0
-2504 9908 0
-2505 9908 0
-2506 9908 0
-2507 9908 0
-2508 9908 0
-2509 9908 0
-2510 9908 0
-2511 9908 0
-2512 9908 0
-2513 9908 0
-2514 9908 0
-2515 9908 0
-2516 9908 0
-2517 9908 0
-2518 9908 0
-2519 9908 0
-2520 9908 0
-2521 9908 0
-2522 9908 0
-9908 2497 2498 2499 2500 2501 2502 2503 2504 2505 2506 2507 2508 2509 2510 2511 2512 2513 2514 2515 2516 2517 2518 2519 2520 2521 2522 0
-2523 1 0
-2523 27 0
-2523 105 0
-1 -27 -105 2523 0
-2524 2 0
-2524 28 0
-2524 106 0
-2 -28 -106 2524 0
-2525 3 0
-2525 29 0
-2525 107 0
-3 -29 -107 2525 0
-2526 4 0
-2526 30 0
-2526 108 0
-4 -30 -108 2526 0
-2527 5 0
-2527 31 0
-2527 109 0
-5 -31 -109 2527 0
-2528 6 0
-2528 32 0
-2528 110 0
-6 -32 -110 2528 0
-2529 7 0
-2529 33 0
-2529 111 0
-7 -33 -111 2529 0
-2530 8 0
-2530 34 0
-2530 112 0
-8 -34 -112 2530 0
-2531 9 0
-2531 35 0
-2531 113 0
-9 -35 -113 2531 0
-2532 10 0
-2532 36 0
-2532 114 0
-10 -36 -114 2532 0
-2533 11 0
-2533 37 0
-2533 115 0
-11 -37 -115 2533 0
-2534 12 0
-2534 38 0
-2534 116 0
-12 -38 -116 2534 0
-2535 13 0
-2535 39 0
-2535 117 0
-13 -39 -117 2535 0
-2536 14 0
-2536 40 0
-2536 118 0
-14 -40 -118 2536 0
-2537 15 0
-2537 41 0
-2537 119 0
-15 -41 -119 2537 0
-2538 16 0
-2538 42 0
-2538 120 0
-16 -42 -120 2538 0
-2539 17 0
-2539 43 0
-2539 121 0
-17 -43 -121 2539 0
-2540 18 0
-2540 44 0
-2540 122 0
-18 -44 -122 2540 0
-2541 19 0
-2541 45 0
-2541 123 0
-19 -45 -123 2541 0
-2542 20 0
-2542 46 0
-2542 124 0
-20 -46 -124 2542 0
-2543 21 0
-2543 47 0
-2543 125 0
-21 -47 -125 2543 0
-2544 22 0
-2544 48 0
-2544 126 0
-22 -48 -126 2544 0
-2545 23 0
-2545 49 0
-2545 127 0
-23 -49 -127 2545 0
-2546 24 0
-2546 50 0
-2546 128 0
-24 -50 -128 2546 0
-2547 25 0
-2547 51 0
-2547 129 0
-25 -51 -129 2547 0
-2548 26 0
-2548 52 0
-2548 130 0
-26 -52 -130 2548 0
-2523 9909 0
-2524 9909 0
-2525 9909 0
-2526 9909 0
-2527 9909 0
-2528 9909 0
-2529 9909 0
-2530 9909 0
-2531 9909 0
-2532 9909 0
-2533 9909 0
-2534 9909 0
-2535 9909 0
-2536 9909 0
-2537 9909 0
-2538 9909 0
-2539 9909 0
-2540 9909 0
-2541 9909 0
-2542 9909 0
-2543 9909 0
-2544 9909 0
-2545 9909 0
-2546 9909 0
-2547 9909 0
-2548 9909 0
-9909 2523 2524 2525 2526 2527 2528 2529 2530 2531 2532 2533 2534 2535 2536 2537 2538 2539 2540 2541 2542 2543 2544 2545 2546 2547 2548 0
-2549 1 0
-2549 27 0
-2549 131 0
-1 -27 -131 2549 0
-2550 2 0
-2550 28 0
-2550 132 0
-2 -28 -132 2550 0
-2551 3 0
-2551 29 0
-2551 133 0
-3 -29 -133 2551 0
-2552 4 0
-2552 30 0
-2552 134 0
-4 -30 -134 2552 0
-2553 5 0
-2553 31 0
-2553 135 0
-5 -31 -135 2553 0
-2554 6 0
-2554 32 0
-2554 136 0
-6 -32 -136 2554 0
-2555 7 0
-2555 33 0
-2555 137 0
-7 -33 -137 2555 0
-2556 8 0
-2556 34 0
-2556 138 0
-8 -34 -138 2556 0
-2557 9 0
-2557 35 0
-2557 139 0
-9 -35 -139 2557 0
-2558 10 0
-2558 36 0
-2558 140 0
-10 -36 -140 2558 0
-2559 11 0
-2559 37 0
-2559 141 0
-11 -37 -141 2559 0
-2560 12 0
-2560 38 0
-2560 142 0
-12 -38 -142 2560 0
-2561 13 0
-2561 39 0
-2561 143 0
-13 -39 -143 2561 0
-2562 14 0
-2562 40 0
-2562 144 0
-14 -40 -144 2562 0
-2563 15 0
-2563 41 0
-2563 145 0
-15 -41 -145 2563 0
-2564 16 0
-2564 42 0
-2564 146 0
-16 -42 -146 2564 0
-2565 17 0
-2565 43 0
-2565 147 0
-17 -43 -147 2565 0
-2566 18 0
-2566 44 0
-2566 148 0
-18 -44 -148 2566 0
-2567 19 0
-2567 45 0
-2567 149 0
-19 -45 -149 2567 0
-2568 20 0
-2568 46 0
-2568 150 0
-20 -46 -150 2568 0
-2569 21 0
-2569 47 0
-2569 151 0
-21 -47 -151 2569 0
-2570 22 0
-2570 48 0
-2570 152 0
-22 -48 -152 2570 0
-2571 23 0
-2571 49 0
-2571 153 0
-23 -49 -153 2571 0
-2572 24 0
-2572 50 0
-2572 154 0
-24 -50 -154 2572 0
-2573 25 0
-2573 51 0
-2573 155 0
-25 -51 -155 2573 0
-2574 26 0
-2574 52 0
-2574 156 0
-26 -52 -156 2574 0
-2549 9910 0
-2550 9910 0
-2551 9910 0
-2552 9910 0
-2553 9910 0
-2554 9910 0
-2555 9910 0
-2556 9910 0
-2557 9910 0
-2558 9910 0
-2559 9910 0
-2560 9910 0
-2561 9910 0
-2562 9910 0
-2563 9910 0
-2564 9910 0
-2565 9910 0
-2566 9910 0
-2567 9910 0
-2568 9910 0
-2569 9910 0
-2570 9910 0
-2571 9910 0
-2572 9910 0
-2573 9910 0
-2574 9910 0
-9910 2549 2550 2551 2552 2553 2554 2555 2556 2557 2558 2559 2560 2561 2562 2563 2564 2565 2566 2567 2568 2569 2570 2571 2572 2573 2574 0
-2575 1 0
-2575 27 0
-2575 157 0
-1 -27 -157 2575 0
-2576 2 0
-2576 28 0
-2576 158 0
-2 -28 -158 2576 0
-2577 3 0
-2577 29 0
-2577 159 0
-3 -29 -159 2577 0
-2578 4 0
-2578 30 0
-2578 160 0
-4 -30 -160 2578 0
-2579 5 0
-2579 31 0
-2579 161 0
-5 -31 -161 2579 0
-2580 6 0
-2580 32 0
-2580 162 0
-6 -32 -162 2580 0
-2581 7 0
-2581 33 0
-2581 163 0
-7 -33 -163 2581 0
-2582 8 0
-2582 34 0
-2582 164 0
-8 -34 -164 2582 0
-2583 9 0
-2583 35 0
-2583 165 0
-9 -35 -165 2583 0
-2584 10 0
-2584 36 0
-2584 166 0
-10 -36 -166 2584 0
-2585 11 0
-2585 37 0
-2585 167 0
-11 -37 -167 2585 0
-2586 12 0
-2586 38 0
-2586 168 0
-12 -38 -168 2586 0
-2587 13 0
-2587 39 0
-2587 169 0
-13 -39 -169 2587 0
-2588 14 0
-2588 40 0
-2588 170 0
-14 -40 -170 2588 0
-2589 15 0
-2589 41 0
-2589 171 0
-15 -41 -171 2589 0
-2590 16 0
-2590 42 0
-2590 172 0
-16 -42 -172 2590 0
-2591 17 0
-2591 43 0
-2591 173 0
-17 -43 -173 2591 0
-2592 18 0
-2592 44 0
-2592 174 0
-18 -44 -174 2592 0
-2593 19 0
-2593 45 0
-2593 175 0
-19 -45 -175 2593 0
-2594 20 0
-2594 46 0
-2594 176 0
-20 -46 -176 2594 0
-2595 21 0
-2595 47 0
-2595 177 0
-21 -47 -177 2595 0
-2596 22 0
-2596 48 0
-2596 178 0
-22 -48 -178 2596 0
-2597 23 0
-2597 49 0
-2597 179 0
-23 -49 -179 2597 0
-2598 24 0
-2598 50 0
-2598 180 0
-24 -50 -180 2598 0
-2599 25 0
-2599 51 0
-2599 181 0
-25 -51 -181 2599 0
-2600 26 0
-2600 52 0
-2600 182 0
-26 -52 -182 2600 0
-2575 9911 0
-2576 9911 0
-2577 9911 0
-2578 9911 0
-2579 9911 0
-2580 9911 0
-2581 9911 0
-2582 9911 0
-2583 9911 0
-2584 9911 0
-2585 9911 0
-2586 9911 0
-2587 9911 0
-2588 9911 0
-2589 9911 0
-2590 9911 0
-2591 9911 0
-2592 9911 0
-2593 9911 0
-2594 9911 0
-2595 9911 0
-2596 9911 0
-2597 9911 0
-2598 9911 0
-2599 9911 0
-2600 9911 0
-9911 2575 2576 2577 2578 2579 2580 2581 2582 2583 2584 2585 2586 2587 2588 2589 2590 2591 2592 2593 2594 2595 2596 2597 2598 2599 2600 0
-2601 1 0
-2601 27 0
-2601 183 0
-1 -27 -183 2601 0
-2602 2 0
-2602 28 0
-2602 184 0
-2 -28 -184 2602 0
-2603 3 0
-2603 29 0
-2603 185 0
-3 -29 -185 2603 0
-2604 4 0
-2604 30 0
-2604 186 0
-4 -30 -186 2604 0
-2605 5 0
-2605 31 0
-2605 187 0
-5 -31 -187 2605 0
-2606 6 0
-2606 32 0
-2606 188 0
-6 -32 -188 2606 0
-2607 7 0
-2607 33 0
-2607 189 0
-7 -33 -189 2607 0
-2608 8 0
-2608 34 0
-2608 190 0
-8 -34 -190 2608 0
-2609 9 0
-2609 35 0
-2609 191 0
-9 -35 -191 2609 0
-2610 10 0
-2610 36 0
-2610 192 0
-10 -36 -192 2610 0
-2611 11 0
-2611 37 0
-2611 193 0
-11 -37 -193 2611 0
-2612 12 0
-2612 38 0
-2612 194 0
-12 -38 -194 2612 0
-2613 13 0
-2613 39 0
-2613 195 0
-13 -39 -195 2613 0
-2614 14 0
-2614 40 0
-2614 196 0
-14 -40 -196 2614 0
-2615 15 0
-2615 41 0
-2615 197 0
-15 -41 -197 2615 0
-2616 16 0
-2616 42 0
-2616 198 0
-16 -42 -198 2616 0
-2617 17 0
-2617 43 0
-2617 199 0
-17 -43 -199 2617 0
-2618 18 0
-2618 44 0
-2618 200 0
-18 -44 -200 2618 0
-2619 19 0
-2619 45 0
-2619 201 0
-19 -45 -201 2619 0
-2620 20 0
-2620 46 0
-2620 202 0
-20 -46 -202 2620 0
-2621 21 0
-2621 47 0
-2621 203 0
-21 -47 -203 2621 0
-2622 22 0
-2622 48 0
-2622 204 0
-22 -48 -204 2622 0
-2623 23 0
-2623 49 0
-2623 205 0
-23 -49 -205 2623 0
-2624 24 0
-2624 50 0
-2624 206 0
-24 -50 -206 2624 0
-2625 25 0
-2625 51 0
-2625 207 0
-25 -51 -207 2625 0
-2626 26 0
-2626 52 0
-2626 208 0
-26 -52 -208 2626 0
-2601 9912 0
-2602 9912 0
-2603 9912 0
-2604 9912 0
-2605 9912 0
-2606 9912 0
-2607 9912 0
-2608 9912 0
-2609 9912 0
-2610 9912 0
-2611 9912 0
-2612 9912 0
-2613 9912 0
-2614 9912 0
-2615 9912 0
-2616 9912 0
-2617 9912 0
-2618 9912 0
-2619 9912 0
-2620 9912 0
-2621 9912 0
-2622 9912 0
-2623 9912 0
-2624 9912 0
-2625 9912 0
-2626 9912 0
-9912 2601 2602 2603 2604 2605 2606 2607 2608 2609 2610 2611 2612 2613 2614 2615 2616 2617 2618 2619 2620 2621 2622 2623 2624 2625 2626 0
-2627 1 0
-2627 27 0
-2627 209 0
-1 -27 -209 2627 0
-2628 2 0
-2628 28 0
-2628 210 0
-2 -28 -210 2628 0
-2629 3 0
-2629 29 0
-2629 211 0
-3 -29 -211 2629 0
-2630 4 0
-2630 30 0
-2630 212 0
-4 -30 -212 2630 0
-2631 5 0
-2631 31 0
-2631 213 0
-5 -31 -213 2631 0
-2632 6 0
-2632 32 0
-2632 214 0
-6 -32 -214 2632 0
-2633 7 0
-2633 33 0
-2633 215 0
-7 -33 -215 2633 0
-2634 8 0
-2634 34 0
-2634 216 0
-8 -34 -216 2634 0
-2635 9 0
-2635 35 0
-2635 217 0
-9 -35 -217 2635 0
-2636 10 0
-2636 36 0
-2636 218 0
-10 -36 -218 2636 0
-2637 11 0
-2637 37 0
-2637 219 0
-11 -37 -219 2637 0
-2638 12 0
-2638 38 0
-2638 220 0
-12 -38 -220 2638 0
-2639 13 0
-2639 39 0
-2639 221 0
-13 -39 -221 2639 0
-2640 14 0
-2640 40 0
-2640 222 0
-14 -40 -222 2640 0
-2641 15 0
-2641 41 0
-2641 223 0
-15 -41 -223 2641 0
-2642 16 0
-2642 42 0
-2642 224 0
-16 -42 -224 2642 0
-2643 17 0
-2643 43 0
-2643 225 0
-17 -43 -225 2643 0
-2644 18 0
-2644 44 0
-2644 226 0
-18 -44 -226 2644 0
-2645 19 0
-2645 45 0
-2645 227 0
-19 -45 -227 2645 0
-2646 20 0
-2646 46 0
-2646 228 0
-20 -46 -228 2646 0
-2647 21 0
-2647 47 0
-2647 229 0
-21 -47 -229 2647 0
-2648 22 0
-2648 48 0
-2648 230 0
-22 -48 -230 2648 0
-2649 23 0
-2649 49 0
-2649 231 0
-23 -49 -231 2649 0
-2650 24 0
-2650 50 0
-2650 232 0
-24 -50 -232 2650 0
-2651 25 0
-2651 51 0
-2651 233 0
-25 -51 -233 2651 0
-2652 26 0
-2652 52 0
-2652 234 0
-26 -52 -234 2652 0
-2627 9913 0
-2628 9913 0
-2629 9913 0
-2630 9913 0
-2631 9913 0
-2632 9913 0
-2633 9913 0
-2634 9913 0
-2635 9913 0
-2636 9913 0
-2637 9913 0
-2638 9913 0
-2639 9913 0
-2640 9913 0
-2641 9913 0
-2642 9913 0
-2643 9913 0
-2644 9913 0
-2645 9913 0
-2646 9913 0
-2647 9913 0
-2648 9913 0
-2649 9913 0
-2650 9913 0
-2651 9913 0
-2652 9913 0
-9913 2627 2628 2629 2630 2631 2632 2633 2634 2635 2636 2637 2638 2639 2640 2641 2642 2643 2644 2645 2646 2647 2648 2649 2650 2651 2652 0
-2653 1 0
-2653 27 0
-2653 235 0
-1 -27 -235 2653 0
-2654 2 0
-2654 28 0
-2654 236 0
-2 -28 -236 2654 0
-2655 3 0
-2655 29 0
-2655 237 0
-3 -29 -237 2655 0
-2656 4 0
-2656 30 0
-2656 238 0
-4 -30 -238 2656 0
-2657 5 0
-2657 31 0
-2657 239 0
-5 -31 -239 2657 0
-2658 6 0
-2658 32 0
-2658 240 0
-6 -32 -240 2658 0
-2659 7 0
-2659 33 0
-2659 241 0
-7 -33 -241 2659 0
-2660 8 0
-2660 34 0
-2660 242 0
-8 -34 -242 2660 0
-2661 9 0
-2661 35 0
-2661 243 0
-9 -35 -243 2661 0
-2662 10 0
-2662 36 0
-2662 244 0
-10 -36 -244 2662 0
-2663 11 0
-2663 37 0
-2663 245 0
-11 -37 -245 2663 0
-2664 12 0
-2664 38 0
-2664 246 0
-12 -38 -246 2664 0
-2665 13 0
-2665 39 0
-2665 247 0
-13 -39 -247 2665 0
-2666 14 0
-2666 40 0
-2666 248 0
-14 -40 -248 2666 0
-2667 15 0
-2667 41 0
-2667 249 0
-15 -41 -249 2667 0
-2668 16 0
-2668 42 0
-2668 250 0
-16 -42 -250 2668 0
-2669 17 0
-2669 43 0
-2669 251 0
-17 -43 -251 2669 0
-2670 18 0
-2670 44 0
-2670 252 0
-18 -44 -252 2670 0
-2671 19 0
-2671 45 0
-2671 253 0
-19 -45 -253 2671 0
-2672 20 0
-2672 46 0
-2672 254 0
-20 -46 -254 2672 0
-2673 21 0
-2673 47 0
-2673 255 0
-21 -47 -255 2673 0
-2674 22 0
-2674 48 0
-2674 256 0
-22 -48 -256 2674 0
-2675 23 0
-2675 49 0
-2675 257 0
-23 -49 -257 2675 0
-2676 24 0
-2676 50 0
-2676 258 0
-24 -50 -258 2676 0
-2677 25 0
-2677 51 0
-2677 259 0
-25 -51 -259 2677 0
-2678 26 0
-2678 52 0
-2678 260 0
-26 -52 -260 2678 0
-2653 9914 0
-2654 9914 0
-2655 9914 0
-2656 9914 0
-2657 9914 0
-2658 9914 0
-2659 9914 0
-2660 9914 0
-2661 9914 0
-2662 9914 0
-2663 9914 0
-2664 9914 0
-2665 9914 0
-2666 9914 0
-2667 9914 0
-2668 9914 0
-2669 9914 0
-2670 9914 0
-2671 9914 0
-2672 9914 0
-2673 9914 0
-2674 9914 0
-2675 9914 0
-2676 9914 0
-2677 9914 0
-2678 9914 0
-9914 2653 2654 2655 2656 2657 2658 2659 2660 2661 2662 2663 2664 2665 2666 2667 2668 2669 2670 2671 2672 2673 2674 2675 2676 2677 2678 0
-2679 1 0
-2679 27 0
-2679 261 0
-1 -27 -261 2679 0
-2680 2 0
-2680 28 0
-2680 262 0
-2 -28 -262 2680 0
-2681 3 0
-2681 29 0
-2681 263 0
-3 -29 -263 2681 0
-2682 4 0
-2682 30 0
-2682 264 0
-4 -30 -264 2682 0
-2683 5 0
-2683 31 0
-2683 265 0
-5 -31 -265 2683 0
-2684 6 0
-2684 32 0
-2684 266 0
-6 -32 -266 2684 0
-2685 7 0
-2685 33 0
-2685 267 0
-7 -33 -267 2685 0
-2686 8 0
-2686 34 0
-2686 268 0
-8 -34 -268 2686 0
-2687 9 0
-2687 35 0
-2687 269 0
-9 -35 -269 2687 0
-2688 10 0
-2688 36 0
-2688 270 0
-10 -36 -270 2688 0
-2689 11 0
-2689 37 0
-2689 271 0
-11 -37 -271 2689 0
-2690 12 0
-2690 38 0
-2690 272 0
-12 -38 -272 2690 0
-2691 13 0
-2691 39 0
-2691 273 0
-13 -39 -273 2691 0
-2692 14 0
-2692 40 0
-2692 274 0
-14 -40 -274 2692 0
-2693 15 0
-2693 41 0
-2693 275 0
-15 -41 -275 2693 0
-2694 16 0
-2694 42 0
-2694 276 0
-16 -42 -276 2694 0
-2695 17 0
-2695 43 0
-2695 277 0
-17 -43 -277 2695 0
-2696 18 0
-2696 44 0
-2696 278 0
-18 -44 -278 2696 0
-2697 19 0
-2697 45 0
-2697 279 0
-19 -45 -279 2697 0
-2698 20 0
-2698 46 0
-2698 280 0
-20 -46 -280 2698 0
-2699 21 0
-2699 47 0
-2699 281 0
-21 -47 -281 2699 0
-2700 22 0
-2700 48 0
-2700 282 0
-22 -48 -282 2700 0
-2701 23 0
-2701 49 0
-2701 283 0
-23 -49 -283 2701 0
-2702 24 0
-2702 50 0
-2702 284 0
-24 -50 -284 2702 0
-2703 25 0
-2703 51 0
-2703 285 0
-25 -51 -285 2703 0
-2704 26 0
-2704 52 0
-2704 286 0
-26 -52 -286 2704 0
-2679 9915 0
-2680 9915 0
-2681 9915 0
-2682 9915 0
-2683 9915 0
-2684 9915 0
-2685 9915 0
-2686 9915 0
-2687 9915 0
-2688 9915 0
-2689 9915 0
-2690 9915 0
-2691 9915 0
-2692 9915 0
-2693 9915 0
-2694 9915 0
-2695 9915 0
-2696 9915 0
-2697 9915 0
-2698 9915 0
-2699 9915 0
-2700 9915 0
-2701 9915 0
-2702 9915 0
-2703 9915 0
-2704 9915 0
-9915 2679 2680 2681 2682 2683 2684 2685 2686 2687 2688 2689 2690 2691 2692 2693 2694 2695 2696 2697 2698 2699 2700 2701 2702 2703 2704 0
-2705 1 0
-2705 27 0
-2705 287 0
-1 -27 -287 2705 0
-2706 2 0
-2706 28 0
-2706 288 0
-2 -28 -288 2706 0
-2707 3 0
-2707 29 0
-2707 289 0
-3 -29 -289 2707 0
-2708 4 0
-2708 30 0
-2708 290 0
-4 -30 -290 2708 0
-2709 5 0
-2709 31 0
-2709 291 0
-5 -31 -291 2709 0
-2710 6 0
-2710 32 0
-2710 292 0
-6 -32 -292 2710 0
-2711 7 0
-2711 33 0
-2711 293 0
-7 -33 -293 2711 0
-2712 8 0
-2712 34 0
-2712 294 0
-8 -34 -294 2712 0
-2713 9 0
-2713 35 0
-2713 295 0
-9 -35 -295 2713 0
-2714 10 0
-2714 36 0
-2714 296 0
-10 -36 -296 2714 0
-2715 11 0
-2715 37 0
-2715 297 0
-11 -37 -297 2715 0
-2716 12 0
-2716 38 0
-2716 298 0
-12 -38 -298 2716 0
-2717 13 0
-2717 39 0
-2717 299 0
-13 -39 -299 2717 0
-2718 14 0
-2718 40 0
-2718 300 0
-14 -40 -300 2718 0
-2719 15 0
-2719 41 0
-2719 301 0
-15 -41 -301 2719 0
-2720 16 0
-2720 42 0
-2720 302 0
-16 -42 -302 2720 0
-2721 17 0
-2721 43 0
-2721 303 0
-17 -43 -303 2721 0
-2722 18 0
-2722 44 0
-2722 304 0
-18 -44 -304 2722 0
-2723 19 0
-2723 45 0
-2723 305 0
-19 -45 -305 2723 0
-2724 20 0
-2724 46 0
-2724 306 0
-20 -46 -306 2724 0
-2725 21 0
-2725 47 0
-2725 307 0
-21 -47 -307 2725 0
-2726 22 0
-2726 48 0
-2726 308 0
-22 -48 -308 2726 0
-2727 23 0
-2727 49 0
-2727 309 0
-23 -49 -309 2727 0
-2728 24 0
-2728 50 0
-2728 310 0
-24 -50 -310 2728 0
-2729 25 0
-2729 51 0
-2729 311 0
-25 -51 -311 2729 0
-2730 26 0
-2730 52 0
-2730 312 0
-26 -52 -312 2730 0
-2705 9916 0
-2706 9916 0
-2707 9916 0
-2708 9916 0
-2709 9916 0
-2710 9916 0
-2711 9916 0
-2712 9916 0
-2713 9916 0
-2714 9916 0
-2715 9916 0
-2716 9916 0
-2717 9916 0
-2718 9916 0
-2719 9916 0
-2720 9916 0
-2721 9916 0
-2722 9916 0
-2723 9916 0
-2724 9916 0
-2725 9916 0
-2726 9916 0
-2727 9916 0
-2728 9916 0
-2729 9916 0
-2730 9916 0
-9916 2705 2706 2707 2708 2709 2710 2711 2712 2713 2714 2715 2716 2717 2718 2719 2720 2721 2722 2723 2724 2725 2726 2727 2728 2729 2730 0
-2731 1 0
-2731 27 0
-2731 313 0
-1 -27 -313 2731 0
-2732 2 0
-2732 28 0
-2732 314 0
-2 -28 -314 2732 0
-2733 3 0
-2733 29 0
-2733 315 0
-3 -29 -315 2733 0
-2734 4 0
-2734 30 0
-2734 316 0
-4 -30 -316 2734 0
-2735 5 0
-2735 31 0
-2735 317 0
-5 -31 -317 2735 0
-2736 6 0
-2736 32 0
-2736 318 0
-6 -32 -318 2736 0
-2737 7 0
-2737 33 0
-2737 319 0
-7 -33 -319 2737 0
-2738 8 0
-2738 34 0
-2738 320 0
-8 -34 -320 2738 0
-2739 9 0
-2739 35 0
-2739 321 0
-9 -35 -321 2739 0
-2740 10 0
-2740 36 0
-2740 322 0
-10 -36 -322 2740 0
-2741 11 0
-2741 37 0
-2741 323 0
-11 -37 -323 2741 0
-2742 12 0
-2742 38 0
-2742 324 0
-12 -38 -324 2742 0
-2743 13 0
-2743 39 0
-2743 325 0
-13 -39 -325 2743 0
-2744 14 0
-2744 40 0
-2744 326 0
-14 -40 -326 2744 0
-2745 15 0
-2745 41 0
-2745 327 0
-15 -41 -327 2745 0
-2746 16 0
-2746 42 0
-2746 328 0
-16 -42 -328 2746 0
-2747 17 0
-2747 43 0
-2747 329 0
-17 -43 -329 2747 0
-2748 18 0
-2748 44 0
-2748 330 0
-18 -44 -330 2748 0
-2749 19 0
-2749 45 0
-2749 331 0
-19 -45 -331 2749 0
-2750 20 0
-2750 46 0
-2750 332 0
-20 -46 -332 2750 0
-2751 21 0
-2751 47 0
-2751 333 0
-21 -47 -333 2751 0
-2752 22 0
-2752 48 0
-2752 334 0
-22 -48 -334 2752 0
-2753 23 0
-2753 49 0
-2753 335 0
-23 -49 -335 2753 0
-2754 24 0
-2754 50 0
-2754 336 0
-24 -50 -336 2754 0
-2755 25 0
-2755 51 0
-2755 337 0
-25 -51 -337 2755 0
-2756 26 0
-2756 52 0
-2756 338 0
-26 -52 -338 2756 0
-2731 9917 0
-2732 9917 0
-2733 9917 0
-2734 9917 0
-2735 9917 0
-2736 9917 0
-2737 9917 0
-2738 9917 0
-2739 9917 0
-2740 9917 0
-2741 9917 0
-2742 9917 0
-2743 9917 0
-2744 9917 0
-2745 9917 0
-2746 9917 0
-2747 9917 0
-2748 9917 0
-2749 9917 0
-2750 9917 0
-2751 9917 0
-2752 9917 0
-2753 9917 0
-2754 9917 0
-2755 9917 0
-2756 9917 0
-9917 2731 2732 2733 2734 2735 2736 2737 2738 2739 2740 2741 2742 2743 2744 2745 2746 2747 2748 2749 2750 2751 2752 2753 2754 2755 2756 0
-2757 1 0
-2757 53 0
-2757 79 0
-1 -53 -79 2757 0
-2758 2 0
-2758 54 0
-2758 80 0
-2 -54 -80 2758 0
-2759 3 0
-2759 55 0
-2759 81 0
-3 -55 -81 2759 0
-2760 4 0
-2760 56 0
-2760 82 0
-4 -56 -82 2760 0
-2761 5 0
-2761 57 0
-2761 83 0
-5 -57 -83 2761 0
-2762 6 0
-2762 58 0
-2762 84 0
-6 -58 -84 2762 0
-2763 7 0
-2763 59 0
-2763 85 0
-7 -59 -85 2763 0
-2764 8 0
-2764 60 0
-2764 86 0
-8 -60 -86 2764 0
-2765 9 0
-2765 61 0
-2765 87 0
-9 -61 -87 2765 0
-2766 10 0
-2766 62 0
-2766 88 0
-10 -62 -88 2766 0
-2767 11 0
-2767 63 0
-2767 89 0
-11 -63 -89 2767 0
-2768 12 0
-2768 64 0
-2768 90 0
-12 -64 -90 2768 0
-2769 13 0
-2769 65 0
-2769 91 0
-13 -65 -91 2769 0
-2770 14 0
-2770 66 0
-2770 92 0
-14 -66 -92 2770 0
-2771 15 0
-2771 67 0
-2771 93 0
-15 -67 -93 2771 0
-2772 16 0
-2772 68 0
-2772 94 0
-16 -68 -94 2772 0
-2773 17 0
-2773 69 0
-2773 95 0
-17 -69 -95 2773 0
-2774 18 0
-2774 70 0
-2774 96 0
-18 -70 -96 2774 0
-2775 19 0
-2775 71 0
-2775 97 0
-19 -71 -97 2775 0
-2776 20 0
-2776 72 0
-2776 98 0
-20 -72 -98 2776 0
-2777 21 0
-2777 73 0
-2777 99 0
-21 -73 -99 2777 0
-2778 22 0
-2778 74 0
-2778 100 0
-22 -74 -100 2778 0
-2779 23 0
-2779 75 0
-2779 101 0
-23 -75 -101 2779 0
-2780 24 0
-2780 76 0
-2780 102 0
-24 -76 -102 2780 0
-2781 25 0
-2781 77 0
-2781 103 0
-25 -77 -103 2781 0
-2782 26 0
-2782 78 0
-2782 104 0
-26 -78 -104 2782 0
-2757 9918 0
-2758 9918 0
-2759 9918 0
-2760 9918 0
-2761 9918 0
-2762 9918 0
-2763 9918 0
-2764 9918 0
-2765 9918 0
-2766 9918 0
-2767 9918 0
-2768 9918 0
-2769 9918 0
-2770 9918 0
-2771 9918 0
-2772 9918 0
-2773 9918 0
-2774 9918 0
-2775 9918 0
-2776 9918 0
-2777 9918 0
-2778 9918 0
-2779 9918 0
-2780 9918 0
-2781 9918 0
-2782 9918 0
-9918 2757 2758 2759 2760 2761 2762 2763 2764 2765 2766 2767 2768 2769 2770 2771 2772 2773 2774 2775 2776 2777 2778 2779 2780 2781 2782 0
-2783 1 0
-2783 53 0
-2783 105 0
-1 -53 -105 2783 0
-2784 2 0
-2784 54 0
-2784 106 0
-2 -54 -106 2784 0
-2785 3 0
-2785 55 0
-2785 107 0
-3 -55 -107 2785 0
-2786 4 0
-2786 56 0
-2786 108 0
-4 -56 -108 2786 0
-2787 5 0
-2787 57 0
-2787 109 0
-5 -57 -109 2787 0
-2788 6 0
-2788 58 0
-2788 110 0
-6 -58 -110 2788 0
-2789 7 0
-2789 59 0
-2789 111 0
-7 -59 -111 2789 0
-2790 8 0
-2790 60 0
-2790 112 0
-8 -60 -112 2790 0
-2791 9 0
-2791 61 0
-2791 113 0
-9 -61 -113 2791 0
-2792 10 0
-2792 62 0
-2792 114 0
-10 -62 -114 2792 0
-2793 11 0
-2793 63 0
-2793 115 0
-11 -63 -115 2793 0
-2794 12 0
-2794 64 0
-2794 116 0
-12 -64 -116 2794 0
-2795 13 0
-2795 65 0
-2795 117 0
-13 -65 -117 2795 0
-2796 14 0
-2796 66 0
-2796 118 0
-14 -66 -118 2796 0
-2797 15 0
-2797 67 0
-2797 119 0
-15 -67 -119 2797 0
-2798 16 0
-2798 68 0
-2798 120 0
-16 -68 -120 2798 0
-2799 17 0
-2799 69 0
-2799 121 0
-17 -69 -121 2799 0
-2800 18 0
-2800 70 0
-2800 122 0
-18 -70 -122 2800 0
-2801 19 0
-2801 71 0
-2801 123 0
-19 -71 -123 2801 0
-2802 20 0
-2802 72 0
-2802 124 0
-20 -72 -124 2802 0
-2803 21 0
-2803 73 0
-2803 125 0
-21 -73 -125 2803 0
-2804 22 0
-2804 74 0
-2804 126 0
-22 -74 -126 2804 0
-2805 23 0
-2805 75 0
-2805 127 0
-23 -75 -127 2805 0
-2806 24 0
-2806 76 0
-2806 128 0
-24 -76 -128 2806 0
-2807 25 0
-2807 77 0
-2807 129 0
-25 -77 -129 2807 0
-2808 26 0
-2808 78 0
-2808 130 0
-26 -78 -130 2808 0
-2783 9919 0
-2784 9919 0
-2785 9919 0
-2786 9919 0
-2787 9919 0
-2788 9919 0
-2789 9919 0
-2790 9919 0
-2791 9919 0
-2792 9919 0
-2793 9919 0
-2794 9919 0
-2795 9919 0
-2796 9919 0
-2797 9919 0
-2798 9919 0
-2799 9919 0
-2800 9919 0
-2801 9919 0
-2802 9919 0
-2803 9919 0
-2804 9919 0
-2805 9919 0
-2806 9919 0
-2807 9919 0
-2808 9919 0
-9919 2783 2784 2785 2786 2787 2788 2789 2790 2791 2792 2793 2794 2795 2796 2797 2798 2799 2800 2801 2802 2803 2804 2805 2806 2807 2808 0
-2809 1 0
-2809 53 0
-2809 131 0
-1 -53 -131 2809 0
-2810 2 0
-2810 54 0
-2810 132 0
-2 -54 -132 2810 0
-2811 3 0
-2811 55 0
-2811 133 0
-3 -55 -133 2811 0
-2812 4 0
-2812 56 0
-2812 134 0
-4 -56 -134 2812 0
-2813 5 0
-2813 57 0
-2813 135 0
-5 -57 -135 2813 0
-2814 6 0
-2814 58 0
-2814 136 0
-6 -58 -136 2814 0
-2815 7 0
-2815 59 0
-2815 137 0
-7 -59 -137 2815 0
-2816 8 0
-2816 60 0
-2816 138 0
-8 -60 -138 2816 0
-2817 9 0
-2817 61 0
-2817 139 0
-9 -61 -139 2817 0
-2818 10 0
-2818 62 0
-2818 140 0
-10 -62 -140 2818 0
-2819 11 0
-2819 63 0
-2819 141 0
-11 -63 -141 2819 0
-2820 12 0
-2820 64 0
-2820 142 0
-12 -64 -142 2820 0
-2821 13 0
-2821 65 0
-2821 143 0
-13 -65 -143 2821 0
-2822 14 0
-2822 66 0
-2822 144 0
-14 -66 -144 2822 0
-2823 15 0
-2823 67 0
-2823 145 0
-15 -67 -145 2823 0
-2824 16 0
-2824 68 0
-2824 146 0
-16 -68 -146 2824 0
-2825 17 0
-2825 69 0
-2825 147 0
-17 -69 -147 2825 0
-2826 18 0
-2826 70 0
-2826 148 0
-18 -70 -148 2826 0
-2827 19 0
-2827 71 0
-2827 149 0
-19 -71 -149 2827 0
-2828 20 0
-2828 72 0
-2828 150 0
-20 -72 -150 2828 0
-2829 21 0
-2829 73 0
-2829 151 0
-21 -73 -151 2829 0
-2830 22 0
-2830 74 0
-2830 152 0
-22 -74 -152 2830 0
-2831 23 0
-2831 75 0
-2831 153 0
-23 -75 -153 2831 0
-2832 24 0
-2832 76 0
-2832 154 0
-24 -76 -154 2832 0
-2833 25 0
-2833 77 0
-2833 155 0
-25 -77 -155 2833 0
-2834 26 0
-2834 78 0
-2834 156 0
-26 -78 -156 2834 0
-2809 9920 0
-2810 9920 0
-2811 9920 0
-2812 9920 0
-2813 9920 0
-2814 9920 0
-2815 9920 0
-2816 9920 0
-2817 9920 0
-2818 9920 0
-2819 9920 0
-2820 9920 0
-2821 9920 0
-2822 9920 0
-2823 9920 0
-2824 9920 0
-2825 9920 0
-2826 9920 0
-2827 9920 0
-2828 9920 0
-2829 9920 0
-2830 9920 0
-2831 9920 0
-2832 9920 0
-2833 9920 0
-2834 9920 0
-9920 2809 2810 2811 2812 2813 2814 2815 2816 2817 2818 2819 2820 2821 2822 2823 2824 2825 2826 2827 2828 2829 2830 2831 2832 2833 2834 0
-2835 1 0
-2835 53 0
-2835 157 0
-1 -53 -157 2835 0
-2836 2 0
-2836 54 0
-2836 158 0
-2 -54 -158 2836 0
-2837 3 0
-2837 55 0
-2837 159 0
-3 -55 -159 2837 0
-2838 4 0
-2838 56 0
-2838 160 0
-4 -56 -160 2838 0
-2839 5 0
-2839 57 0
-2839 161 0
-5 -57 -161 2839 0
-2840 6 0
-2840 58 0
-2840 162 0
-6 -58 -162 2840 0
-2841 7 0
-2841 59 0
-2841 163 0
-7 -59 -163 2841 0
-2842 8 0
-2842 60 0
-2842 164 0
-8 -60 -164 2842 0
-2843 9 0
-2843 61 0
-2843 165 0
-9 -61 -165 2843 0
-2844 10 0
-2844 62 0
-2844 166 0
-10 -62 -166 2844 0
-2845 11 0
-2845 63 0
-2845 167 0
-11 -63 -167 2845 0
-2846 12 0
-2846 64 0
-2846 168 0
-12 -64 -168 2846 0
-2847 13 0
-2847 65 0
-2847 169 0
-13 -65 -169 2847 0
-2848 14 0
-2848 66 0
-2848 170 0
-14 -66 -170 2848 0
-2849 15 0
-2849 67 0
-2849 171 0
-15 -67 -171 2849 0
-2850 16 0
-2850 68 0
-2850 172 0
-16 -68 -172 2850 0
-2851 17 0
-2851 69 0
-2851 173 0
-17 -69 -173 2851 0
-2852 18 0
-2852 70 0
-2852 174 0
-18 -70 -174 2852 0
-2853 19 0
-2853 71 0
-2853 175 0
-19 -71 -175 2853 0
-2854 20 0
-2854 72 0
-2854 176 0
-20 -72 -176 2854 0
-2855 21 0
-2855 73 0
-2855 177 0
-21 -73 -177 2855 0
-2856 22 0
-2856 74 0
-2856 178 0
-22 -74 -178 2856 0
-2857 23 0
-2857 75 0
-2857 179 0
-23 -75 -179 2857 0
-2858 24 0
-2858 76 0
-2858 180 0
-24 -76 -180 2858 0
-2859 25 0
-2859 77 0
-2859 181 0
-25 -77 -181 2859 0
-2860 26 0
-2860 78 0
-2860 182 0
-26 -78 -182 2860 0
-2835 9921 0
-2836 9921 0
-2837 9921 0
-2838 9921 0
-2839 9921 0
-2840 9921 0
-2841 9921 0
-2842 9921 0
-2843 9921 0
-2844 9921 0
-2845 9921 0
-2846 9921 0
-2847 9921 0
-2848 9921 0
-2849 9921 0
-2850 9921 0
-2851 9921 0
-2852 9921 0
-2853 9921 0
-2854 9921 0
-2855 9921 0
-2856 9921 0
-2857 9921 0
-2858 9921 0
-2859 9921 0
-2860 9921 0
-9921 2835 2836 2837 2838 2839 2840 2841 2842 2843 2844 2845 2846 2847 2848 2849 2850 2851 2852 2853 2854 2855 2856 2857 2858 2859 2860 0
-2861 1 0
-2861 53 0
-2861 183 0
-1 -53 -183 2861 0
-2862 2 0
-2862 54 0
-2862 184 0
-2 -54 -184 2862 0
-2863 3 0
-2863 55 0
-2863 185 0
-3 -55 -185 2863 0
-2864 4 0
-2864 56 0
-2864 186 0
-4 -56 -186 2864 0
-2865 5 0
-2865 57 0
-2865 187 0
-5 -57 -187 2865 0
-2866 6 0
-2866 58 0
-2866 188 0
-6 -58 -188 2866 0
-2867 7 0
-2867 59 0
-2867 189 0
-7 -59 -189 2867 0
-2868 8 0
-2868 60 0
-2868 190 0
-8 -60 -190 2868 0
-2869 9 0
-2869 61 0
-2869 191 0
-9 -61 -191 2869 0
-2870 10 0
-2870 62 0
-2870 192 0
-10 -62 -192 2870 0
-2871 11 0
-2871 63 0
-2871 193 0
-11 -63 -193 2871 0
-2872 12 0
-2872 64 0
-2872 194 0
-12 -64 -194 2872 0
-2873 13 0
-2873 65 0
-2873 195 0
-13 -65 -195 2873 0
-2874 14 0
-2874 66 0
-2874 196 0
-14 -66 -196 2874 0
-2875 15 0
-2875 67 0
-2875 197 0
-15 -67 -197 2875 0
-2876 16 0
-2876 68 0
-2876 198 0
-16 -68 -198 2876 0
-2877 17 0
-2877 69 0
-2877 199 0
-17 -69 -199 2877 0
-2878 18 0
-2878 70 0
-2878 200 0
-18 -70 -200 2878 0
-2879 19 0
-2879 71 0
-2879 201 0
-19 -71 -201 2879 0
-2880 20 0
-2880 72 0
-2880 202 0
-20 -72 -202 2880 0
-2881 21 0
-2881 73 0
-2881 203 0
-21 -73 -203 2881 0
-2882 22 0
-2882 74 0
-2882 204 0
-22 -74 -204 2882 0
-2883 23 0
-2883 75 0
-2883 205 0
-23 -75 -205 2883 0
-2884 24 0
-2884 76 0
-2884 206 0
-24 -76 -206 2884 0
-2885 25 0
-2885 77 0
-2885 207 0
-25 -77 -207 2885 0
-2886 26 0
-2886 78 0
-2886 208 0
-26 -78 -208 2886 0
-2861 9922 0
-2862 9922 0
-2863 9922 0
-2864 9922 0
-2865 9922 0
-2866 9922 0
-2867 9922 0
-2868 9922 0
-2869 9922 0
-2870 9922 0
-2871 9922 0
-2872 9922 0
-2873 9922 0
-2874 9922 0
-2875 9922 0
-2876 9922 0
-2877 9922 0
-2878 9922 0
-2879 9922 0
-2880 9922 0
-2881 9922 0
-2882 9922 0
-2883 9922 0
-2884 9922 0
-2885 9922 0
-2886 9922 0
-9922 2861 2862 2863 2864 2865 2866 2867 2868 2869 2870 2871 2872 2873 2874 2875 2876 2877 2878 2879 2880 2881 2882 2883 2884 2885 2886 0
-2887 1 0
-2887 53 0
-2887 209 0
-1 -53 -209 2887 0
-2888 2 0
-2888 54 0
-2888 210 0
-2 -54 -210 2888 0
-2889 3 0
-2889 55 0
-2889 211 0
-3 -55 -211 2889 0
-2890 4 0
-2890 56 0
-2890 212 0
-4 -56 -212 2890 0
-2891 5 0
-2891 57 0
-2891 213 0
-5 -57 -213 2891 0
-2892 6 0
-2892 58 0
-2892 214 0
-6 -58 -214 2892 0
-2893 7 0
-2893 59 0
-2893 215 0
-7 -59 -215 2893 0
-2894 8 0
-2894 60 0
-2894 216 0
-8 -60 -216 2894 0
-2895 9 0
-2895 61 0
-2895 217 0
-9 -61 -217 2895 0
-2896 10 0
-2896 62 0
-2896 218 0
-10 -62 -218 2896 0
-2897 11 0
-2897 63 0
-2897 219 0
-11 -63 -219 2897 0
-2898 12 0
-2898 64 0
-2898 220 0
-12 -64 -220 2898 0
-2899 13 0
-2899 65 0
-2899 221 0
-13 -65 -221 2899 0
-2900 14 0
-2900 66 0
-2900 222 0
-14 -66 -222 2900 0
-2901 15 0
-2901 67 0
-2901 223 0
-15 -67 -223 2901 0
-2902 16 0
-2902 68 0
-2902 224 0
-16 -68 -224 2902 0
-2903 17 0
-2903 69 0
-2903 225 0
-17 -69 -225 2903 0
-2904 18 0
-2904 70 0
-2904 226 0
-18 -70 -226 2904 0
-2905 19 0
-2905 71 0
-2905 227 0
-19 -71 -227 2905 0
-2906 20 0
-2906 72 0
-2906 228 0
-20 -72 -228 2906 0
-2907 21 0
-2907 73 0
-2907 229 0
-21 -73 -229 2907 0
-2908 22 0
-2908 74 0
-2908 230 0
-22 -74 -230 2908 0
-2909 23 0
-2909 75 0
-2909 231 0
-23 -75 -231 2909 0
-2910 24 0
-2910 76 0
-2910 232 0
-24 -76 -232 2910 0
-2911 25 0
-2911 77 0
-2911 233 0
-25 -77 -233 2911 0
-2912 26 0
-2912 78 0
-2912 234 0
-26 -78 -234 2912 0
-2887 9923 0
-2888 9923 0
-2889 9923 0
-2890 9923 0
-2891 9923 0
-2892 9923 0
-2893 9923 0
-2894 9923 0
-2895 9923 0
-2896 9923 0
-2897 9923 0
-2898 9923 0
-2899 9923 0
-2900 9923 0
-2901 9923 0
-2902 9923 0
-2903 9923 0
-2904 9923 0
-2905 9923 0
-2906 9923 0
-2907 9923 0
-2908 9923 0
-2909 9923 0
-2910 9923 0
-2911 9923 0
-2912 9923 0
-9923 2887 2888 2889 2890 2891 2892 2893 2894 2895 2896 2897 2898 2899 2900 2901 2902 2903 2904 2905 2906 2907 2908 2909 2910 2911 2912 0
-2913 1 0
-2913 53 0
-2913 235 0
-1 -53 -235 2913 0
-2914 2 0
-2914 54 0
-2914 236 0
-2 -54 -236 2914 0
-2915 3 0
-2915 55 0
-2915 237 0
-3 -55 -237 2915 0
-2916 4 0
-2916 56 0
-2916 238 0
-4 -56 -238 2916 0
-2917 5 0
-2917 57 0
-2917 239 0
-5 -57 -239 2917 0
-2918 6 0
-2918 58 0
-2918 240 0
-6 -58 -240 2918 0
-2919 7 0
-2919 59 0
-2919 241 0
-7 -59 -241 2919 0
-2920 8 0
-2920 60 0
-2920 242 0
-8 -60 -242 2920 0
-2921 9 0
-2921 61 0
-2921 243 0
-9 -61 -243 2921 0
-2922 10 0
-2922 62 0
-2922 244 0
-10 -62 -244 2922 0
-2923 11 0
-2923 63 0
-2923 245 0
-11 -63 -245 2923 0
-2924 12 0
-2924 64 0
-2924 246 0
-12 -64 -246 2924 0
-2925 13 0
-2925 65 0
-2925 247 0
-13 -65 -247 2925 0
-2926 14 0
-2926 66 0
-2926 248 0
-14 -66 -248 2926 0
-2927 15 0
-2927 67 0
-2927 249 0
-15 -67 -249 2927 0
-2928 16 0
-2928 68 0
-2928 250 0
-16 -68 -250 2928 0
-2929 17 0
-2929 69 0
-2929 251 0
-17 -69 -251 2929 0
-2930 18 0
-2930 70 0
-2930 252 0
-18 -70 -252 2930 0
-2931 19 0
-2931 71 0
-2931 253 0
-19 -71 -253 2931 0
-2932 20 0
-2932 72 0
-2932 254 0
-20 -72 -254 2932 0
-2933 21 0
-2933 73 0
-2933 255 0
-21 -73 -255 2933 0
-2934 22 0
-2934 74 0
-2934 256 0
-22 -74 -256 2934 0
-2935 23 0
-2935 75 0
-2935 257 0
-23 -75 -257 2935 0
-2936 24 0
-2936 76 0
-2936 258 0
-24 -76 -258 2936 0
-2937 25 0
-2937 77 0
-2937 259 0
-25 -77 -259 2937 0
-2938 26 0
-2938 78 0
-2938 260 0
-26 -78 -260 2938 0
-2913 9924 0
-2914 9924 0
-2915 9924 0
-2916 9924 0
-2917 9924 0
-2918 9924 0
-2919 9924 0
-2920 9924 0
-2921 9924 0
-2922 9924 0
-2923 9924 0
-2924 9924 0
-2925 9924 0
-2926 9924 0
-2927 9924 0
-2928 9924 0
-2929 9924 0
-2930 9924 0
-2931 9924 0
-2932 9924 0
-2933 9924 0
-2934 9924 0
-2935 9924 0
-2936 9924 0
-2937 9924 0
-2938 9924 0
-9924 2913 2914 2915 2916 2917 2918 2919 2920 2921 2922 2923 2924 2925 2926 2927 2928 2929 2930 2931 2932 2933 2934 2935 2936 2937 2938 0
-2939 1 0
-2939 53 0
-2939 261 0
-1 -53 -261 2939 0
-2940 2 0
-2940 54 0
-2940 262 0
-2 -54 -262 2940 0
-2941 3 0
-2941 55 0
-2941 263 0
-3 -55 -263 2941 0
-2942 4 0
-2942 56 0
-2942 264 0
-4 -56 -264 2942 0
-2943 5 0
-2943 57 0
-2943 265 0
-5 -57 -265 2943 0
-2944 6 0
-2944 58 0
-2944 266 0
-6 -58 -266 2944 0
-2945 7 0
-2945 59 0
-2945 267 0
-7 -59 -267 2945 0
-2946 8 0
-2946 60 0
-2946 268 0
-8 -60 -268 2946 0
-2947 9 0
-2947 61 0
-2947 269 0
-9 -61 -269 2947 0
-2948 10 0
-2948 62 0
-2948 270 0
-10 -62 -270 2948 0
-2949 11 0
-2949 63 0
-2949 271 0
-11 -63 -271 2949 0
-2950 12 0
-2950 64 0
-2950 272 0
-12 -64 -272 2950 0
-2951 13 0
-2951 65 0
-2951 273 0
-13 -65 -273 2951 0
-2952 14 0
-2952 66 0
-2952 274 0
-14 -66 -274 2952 0
-2953 15 0
-2953 67 0
-2953 275 0
-15 -67 -275 2953 0
-2954 16 0
-2954 68 0
-2954 276 0
-16 -68 -276 2954 0
-2955 17 0
-2955 69 0
-2955 277 0
-17 -69 -277 2955 0
-2956 18 0
-2956 70 0
-2956 278 0
-18 -70 -278 2956 0
-2957 19 0
-2957 71 0
-2957 279 0
-19 -71 -279 2957 0
-2958 20 0
-2958 72 0
-2958 280 0
-20 -72 -280 2958 0
-2959 21 0
-2959 73 0
-2959 281 0
-21 -73 -281 2959 0
-2960 22 0
-2960 74 0
-2960 282 0
-22 -74 -282 2960 0
-2961 23 0
-2961 75 0
-2961 283 0
-23 -75 -283 2961 0
-2962 24 0
-2962 76 0
-2962 284 0
-24 -76 -284 2962 0
-2963 25 0
-2963 77 0
-2963 285 0
-25 -77 -285 2963 0
-2964 26 0
-2964 78 0
-2964 286 0
-26 -78 -286 2964 0
-2939 9925 0
-2940 9925 0
-2941 9925 0
-2942 9925 0
-2943 9925 0
-2944 9925 0
-2945 9925 0
-2946 9925 0
-2947 9925 0
-2948 9925 0
-2949 9925 0
-2950 9925 0
-2951 9925 0
-2952 9925 0
-2953 9925 0
-2954 9925 0
-2955 9925 0
-2956 9925 0
-2957 9925 0
-2958 9925 0
-2959 9925 0
-2960 9925 0
-2961 9925 0
-2962 9925 0
-2963 9925 0
-2964 9925 0
-9925 2939 2940 2941 2942 2943 2944 2945 2946 2947 2948 2949 2950 2951 2952 2953 2954 2955 2956 2957 2958 2959 2960 2961 2962 2963 2964 0
-2965 1 0
-2965 53 0
-2965 287 0
-1 -53 -287 2965 0
-2966 2 0
-2966 54 0
-2966 288 0
-2 -54 -288 2966 0
-2967 3 0
-2967 55 0
-2967 289 0
-3 -55 -289 2967 0
-2968 4 0
-2968 56 0
-2968 290 0
-4 -56 -290 2968 0
-2969 5 0
-2969 57 0
-2969 291 0
-5 -57 -291 2969 0
-2970 6 0
-2970 58 0
-2970 292 0
-6 -58 -292 2970 0
-2971 7 0
-2971 59 0
-2971 293 0
-7 -59 -293 2971 0
-2972 8 0
-2972 60 0
-2972 294 0
-8 -60 -294 2972 0
-2973 9 0
-2973 61 0
-2973 295 0
-9 -61 -295 2973 0
-2974 10 0
-2974 62 0
-2974 296 0
-10 -62 -296 2974 0
-2975 11 0
-2975 63 0
-2975 297 0
-11 -63 -297 2975 0
-2976 12 0
-2976 64 0
-2976 298 0
-12 -64 -298 2976 0
-2977 13 0
-2977 65 0
-2977 299 0
-13 -65 -299 2977 0
-2978 14 0
-2978 66 0
-2978 300 0
-14 -66 -300 2978 0
-2979 15 0
-2979 67 0
-2979 301 0
-15 -67 -301 2979 0
-2980 16 0
-2980 68 0
-2980 302 0
-16 -68 -302 2980 0
-2981 17 0
-2981 69 0
-2981 303 0
-17 -69 -303 2981 0
-2982 18 0
-2982 70 0
-2982 304 0
-18 -70 -304 2982 0
-2983 19 0
-2983 71 0
-2983 305 0
-19 -71 -305 2983 0
-2984 20 0
-2984 72 0
-2984 306 0
-20 -72 -306 2984 0
-2985 21 0
-2985 73 0
-2985 307 0
-21 -73 -307 2985 0
-2986 22 0
-2986 74 0
-2986 308 0
-22 -74 -308 2986 0
-2987 23 0
-2987 75 0
-2987 309 0
-23 -75 -309 2987 0
-2988 24 0
-2988 76 0
-2988 310 0
-24 -76 -310 2988 0
-2989 25 0
-2989 77 0
-2989 311 0
-25 -77 -311 2989 0
-2990 26 0
-2990 78 0
-2990 312 0
-26 -78 -312 2990 0
-2965 9926 0
-2966 9926 0
-2967 9926 0
-2968 9926 0
-2969 9926 0
-2970 9926 0
-2971 9926 0
-2972 9926 0
-2973 9926 0
-2974 9926 0
-2975 9926 0
-2976 9926 0
-2977 9926 0
-2978 9926 0
-2979 9926 0
-2980 9926 0
-2981 9926 0
-2982 9926 0
-2983 9926 0
-2984 9926 0
-2985 9926 0
-2986 9926 0
-2987 9926 0
-2988 9926 0
-2989 9926 0
-2990 9926 0
-9926 2965 2966 2967 2968 2969 2970 2971 2972 2973 2974 2975 2976 2977 2978 2979 2980 2981 2982 2983 2984 2985 2986 2987 2988 2989 2990 0
-2991 1 0
-2991 53 0
-2991 313 0
-1 -53 -313 2991 0
-2992 2 0
-2992 54 0
-2992 314 0
-2 -54 -314 2992 0
-2993 3 0
-2993 55 0
-2993 315 0
-3 -55 -315 2993 0
-2994 4 0
-2994 56 0
-2994 316 0
-4 -56 -316 2994 0
-2995 5 0
-2995 57 0
-2995 317 0
-5 -57 -317 2995 0
-2996 6 0
-2996 58 0
-2996 318 0
-6 -58 -318 2996 0
-2997 7 0
-2997 59 0
-2997 319 0
-7 -59 -319 2997 0
-2998 8 0
-2998 60 0
-2998 320 0
-8 -60 -320 2998 0
-2999 9 0
-2999 61 0
-2999 321 0
-9 -61 -321 2999 0
-3000 10 0
-3000 62 0
-3000 322 0
-10 -62 -322 3000 0
-3001 11 0
-3001 63 0
-3001 323 0
-11 -63 -323 3001 0
-3002 12 0
-3002 64 0
-3002 324 0
-12 -64 -324 3002 0
-3003 13 0
-3003 65 0
-3003 325 0
-13 -65 -325 3003 0
-3004 14 0
-3004 66 0
-3004 326 0
-14 -66 -326 3004 0
-3005 15 0
-3005 67 0
-3005 327 0
-15 -67 -327 3005 0
-3006 16 0
-3006 68 0
-3006 328 0
-16 -68 -328 3006 0
-3007 17 0
-3007 69 0
-3007 329 0
-17 -69 -329 3007 0
-3008 18 0
-3008 70 0
-3008 330 0
-18 -70 -330 3008 0
-3009 19 0
-3009 71 0
-3009 331 0
-19 -71 -331 3009 0
-3010 20 0
-3010 72 0
-3010 332 0
-20 -72 -332 3010 0
-3011 21 0
-3011 73 0
-3011 333 0
-21 -73 -333 3011 0
-3012 22 0
-3012 74 0
-3012 334 0
-22 -74 -334 3012 0
-3013 23 0
-3013 75 0
-3013 335 0
-23 -75 -335 3013 0
-3014 24 0
-3014 76 0
-3014 336 0
-24 -76 -336 3014 0
-3015 25 0
-3015 77 0
-3015 337 0
-25 -77 -337 3015 0
-3016 26 0
-3016 78 0
-3016 338 0
-26 -78 -338 3016 0
-2991 9927 0
-2992 9927 0
-2993 9927 0
-2994 9927 0
-2995 9927 0
-2996 9927 0
-2997 9927 0
-2998 9927 0
-2999 9927 0
-3000 9927 0
-3001 9927 0
-3002 9927 0
-3003 9927 0
-3004 9927 0
-3005 9927 0
-3006 9927 0
-3007 9927 0
-3008 9927 0
-3009 9927 0
-3010 9927 0
-3011 9927 0
-3012 9927 0
-3013 9927 0
-3014 9927 0
-3015 9927 0
-3016 9927 0
-9927 2991 2992 2993 2994 2995 2996 2997 2998 2999 3000 3001 3002 3003 3004 3005 3006 3007 3008 3009 3010 3011 3012 3013 3014 3015 3016 0
-3017 1 0
-3017 79 0
-3017 105 0
-1 -79 -105 3017 0
-3018 2 0
-3018 80 0
-3018 106 0
-2 -80 -106 3018 0
-3019 3 0
-3019 81 0
-3019 107 0
-3 -81 -107 3019 0
-3020 4 0
-3020 82 0
-3020 108 0
-4 -82 -108 3020 0
-3021 5 0
-3021 83 0
-3021 109 0
-5 -83 -109 3021 0
-3022 6 0
-3022 84 0
-3022 110 0
-6 -84 -110 3022 0
-3023 7 0
-3023 85 0
-3023 111 0
-7 -85 -111 3023 0
-3024 8 0
-3024 86 0
-3024 112 0
-8 -86 -112 3024 0
-3025 9 0
-3025 87 0
-3025 113 0
-9 -87 -113 3025 0
-3026 10 0
-3026 88 0
-3026 114 0
-10 -88 -114 3026 0
-3027 11 0
-3027 89 0
-3027 115 0
-11 -89 -115 3027 0
-3028 12 0
-3028 90 0
-3028 116 0
-12 -90 -116 3028 0
-3029 13 0
-3029 91 0
-3029 117 0
-13 -91 -117 3029 0
-3030 14 0
-3030 92 0
-3030 118 0
-14 -92 -118 3030 0
-3031 15 0
-3031 93 0
-3031 119 0
-15 -93 -119 3031 0
-3032 16 0
-3032 94 0
-3032 120 0
-16 -94 -120 3032 0
-3033 17 0
-3033 95 0
-3033 121 0
-17 -95 -121 3033 0
-3034 18 0
-3034 96 0
-3034 122 0
-18 -96 -122 3034 0
-3035 19 0
-3035 97 0
-3035 123 0
-19 -97 -123 3035 0
-3036 20 0
-3036 98 0
-3036 124 0
-20 -98 -124 3036 0
-3037 21 0
-3037 99 0
-3037 125 0
-21 -99 -125 3037 0
-3038 22 0
-3038 100 0
-3038 126 0
-22 -100 -126 3038 0
-3039 23 0
-3039 101 0
-3039 127 0
-23 -101 -127 3039 0
-3040 24 0
-3040 102 0
-3040 128 0
-24 -102 -128 3040 0
-3041 25 0
-3041 103 0
-3041 129 0
-25 -103 -129 3041 0
-3042 26 0
-3042 104 0
-3042 130 0
-26 -104 -130 3042 0
-3017 9928 0
-3018 9928 0
-3019 9928 0
-3020 9928 0
-3021 9928 0
-3022 9928 0
-3023 9928 0
-3024 9928 0
-3025 9928 0
-3026 9928 0
-3027 9928 0
-3028 9928 0
-3029 9928 0
-3030 9928 0
-3031 9928 0
-3032 9928 0
-3033 9928 0
-3034 9928 0
-3035 9928 0
-3036 9928 0
-3037 9928 0
-3038 9928 0
-3039 9928 0
-3040 9928 0
-3041 9928 0
-3042 9928 0
-9928 3017 3018 3019 3020 3021 3022 3023 3024 3025 3026 3027 3028 3029 3030 3031 3032 3033 3034 3035 3036 3037 3038 3039 3040 3041 3042 0
-3043 1 0
-3043 79 0
-3043 131 0
-1 -79 -131 3043 0
-3044 2 0
-3044 80 0
-3044 132 0
-2 -80 -132 3044 0
-3045 3 0
-3045 81 0
-3045 133 0
-3 -81 -133 3045 0
-3046 4 0
-3046 82 0
-3046 134 0
-4 -82 -134 3046 0
-3047 5 0
-3047 83 0
-3047 135 0
-5 -83 -135 3047 0
-3048 6 0
-3048 84 0
-3048 136 0
-6 -84 -136 3048 0
-3049 7 0
-3049 85 0
-3049 137 0
-7 -85 -137 3049 0
-3050 8 0
-3050 86 0
-3050 138 0
-8 -86 -138 3050 0
-3051 9 0
-3051 87 0
-3051 139 0
-9 -87 -139 3051 0
-3052 10 0
-3052 88 0
-3052 140 0
-10 -88 -140 3052 0
-3053 11 0
-3053 89 0
-3053 141 0
-11 -89 -141 3053 0
-3054 12 0
-3054 90 0
-3054 142 0
-12 -90 -142 3054 0
-3055 13 0
-3055 91 0
-3055 143 0
-13 -91 -143 3055 0
-3056 14 0
-3056 92 0
-3056 144 0
-14 -92 -144 3056 0
-3057 15 0
-3057 93 0
-3057 145 0
-15 -93 -145 3057 0
-3058 16 0
-3058 94 0
-3058 146 0
-16 -94 -146 3058 0
-3059 17 0
-3059 95 0
-3059 147 0
-17 -95 -147 3059 0
-3060 18 0
-3060 96 0
-3060 148 0
-18 -96 -148 3060 0
-3061 19 0
-3061 97 0
-3061 149 0
-19 -97 -149 3061 0
-3062 20 0
-3062 98 0
-3062 150 0
-20 -98 -150 3062 0
-3063 21 0
-3063 99 0
-3063 151 0
-21 -99 -151 3063 0
-3064 22 0
-3064 100 0
-3064 152 0
-22 -100 -152 3064 0
-3065 23 0
-3065 101 0
-3065 153 0
-23 -101 -153 3065 0
-3066 24 0
-3066 102 0
-3066 154 0
-24 -102 -154 3066 0
-3067 25 0
-3067 103 0
-3067 155 0
-25 -103 -155 3067 0
-3068 26 0
-3068 104 0
-3068 156 0
-26 -104 -156 3068 0
-3043 9929 0
-3044 9929 0
-3045 9929 0
-3046 9929 0
-3047 9929 0
-3048 9929 0
-3049 9929 0
-3050 9929 0
-3051 9929 0
-3052 9929 0
-3053 9929 0
-3054 9929 0
-3055 9929 0
-3056 9929 0
-3057 9929 0
-3058 9929 0
-3059 9929 0
-3060 9929 0
-3061 9929 0
-3062 9929 0
-3063 9929 0
-3064 9929 0
-3065 9929 0
-3066 9929 0
-3067 9929 0
-3068 9929 0
-9929 3043 3044 3045 3046 3047 3048 3049 3050 3051 3052 3053 3054 3055 3056 3057 3058 3059 3060 3061 3062 3063 3064 3065 3066 3067 3068 0
-3069 1 0
-3069 79 0
-3069 157 0
-1 -79 -157 3069 0
-3070 2 0
-3070 80 0
-3070 158 0
-2 -80 -158 3070 0
-3071 3 0
-3071 81 0
-3071 159 0
-3 -81 -159 3071 0
-3072 4 0
-3072 82 0
-3072 160 0
-4 -82 -160 3072 0
-3073 5 0
-3073 83 0
-3073 161 0
-5 -83 -161 3073 0
-3074 6 0
-3074 84 0
-3074 162 0
-6 -84 -162 3074 0
-3075 7 0
-3075 85 0
-3075 163 0
-7 -85 -163 3075 0
-3076 8 0
-3076 86 0
-3076 164 0
-8 -86 -164 3076 0
-3077 9 0
-3077 87 0
-3077 165 0
-9 -87 -165 3077 0
-3078 10 0
-3078 88 0
-3078 166 0
-10 -88 -166 3078 0
-3079 11 0
-3079 89 0
-3079 167 0
-11 -89 -167 3079 0
-3080 12 0
-3080 90 0
-3080 168 0
-12 -90 -168 3080 0
-3081 13 0
-3081 91 0
-3081 169 0
-13 -91 -169 3081 0
-3082 14 0
-3082 92 0
-3082 170 0
-14 -92 -170 3082 0
-3083 15 0
-3083 93 0
-3083 171 0
-15 -93 -171 3083 0
-3084 16 0
-3084 94 0
-3084 172 0
-16 -94 -172 3084 0
-3085 17 0
-3085 95 0
-3085 173 0
-17 -95 -173 3085 0
-3086 18 0
-3086 96 0
-3086 174 0
-18 -96 -174 3086 0
-3087 19 0
-3087 97 0
-3087 175 0
-19 -97 -175 3087 0
-3088 20 0
-3088 98 0
-3088 176 0
-20 -98 -176 3088 0
-3089 21 0
-3089 99 0
-3089 177 0
-21 -99 -177 3089 0
-3090 22 0
-3090 100 0
-3090 178 0
-22 -100 -178 3090 0
-3091 23 0
-3091 101 0
-3091 179 0
-23 -101 -179 3091 0
-3092 24 0
-3092 102 0
-3092 180 0
-24 -102 -180 3092 0
-3093 25 0
-3093 103 0
-3093 181 0
-25 -103 -181 3093 0
-3094 26 0
-3094 104 0
-3094 182 0
-26 -104 -182 3094 0
-3069 9930 0
-3070 9930 0
-3071 9930 0
-3072 9930 0
-3073 9930 0
-3074 9930 0
-3075 9930 0
-3076 9930 0
-3077 9930 0
-3078 9930 0
-3079 9930 0
-3080 9930 0
-3081 9930 0
-3082 9930 0
-3083 9930 0
-3084 9930 0
-3085 9930 0
-3086 9930 0
-3087 9930 0
-3088 9930 0
-3089 9930 0
-3090 9930 0
-3091 9930 0
-3092 9930 0
-3093 9930 0
-3094 9930 0
-9930 3069 3070 3071 3072 3073 3074 3075 3076 3077 3078 3079 3080 3081 3082 3083 3084 3085 3086 3087 3088 3089 3090 3091 3092 3093 3094 0
-3095 1 0
-3095 79 0
-3095 183 0
-1 -79 -183 3095 0
-3096 2 0
-3096 80 0
-3096 184 0
-2 -80 -184 3096 0
-3097 3 0
-3097 81 0
-3097 185 0
-3 -81 -185 3097 0
-3098 4 0
-3098 82 0
-3098 186 0
-4 -82 -186 3098 0
-3099 5 0
-3099 83 0
-3099 187 0
-5 -83 -187 3099 0
-3100 6 0
-3100 84 0
-3100 188 0
-6 -84 -188 3100 0
-3101 7 0
-3101 85 0
-3101 189 0
-7 -85 -189 3101 0
-3102 8 0
-3102 86 0
-3102 190 0
-8 -86 -190 3102 0
-3103 9 0
-3103 87 0
-3103 191 0
-9 -87 -191 3103 0
-3104 10 0
-3104 88 0
-3104 192 0
-10 -88 -192 3104 0
-3105 11 0
-3105 89 0
-3105 193 0
-11 -89 -193 3105 0
-3106 12 0
-3106 90 0
-3106 194 0
-12 -90 -194 3106 0
-3107 13 0
-3107 91 0
-3107 195 0
-13 -91 -195 3107 0
-3108 14 0
-3108 92 0
-3108 196 0
-14 -92 -196 3108 0
-3109 15 0
-3109 93 0
-3109 197 0
-15 -93 -197 3109 0
-3110 16 0
-3110 94 0
-3110 198 0
-16 -94 -198 3110 0
-3111 17 0
-3111 95 0
-3111 199 0
-17 -95 -199 3111 0
-3112 18 0
-3112 96 0
-3112 200 0
-18 -96 -200 3112 0
-3113 19 0
-3113 97 0
-3113 201 0
-19 -97 -201 3113 0
-3114 20 0
-3114 98 0
-3114 202 0
-20 -98 -202 3114 0
-3115 21 0
-3115 99 0
-3115 203 0
-21 -99 -203 3115 0
-3116 22 0
-3116 100 0
-3116 204 0
-22 -100 -204 3116 0
-3117 23 0
-3117 101 0
-3117 205 0
-23 -101 -205 3117 0
-3118 24 0
-3118 102 0
-3118 206 0
-24 -102 -206 3118 0
-3119 25 0
-3119 103 0
-3119 207 0
-25 -103 -207 3119 0
-3120 26 0
-3120 104 0
-3120 208 0
-26 -104 -208 3120 0
-3095 9931 0
-3096 9931 0
-3097 9931 0
-3098 9931 0
-3099 9931 0
-3100 9931 0
-3101 9931 0
-3102 9931 0
-3103 9931 0
-3104 9931 0
-3105 9931 0
-3106 9931 0
-3107 9931 0
-3108 9931 0
-3109 9931 0
-3110 9931 0
-3111 9931 0
-3112 9931 0
-3113 9931 0
-3114 9931 0
-3115 9931 0
-3116 9931 0
-3117 9931 0
-3118 9931 0
-3119 9931 0
-3120 9931 0
-9931 3095 3096 3097 3098 3099 3100 3101 3102 3103 3104 3105 3106 3107 3108 3109 3110 3111 3112 3113 3114 3115 3116 3117 3118 3119 3120 0
-3121 1 0
-3121 79 0
-3121 209 0
-1 -79 -209 3121 0
-3122 2 0
-3122 80 0
-3122 210 0
-2 -80 -210 3122 0
-3123 3 0
-3123 81 0
-3123 211 0
-3 -81 -211 3123 0
-3124 4 0
-3124 82 0
-3124 212 0
-4 -82 -212 3124 0
-3125 5 0
-3125 83 0
-3125 213 0
-5 -83 -213 3125 0
-3126 6 0
-3126 84 0
-3126 214 0
-6 -84 -214 3126 0
-3127 7 0
-3127 85 0
-3127 215 0
-7 -85 -215 3127 0
-3128 8 0
-3128 86 0
-3128 216 0
-8 -86 -216 3128 0
-3129 9 0
-3129 87 0
-3129 217 0
-9 -87 -217 3129 0
-3130 10 0
-3130 88 0
-3130 218 0
-10 -88 -218 3130 0
-3131 11 0
-3131 89 0
-3131 219 0
-11 -89 -219 3131 0
-3132 12 0
-3132 90 0
-3132 220 0
-12 -90 -220 3132 0
-3133 13 0
-3133 91 0
-3133 221 0
-13 -91 -221 3133 0
-3134 14 0
-3134 92 0
-3134 222 0
-14 -92 -222 3134 0
-3135 15 0
-3135 93 0
-3135 223 0
-15 -93 -223 3135 0
-3136 16 0
-3136 94 0
-3136 224 0
-16 -94 -224 3136 0
-3137 17 0
-3137 95 0
-3137 225 0
-17 -95 -225 3137 0
-3138 18 0
-3138 96 0
-3138 226 0
-18 -96 -226 3138 0
-3139 19 0
-3139 97 0
-3139 227 0
-19 -97 -227 3139 0
-3140 20 0
-3140 98 0
-3140 228 0
-20 -98 -228 3140 0
-3141 21 0
-3141 99 0
-3141 229 0
-21 -99 -229 3141 0
-3142 22 0
-3142 100 0
-3142 230 0
-22 -100 -230 3142 0
-3143 23 0
-3143 101 0
-3143 231 0
-23 -101 -231 3143 0
-3144 24 0
-3144 102 0
-3144 232 0
-24 -102 -232 3144 0
-3145 25 0
-3145 103 0
-3145 233 0
-25 -103 -233 3145 0
-3146 26 0
-3146 104 0
-3146 234 0
-26 -104 -234 3146 0
-3121 9932 0
-3122 9932 0
-3123 9932 0
-3124 9932 0
-3125 9932 0
-3126 9932 0
-3127 9932 0
-3128 9932 0
-3129 9932 0
-3130 9932 0
-3131 9932 0
-3132 9932 0
-3133 9932 0
-3134 9932 0
-3135 9932 0
-3136 9932 0
-3137 9932 0
-3138 9932 0
-3139 9932 0
-3140 9932 0
-3141 9932 0
-3142 9932 0
-3143 9932 0
-3144 9932 0
-3145 9932 0
-3146 9932 0
-9932 3121 3122 3123 3124 3125 3126 3127 3128 3129 3130 3131 3132 3133 3134 3135 3136 3137 3138 3139 3140 3141 3142 3143 3144 3145 3146 0
-3147 1 0
-3147 79 0
-3147 235 0
-1 -79 -235 3147 0
-3148 2 0
-3148 80 0
-3148 236 0
-2 -80 -236 3148 0
-3149 3 0
-3149 81 0
-3149 237 0
-3 -81 -237 3149 0
-3150 4 0
-3150 82 0
-3150 238 0
-4 -82 -238 3150 0
-3151 5 0
-3151 83 0
-3151 239 0
-5 -83 -239 3151 0
-3152 6 0
-3152 84 0
-3152 240 0
-6 -84 -240 3152 0
-3153 7 0
-3153 85 0
-3153 241 0
-7 -85 -241 3153 0
-3154 8 0
-3154 86 0
-3154 242 0
-8 -86 -242 3154 0
-3155 9 0
-3155 87 0
-3155 243 0
-9 -87 -243 3155 0
-3156 10 0
-3156 88 0
-3156 244 0
-10 -88 -244 3156 0
-3157 11 0
-3157 89 0
-3157 245 0
-11 -89 -245 3157 0
-3158 12 0
-3158 90 0
-3158 246 0
-12 -90 -246 3158 0
-3159 13 0
-3159 91 0
-3159 247 0
-13 -91 -247 3159 0
-3160 14 0
-3160 92 0
-3160 248 0
-14 -92 -248 3160 0
-3161 15 0
-3161 93 0
-3161 249 0
-15 -93 -249 3161 0
-3162 16 0
-3162 94 0
-3162 250 0
-16 -94 -250 3162 0
-3163 17 0
-3163 95 0
-3163 251 0
-17 -95 -251 3163 0
-3164 18 0
-3164 96 0
-3164 252 0
-18 -96 -252 3164 0
-3165 19 0
-3165 97 0
-3165 253 0
-19 -97 -253 3165 0
-3166 20 0
-3166 98 0
-3166 254 0
-20 -98 -254 3166 0
-3167 21 0
-3167 99 0
-3167 255 0
-21 -99 -255 3167 0
-3168 22 0
-3168 100 0
-3168 256 0
-22 -100 -256 3168 0
-3169 23 0
-3169 101 0
-3169 257 0
-23 -101 -257 3169 0
-3170 24 0
-3170 102 0
-3170 258 0
-24 -102 -258 3170 0
-3171 25 0
-3171 103 0
-3171 259 0
-25 -103 -259 3171 0
-3172 26 0
-3172 104 0
-3172 260 0
-26 -104 -260 3172 0
-3147 9933 0
-3148 9933 0
-3149 9933 0
-3150 9933 0
-3151 9933 0
-3152 9933 0
-3153 9933 0
-3154 9933 0
-3155 9933 0
-3156 9933 0
-3157 9933 0
-3158 9933 0
-3159 9933 0
-3160 9933 0
-3161 9933 0
-3162 9933 0
-3163 9933 0
-3164 9933 0
-3165 9933 0
-3166 9933 0
-3167 9933 0
-3168 9933 0
-3169 9933 0
-3170 9933 0
-3171 9933 0
-3172 9933 0
-9933 3147 3148 3149 3150 3151 3152 3153 3154 3155 3156 3157 3158 3159 3160 3161 3162 3163 3164 3165 3166 3167 3168 3169 3170 3171 3172 0
-3173 1 0
-3173 79 0
-3173 261 0
-1 -79 -261 3173 0
-3174 2 0
-3174 80 0
-3174 262 0
-2 -80 -262 3174 0
-3175 3 0
-3175 81 0
-3175 263 0
-3 -81 -263 3175 0
-3176 4 0
-3176 82 0
-3176 264 0
-4 -82 -264 3176 0
-3177 5 0
-3177 83 0
-3177 265 0
-5 -83 -265 3177 0
-3178 6 0
-3178 84 0
-3178 266 0
-6 -84 -266 3178 0
-3179 7 0
-3179 85 0
-3179 267 0
-7 -85 -267 3179 0
-3180 8 0
-3180 86 0
-3180 268 0
-8 -86 -268 3180 0
-3181 9 0
-3181 87 0
-3181 269 0
-9 -87 -269 3181 0
-3182 10 0
-3182 88 0
-3182 270 0
-10 -88 -270 3182 0
-3183 11 0
-3183 89 0
-3183 271 0
-11 -89 -271 3183 0
-3184 12 0
-3184 90 0
-3184 272 0
-12 -90 -272 3184 0
-3185 13 0
-3185 91 0
-3185 273 0
-13 -91 -273 3185 0
-3186 14 0
-3186 92 0
-3186 274 0
-14 -92 -274 3186 0
-3187 15 0
-3187 93 0
-3187 275 0
-15 -93 -275 3187 0
-3188 16 0
-3188 94 0
-3188 276 0
-16 -94 -276 3188 0
-3189 17 0
-3189 95 0
-3189 277 0
-17 -95 -277 3189 0
-3190 18 0
-3190 96 0
-3190 278 0
-18 -96 -278 3190 0
-3191 19 0
-3191 97 0
-3191 279 0
-19 -97 -279 3191 0
-3192 20 0
-3192 98 0
-3192 280 0
-20 -98 -280 3192 0
-3193 21 0
-3193 99 0
-3193 281 0
-21 -99 -281 3193 0
-3194 22 0
-3194 100 0
-3194 282 0
-22 -100 -282 3194 0
-3195 23 0
-3195 101 0
-3195 283 0
-23 -101 -283 3195 0
-3196 24 0
-3196 102 0
-3196 284 0
-24 -102 -284 3196 0
-3197 25 0
-3197 103 0
-3197 285 0
-25 -103 -285 3197 0
-3198 26 0
-3198 104 0
-3198 286 0
-26 -104 -286 3198 0
-3173 9934 0
-3174 9934 0
-3175 9934 0
-3176 9934 0
-3177 9934 0
-3178 9934 0
-3179 9934 0
-3180 9934 0
-3181 9934 0
-3182 9934 0
-3183 9934 0
-3184 9934 0
-3185 9934 0
-3186 9934 0
-3187 9934 0
-3188 9934 0
-3189 9934 0
-3190 9934 0
-3191 9934 0
-3192 9934 0
-3193 9934 0
-3194 9934 0
-3195 9934 0
-3196 9934 0
-3197 9934 0
-3198 9934 0
-9934 3173 3174 3175 3176 3177 3178 3179 3180 3181 3182 3183 3184 3185 3186 3187 3188 3189 3190 3191 3192 3193 3194 3195 3196 3197 3198 0
-3199 1 0
-3199 79 0
-3199 287 0
-1 -79 -287 3199 0
-3200 2 0
-3200 80 0
-3200 288 0
-2 -80 -288 3200 0
-3201 3 0
-3201 81 0
-3201 289 0
-3 -81 -289 3201 0
-3202 4 0
-3202 82 0
-3202 290 0
-4 -82 -290 3202 0
-3203 5 0
-3203 83 0
-3203 291 0
-5 -83 -291 3203 0
-3204 6 0
-3204 84 0
-3204 292 0
-6 -84 -292 3204 0
-3205 7 0
-3205 85 0
-3205 293 0
-7 -85 -293 3205 0
-3206 8 0
-3206 86 0
-3206 294 0
-8 -86 -294 3206 0
-3207 9 0
-3207 87 0
-3207 295 0
-9 -87 -295 3207 0
-3208 10 0
-3208 88 0
-3208 296 0
-10 -88 -296 3208 0
-3209 11 0
-3209 89 0
-3209 297 0
-11 -89 -297 3209 0
-3210 12 0
-3210 90 0
-3210 298 0
-12 -90 -298 3210 0
-3211 13 0
-3211 91 0
-3211 299 0
-13 -91 -299 3211 0
-3212 14 0
-3212 92 0
-3212 300 0
-14 -92 -300 3212 0
-3213 15 0
-3213 93 0
-3213 301 0
-15 -93 -301 3213 0
-3214 16 0
-3214 94 0
-3214 302 0
-16 -94 -302 3214 0
-3215 17 0
-3215 95 0
-3215 303 0
-17 -95 -303 3215 0
-3216 18 0
-3216 96 0
-3216 304 0
-18 -96 -304 3216 0
-3217 19 0
-3217 97 0
-3217 305 0
-19 -97 -305 3217 0
-3218 20 0
-3218 98 0
-3218 306 0
-20 -98 -306 3218 0
-3219 21 0
-3219 99 0
-3219 307 0
-21 -99 -307 3219 0
-3220 22 0
-3220 100 0
-3220 308 0
-22 -100 -308 3220 0
-3221 23 0
-3221 101 0
-3221 309 0
-23 -101 -309 3221 0
-3222 24 0
-3222 102 0
-3222 310 0
-24 -102 -310 3222 0
-3223 25 0
-3223 103 0
-3223 311 0
-25 -103 -311 3223 0
-3224 26 0
-3224 104 0
-3224 312 0
-26 -104 -312 3224 0
-3199 9935 0
-3200 9935 0
-3201 9935 0
-3202 9935 0
-3203 9935 0
-3204 9935 0
-3205 9935 0
-3206 9935 0
-3207 9935 0
-3208 9935 0
-3209 9935 0
-3210 9935 0
-3211 9935 0
-3212 9935 0
-3213 9935 0
-3214 9935 0
-3215 9935 0
-3216 9935 0
-3217 9935 0
-3218 9935 0
-3219 9935 0
-3220 9935 0
-3221 9935 0
-3222 9935 0
-3223 9935 0
-3224 9935 0
-9935 3199 3200 3201 3202 3203 3204 3205 3206 3207 3208 3209 3210 3211 3212 3213 3214 3215 3216 3217 3218 3219 3220 3221 3222 3223 3224 0
-3225 1 0
-3225 79 0
-3225 313 0
-1 -79 -313 3225 0
-3226 2 0
-3226 80 0
-3226 314 0
-2 -80 -314 3226 0
-3227 3 0
-3227 81 0
-3227 315 0
-3 -81 -315 3227 0
-3228 4 0
-3228 82 0
-3228 316 0
-4 -82 -316 3228 0
-3229 5 0
-3229 83 0
-3229 317 0
-5 -83 -317 3229 0
-3230 6 0
-3230 84 0
-3230 318 0
-6 -84 -318 3230 0
-3231 7 0
-3231 85 0
-3231 319 0
-7 -85 -319 3231 0
-3232 8 0
-3232 86 0
-3232 320 0
-8 -86 -320 3232 0
-3233 9 0
-3233 87 0
-3233 321 0
-9 -87 -321 3233 0
-3234 10 0
-3234 88 0
-3234 322 0
-10 -88 -322 3234 0
-3235 11 0
-3235 89 0
-3235 323 0
-11 -89 -323 3235 0
-3236 12 0
-3236 90 0
-3236 324 0
-12 -90 -324 3236 0
-3237 13 0
-3237 91 0
-3237 325 0
-13 -91 -325 3237 0
-3238 14 0
-3238 92 0
-3238 326 0
-14 -92 -326 3238 0
-3239 15 0
-3239 93 0
-3239 327 0
-15 -93 -327 3239 0
-3240 16 0
-3240 94 0
-3240 328 0
-16 -94 -328 3240 0
-3241 17 0
-3241 95 0
-3241 329 0
-17 -95 -329 3241 0
-3242 18 0
-3242 96 0
-3242 330 0
-18 -96 -330 3242 0
-3243 19 0
-3243 97 0
-3243 331 0
-19 -97 -331 3243 0
-3244 20 0
-3244 98 0
-3244 332 0
-20 -98 -332 3244 0
-3245 21 0
-3245 99 0
-3245 333 0
-21 -99 -333 3245 0
-3246 22 0
-3246 100 0
-3246 334 0
-22 -100 -334 3246 0
-3247 23 0
-3247 101 0
-3247 335 0
-23 -101 -335 3247 0
-3248 24 0
-3248 102 0
-3248 336 0
-24 -102 -336 3248 0
-3249 25 0
-3249 103 0
-3249 337 0
-25 -103 -337 3249 0
-3250 26 0
-3250 104 0
-3250 338 0
-26 -104 -338 3250 0
-3225 9936 0
-3226 9936 0
-3227 9936 0
-3228 9936 0
-3229 9936 0
-3230 9936 0
-3231 9936 0
-3232 9936 0
-3233 9936 0
-3234 9936 0
-3235 9936 0
-3236 9936 0
-3237 9936 0
-3238 9936 0
-3239 9936 0
-3240 9936 0
-3241 9936 0
-3242 9936 0
-3243 9936 0
-3244 9936 0
-3245 9936 0
-3246 9936 0
-3247 9936 0
-3248 9936 0
-3249 9936 0
-3250 9936 0
-9936 3225 3226 3227 3228 3229 3230 3231 3232 3233 3234 3235 3236 3237 3238 3239 3240 3241 3242 3243 3244 3245 3246 3247 3248 3249 3250 0
-3251 1 0
-3251 105 0
-3251 131 0
-1 -105 -131 3251 0
-3252 2 0
-3252 106 0
-3252 132 0
-2 -106 -132 3252 0
-3253 3 0
-3253 107 0
-3253 133 0
-3 -107 -133 3253 0
-3254 4 0
-3254 108 0
-3254 134 0
-4 -108 -134 3254 0
-3255 5 0
-3255 109 0
-3255 135 0
-5 -109 -135 3255 0
-3256 6 0
-3256 110 0
-3256 136 0
-6 -110 -136 3256 0
-3257 7 0
-3257 111 0
-3257 137 0
-7 -111 -137 3257 0
-3258 8 0
-3258 112 0
-3258 138 0
-8 -112 -138 3258 0
-3259 9 0
-3259 113 0
-3259 139 0
-9 -113 -139 3259 0
-3260 10 0
-3260 114 0
-3260 140 0
-10 -114 -140 3260 0
-3261 11 0
-3261 115 0
-3261 141 0
-11 -115 -141 3261 0
-3262 12 0
-3262 116 0
-3262 142 0
-12 -116 -142 3262 0
-3263 13 0
-3263 117 0
-3263 143 0
-13 -117 -143 3263 0
-3264 14 0
-3264 118 0
-3264 144 0
-14 -118 -144 3264 0
-3265 15 0
-3265 119 0
-3265 145 0
-15 -119 -145 3265 0
-3266 16 0
-3266 120 0
-3266 146 0
-16 -120 -146 3266 0
-3267 17 0
-3267 121 0
-3267 147 0
-17 -121 -147 3267 0
-3268 18 0
-3268 122 0
-3268 148 0
-18 -122 -148 3268 0
-3269 19 0
-3269 123 0
-3269 149 0
-19 -123 -149 3269 0
-3270 20 0
-3270 124 0
-3270 150 0
-20 -124 -150 3270 0
-3271 21 0
-3271 125 0
-3271 151 0
-21 -125 -151 3271 0
-3272 22 0
-3272 126 0
-3272 152 0
-22 -126 -152 3272 0
-3273 23 0
-3273 127 0
-3273 153 0
-23 -127 -153 3273 0
-3274 24 0
-3274 128 0
-3274 154 0
-24 -128 -154 3274 0
-3275 25 0
-3275 129 0
-3275 155 0
-25 -129 -155 3275 0
-3276 26 0
-3276 130 0
-3276 156 0
-26 -130 -156 3276 0
-3251 9937 0
-3252 9937 0
-3253 9937 0
-3254 9937 0
-3255 9937 0
-3256 9937 0
-3257 9937 0
-3258 9937 0
-3259 9937 0
-3260 9937 0
-3261 9937 0
-3262 9937 0
-3263 9937 0
-3264 9937 0
-3265 9937 0
-3266 9937 0
-3267 9937 0
-3268 9937 0
-3269 9937 0
-3270 9937 0
-3271 9937 0
-3272 9937 0
-3273 9937 0
-3274 9937 0
-3275 9937 0
-3276 9937 0
-9937 3251 3252 3253 3254 3255 3256 3257 3258 3259 3260 3261 3262 3263 3264 3265 3266 3267 3268 3269 3270 3271 3272 3273 3274 3275 3276 0
-3277 1 0
-3277 105 0
-3277 157 0
-1 -105 -157 3277 0
-3278 2 0
-3278 106 0
-3278 158 0
-2 -106 -158 3278 0
-3279 3 0
-3279 107 0
-3279 159 0
-3 -107 -159 3279 0
-3280 4 0
-3280 108 0
-3280 160 0
-4 -108 -160 3280 0
-3281 5 0
-3281 109 0
-3281 161 0
-5 -109 -161 3281 0
-3282 6 0
-3282 110 0
-3282 162 0
-6 -110 -162 3282 0
-3283 7 0
-3283 111 0
-3283 163 0
-7 -111 -163 3283 0
-3284 8 0
-3284 112 0
-3284 164 0
-8 -112 -164 3284 0
-3285 9 0
-3285 113 0
-3285 165 0
-9 -113 -165 3285 0
-3286 10 0
-3286 114 0
-3286 166 0
-10 -114 -166 3286 0
-3287 11 0
-3287 115 0
-3287 167 0
-11 -115 -167 3287 0
-3288 12 0
-3288 116 0
-3288 168 0
-12 -116 -168 3288 0
-3289 13 0
-3289 117 0
-3289 169 0
-13 -117 -169 3289 0
-3290 14 0
-3290 118 0
-3290 170 0
-14 -118 -170 3290 0
-3291 15 0
-3291 119 0
-3291 171 0
-15 -119 -171 3291 0
-3292 16 0
-3292 120 0
-3292 172 0
-16 -120 -172 3292 0
-3293 17 0
-3293 121 0
-3293 173 0
-17 -121 -173 3293 0
-3294 18 0
-3294 122 0
-3294 174 0
-18 -122 -174 3294 0
-3295 19 0
-3295 123 0
-3295 175 0
-19 -123 -175 3295 0
-3296 20 0
-3296 124 0
-3296 176 0
-20 -124 -176 3296 0
-3297 21 0
-3297 125 0
-3297 177 0
-21 -125 -177 3297 0
-3298 22 0
-3298 126 0
-3298 178 0
-22 -126 -178 3298 0
-3299 23 0
-3299 127 0
-3299 179 0
-23 -127 -179 3299 0
-3300 24 0
-3300 128 0
-3300 180 0
-24 -128 -180 3300 0
-3301 25 0
-3301 129 0
-3301 181 0
-25 -129 -181 3301 0
-3302 26 0
-3302 130 0
-3302 182 0
-26 -130 -182 3302 0
-3277 9938 0
-3278 9938 0
-3279 9938 0
-3280 9938 0
-3281 9938 0
-3282 9938 0
-3283 9938 0
-3284 9938 0
-3285 9938 0
-3286 9938 0
-3287 9938 0
-3288 9938 0
-3289 9938 0
-3290 9938 0
-3291 9938 0
-3292 9938 0
-3293 9938 0
-3294 9938 0
-3295 9938 0
-3296 9938 0
-3297 9938 0
-3298 9938 0
-3299 9938 0
-3300 9938 0
-3301 9938 0
-3302 9938 0
-9938 3277 3278 3279 3280 3281 3282 3283 3284 3285 3286 3287 3288 3289 3290 3291 3292 3293 3294 3295 3296 3297 3298 3299 3300 3301 3302 0
-3303 1 0
-3303 105 0
-3303 183 0
-1 -105 -183 3303 0
-3304 2 0
-3304 106 0
-3304 184 0
-2 -106 -184 3304 0
-3305 3 0
-3305 107 0
-3305 185 0
-3 -107 -185 3305 0
-3306 4 0
-3306 108 0
-3306 186 0
-4 -108 -186 3306 0
-3307 5 0
-3307 109 0
-3307 187 0
-5 -109 -187 3307 0
-3308 6 0
-3308 110 0
-3308 188 0
-6 -110 -188 3308 0
-3309 7 0
-3309 111 0
-3309 189 0
-7 -111 -189 3309 0
-3310 8 0
-3310 112 0
-3310 190 0
-8 -112 -190 3310 0
-3311 9 0
-3311 113 0
-3311 191 0
-9 -113 -191 3311 0
-3312 10 0
-3312 114 0
-3312 192 0
-10 -114 -192 3312 0
-3313 11 0
-3313 115 0
-3313 193 0
-11 -115 -193 3313 0
-3314 12 0
-3314 116 0
-3314 194 0
-12 -116 -194 3314 0
-3315 13 0
-3315 117 0
-3315 195 0
-13 -117 -195 3315 0
-3316 14 0
-3316 118 0
-3316 196 0
-14 -118 -196 3316 0
-3317 15 0
-3317 119 0
-3317 197 0
-15 -119 -197 3317 0
-3318 16 0
-3318 120 0
-3318 198 0
-16 -120 -198 3318 0
-3319 17 0
-3319 121 0
-3319 199 0
-17 -121 -199 3319 0
-3320 18 0
-3320 122 0
-3320 200 0
-18 -122 -200 3320 0
-3321 19 0
-3321 123 0
-3321 201 0
-19 -123 -201 3321 0
-3322 20 0
-3322 124 0
-3322 202 0
-20 -124 -202 3322 0
-3323 21 0
-3323 125 0
-3323 203 0
-21 -125 -203 3323 0
-3324 22 0
-3324 126 0
-3324 204 0
-22 -126 -204 3324 0
-3325 23 0
-3325 127 0
-3325 205 0
-23 -127 -205 3325 0
-3326 24 0
-3326 128 0
-3326 206 0
-24 -128 -206 3326 0
-3327 25 0
-3327 129 0
-3327 207 0
-25 -129 -207 3327 0
-3328 26 0
-3328 130 0
-3328 208 0
-26 -130 -208 3328 0
-3303 9939 0
-3304 9939 0
-3305 9939 0
-3306 9939 0
-3307 9939 0
-3308 9939 0
-3309 9939 0
-3310 9939 0
-3311 9939 0
-3312 9939 0
-3313 9939 0
-3314 9939 0
-3315 9939 0
-3316 9939 0
-3317 9939 0
-3318 9939 0
-3319 9939 0
-3320 9939 0
-3321 9939 0
-3322 9939 0
-3323 9939 0
-3324 9939 0
-3325 9939 0
-3326 9939 0
-3327 9939 0
-3328 9939 0
-9939 3303 3304 3305 3306 3307 3308 3309 3310 3311 3312 3313 3314 3315 3316 3317 3318 3319 3320 3321 3322 3323 3324 3325 3326 3327 3328 0
-3329 1 0
-3329 105 0
-3329 209 0
-1 -105 -209 3329 0
-3330 2 0
-3330 106 0
-3330 210 0
-2 -106 -210 3330 0
-3331 3 0
-3331 107 0
-3331 211 0
-3 -107 -211 3331 0
-3332 4 0
-3332 108 0
-3332 212 0
-4 -108 -212 3332 0
-3333 5 0
-3333 109 0
-3333 213 0
-5 -109 -213 3333 0
-3334 6 0
-3334 110 0
-3334 214 0
-6 -110 -214 3334 0
-3335 7 0
-3335 111 0
-3335 215 0
-7 -111 -215 3335 0
-3336 8 0
-3336 112 0
-3336 216 0
-8 -112 -216 3336 0
-3337 9 0
-3337 113 0
-3337 217 0
-9 -113 -217 3337 0
-3338 10 0
-3338 114 0
-3338 218 0
-10 -114 -218 3338 0
-3339 11 0
-3339 115 0
-3339 219 0
-11 -115 -219 3339 0
-3340 12 0
-3340 116 0
-3340 220 0
-12 -116 -220 3340 0
-3341 13 0
-3341 117 0
-3341 221 0
-13 -117 -221 3341 0
-3342 14 0
-3342 118 0
-3342 222 0
-14 -118 -222 3342 0
-3343 15 0
-3343 119 0
-3343 223 0
-15 -119 -223 3343 0
-3344 16 0
-3344 120 0
-3344 224 0
-16 -120 -224 3344 0
-3345 17 0
-3345 121 0
-3345 225 0
-17 -121 -225 3345 0
-3346 18 0
-3346 122 0
-3346 226 0
-18 -122 -226 3346 0
-3347 19 0
-3347 123 0
-3347 227 0
-19 -123 -227 3347 0
-3348 20 0
-3348 124 0
-3348 228 0
-20 -124 -228 3348 0
-3349 21 0
-3349 125 0
-3349 229 0
-21 -125 -229 3349 0
-3350 22 0
-3350 126 0
-3350 230 0
-22 -126 -230 3350 0
-3351 23 0
-3351 127 0
-3351 231 0
-23 -127 -231 3351 0
-3352 24 0
-3352 128 0
-3352 232 0
-24 -128 -232 3352 0
-3353 25 0
-3353 129 0
-3353 233 0
-25 -129 -233 3353 0
-3354 26 0
-3354 130 0
-3354 234 0
-26 -130 -234 3354 0
-3329 9940 0
-3330 9940 0
-3331 9940 0
-3332 9940 0
-3333 9940 0
-3334 9940 0
-3335 9940 0
-3336 9940 0
-3337 9940 0
-3338 9940 0
-3339 9940 0
-3340 9940 0
-3341 9940 0
-3342 9940 0
-3343 9940 0
-3344 9940 0
-3345 9940 0
-3346 9940 0
-3347 9940 0
-3348 9940 0
-3349 9940 0
-3350 9940 0
-3351 9940 0
-3352 9940 0
-3353 9940 0
-3354 9940 0
-9940 3329 3330 3331 3332 3333 3334 3335 3336 3337 3338 3339 3340 3341 3342 3343 3344 3345 3346 3347 3348 3349 3350 3351 3352 3353 3354 0
-3355 1 0
-3355 105 0
-3355 235 0
-1 -105 -235 3355 0
-3356 2 0
-3356 106 0
-3356 236 0
-2 -106 -236 3356 0
-3357 3 0
-3357 107 0
-3357 237 0
-3 -107 -237 3357 0
-3358 4 0
-3358 108 0
-3358 238 0
-4 -108 -238 3358 0
-3359 5 0
-3359 109 0
-3359 239 0
-5 -109 -239 3359 0
-3360 6 0
-3360 110 0
-3360 240 0
-6 -110 -240 3360 0
-3361 7 0
-3361 111 0
-3361 241 0
-7 -111 -241 3361 0
-3362 8 0
-3362 112 0
-3362 242 0
-8 -112 -242 3362 0
-3363 9 0
-3363 113 0
-3363 243 0
-9 -113 -243 3363 0
-3364 10 0
-3364 114 0
-3364 244 0
-10 -114 -244 3364 0
-3365 11 0
-3365 115 0
-3365 245 0
-11 -115 -245 3365 0
-3366 12 0
-3366 116 0
-3366 246 0
-12 -116 -246 3366 0
-3367 13 0
-3367 117 0
-3367 247 0
-13 -117 -247 3367 0
-3368 14 0
-3368 118 0
-3368 248 0
-14 -118 -248 3368 0
-3369 15 0
-3369 119 0
-3369 249 0
-15 -119 -249 3369 0
-3370 16 0
-3370 120 0
-3370 250 0
-16 -120 -250 3370 0
-3371 17 0
-3371 121 0
-3371 251 0
-17 -121 -251 3371 0
-3372 18 0
-3372 122 0
-3372 252 0
-18 -122 -252 3372 0
-3373 19 0
-3373 123 0
-3373 253 0
-19 -123 -253 3373 0
-3374 20 0
-3374 124 0
-3374 254 0
-20 -124 -254 3374 0
-3375 21 0
-3375 125 0
-3375 255 0
-21 -125 -255 3375 0
-3376 22 0
-3376 126 0
-3376 256 0
-22 -126 -256 3376 0
-3377 23 0
-3377 127 0
-3377 257 0
-23 -127 -257 3377 0
-3378 24 0
-3378 128 0
-3378 258 0
-24 -128 -258 3378 0
-3379 25 0
-3379 129 0
-3379 259 0
-25 -129 -259 3379 0
-3380 26 0
-3380 130 0
-3380 260 0
-26 -130 -260 3380 0
-3355 9941 0
-3356 9941 0
-3357 9941 0
-3358 9941 0
-3359 9941 0
-3360 9941 0
-3361 9941 0
-3362 9941 0
-3363 9941 0
-3364 9941 0
-3365 9941 0
-3366 9941 0
-3367 9941 0
-3368 9941 0
-3369 9941 0
-3370 9941 0
-3371 9941 0
-3372 9941 0
-3373 9941 0
-3374 9941 0
-3375 9941 0
-3376 9941 0
-3377 9941 0
-3378 9941 0
-3379 9941 0
-3380 9941 0
-9941 3355 3356 3357 3358 3359 3360 3361 3362 3363 3364 3365 3366 3367 3368 3369 3370 3371 3372 3373 3374 3375 3376 3377 3378 3379 3380 0
-3381 1 0
-3381 105 0
-3381 261 0
-1 -105 -261 3381 0
-3382 2 0
-3382 106 0
-3382 262 0
-2 -106 -262 3382 0
-3383 3 0
-3383 107 0
-3383 263 0
-3 -107 -263 3383 0
-3384 4 0
-3384 108 0
-3384 264 0
-4 -108 -264 3384 0
-3385 5 0
-3385 109 0
-3385 265 0
-5 -109 -265 3385 0
-3386 6 0
-3386 110 0
-3386 266 0
-6 -110 -266 3386 0
-3387 7 0
-3387 111 0
-3387 267 0
-7 -111 -267 3387 0
-3388 8 0
-3388 112 0
-3388 268 0
-8 -112 -268 3388 0
-3389 9 0
-3389 113 0
-3389 269 0
-9 -113 -269 3389 0
-3390 10 0
-3390 114 0
-3390 270 0
-10 -114 -270 3390 0
-3391 11 0
-3391 115 0
-3391 271 0
-11 -115 -271 3391 0
-3392 12 0
-3392 116 0
-3392 272 0
-12 -116 -272 3392 0
-3393 13 0
-3393 117 0
-3393 273 0
-13 -117 -273 3393 0
-3394 14 0
-3394 118 0
-3394 274 0
-14 -118 -274 3394 0
-3395 15 0
-3395 119 0
-3395 275 0
-15 -119 -275 3395 0
-3396 16 0
-3396 120 0
-3396 276 0
-16 -120 -276 3396 0
-3397 17 0
-3397 121 0
-3397 277 0
-17 -121 -277 3397 0
-3398 18 0
-3398 122 0
-3398 278 0
-18 -122 -278 3398 0
-3399 19 0
-3399 123 0
-3399 279 0
-19 -123 -279 3399 0
-3400 20 0
-3400 124 0
-3400 280 0
-20 -124 -280 3400 0
-3401 21 0
-3401 125 0
-3401 281 0
-21 -125 -281 3401 0
-3402 22 0
-3402 126 0
-3402 282 0
-22 -126 -282 3402 0
-3403 23 0
-3403 127 0
-3403 283 0
-23 -127 -283 3403 0
-3404 24 0
-3404 128 0
-3404 284 0
-24 -128 -284 3404 0
-3405 25 0
-3405 129 0
-3405 285 0
-25 -129 -285 3405 0
-3406 26 0
-3406 130 0
-3406 286 0
-26 -130 -286 3406 0
-3381 9942 0
-3382 9942 0
-3383 9942 0
-3384 9942 0
-3385 9942 0
-3386 9942 0
-3387 9942 0
-3388 9942 0
-3389 9942 0
-3390 9942 0
-3391 9942 0
-3392 9942 0
-3393 9942 0
-3394 9942 0
-3395 9942 0
-3396 9942 0
-3397 9942 0
-3398 9942 0
-3399 9942 0
-3400 9942 0
-3401 9942 0
-3402 9942 0
-3403 9942 0
-3404 9942 0
-3405 9942 0
-3406 9942 0
-9942 3381 3382 3383 3384 3385 3386 3387 3388 3389 3390 3391 3392 3393 3394 3395 3396 3397 3398 3399 3400 3401 3402 3403 3404 3405 3406 0
-3407 1 0
-3407 105 0
-3407 287 0
-1 -105 -287 3407 0
-3408 2 0
-3408 106 0
-3408 288 0
-2 -106 -288 3408 0
-3409 3 0
-3409 107 0
-3409 289 0
-3 -107 -289 3409 0
-3410 4 0
-3410 108 0
-3410 290 0
-4 -108 -290 3410 0
-3411 5 0
-3411 109 0
-3411 291 0
-5 -109 -291 3411 0
-3412 6 0
-3412 110 0
-3412 292 0
-6 -110 -292 3412 0
-3413 7 0
-3413 111 0
-3413 293 0
-7 -111 -293 3413 0
-3414 8 0
-3414 112 0
-3414 294 0
-8 -112 -294 3414 0
-3415 9 0
-3415 113 0
-3415 295 0
-9 -113 -295 3415 0
-3416 10 0
-3416 114 0
-3416 296 0
-10 -114 -296 3416 0
-3417 11 0
-3417 115 0
-3417 297 0
-11 -115 -297 3417 0
-3418 12 0
-3418 116 0
-3418 298 0
-12 -116 -298 3418 0
-3419 13 0
-3419 117 0
-3419 299 0
-13 -117 -299 3419 0
-3420 14 0
-3420 118 0
-3420 300 0
-14 -118 -300 3420 0
-3421 15 0
-3421 119 0
-3421 301 0
-15 -119 -301 3421 0
-3422 16 0
-3422 120 0
-3422 302 0
-16 -120 -302 3422 0
-3423 17 0
-3423 121 0
-3423 303 0
-17 -121 -303 3423 0
-3424 18 0
-3424 122 0
-3424 304 0
-18 -122 -304 3424 0
-3425 19 0
-3425 123 0
-3425 305 0
-19 -123 -305 3425 0
-3426 20 0
-3426 124 0
-3426 306 0
-20 -124 -306 3426 0
-3427 21 0
-3427 125 0
-3427 307 0
-21 -125 -307 3427 0
-3428 22 0
-3428 126 0
-3428 308 0
-22 -126 -308 3428 0
-3429 23 0
-3429 127 0
-3429 309 0
-23 -127 -309 3429 0
-3430 24 0
-3430 128 0
-3430 310 0
-24 -128 -310 3430 0
-3431 25 0
-3431 129 0
-3431 311 0
-25 -129 -311 3431 0
-3432 26 0
-3432 130 0
-3432 312 0
-26 -130 -312 3432 0
-3407 9943 0
-3408 9943 0
-3409 9943 0
-3410 9943 0
-3411 9943 0
-3412 9943 0
-3413 9943 0
-3414 9943 0
-3415 9943 0
-3416 9943 0
-3417 9943 0
-3418 9943 0
-3419 9943 0
-3420 9943 0
-3421 9943 0
-3422 9943 0
-3423 9943 0
-3424 9943 0
-3425 9943 0
-3426 9943 0
-3427 9943 0
-3428 9943 0
-3429 9943 0
-3430 9943 0
-3431 9943 0
-3432 9943 0
-9943 3407 3408 3409 3410 3411 3412 3413 3414 3415 3416 3417 3418 3419 3420 3421 3422 3423 3424 3425 3426 3427 3428 3429 3430 3431 3432 0
-3433 1 0
-3433 105 0
-3433 313 0
-1 -105 -313 3433 0
-3434 2 0
-3434 106 0
-3434 314 0
-2 -106 -314 3434 0
-3435 3 0
-3435 107 0
-3435 315 0
-3 -107 -315 3435 0
-3436 4 0
-3436 108 0
-3436 316 0
-4 -108 -316 3436 0
-3437 5 0
-3437 109 0
-3437 317 0
-5 -109 -317 3437 0
-3438 6 0
-3438 110 0
-3438 318 0
-6 -110 -318 3438 0
-3439 7 0
-3439 111 0
-3439 319 0
-7 -111 -319 3439 0
-3440 8 0
-3440 112 0
-3440 320 0
-8 -112 -320 3440 0
-3441 9 0
-3441 113 0
-3441 321 0
-9 -113 -321 3441 0
-3442 10 0
-3442 114 0
-3442 322 0
-10 -114 -322 3442 0
-3443 11 0
-3443 115 0
-3443 323 0
-11 -115 -323 3443 0
-3444 12 0
-3444 116 0
-3444 324 0
-12 -116 -324 3444 0
-3445 13 0
-3445 117 0
-3445 325 0
-13 -117 -325 3445 0
-3446 14 0
-3446 118 0
-3446 326 0
-14 -118 -326 3446 0
-3447 15 0
-3447 119 0
-3447 327 0
-15 -119 -327 3447 0
-3448 16 0
-3448 120 0
-3448 328 0
-16 -120 -328 3448 0
-3449 17 0
-3449 121 0
-3449 329 0
-17 -121 -329 3449 0
-3450 18 0
-3450 122 0
-3450 330 0
-18 -122 -330 3450 0
-3451 19 0
-3451 123 0
-3451 331 0
-19 -123 -331 3451 0
-3452 20 0
-3452 124 0
-3452 332 0
-20 -124 -332 3452 0
-3453 21 0
-3453 125 0
-3453 333 0
-21 -125 -333 3453 0
-3454 22 0
-3454 126 0
-3454 334 0
-22 -126 -334 3454 0
-3455 23 0
-3455 127 0
-3455 335 0
-23 -127 -335 3455 0
-3456 24 0
-3456 128 0
-3456 336 0
-24 -128 -336 3456 0
-3457 25 0
-3457 129 0
-3457 337 0
-25 -129 -337 3457 0
-3458 26 0
-3458 130 0
-3458 338 0
-26 -130 -338 3458 0
-3433 9944 0
-3434 9944 0
-3435 9944 0
-3436 9944 0
-3437 9944 0
-3438 9944 0
-3439 9944 0
-3440 9944 0
-3441 9944 0
-3442 9944 0
-3443 9944 0
-3444 9944 0
-3445 9944 0
-3446 9944 0
-3447 9944 0
-3448 9944 0
-3449 9944 0
-3450 9944 0
-3451 9944 0
-3452 9944 0
-3453 9944 0
-3454 9944 0
-3455 9944 0
-3456 9944 0
-3457 9944 0
-3458 9944 0
-9944 3433 3434 3435 3436 3437 3438 3439 3440 3441 3442 3443 3444 3445 3446 3447 3448 3449 3450 3451 3452 3453 3454 3455 3456 3457 3458 0
-3459 1 0
-3459 131 0
-3459 157 0
-1 -131 -157 3459 0
-3460 2 0
-3460 132 0
-3460 158 0
-2 -132 -158 3460 0
-3461 3 0
-3461 133 0
-3461 159 0
-3 -133 -159 3461 0
-3462 4 0
-3462 134 0
-3462 160 0
-4 -134 -160 3462 0
-3463 5 0
-3463 135 0
-3463 161 0
-5 -135 -161 3463 0
-3464 6 0
-3464 136 0
-3464 162 0
-6 -136 -162 3464 0
-3465 7 0
-3465 137 0
-3465 163 0
-7 -137 -163 3465 0
-3466 8 0
-3466 138 0
-3466 164 0
-8 -138 -164 3466 0
-3467 9 0
-3467 139 0
-3467 165 0
-9 -139 -165 3467 0
-3468 10 0
-3468 140 0
-3468 166 0
-10 -140 -166 3468 0
-3469 11 0
-3469 141 0
-3469 167 0
-11 -141 -167 3469 0
-3470 12 0
-3470 142 0
-3470 168 0
-12 -142 -168 3470 0
-3471 13 0
-3471 143 0
-3471 169 0
-13 -143 -169 3471 0
-3472 14 0
-3472 144 0
-3472 170 0
-14 -144 -170 3472 0
-3473 15 0
-3473 145 0
-3473 171 0
-15 -145 -171 3473 0
-3474 16 0
-3474 146 0
-3474 172 0
-16 -146 -172 3474 0
-3475 17 0
-3475 147 0
-3475 173 0
-17 -147 -173 3475 0
-3476 18 0
-3476 148 0
-3476 174 0
-18 -148 -174 3476 0
-3477 19 0
-3477 149 0
-3477 175 0
-19 -149 -175 3477 0
-3478 20 0
-3478 150 0
-3478 176 0
-20 -150 -176 3478 0
-3479 21 0
-3479 151 0
-3479 177 0
-21 -151 -177 3479 0
-3480 22 0
-3480 152 0
-3480 178 0
-22 -152 -178 3480 0
-3481 23 0
-3481 153 0
-3481 179 0
-23 -153 -179 3481 0
-3482 24 0
-3482 154 0
-3482 180 0
-24 -154 -180 3482 0
-3483 25 0
-3483 155 0
-3483 181 0
-25 -155 -181 3483 0
-3484 26 0
-3484 156 0
-3484 182 0
-26 -156 -182 3484 0
-3459 9945 0
-3460 9945 0
-3461 9945 0
-3462 9945 0
-3463 9945 0
-3464 9945 0
-3465 9945 0
-3466 9945 0
-3467 9945 0
-3468 9945 0
-3469 9945 0
-3470 9945 0
-3471 9945 0
-3472 9945 0
-3473 9945 0
-3474 9945 0
-3475 9945 0
-3476 9945 0
-3477 9945 0
-3478 9945 0
-3479 9945 0
-3480 9945 0
-3481 9945 0
-3482 9945 0
-3483 9945 0
-3484 9945 0
-9945 3459 3460 3461 3462 3463 3464 3465 3466 3467 3468 3469 3470 3471 3472 3473 3474 3475 3476 3477 3478 3479 3480 3481 3482 3483 3484 0
-3485 1 0
-3485 131 0
-3485 183 0
-1 -131 -183 3485 0
-3486 2 0
-3486 132 0
-3486 184 0
-2 -132 -184 3486 0
-3487 3 0
-3487 133 0
-3487 185 0
-3 -133 -185 3487 0
-3488 4 0
-3488 134 0
-3488 186 0
-4 -134 -186 3488 0
-3489 5 0
-3489 135 0
-3489 187 0
-5 -135 -187 3489 0
-3490 6 0
-3490 136 0
-3490 188 0
-6 -136 -188 3490 0
-3491 7 0
-3491 137 0
-3491 189 0
-7 -137 -189 3491 0
-3492 8 0
-3492 138 0
-3492 190 0
-8 -138 -190 3492 0
-3493 9 0
-3493 139 0
-3493 191 0
-9 -139 -191 3493 0
-3494 10 0
-3494 140 0
-3494 192 0
-10 -140 -192 3494 0
-3495 11 0
-3495 141 0
-3495 193 0
-11 -141 -193 3495 0
-3496 12 0
-3496 142 0
-3496 194 0
-12 -142 -194 3496 0
-3497 13 0
-3497 143 0
-3497 195 0
-13 -143 -195 3497 0
-3498 14 0
-3498 144 0
-3498 196 0
-14 -144 -196 3498 0
-3499 15 0
-3499 145 0
-3499 197 0
-15 -145 -197 3499 0
-3500 16 0
-3500 146 0
-3500 198 0
-16 -146 -198 3500 0
-3501 17 0
-3501 147 0
-3501 199 0
-17 -147 -199 3501 0
-3502 18 0
-3502 148 0
-3502 200 0
-18 -148 -200 3502 0
-3503 19 0
-3503 149 0
-3503 201 0
-19 -149 -201 3503 0
-3504 20 0
-3504 150 0
-3504 202 0
-20 -150 -202 3504 0
-3505 21 0
-3505 151 0
-3505 203 0
-21 -151 -203 3505 0
-3506 22 0
-3506 152 0
-3506 204 0
-22 -152 -204 3506 0
-3507 23 0
-3507 153 0
-3507 205 0
-23 -153 -205 3507 0
-3508 24 0
-3508 154 0
-3508 206 0
-24 -154 -206 3508 0
-3509 25 0
-3509 155 0
-3509 207 0
-25 -155 -207 3509 0
-3510 26 0
-3510 156 0
-3510 208 0
-26 -156 -208 3510 0
-3485 9946 0
-3486 9946 0
-3487 9946 0
-3488 9946 0
-3489 9946 0
-3490 9946 0
-3491 9946 0
-3492 9946 0
-3493 9946 0
-3494 9946 0
-3495 9946 0
-3496 9946 0
-3497 9946 0
-3498 9946 0
-3499 9946 0
-3500 9946 0
-3501 9946 0
-3502 9946 0
-3503 9946 0
-3504 9946 0
-3505 9946 0
-3506 9946 0
-3507 9946 0
-3508 9946 0
-3509 9946 0
-3510 9946 0
-9946 3485 3486 3487 3488 3489 3490 3491 3492 3493 3494 3495 3496 3497 3498 3499 3500 3501 3502 3503 3504 3505 3506 3507 3508 3509 3510 0
-3511 1 0
-3511 131 0
-3511 209 0
-1 -131 -209 3511 0
-3512 2 0
-3512 132 0
-3512 210 0
-2 -132 -210 3512 0
-3513 3 0
-3513 133 0
-3513 211 0
-3 -133 -211 3513 0
-3514 4 0
-3514 134 0
-3514 212 0
-4 -134 -212 3514 0
-3515 5 0
-3515 135 0
-3515 213 0
-5 -135 -213 3515 0
-3516 6 0
-3516 136 0
-3516 214 0
-6 -136 -214 3516 0
-3517 7 0
-3517 137 0
-3517 215 0
-7 -137 -215 3517 0
-3518 8 0
-3518 138 0
-3518 216 0
-8 -138 -216 3518 0
-3519 9 0
-3519 139 0
-3519 217 0
-9 -139 -217 3519 0
-3520 10 0
-3520 140 0
-3520 218 0
-10 -140 -218 3520 0
-3521 11 0
-3521 141 0
-3521 219 0
-11 -141 -219 3521 0
-3522 12 0
-3522 142 0
-3522 220 0
-12 -142 -220 3522 0
-3523 13 0
-3523 143 0
-3523 221 0
-13 -143 -221 3523 0
-3524 14 0
-3524 144 0
-3524 222 0
-14 -144 -222 3524 0
-3525 15 0
-3525 145 0
-3525 223 0
-15 -145 -223 3525 0
-3526 16 0
-3526 146 0
-3526 224 0
-16 -146 -224 3526 0
-3527 17 0
-3527 147 0
-3527 225 0
-17 -147 -225 3527 0
-3528 18 0
-3528 148 0
-3528 226 0
-18 -148 -226 3528 0
-3529 19 0
-3529 149 0
-3529 227 0
-19 -149 -227 3529 0
-3530 20 0
-3530 150 0
-3530 228 0
-20 -150 -228 3530 0
-3531 21 0
-3531 151 0
-3531 229 0
-21 -151 -229 3531 0
-3532 22 0
-3532 152 0
-3532 230 0
-22 -152 -230 3532 0
-3533 23 0
-3533 153 0
-3533 231 0
-23 -153 -231 3533 0
-3534 24 0
-3534 154 0
-3534 232 0
-24 -154 -232 3534 0
-3535 25 0
-3535 155 0
-3535 233 0
-25 -155 -233 3535 0
-3536 26 0
-3536 156 0
-3536 234 0
-26 -156 -234 3536 0
-3511 9947 0
-3512 9947 0
-3513 9947 0
-3514 9947 0
-3515 9947 0
-3516 9947 0
-3517 9947 0
-3518 9947 0
-3519 9947 0
-3520 9947 0
-3521 9947 0
-3522 9947 0
-3523 9947 0
-3524 9947 0
-3525 9947 0
-3526 9947 0
-3527 9947 0
-3528 9947 0
-3529 9947 0
-3530 9947 0
-3531 9947 0
-3532 9947 0
-3533 9947 0
-3534 9947 0
-3535 9947 0
-3536 9947 0
-9947 3511 3512 3513 3514 3515 3516 3517 3518 3519 3520 3521 3522 3523 3524 3525 3526 3527 3528 3529 3530 3531 3532 3533 3534 3535 3536 0
-3537 1 0
-3537 131 0
-3537 235 0
-1 -131 -235 3537 0
-3538 2 0
-3538 132 0
-3538 236 0
-2 -132 -236 3538 0
-3539 3 0
-3539 133 0
-3539 237 0
-3 -133 -237 3539 0
-3540 4 0
-3540 134 0
-3540 238 0
-4 -134 -238 3540 0
-3541 5 0
-3541 135 0
-3541 239 0
-5 -135 -239 3541 0
-3542 6 0
-3542 136 0
-3542 240 0
-6 -136 -240 3542 0
-3543 7 0
-3543 137 0
-3543 241 0
-7 -137 -241 3543 0
-3544 8 0
-3544 138 0
-3544 242 0
-8 -138 -242 3544 0
-3545 9 0
-3545 139 0
-3545 243 0
-9 -139 -243 3545 0
-3546 10 0
-3546 140 0
-3546 244 0
-10 -140 -244 3546 0
-3547 11 0
-3547 141 0
-3547 245 0
-11 -141 -245 3547 0
-3548 12 0
-3548 142 0
-3548 246 0
-12 -142 -246 3548 0
-3549 13 0
-3549 143 0
-3549 247 0
-13 -143 -247 3549 0
-3550 14 0
-3550 144 0
-3550 248 0
-14 -144 -248 3550 0
-3551 15 0
-3551 145 0
-3551 249 0
-15 -145 -249 3551 0
-3552 16 0
-3552 146 0
-3552 250 0
-16 -146 -250 3552 0
-3553 17 0
-3553 147 0
-3553 251 0
-17 -147 -251 3553 0
-3554 18 0
-3554 148 0
-3554 252 0
-18 -148 -252 3554 0
-3555 19 0
-3555 149 0
-3555 253 0
-19 -149 -253 3555 0
-3556 20 0
-3556 150 0
-3556 254 0
-20 -150 -254 3556 0
-3557 21 0
-3557 151 0
-3557 255 0
-21 -151 -255 3557 0
-3558 22 0
-3558 152 0
-3558 256 0
-22 -152 -256 3558 0
-3559 23 0
-3559 153 0
-3559 257 0
-23 -153 -257 3559 0
-3560 24 0
-3560 154 0
-3560 258 0
-24 -154 -258 3560 0
-3561 25 0
-3561 155 0
-3561 259 0
-25 -155 -259 3561 0
-3562 26 0
-3562 156 0
-3562 260 0
-26 -156 -260 3562 0
-3537 9948 0
-3538 9948 0
-3539 9948 0
-3540 9948 0
-3541 9948 0
-3542 9948 0
-3543 9948 0
-3544 9948 0
-3545 9948 0
-3546 9948 0
-3547 9948 0
-3548 9948 0
-3549 9948 0
-3550 9948 0
-3551 9948 0
-3552 9948 0
-3553 9948 0
-3554 9948 0
-3555 9948 0
-3556 9948 0
-3557 9948 0
-3558 9948 0
-3559 9948 0
-3560 9948 0
-3561 9948 0
-3562 9948 0
-9948 3537 3538 3539 3540 3541 3542 3543 3544 3545 3546 3547 3548 3549 3550 3551 3552 3553 3554 3555 3556 3557 3558 3559 3560 3561 3562 0
-3563 1 0
-3563 131 0
-3563 261 0
-1 -131 -261 3563 0
-3564 2 0
-3564 132 0
-3564 262 0
-2 -132 -262 3564 0
-3565 3 0
-3565 133 0
-3565 263 0
-3 -133 -263 3565 0
-3566 4 0
-3566 134 0
-3566 264 0
-4 -134 -264 3566 0
-3567 5 0
-3567 135 0
-3567 265 0
-5 -135 -265 3567 0
-3568 6 0
-3568 136 0
-3568 266 0
-6 -136 -266 3568 0
-3569 7 0
-3569 137 0
-3569 267 0
-7 -137 -267 3569 0
-3570 8 0
-3570 138 0
-3570 268 0
-8 -138 -268 3570 0
-3571 9 0
-3571 139 0
-3571 269 0
-9 -139 -269 3571 0
-3572 10 0
-3572 140 0
-3572 270 0
-10 -140 -270 3572 0
-3573 11 0
-3573 141 0
-3573 271 0
-11 -141 -271 3573 0
-3574 12 0
-3574 142 0
-3574 272 0
-12 -142 -272 3574 0
-3575 13 0
-3575 143 0
-3575 273 0
-13 -143 -273 3575 0
-3576 14 0
-3576 144 0
-3576 274 0
-14 -144 -274 3576 0
-3577 15 0
-3577 145 0
-3577 275 0
-15 -145 -275 3577 0
-3578 16 0
-3578 146 0
-3578 276 0
-16 -146 -276 3578 0
-3579 17 0
-3579 147 0
-3579 277 0
-17 -147 -277 3579 0
-3580 18 0
-3580 148 0
-3580 278 0
-18 -148 -278 3580 0
-3581 19 0
-3581 149 0
-3581 279 0
-19 -149 -279 3581 0
-3582 20 0
-3582 150 0
-3582 280 0
-20 -150 -280 3582 0
-3583 21 0
-3583 151 0
-3583 281 0
-21 -151 -281 3583 0
-3584 22 0
-3584 152 0
-3584 282 0
-22 -152 -282 3584 0
-3585 23 0
-3585 153 0
-3585 283 0
-23 -153 -283 3585 0
-3586 24 0
-3586 154 0
-3586 284 0
-24 -154 -284 3586 0
-3587 25 0
-3587 155 0
-3587 285 0
-25 -155 -285 3587 0
-3588 26 0
-3588 156 0
-3588 286 0
-26 -156 -286 3588 0
-3563 9949 0
-3564 9949 0
-3565 9949 0
-3566 9949 0
-3567 9949 0
-3568 9949 0
-3569 9949 0
-3570 9949 0
-3571 9949 0
-3572 9949 0
-3573 9949 0
-3574 9949 0
-3575 9949 0
-3576 9949 0
-3577 9949 0
-3578 9949 0
-3579 9949 0
-3580 9949 0
-3581 9949 0
-3582 9949 0
-3583 9949 0
-3584 9949 0
-3585 9949 0
-3586 9949 0
-3587 9949 0
-3588 9949 0
-9949 3563 3564 3565 3566 3567 3568 3569 3570 3571 3572 3573 3574 3575 3576 3577 3578 3579 3580 3581 3582 3583 3584 3585 3586 3587 3588 0
-3589 1 0
-3589 131 0
-3589 287 0
-1 -131 -287 3589 0
-3590 2 0
-3590 132 0
-3590 288 0
-2 -132 -288 3590 0
-3591 3 0
-3591 133 0
-3591 289 0
-3 -133 -289 3591 0
-3592 4 0
-3592 134 0
-3592 290 0
-4 -134 -290 3592 0
-3593 5 0
-3593 135 0
-3593 291 0
-5 -135 -291 3593 0
-3594 6 0
-3594 136 0
-3594 292 0
-6 -136 -292 3594 0
-3595 7 0
-3595 137 0
-3595 293 0
-7 -137 -293 3595 0
-3596 8 0
-3596 138 0
-3596 294 0
-8 -138 -294 3596 0
-3597 9 0
-3597 139 0
-3597 295 0
-9 -139 -295 3597 0
-3598 10 0
-3598 140 0
-3598 296 0
-10 -140 -296 3598 0
-3599 11 0
-3599 141 0
-3599 297 0
-11 -141 -297 3599 0
-3600 12 0
-3600 142 0
-3600 298 0
-12 -142 -298 3600 0
-3601 13 0
-3601 143 0
-3601 299 0
-13 -143 -299 3601 0
-3602 14 0
-3602 144 0
-3602 300 0
-14 -144 -300 3602 0
-3603 15 0
-3603 145 0
-3603 301 0
-15 -145 -301 3603 0
-3604 16 0
-3604 146 0
-3604 302 0
-16 -146 -302 3604 0
-3605 17 0
-3605 147 0
-3605 303 0
-17 -147 -303 3605 0
-3606 18 0
-3606 148 0
-3606 304 0
-18 -148 -304 3606 0
-3607 19 0
-3607 149 0
-3607 305 0
-19 -149 -305 3607 0
-3608 20 0
-3608 150 0
-3608 306 0
-20 -150 -306 3608 0
-3609 21 0
-3609 151 0
-3609 307 0
-21 -151 -307 3609 0
-3610 22 0
-3610 152 0
-3610 308 0
-22 -152 -308 3610 0
-3611 23 0
-3611 153 0
-3611 309 0
-23 -153 -309 3611 0
-3612 24 0
-3612 154 0
-3612 310 0
-24 -154 -310 3612 0
-3613 25 0
-3613 155 0
-3613 311 0
-25 -155 -311 3613 0
-3614 26 0
-3614 156 0
-3614 312 0
-26 -156 -312 3614 0
-3589 9950 0
-3590 9950 0
-3591 9950 0
-3592 9950 0
-3593 9950 0
-3594 9950 0
-3595 9950 0
-3596 9950 0
-3597 9950 0
-3598 9950 0
-3599 9950 0
-3600 9950 0
-3601 9950 0
-3602 9950 0
-3603 9950 0
-3604 9950 0
-3605 9950 0
-3606 9950 0
-3607 9950 0
-3608 9950 0
-3609 9950 0
-3610 9950 0
-3611 9950 0
-3612 9950 0
-3613 9950 0
-3614 9950 0
-9950 3589 3590 3591 3592 3593 3594 3595 3596 3597 3598 3599 3600 3601 3602 3603 3604 3605 3606 3607 3608 3609 3610 3611 3612 3613 3614 0
-3615 1 0
-3615 131 0
-3615 313 0
-1 -131 -313 3615 0
-3616 2 0
-3616 132 0
-3616 314 0
-2 -132 -314 3616 0
-3617 3 0
-3617 133 0
-3617 315 0
-3 -133 -315 3617 0
-3618 4 0
-3618 134 0
-3618 316 0
-4 -134 -316 3618 0
-3619 5 0
-3619 135 0
-3619 317 0
-5 -135 -317 3619 0
-3620 6 0
-3620 136 0
-3620 318 0
-6 -136 -318 3620 0
-3621 7 0
-3621 137 0
-3621 319 0
-7 -137 -319 3621 0
-3622 8 0
-3622 138 0
-3622 320 0
-8 -138 -320 3622 0
-3623 9 0
-3623 139 0
-3623 321 0
-9 -139 -321 3623 0
-3624 10 0
-3624 140 0
-3624 322 0
-10 -140 -322 3624 0
-3625 11 0
-3625 141 0
-3625 323 0
-11 -141 -323 3625 0
-3626 12 0
-3626 142 0
-3626 324 0
-12 -142 -324 3626 0
-3627 13 0
-3627 143 0
-3627 325 0
-13 -143 -325 3627 0
-3628 14 0
-3628 144 0
-3628 326 0
-14 -144 -326 3628 0
-3629 15 0
-3629 145 0
-3629 327 0
-15 -145 -327 3629 0
-3630 16 0
-3630 146 0
-3630 328 0
-16 -146 -328 3630 0
-3631 17 0
-3631 147 0
-3631 329 0
-17 -147 -329 3631 0
-3632 18 0
-3632 148 0
-3632 330 0
-18 -148 -330 3632 0
-3633 19 0
-3633 149 0
-3633 331 0
-19 -149 -331 3633 0
-3634 20 0
-3634 150 0
-3634 332 0
-20 -150 -332 3634 0
-3635 21 0
-3635 151 0
-3635 333 0
-21 -151 -333 3635 0
-3636 22 0
-3636 152 0
-3636 334 0
-22 -152 -334 3636 0
-3637 23 0
-3637 153 0
-3637 335 0
-23 -153 -335 3637 0
-3638 24 0
-3638 154 0
-3638 336 0
-24 -154 -336 3638 0
-3639 25 0
-3639 155 0
-3639 337 0
-25 -155 -337 3639 0
-3640 26 0
-3640 156 0
-3640 338 0
-26 -156 -338 3640 0
-3615 9951 0
-3616 9951 0
-3617 9951 0
-3618 9951 0
-3619 9951 0
-3620 9951 0
-3621 9951 0
-3622 9951 0
-3623 9951 0
-3624 9951 0
-3625 9951 0
-3626 9951 0
-3627 9951 0
-3628 9951 0
-3629 9951 0
-3630 9951 0
-3631 9951 0
-3632 9951 0
-3633 9951 0
-3634 9951 0
-3635 9951 0
-3636 9951 0
-3637 9951 0
-3638 9951 0
-3639 9951 0
-3640 9951 0
-9951 3615 3616 3617 3618 3619 3620 3621 3622 3623 3624 3625 3626 3627 3628 3629 3630 3631 3632 3633 3634 3635 3636 3637 3638 3639 3640 0
-3641 1 0
-3641 157 0
-3641 183 0
-1 -157 -183 3641 0
-3642 2 0
-3642 158 0
-3642 184 0
-2 -158 -184 3642 0
-3643 3 0
-3643 159 0
-3643 185 0
-3 -159 -185 3643 0
-3644 4 0
-3644 160 0
-3644 186 0
-4 -160 -186 3644 0
-3645 5 0
-3645 161 0
-3645 187 0
-5 -161 -187 3645 0
-3646 6 0
-3646 162 0
-3646 188 0
-6 -162 -188 3646 0
-3647 7 0
-3647 163 0
-3647 189 0
-7 -163 -189 3647 0
-3648 8 0
-3648 164 0
-3648 190 0
-8 -164 -190 3648 0
-3649 9 0
-3649 165 0
-3649 191 0
-9 -165 -191 3649 0
-3650 10 0
-3650 166 0
-3650 192 0
-10 -166 -192 3650 0
-3651 11 0
-3651 167 0
-3651 193 0
-11 -167 -193 3651 0
-3652 12 0
-3652 168 0
-3652 194 0
-12 -168 -194 3652 0
-3653 13 0
-3653 169 0
-3653 195 0
-13 -169 -195 3653 0
-3654 14 0
-3654 170 0
-3654 196 0
-14 -170 -196 3654 0
-3655 15 0
-3655 171 0
-3655 197 0
-15 -171 -197 3655 0
-3656 16 0
-3656 172 0
-3656 198 0
-16 -172 -198 3656 0
-3657 17 0
-3657 173 0
-3657 199 0
-17 -173 -199 3657 0
-3658 18 0
-3658 174 0
-3658 200 0
-18 -174 -200 3658 0
-3659 19 0
-3659 175 0
-3659 201 0
-19 -175 -201 3659 0
-3660 20 0
-3660 176 0
-3660 202 0
-20 -176 -202 3660 0
-3661 21 0
-3661 177 0
-3661 203 0
-21 -177 -203 3661 0
-3662 22 0
-3662 178 0
-3662 204 0
-22 -178 -204 3662 0
-3663 23 0
-3663 179 0
-3663 205 0
-23 -179 -205 3663 0
-3664 24 0
-3664 180 0
-3664 206 0
-24 -180 -206 3664 0
-3665 25 0
-3665 181 0
-3665 207 0
-25 -181 -207 3665 0
-3666 26 0
-3666 182 0
-3666 208 0
-26 -182 -208 3666 0
-3641 9952 0
-3642 9952 0
-3643 9952 0
-3644 9952 0
-3645 9952 0
-3646 9952 0
-3647 9952 0
-3648 9952 0
-3649 9952 0
-3650 9952 0
-3651 9952 0
-3652 9952 0
-3653 9952 0
-3654 9952 0
-3655 9952 0
-3656 9952 0
-3657 9952 0
-3658 9952 0
-3659 9952 0
-3660 9952 0
-3661 9952 0
-3662 9952 0
-3663 9952 0
-3664 9952 0
-3665 9952 0
-3666 9952 0
-9952 3641 3642 3643 3644 3645 3646 3647 3648 3649 3650 3651 3652 3653 3654 3655 3656 3657 3658 3659 3660 3661 3662 3663 3664 3665 3666 0
-3667 1 0
-3667 157 0
-3667 209 0
-1 -157 -209 3667 0
-3668 2 0
-3668 158 0
-3668 210 0
-2 -158 -210 3668 0
-3669 3 0
-3669 159 0
-3669 211 0
-3 -159 -211 3669 0
-3670 4 0
-3670 160 0
-3670 212 0
-4 -160 -212 3670 0
-3671 5 0
-3671 161 0
-3671 213 0
-5 -161 -213 3671 0
-3672 6 0
-3672 162 0
-3672 214 0
-6 -162 -214 3672 0
-3673 7 0
-3673 163 0
-3673 215 0
-7 -163 -215 3673 0
-3674 8 0
-3674 164 0
-3674 216 0
-8 -164 -216 3674 0
-3675 9 0
-3675 165 0
-3675 217 0
-9 -165 -217 3675 0
-3676 10 0
-3676 166 0
-3676 218 0
-10 -166 -218 3676 0
-3677 11 0
-3677 167 0
-3677 219 0
-11 -167 -219 3677 0
-3678 12 0
-3678 168 0
-3678 220 0
-12 -168 -220 3678 0
-3679 13 0
-3679 169 0
-3679 221 0
-13 -169 -221 3679 0
-3680 14 0
-3680 170 0
-3680 222 0
-14 -170 -222 3680 0
-3681 15 0
-3681 171 0
-3681 223 0
-15 -171 -223 3681 0
-3682 16 0
-3682 172 0
-3682 224 0
-16 -172 -224 3682 0
-3683 17 0
-3683 173 0
-3683 225 0
-17 -173 -225 3683 0
-3684 18 0
-3684 174 0
-3684 226 0
-18 -174 -226 3684 0
-3685 19 0
-3685 175 0
-3685 227 0
-19 -175 -227 3685 0
-3686 20 0
-3686 176 0
-3686 228 0
-20 -176 -228 3686 0
-3687 21 0
-3687 177 0
-3687 229 0
-21 -177 -229 3687 0
-3688 22 0
-3688 178 0
-3688 230 0
-22 -178 -230 3688 0
-3689 23 0
-3689 179 0
-3689 231 0
-23 -179 -231 3689 0
-3690 24 0
-3690 180 0
-3690 232 0
-24 -180 -232 3690 0
-3691 25 0
-3691 181 0
-3691 233 0
-25 -181 -233 3691 0
-3692 26 0
-3692 182 0
-3692 234 0
-26 -182 -234 3692 0
-3667 9953 0
-3668 9953 0
-3669 9953 0
-3670 9953 0
-3671 9953 0
-3672 9953 0
-3673 9953 0
-3674 9953 0
-3675 9953 0
-3676 9953 0
-3677 9953 0
-3678 9953 0
-3679 9953 0
-3680 9953 0
-3681 9953 0
-3682 9953 0
-3683 9953 0
-3684 9953 0
-3685 9953 0
-3686 9953 0
-3687 9953 0
-3688 9953 0
-3689 9953 0
-3690 9953 0
-3691 9953 0
-3692 9953 0
-9953 3667 3668 3669 3670 3671 3672 3673 3674 3675 3676 3677 3678 3679 3680 3681 3682 3683 3684 3685 3686 3687 3688 3689 3690 3691 3692 0
-3693 1 0
-3693 157 0
-3693 235 0
-1 -157 -235 3693 0
-3694 2 0
-3694 158 0
-3694 236 0
-2 -158 -236 3694 0
-3695 3 0
-3695 159 0
-3695 237 0
-3 -159 -237 3695 0
-3696 4 0
-3696 160 0
-3696 238 0
-4 -160 -238 3696 0
-3697 5 0
-3697 161 0
-3697 239 0
-5 -161 -239 3697 0
-3698 6 0
-3698 162 0
-3698 240 0
-6 -162 -240 3698 0
-3699 7 0
-3699 163 0
-3699 241 0
-7 -163 -241 3699 0
-3700 8 0
-3700 164 0
-3700 242 0
-8 -164 -242 3700 0
-3701 9 0
-3701 165 0
-3701 243 0
-9 -165 -243 3701 0
-3702 10 0
-3702 166 0
-3702 244 0
-10 -166 -244 3702 0
-3703 11 0
-3703 167 0
-3703 245 0
-11 -167 -245 3703 0
-3704 12 0
-3704 168 0
-3704 246 0
-12 -168 -246 3704 0
-3705 13 0
-3705 169 0
-3705 247 0
-13 -169 -247 3705 0
-3706 14 0
-3706 170 0
-3706 248 0
-14 -170 -248 3706 0
-3707 15 0
-3707 171 0
-3707 249 0
-15 -171 -249 3707 0
-3708 16 0
-3708 172 0
-3708 250 0
-16 -172 -250 3708 0
-3709 17 0
-3709 173 0
-3709 251 0
-17 -173 -251 3709 0
-3710 18 0
-3710 174 0
-3710 252 0
-18 -174 -252 3710 0
-3711 19 0
-3711 175 0
-3711 253 0
-19 -175 -253 3711 0
-3712 20 0
-3712 176 0
-3712 254 0
-20 -176 -254 3712 0
-3713 21 0
-3713 177 0
-3713 255 0
-21 -177 -255 3713 0
-3714 22 0
-3714 178 0
-3714 256 0
-22 -178 -256 3714 0
-3715 23 0
-3715 179 0
-3715 257 0
-23 -179 -257 3715 0
-3716 24 0
-3716 180 0
-3716 258 0
-24 -180 -258 3716 0
-3717 25 0
-3717 181 0
-3717 259 0
-25 -181 -259 3717 0
-3718 26 0
-3718 182 0
-3718 260 0
-26 -182 -260 3718 0
-3693 9954 0
-3694 9954 0
-3695 9954 0
-3696 9954 0
-3697 9954 0
-3698 9954 0
-3699 9954 0
-3700 9954 0
-3701 9954 0
-3702 9954 0
-3703 9954 0
-3704 9954 0
-3705 9954 0
-3706 9954 0
-3707 9954 0
-3708 9954 0
-3709 9954 0
-3710 9954 0
-3711 9954 0
-3712 9954 0
-3713 9954 0
-3714 9954 0
-3715 9954 0
-3716 9954 0
-3717 9954 0
-3718 9954 0
-9954 3693 3694 3695 3696 3697 3698 3699 3700 3701 3702 3703 3704 3705 3706 3707 3708 3709 3710 3711 3712 3713 3714 3715 3716 3717 3718 0
-3719 1 0
-3719 157 0
-3719 261 0
-1 -157 -261 3719 0
-3720 2 0
-3720 158 0
-3720 262 0
-2 -158 -262 3720 0
-3721 3 0
-3721 159 0
-3721 263 0
-3 -159 -263 3721 0
-3722 4 0
-3722 160 0
-3722 264 0
-4 -160 -264 3722 0
-3723 5 0
-3723 161 0
-3723 265 0
-5 -161 -265 3723 0
-3724 6 0
-3724 162 0
-3724 266 0
-6 -162 -266 3724 0
-3725 7 0
-3725 163 0
-3725 267 0
-7 -163 -267 3725 0
-3726 8 0
-3726 164 0
-3726 268 0
-8 -164 -268 3726 0
-3727 9 0
-3727 165 0
-3727 269 0
-9 -165 -269 3727 0
-3728 10 0
-3728 166 0
-3728 270 0
-10 -166 -270 3728 0
-3729 11 0
-3729 167 0
-3729 271 0
-11 -167 -271 3729 0
-3730 12 0
-3730 168 0
-3730 272 0
-12 -168 -272 3730 0
-3731 13 0
-3731 169 0
-3731 273 0
-13 -169 -273 3731 0
-3732 14 0
-3732 170 0
-3732 274 0
-14 -170 -274 3732 0
-3733 15 0
-3733 171 0
-3733 275 0
-15 -171 -275 3733 0
-3734 16 0
-3734 172 0
-3734 276 0
-16 -172 -276 3734 0
-3735 17 0
-3735 173 0
-3735 277 0
-17 -173 -277 3735 0
-3736 18 0
-3736 174 0
-3736 278 0
-18 -174 -278 3736 0
-3737 19 0
-3737 175 0
-3737 279 0
-19 -175 -279 3737 0
-3738 20 0
-3738 176 0
-3738 280 0
-20 -176 -280 3738 0
-3739 21 0
-3739 177 0
-3739 281 0
-21 -177 -281 3739 0
-3740 22 0
-3740 178 0
-3740 282 0
-22 -178 -282 3740 0
-3741 23 0
-3741 179 0
-3741 283 0
-23 -179 -283 3741 0
-3742 24 0
-3742 180 0
-3742 284 0
-24 -180 -284 3742 0
-3743 25 0
-3743 181 0
-3743 285 0
-25 -181 -285 3743 0
-3744 26 0
-3744 182 0
-3744 286 0
-26 -182 -286 3744 0
-3719 9955 0
-3720 9955 0
-3721 9955 0
-3722 9955 0
-3723 9955 0
-3724 9955 0
-3725 9955 0
-3726 9955 0
-3727 9955 0
-3728 9955 0
-3729 9955 0
-3730 9955 0
-3731 9955 0
-3732 9955 0
-3733 9955 0
-3734 9955 0
-3735 9955 0
-3736 9955 0
-3737 9955 0
-3738 9955 0
-3739 9955 0
-3740 9955 0
-3741 9955 0
-3742 9955 0
-3743 9955 0
-3744 9955 0
-9955 3719 3720 3721 3722 3723 3724 3725 3726 3727 3728 3729 3730 3731 3732 3733 3734 3735 3736 3737 3738 3739 3740 3741 3742 3743 3744 0
-3745 1 0
-3745 157 0
-3745 287 0
-1 -157 -287 3745 0
-3746 2 0
-3746 158 0
-3746 288 0
-2 -158 -288 3746 0
-3747 3 0
-3747 159 0
-3747 289 0
-3 -159 -289 3747 0
-3748 4 0
-3748 160 0
-3748 290 0
-4 -160 -290 3748 0
-3749 5 0
-3749 161 0
-3749 291 0
-5 -161 -291 3749 0
-3750 6 0
-3750 162 0
-3750 292 0
-6 -162 -292 3750 0
-3751 7 0
-3751 163 0
-3751 293 0
-7 -163 -293 3751 0
-3752 8 0
-3752 164 0
-3752 294 0
-8 -164 -294 3752 0
-3753 9 0
-3753 165 0
-3753 295 0
-9 -165 -295 3753 0
-3754 10 0
-3754 166 0
-3754 296 0
-10 -166 -296 3754 0
-3755 11 0
-3755 167 0
-3755 297 0
-11 -167 -297 3755 0
-3756 12 0
-3756 168 0
-3756 298 0
-12 -168 -298 3756 0
-3757 13 0
-3757 169 0
-3757 299 0
-13 -169 -299 3757 0
-3758 14 0
-3758 170 0
-3758 300 0
-14 -170 -300 3758 0
-3759 15 0
-3759 171 0
-3759 301 0
-15 -171 -301 3759 0
-3760 16 0
-3760 172 0
-3760 302 0
-16 -172 -302 3760 0
-3761 17 0
-3761 173 0
-3761 303 0
-17 -173 -303 3761 0
-3762 18 0
-3762 174 0
-3762 304 0
-18 -174 -304 3762 0
-3763 19 0
-3763 175 0
-3763 305 0
-19 -175 -305 3763 0
-3764 20 0
-3764 176 0
-3764 306 0
-20 -176 -306 3764 0
-3765 21 0
-3765 177 0
-3765 307 0
-21 -177 -307 3765 0
-3766 22 0
-3766 178 0
-3766 308 0
-22 -178 -308 3766 0
-3767 23 0
-3767 179 0
-3767 309 0
-23 -179 -309 3767 0
-3768 24 0
-3768 180 0
-3768 310 0
-24 -180 -310 3768 0
-3769 25 0
-3769 181 0
-3769 311 0
-25 -181 -311 3769 0
-3770 26 0
-3770 182 0
-3770 312 0
-26 -182 -312 3770 0
-3745 9956 0
-3746 9956 0
-3747 9956 0
-3748 9956 0
-3749 9956 0
-3750 9956 0
-3751 9956 0
-3752 9956 0
-3753 9956 0
-3754 9956 0
-3755 9956 0
-3756 9956 0
-3757 9956 0
-3758 9956 0
-3759 9956 0
-3760 9956 0
-3761 9956 0
-3762 9956 0
-3763 9956 0
-3764 9956 0
-3765 9956 0
-3766 9956 0
-3767 9956 0
-3768 9956 0
-3769 9956 0
-3770 9956 0
-9956 3745 3746 3747 3748 3749 3750 3751 3752 3753 3754 3755 3756 3757 3758 3759 3760 3761 3762 3763 3764 3765 3766 3767 3768 3769 3770 0
-3771 1 0
-3771 157 0
-3771 313 0
-1 -157 -313 3771 0
-3772 2 0
-3772 158 0
-3772 314 0
-2 -158 -314 3772 0
-3773 3 0
-3773 159 0
-3773 315 0
-3 -159 -315 3773 0
-3774 4 0
-3774 160 0
-3774 316 0
-4 -160 -316 3774 0
-3775 5 0
-3775 161 0
-3775 317 0
-5 -161 -317 3775 0
-3776 6 0
-3776 162 0
-3776 318 0
-6 -162 -318 3776 0
-3777 7 0
-3777 163 0
-3777 319 0
-7 -163 -319 3777 0
-3778 8 0
-3778 164 0
-3778 320 0
-8 -164 -320 3778 0
-3779 9 0
-3779 165 0
-3779 321 0
-9 -165 -321 3779 0
-3780 10 0
-3780 166 0
-3780 322 0
-10 -166 -322 3780 0
-3781 11 0
-3781 167 0
-3781 323 0
-11 -167 -323 3781 0
-3782 12 0
-3782 168 0
-3782 324 0
-12 -168 -324 3782 0
-3783 13 0
-3783 169 0
-3783 325 0
-13 -169 -325 3783 0
-3784 14 0
-3784 170 0
-3784 326 0
-14 -170 -326 3784 0
-3785 15 0
-3785 171 0
-3785 327 0
-15 -171 -327 3785 0
-3786 16 0
-3786 172 0
-3786 328 0
-16 -172 -328 3786 0
-3787 17 0
-3787 173 0
-3787 329 0
-17 -173 -329 3787 0
-3788 18 0
-3788 174 0
-3788 330 0
-18 -174 -330 3788 0
-3789 19 0
-3789 175 0
-3789 331 0
-19 -175 -331 3789 0
-3790 20 0
-3790 176 0
-3790 332 0
-20 -176 -332 3790 0
-3791 21 0
-3791 177 0
-3791 333 0
-21 -177 -333 3791 0
-3792 22 0
-3792 178 0
-3792 334 0
-22 -178 -334 3792 0
-3793 23 0
-3793 179 0
-3793 335 0
-23 -179 -335 3793 0
-3794 24 0
-3794 180 0
-3794 336 0
-24 -180 -336 3794 0
-3795 25 0
-3795 181 0
-3795 337 0
-25 -181 -337 3795 0
-3796 26 0
-3796 182 0
-3796 338 0
-26 -182 -338 3796 0
-3771 9957 0
-3772 9957 0
-3773 9957 0
-3774 9957 0
-3775 9957 0
-3776 9957 0
-3777 9957 0
-3778 9957 0
-3779 9957 0
-3780 9957 0
-3781 9957 0
-3782 9957 0
-3783 9957 0
-3784 9957 0
-3785 9957 0
-3786 9957 0
-3787 9957 0
-3788 9957 0
-3789 9957 0
-3790 9957 0
-3791 9957 0
-3792 9957 0
-3793 9957 0
-3794 9957 0
-3795 9957 0
-3796 9957 0
-9957 3771 3772 3773 3774 3775 3776 3777 3778 3779 3780 3781 3782 3783 3784 3785 3786 3787 3788 3789 3790 3791 3792 3793 3794 3795 3796 0
-3797 1 0
-3797 183 0
-3797 209 0
-1 -183 -209 3797 0
-3798 2 0
-3798 184 0
-3798 210 0
-2 -184 -210 3798 0
-3799 3 0
-3799 185 0
-3799 211 0
-3 -185 -211 3799 0
-3800 4 0
-3800 186 0
-3800 212 0
-4 -186 -212 3800 0
-3801 5 0
-3801 187 0
-3801 213 0
-5 -187 -213 3801 0
-3802 6 0
-3802 188 0
-3802 214 0
-6 -188 -214 3802 0
-3803 7 0
-3803 189 0
-3803 215 0
-7 -189 -215 3803 0
-3804 8 0
-3804 190 0
-3804 216 0
-8 -190 -216 3804 0
-3805 9 0
-3805 191 0
-3805 217 0
-9 -191 -217 3805 0
-3806 10 0
-3806 192 0
-3806 218 0
-10 -192 -218 3806 0
-3807 11 0
-3807 193 0
-3807 219 0
-11 -193 -219 3807 0
-3808 12 0
-3808 194 0
-3808 220 0
-12 -194 -220 3808 0
-3809 13 0
-3809 195 0
-3809 221 0
-13 -195 -221 3809 0
-3810 14 0
-3810 196 0
-3810 222 0
-14 -196 -222 3810 0
-3811 15 0
-3811 197 0
-3811 223 0
-15 -197 -223 3811 0
-3812 16 0
-3812 198 0
-3812 224 0
-16 -198 -224 3812 0
-3813 17 0
-3813 199 0
-3813 225 0
-17 -199 -225 3813 0
-3814 18 0
-3814 200 0
-3814 226 0
-18 -200 -226 3814 0
-3815 19 0
-3815 201 0
-3815 227 0
-19 -201 -227 3815 0
-3816 20 0
-3816 202 0
-3816 228 0
-20 -202 -228 3816 0
-3817 21 0
-3817 203 0
-3817 229 0
-21 -203 -229 3817 0
-3818 22 0
-3818 204 0
-3818 230 0
-22 -204 -230 3818 0
-3819 23 0
-3819 205 0
-3819 231 0
-23 -205 -231 3819 0
-3820 24 0
-3820 206 0
-3820 232 0
-24 -206 -232 3820 0
-3821 25 0
-3821 207 0
-3821 233 0
-25 -207 -233 3821 0
-3822 26 0
-3822 208 0
-3822 234 0
-26 -208 -234 3822 0
-3797 9958 0
-3798 9958 0
-3799 9958 0
-3800 9958 0
-3801 9958 0
-3802 9958 0
-3803 9958 0
-3804 9958 0
-3805 9958 0
-3806 9958 0
-3807 9958 0
-3808 9958 0
-3809 9958 0
-3810 9958 0
-3811 9958 0
-3812 9958 0
-3813 9958 0
-3814 9958 0
-3815 9958 0
-3816 9958 0
-3817 9958 0
-3818 9958 0
-3819 9958 0
-3820 9958 0
-3821 9958 0
-3822 9958 0
-9958 3797 3798 3799 3800 3801 3802 3803 3804 3805 3806 3807 3808 3809 3810 3811 3812 3813 3814 3815 3816 3817 3818 3819 3820 3821 3822 0
-3823 1 0
-3823 183 0
-3823 235 0
-1 -183 -235 3823 0
-3824 2 0
-3824 184 0
-3824 236 0
-2 -184 -236 3824 0
-3825 3 0
-3825 185 0
-3825 237 0
-3 -185 -237 3825 0
-3826 4 0
-3826 186 0
-3826 238 0
-4 -186 -238 3826 0
-3827 5 0
-3827 187 0
-3827 239 0
-5 -187 -239 3827 0
-3828 6 0
-3828 188 0
-3828 240 0
-6 -188 -240 3828 0
-3829 7 0
-3829 189 0
-3829 241 0
-7 -189 -241 3829 0
-3830 8 0
-3830 190 0
-3830 242 0
-8 -190 -242 3830 0
-3831 9 0
-3831 191 0
-3831 243 0
-9 -191 -243 3831 0
-3832 10 0
-3832 192 0
-3832 244 0
-10 -192 -244 3832 0
-3833 11 0
-3833 193 0
-3833 245 0
-11 -193 -245 3833 0
-3834 12 0
-3834 194 0
-3834 246 0
-12 -194 -246 3834 0
-3835 13 0
-3835 195 0
-3835 247 0
-13 -195 -247 3835 0
-3836 14 0
-3836 196 0
-3836 248 0
-14 -196 -248 3836 0
-3837 15 0
-3837 197 0
-3837 249 0
-15 -197 -249 3837 0
-3838 16 0
-3838 198 0
-3838 250 0
-16 -198 -250 3838 0
-3839 17 0
-3839 199 0
-3839 251 0
-17 -199 -251 3839 0
-3840 18 0
-3840 200 0
-3840 252 0
-18 -200 -252 3840 0
-3841 19 0
-3841 201 0
-3841 253 0
-19 -201 -253 3841 0
-3842 20 0
-3842 202 0
-3842 254 0
-20 -202 -254 3842 0
-3843 21 0
-3843 203 0
-3843 255 0
-21 -203 -255 3843 0
-3844 22 0
-3844 204 0
-3844 256 0
-22 -204 -256 3844 0
-3845 23 0
-3845 205 0
-3845 257 0
-23 -205 -257 3845 0
-3846 24 0
-3846 206 0
-3846 258 0
-24 -206 -258 3846 0
-3847 25 0
-3847 207 0
-3847 259 0
-25 -207 -259 3847 0
-3848 26 0
-3848 208 0
-3848 260 0
-26 -208 -260 3848 0
-3823 9959 0
-3824 9959 0
-3825 9959 0
-3826 9959 0
-3827 9959 0
-3828 9959 0
-3829 9959 0
-3830 9959 0
-3831 9959 0
-3832 9959 0
-3833 9959 0
-3834 9959 0
-3835 9959 0
-3836 9959 0
-3837 9959 0
-3838 9959 0
-3839 9959 0
-3840 9959 0
-3841 9959 0
-3842 9959 0
-3843 9959 0
-3844 9959 0
-3845 9959 0
-3846 9959 0
-3847 9959 0
-3848 9959 0
-9959 3823 3824 3825 3826 3827 3828 3829 3830 3831 3832 3833 3834 3835 3836 3837 3838 3839 3840 3841 3842 3843 3844 3845 3846 3847 3848 0
-3849 1 0
-3849 183 0
-3849 261 0
-1 -183 -261 3849 0
-3850 2 0
-3850 184 0
-3850 262 0
-2 -184 -262 3850 0
-3851 3 0
-3851 185 0
-3851 263 0
-3 -185 -263 3851 0
-3852 4 0
-3852 186 0
-3852 264 0
-4 -186 -264 3852 0
-3853 5 0
-3853 187 0
-3853 265 0
-5 -187 -265 3853 0
-3854 6 0
-3854 188 0
-3854 266 0
-6 -188 -266 3854 0
-3855 7 0
-3855 189 0
-3855 267 0
-7 -189 -267 3855 0
-3856 8 0
-3856 190 0
-3856 268 0
-8 -190 -268 3856 0
-3857 9 0
-3857 191 0
-3857 269 0
-9 -191 -269 3857 0
-3858 10 0
-3858 192 0
-3858 270 0
-10 -192 -270 3858 0
-3859 11 0
-3859 193 0
-3859 271 0
-11 -193 -271 3859 0
-3860 12 0
-3860 194 0
-3860 272 0
-12 -194 -272 3860 0
-3861 13 0
-3861 195 0
-3861 273 0
-13 -195 -273 3861 0
-3862 14 0
-3862 196 0
-3862 274 0
-14 -196 -274 3862 0
-3863 15 0
-3863 197 0
-3863 275 0
-15 -197 -275 3863 0
-3864 16 0
-3864 198 0
-3864 276 0
-16 -198 -276 3864 0
-3865 17 0
-3865 199 0
-3865 277 0
-17 -199 -277 3865 0
-3866 18 0
-3866 200 0
-3866 278 0
-18 -200 -278 3866 0
-3867 19 0
-3867 201 0
-3867 279 0
-19 -201 -279 3867 0
-3868 20 0
-3868 202 0
-3868 280 0
-20 -202 -280 3868 0
-3869 21 0
-3869 203 0
-3869 281 0
-21 -203 -281 3869 0
-3870 22 0
-3870 204 0
-3870 282 0
-22 -204 -282 3870 0
-3871 23 0
-3871 205 0
-3871 283 0
-23 -205 -283 3871 0
-3872 24 0
-3872 206 0
-3872 284 0
-24 -206 -284 3872 0
-3873 25 0
-3873 207 0
-3873 285 0
-25 -207 -285 3873 0
-3874 26 0
-3874 208 0
-3874 286 0
-26 -208 -286 3874 0
-3849 9960 0
-3850 9960 0
-3851 9960 0
-3852 9960 0
-3853 9960 0
-3854 9960 0
-3855 9960 0
-3856 9960 0
-3857 9960 0
-3858 9960 0
-3859 9960 0
-3860 9960 0
-3861 9960 0
-3862 9960 0
-3863 9960 0
-3864 9960 0
-3865 9960 0
-3866 9960 0
-3867 9960 0
-3868 9960 0
-3869 9960 0
-3870 9960 0
-3871 9960 0
-3872 9960 0
-3873 9960 0
-3874 9960 0
-9960 3849 3850 3851 3852 3853 3854 3855 3856 3857 3858 3859 3860 3861 3862 3863 3864 3865 3866 3867 3868 3869 3870 3871 3872 3873 3874 0
-3875 1 0
-3875 183 0
-3875 287 0
-1 -183 -287 3875 0
-3876 2 0
-3876 184 0
-3876 288 0
-2 -184 -288 3876 0
-3877 3 0
-3877 185 0
-3877 289 0
-3 -185 -289 3877 0
-3878 4 0
-3878 186 0
-3878 290 0
-4 -186 -290 3878 0
-3879 5 0
-3879 187 0
-3879 291 0
-5 -187 -291 3879 0
-3880 6 0
-3880 188 0
-3880 292 0
-6 -188 -292 3880 0
-3881 7 0
-3881 189 0
-3881 293 0
-7 -189 -293 3881 0
-3882 8 0
-3882 190 0
-3882 294 0
-8 -190 -294 3882 0
-3883 9 0
-3883 191 0
-3883 295 0
-9 -191 -295 3883 0
-3884 10 0
-3884 192 0
-3884 296 0
-10 -192 -296 3884 0
-3885 11 0
-3885 193 0
-3885 297 0
-11 -193 -297 3885 0
-3886 12 0
-3886 194 0
-3886 298 0
-12 -194 -298 3886 0
-3887 13 0
-3887 195 0
-3887 299 0
-13 -195 -299 3887 0
-3888 14 0
-3888 196 0
-3888 300 0
-14 -196 -300 3888 0
-3889 15 0
-3889 197 0
-3889 301 0
-15 -197 -301 3889 0
-3890 16 0
-3890 198 0
-3890 302 0
-16 -198 -302 3890 0
-3891 17 0
-3891 199 0
-3891 303 0
-17 -199 -303 3891 0
-3892 18 0
-3892 200 0
-3892 304 0
-18 -200 -304 3892 0
-3893 19 0
-3893 201 0
-3893 305 0
-19 -201 -305 3893 0
-3894 20 0
-3894 202 0
-3894 306 0
-20 -202 -306 3894 0
-3895 21 0
-3895 203 0
-3895 307 0
-21 -203 -307 3895 0
-3896 22 0
-3896 204 0
-3896 308 0
-22 -204 -308 3896 0
-3897 23 0
-3897 205 0
-3897 309 0
-23 -205 -309 3897 0
-3898 24 0
-3898 206 0
-3898 310 0
-24 -206 -310 3898 0
-3899 25 0
-3899 207 0
-3899 311 0
-25 -207 -311 3899 0
-3900 26 0
-3900 208 0
-3900 312 0
-26 -208 -312 3900 0
-3875 9961 0
-3876 9961 0
-3877 9961 0
-3878 9961 0
-3879 9961 0
-3880 9961 0
-3881 9961 0
-3882 9961 0
-3883 9961 0
-3884 9961 0
-3885 9961 0
-3886 9961 0
-3887 9961 0
-3888 9961 0
-3889 9961 0
-3890 9961 0
-3891 9961 0
-3892 9961 0
-3893 9961 0
-3894 9961 0
-3895 9961 0
-3896 9961 0
-3897 9961 0
-3898 9961 0
-3899 9961 0
-3900 9961 0
-9961 3875 3876 3877 3878 3879 3880 3881 3882 3883 3884 3885 3886 3887 3888 3889 3890 3891 3892 3893 3894 3895 3896 3897 3898 3899 3900 0
-3901 1 0
-3901 183 0
-3901 313 0
-1 -183 -313 3901 0
-3902 2 0
-3902 184 0
-3902 314 0
-2 -184 -314 3902 0
-3903 3 0
-3903 185 0
-3903 315 0
-3 -185 -315 3903 0
-3904 4 0
-3904 186 0
-3904 316 0
-4 -186 -316 3904 0
-3905 5 0
-3905 187 0
-3905 317 0
-5 -187 -317 3905 0
-3906 6 0
-3906 188 0
-3906 318 0
-6 -188 -318 3906 0
-3907 7 0
-3907 189 0
-3907 319 0
-7 -189 -319 3907 0
-3908 8 0
-3908 190 0
-3908 320 0
-8 -190 -320 3908 0
-3909 9 0
-3909 191 0
-3909 321 0
-9 -191 -321 3909 0
-3910 10 0
-3910 192 0
-3910 322 0
-10 -192 -322 3910 0
-3911 11 0
-3911 193 0
-3911 323 0
-11 -193 -323 3911 0
-3912 12 0
-3912 194 0
-3912 324 0
-12 -194 -324 3912 0
-3913 13 0
-3913 195 0
-3913 325 0
-13 -195 -325 3913 0
-3914 14 0
-3914 196 0
-3914 326 0
-14 -196 -326 3914 0
-3915 15 0
-3915 197 0
-3915 327 0
-15 -197 -327 3915 0
-3916 16 0
-3916 198 0
-3916 328 0
-16 -198 -328 3916 0
-3917 17 0
-3917 199 0
-3917 329 0
-17 -199 -329 3917 0
-3918 18 0
-3918 200 0
-3918 330 0
-18 -200 -330 3918 0
-3919 19 0
-3919 201 0
-3919 331 0
-19 -201 -331 3919 0
-3920 20 0
-3920 202 0
-3920 332 0
-20 -202 -332 3920 0
-3921 21 0
-3921 203 0
-3921 333 0
-21 -203 -333 3921 0
-3922 22 0
-3922 204 0
-3922 334 0
-22 -204 -334 3922 0
-3923 23 0
-3923 205 0
-3923 335 0
-23 -205 -335 3923 0
-3924 24 0
-3924 206 0
-3924 336 0
-24 -206 -336 3924 0
-3925 25 0
-3925 207 0
-3925 337 0
-25 -207 -337 3925 0
-3926 26 0
-3926 208 0
-3926 338 0
-26 -208 -338 3926 0
-3901 9962 0
-3902 9962 0
-3903 9962 0
-3904 9962 0
-3905 9962 0
-3906 9962 0
-3907 9962 0
-3908 9962 0
-3909 9962 0
-3910 9962 0
-3911 9962 0
-3912 9962 0
-3913 9962 0
-3914 9962 0
-3915 9962 0
-3916 9962 0
-3917 9962 0
-3918 9962 0
-3919 9962 0
-3920 9962 0
-3921 9962 0
-3922 9962 0
-3923 9962 0
-3924 9962 0
-3925 9962 0
-3926 9962 0
-9962 3901 3902 3903 3904 3905 3906 3907 3908 3909 3910 3911 3912 3913 3914 3915 3916 3917 3918 3919 3920 3921 3922 3923 3924 3925 3926 0
-3927 1 0
-3927 209 0
-3927 235 0
-1 -209 -235 3927 0
-3928 2 0
-3928 210 0
-3928 236 0
-2 -210 -236 3928 0
-3929 3 0
-3929 211 0
-3929 237 0
-3 -211 -237 3929 0
-3930 4 0
-3930 212 0
-3930 238 0
-4 -212 -238 3930 0
-3931 5 0
-3931 213 0
-3931 239 0
-5 -213 -239 3931 0
-3932 6 0
-3932 214 0
-3932 240 0
-6 -214 -240 3932 0
-3933 7 0
-3933 215 0
-3933 241 0
-7 -215 -241 3933 0
-3934 8 0
-3934 216 0
-3934 242 0
-8 -216 -242 3934 0
-3935 9 0
-3935 217 0
-3935 243 0
-9 -217 -243 3935 0
-3936 10 0
-3936 218 0
-3936 244 0
-10 -218 -244 3936 0
-3937 11 0
-3937 219 0
-3937 245 0
-11 -219 -245 3937 0
-3938 12 0
-3938 220 0
-3938 246 0
-12 -220 -246 3938 0
-3939 13 0
-3939 221 0
-3939 247 0
-13 -221 -247 3939 0
-3940 14 0
-3940 222 0
-3940 248 0
-14 -222 -248 3940 0
-3941 15 0
-3941 223 0
-3941 249 0
-15 -223 -249 3941 0
-3942 16 0
-3942 224 0
-3942 250 0
-16 -224 -250 3942 0
-3943 17 0
-3943 225 0
-3943 251 0
-17 -225 -251 3943 0
-3944 18 0
-3944 226 0
-3944 252 0
-18 -226 -252 3944 0
-3945 19 0
-3945 227 0
-3945 253 0
-19 -227 -253 3945 0
-3946 20 0
-3946 228 0
-3946 254 0
-20 -228 -254 3946 0
-3947 21 0
-3947 229 0
-3947 255 0
-21 -229 -255 3947 0
-3948 22 0
-3948 230 0
-3948 256 0
-22 -230 -256 3948 0
-3949 23 0
-3949 231 0
-3949 257 0
-23 -231 -257 3949 0
-3950 24 0
-3950 232 0
-3950 258 0
-24 -232 -258 3950 0
-3951 25 0
-3951 233 0
-3951 259 0
-25 -233 -259 3951 0
-3952 26 0
-3952 234 0
-3952 260 0
-26 -234 -260 3952 0
-3927 9963 0
-3928 9963 0
-3929 9963 0
-3930 9963 0
-3931 9963 0
-3932 9963 0
-3933 9963 0
-3934 9963 0
-3935 9963 0
-3936 9963 0
-3937 9963 0
-3938 9963 0
-3939 9963 0
-3940 9963 0
-3941 9963 0
-3942 9963 0
-3943 9963 0
-3944 9963 0
-3945 9963 0
-3946 9963 0
-3947 9963 0
-3948 9963 0
-3949 9963 0
-3950 9963 0
-3951 9963 0
-3952 9963 0
-9963 3927 3928 3929 3930 3931 3932 3933 3934 3935 3936 3937 3938 3939 3940 3941 3942 3943 3944 3945 3946 3947 3948 3949 3950 3951 3952 0
-3953 1 0
-3953 209 0
-3953 261 0
-1 -209 -261 3953 0
-3954 2 0
-3954 210 0
-3954 262 0
-2 -210 -262 3954 0
-3955 3 0
-3955 211 0
-3955 263 0
-3 -211 -263 3955 0
-3956 4 0
-3956 212 0
-3956 264 0
-4 -212 -264 3956 0
-3957 5 0
-3957 213 0
-3957 265 0
-5 -213 -265 3957 0
-3958 6 0
-3958 214 0
-3958 266 0
-6 -214 -266 3958 0
-3959 7 0
-3959 215 0
-3959 267 0
-7 -215 -267 3959 0
-3960 8 0
-3960 216 0
-3960 268 0
-8 -216 -268 3960 0
-3961 9 0
-3961 217 0
-3961 269 0
-9 -217 -269 3961 0
-3962 10 0
-3962 218 0
-3962 270 0
-10 -218 -270 3962 0
-3963 11 0
-3963 219 0
-3963 271 0
-11 -219 -271 3963 0
-3964 12 0
-3964 220 0
-3964 272 0
-12 -220 -272 3964 0
-3965 13 0
-3965 221 0
-3965 273 0
-13 -221 -273 3965 0
-3966 14 0
-3966 222 0
-3966 274 0
-14 -222 -274 3966 0
-3967 15 0
-3967 223 0
-3967 275 0
-15 -223 -275 3967 0
-3968 16 0
-3968 224 0
-3968 276 0
-16 -224 -276 3968 0
-3969 17 0
-3969 225 0
-3969 277 0
-17 -225 -277 3969 0
-3970 18 0
-3970 226 0
-3970 278 0
-18 -226 -278 3970 0
-3971 19 0
-3971 227 0
-3971 279 0
-19 -227 -279 3971 0
-3972 20 0
-3972 228 0
-3972 280 0
-20 -228 -280 3972 0
-3973 21 0
-3973 229 0
-3973 281 0
-21 -229 -281 3973 0
-3974 22 0
-3974 230 0
-3974 282 0
-22 -230 -282 3974 0
-3975 23 0
-3975 231 0
-3975 283 0
-23 -231 -283 3975 0
-3976 24 0
-3976 232 0
-3976 284 0
-24 -232 -284 3976 0
-3977 25 0
-3977 233 0
-3977 285 0
-25 -233 -285 3977 0
-3978 26 0
-3978 234 0
-3978 286 0
-26 -234 -286 3978 0
-3953 9964 0
-3954 9964 0
-3955 9964 0
-3956 9964 0
-3957 9964 0
-3958 9964 0
-3959 9964 0
-3960 9964 0
-3961 9964 0
-3962 9964 0
-3963 9964 0
-3964 9964 0
-3965 9964 0
-3966 9964 0
-3967 9964 0
-3968 9964 0
-3969 9964 0
-3970 9964 0
-3971 9964 0
-3972 9964 0
-3973 9964 0
-3974 9964 0
-3975 9964 0
-3976 9964 0
-3977 9964 0
-3978 9964 0
-9964 3953 3954 3955 3956 3957 3958 3959 3960 3961 3962 3963 3964 3965 3966 3967 3968 3969 3970 3971 3972 3973 3974 3975 3976 3977 3978 0
-3979 1 0
-3979 209 0
-3979 287 0
-1 -209 -287 3979 0
-3980 2 0
-3980 210 0
-3980 288 0
-2 -210 -288 3980 0
-3981 3 0
-3981 211 0
-3981 289 0
-3 -211 -289 3981 0
-3982 4 0
-3982 212 0
-3982 290 0
-4 -212 -290 3982 0
-3983 5 0
-3983 213 0
-3983 291 0
-5 -213 -291 3983 0
-3984 6 0
-3984 214 0
-3984 292 0
-6 -214 -292 3984 0
-3985 7 0
-3985 215 0
-3985 293 0
-7 -215 -293 3985 0
-3986 8 0
-3986 216 0
-3986 294 0
-8 -216 -294 3986 0
-3987 9 0
-3987 217 0
-3987 295 0
-9 -217 -295 3987 0
-3988 10 0
-3988 218 0
-3988 296 0
-10 -218 -296 3988 0
-3989 11 0
-3989 219 0
-3989 297 0
-11 -219 -297 3989 0
-3990 12 0
-3990 220 0
-3990 298 0
-12 -220 -298 3990 0
-3991 13 0
-3991 221 0
-3991 299 0
-13 -221 -299 3991 0
-3992 14 0
-3992 222 0
-3992 300 0
-14 -222 -300 3992 0
-3993 15 0
-3993 223 0
-3993 301 0
-15 -223 -301 3993 0
-3994 16 0
-3994 224 0
-3994 302 0
-16 -224 -302 3994 0
-3995 17 0
-3995 225 0
-3995 303 0
-17 -225 -303 3995 0
-3996 18 0
-3996 226 0
-3996 304 0
-18 -226 -304 3996 0
-3997 19 0
-3997 227 0
-3997 305 0
-19 -227 -305 3997 0
-3998 20 0
-3998 228 0
-3998 306 0
-20 -228 -306 3998 0
-3999 21 0
-3999 229 0
-3999 307 0
-21 -229 -307 3999 0
-4000 22 0
-4000 230 0
-4000 308 0
-22 -230 -308 4000 0
-4001 23 0
-4001 231 0
-4001 309 0
-23 -231 -309 4001 0
-4002 24 0
-4002 232 0
-4002 310 0
-24 -232 -310 4002 0
-4003 25 0
-4003 233 0
-4003 311 0
-25 -233 -311 4003 0
-4004 26 0
-4004 234 0
-4004 312 0
-26 -234 -312 4004 0
-3979 9965 0
-3980 9965 0
-3981 9965 0
-3982 9965 0
-3983 9965 0
-3984 9965 0
-3985 9965 0
-3986 9965 0
-3987 9965 0
-3988 9965 0
-3989 9965 0
-3990 9965 0
-3991 9965 0
-3992 9965 0
-3993 9965 0
-3994 9965 0
-3995 9965 0
-3996 9965 0
-3997 9965 0
-3998 9965 0
-3999 9965 0
-4000 9965 0
-4001 9965 0
-4002 9965 0
-4003 9965 0
-4004 9965 0
-9965 3979 3980 3981 3982 3983 3984 3985 3986 3987 3988 3989 3990 3991 3992 3993 3994 3995 3996 3997 3998 3999 4000 4001 4002 4003 4004 0
-4005 1 0
-4005 209 0
-4005 313 0
-1 -209 -313 4005 0
-4006 2 0
-4006 210 0
-4006 314 0
-2 -210 -314 4006 0
-4007 3 0
-4007 211 0
-4007 315 0
-3 -211 -315 4007 0
-4008 4 0
-4008 212 0
-4008 316 0
-4 -212 -316 4008 0
-4009 5 0
-4009 213 0
-4009 317 0
-5 -213 -317 4009 0
-4010 6 0
-4010 214 0
-4010 318 0
-6 -214 -318 4010 0
-4011 7 0
-4011 215 0
-4011 319 0
-7 -215 -319 4011 0
-4012 8 0
-4012 216 0
-4012 320 0
-8 -216 -320 4012 0
-4013 9 0
-4013 217 0
-4013 321 0
-9 -217 -321 4013 0
-4014 10 0
-4014 218 0
-4014 322 0
-10 -218 -322 4014 0
-4015 11 0
-4015 219 0
-4015 323 0
-11 -219 -323 4015 0
-4016 12 0
-4016 220 0
-4016 324 0
-12 -220 -324 4016 0
-4017 13 0
-4017 221 0
-4017 325 0
-13 -221 -325 4017 0
-4018 14 0
-4018 222 0
-4018 326 0
-14 -222 -326 4018 0
-4019 15 0
-4019 223 0
-4019 327 0
-15 -223 -327 4019 0
-4020 16 0
-4020 224 0
-4020 328 0
-16 -224 -328 4020 0
-4021 17 0
-4021 225 0
-4021 329 0
-17 -225 -329 4021 0
-4022 18 0
-4022 226 0
-4022 330 0
-18 -226 -330 4022 0
-4023 19 0
-4023 227 0
-4023 331 0
-19 -227 -331 4023 0
-4024 20 0
-4024 228 0
-4024 332 0
-20 -228 -332 4024 0
-4025 21 0
-4025 229 0
-4025 333 0
-21 -229 -333 4025 0
-4026 22 0
-4026 230 0
-4026 334 0
-22 -230 -334 4026 0
-4027 23 0
-4027 231 0
-4027 335 0
-23 -231 -335 4027 0
-4028 24 0
-4028 232 0
-4028 336 0
-24 -232 -336 4028 0
-4029 25 0
-4029 233 0
-4029 337 0
-25 -233 -337 4029 0
-4030 26 0
-4030 234 0
-4030 338 0
-26 -234 -338 4030 0
-4005 9966 0
-4006 9966 0
-4007 9966 0
-4008 9966 0
-4009 9966 0
-4010 9966 0
-4011 9966 0
-4012 9966 0
-4013 9966 0
-4014 9966 0
-4015 9966 0
-4016 9966 0
-4017 9966 0
-4018 9966 0
-4019 9966 0
-4020 9966 0
-4021 9966 0
-4022 9966 0
-4023 9966 0
-4024 9966 0
-4025 9966 0
-4026 9966 0
-4027 9966 0
-4028 9966 0
-4029 9966 0
-4030 9966 0
-9966 4005 4006 4007 4008 4009 4010 4011 4012 4013 4014 4015 4016 4017 4018 4019 4020 4021 4022 4023 4024 4025 4026 4027 4028 4029 4030 0
-4031 1 0
-4031 235 0
-4031 261 0
-1 -235 -261 4031 0
-4032 2 0
-4032 236 0
-4032 262 0
-2 -236 -262 4032 0
-4033 3 0
-4033 237 0
-4033 263 0
-3 -237 -263 4033 0
-4034 4 0
-4034 238 0
-4034 264 0
-4 -238 -264 4034 0
-4035 5 0
-4035 239 0
-4035 265 0
-5 -239 -265 4035 0
-4036 6 0
-4036 240 0
-4036 266 0
-6 -240 -266 4036 0
-4037 7 0
-4037 241 0
-4037 267 0
-7 -241 -267 4037 0
-4038 8 0
-4038 242 0
-4038 268 0
-8 -242 -268 4038 0
-4039 9 0
-4039 243 0
-4039 269 0
-9 -243 -269 4039 0
-4040 10 0
-4040 244 0
-4040 270 0
-10 -244 -270 4040 0
-4041 11 0
-4041 245 0
-4041 271 0
-11 -245 -271 4041 0
-4042 12 0
-4042 246 0
-4042 272 0
-12 -246 -272 4042 0
-4043 13 0
-4043 247 0
-4043 273 0
-13 -247 -273 4043 0
-4044 14 0
-4044 248 0
-4044 274 0
-14 -248 -274 4044 0
-4045 15 0
-4045 249 0
-4045 275 0
-15 -249 -275 4045 0
-4046 16 0
-4046 250 0
-4046 276 0
-16 -250 -276 4046 0
-4047 17 0
-4047 251 0
-4047 277 0
-17 -251 -277 4047 0
-4048 18 0
-4048 252 0
-4048 278 0
-18 -252 -278 4048 0
-4049 19 0
-4049 253 0
-4049 279 0
-19 -253 -279 4049 0
-4050 20 0
-4050 254 0
-4050 280 0
-20 -254 -280 4050 0
-4051 21 0
-4051 255 0
-4051 281 0
-21 -255 -281 4051 0
-4052 22 0
-4052 256 0
-4052 282 0
-22 -256 -282 4052 0
-4053 23 0
-4053 257 0
-4053 283 0
-23 -257 -283 4053 0
-4054 24 0
-4054 258 0
-4054 284 0
-24 -258 -284 4054 0
-4055 25 0
-4055 259 0
-4055 285 0
-25 -259 -285 4055 0
-4056 26 0
-4056 260 0
-4056 286 0
-26 -260 -286 4056 0
-4031 9967 0
-4032 9967 0
-4033 9967 0
-4034 9967 0
-4035 9967 0
-4036 9967 0
-4037 9967 0
-4038 9967 0
-4039 9967 0
-4040 9967 0
-4041 9967 0
-4042 9967 0
-4043 9967 0
-4044 9967 0
-4045 9967 0
-4046 9967 0
-4047 9967 0
-4048 9967 0
-4049 9967 0
-4050 9967 0
-4051 9967 0
-4052 9967 0
-4053 9967 0
-4054 9967 0
-4055 9967 0
-4056 9967 0
-9967 4031 4032 4033 4034 4035 4036 4037 4038 4039 4040 4041 4042 4043 4044 4045 4046 4047 4048 4049 4050 4051 4052 4053 4054 4055 4056 0
-4057 1 0
-4057 235 0
-4057 287 0
-1 -235 -287 4057 0
-4058 2 0
-4058 236 0
-4058 288 0
-2 -236 -288 4058 0
-4059 3 0
-4059 237 0
-4059 289 0
-3 -237 -289 4059 0
-4060 4 0
-4060 238 0
-4060 290 0
-4 -238 -290 4060 0
-4061 5 0
-4061 239 0
-4061 291 0
-5 -239 -291 4061 0
-4062 6 0
-4062 240 0
-4062 292 0
-6 -240 -292 4062 0
-4063 7 0
-4063 241 0
-4063 293 0
-7 -241 -293 4063 0
-4064 8 0
-4064 242 0
-4064 294 0
-8 -242 -294 4064 0
-4065 9 0
-4065 243 0
-4065 295 0
-9 -243 -295 4065 0
-4066 10 0
-4066 244 0
-4066 296 0
-10 -244 -296 4066 0
-4067 11 0
-4067 245 0
-4067 297 0
-11 -245 -297 4067 0
-4068 12 0
-4068 246 0
-4068 298 0
-12 -246 -298 4068 0
-4069 13 0
-4069 247 0
-4069 299 0
-13 -247 -299 4069 0
-4070 14 0
-4070 248 0
-4070 300 0
-14 -248 -300 4070 0
-4071 15 0
-4071 249 0
-4071 301 0
-15 -249 -301 4071 0
-4072 16 0
-4072 250 0
-4072 302 0
-16 -250 -302 4072 0
-4073 17 0
-4073 251 0
-4073 303 0
-17 -251 -303 4073 0
-4074 18 0
-4074 252 0
-4074 304 0
-18 -252 -304 4074 0
-4075 19 0
-4075 253 0
-4075 305 0
-19 -253 -305 4075 0
-4076 20 0
-4076 254 0
-4076 306 0
-20 -254 -306 4076 0
-4077 21 0
-4077 255 0
-4077 307 0
-21 -255 -307 4077 0
-4078 22 0
-4078 256 0
-4078 308 0
-22 -256 -308 4078 0
-4079 23 0
-4079 257 0
-4079 309 0
-23 -257 -309 4079 0
-4080 24 0
-4080 258 0
-4080 310 0
-24 -258 -310 4080 0
-4081 25 0
-4081 259 0
-4081 311 0
-25 -259 -311 4081 0
-4082 26 0
-4082 260 0
-4082 312 0
-26 -260 -312 4082 0
-4057 9968 0
-4058 9968 0
-4059 9968 0
-4060 9968 0
-4061 9968 0
-4062 9968 0
-4063 9968 0
-4064 9968 0
-4065 9968 0
-4066 9968 0
-4067 9968 0
-4068 9968 0
-4069 9968 0
-4070 9968 0
-4071 9968 0
-4072 9968 0
-4073 9968 0
-4074 9968 0
-4075 9968 0
-4076 9968 0
-4077 9968 0
-4078 9968 0
-4079 9968 0
-4080 9968 0
-4081 9968 0
-4082 9968 0
-9968 4057 4058 4059 4060 4061 4062 4063 4064 4065 4066 4067 4068 4069 4070 4071 4072 4073 4074 4075 4076 4077 4078 4079 4080 4081 4082 0
-4083 1 0
-4083 235 0
-4083 313 0
-1 -235 -313 4083 0
-4084 2 0
-4084 236 0
-4084 314 0
-2 -236 -314 4084 0
-4085 3 0
-4085 237 0
-4085 315 0
-3 -237 -315 4085 0
-4086 4 0
-4086 238 0
-4086 316 0
-4 -238 -316 4086 0
-4087 5 0
-4087 239 0
-4087 317 0
-5 -239 -317 4087 0
-4088 6 0
-4088 240 0
-4088 318 0
-6 -240 -318 4088 0
-4089 7 0
-4089 241 0
-4089 319 0
-7 -241 -319 4089 0
-4090 8 0
-4090 242 0
-4090 320 0
-8 -242 -320 4090 0
-4091 9 0
-4091 243 0
-4091 321 0
-9 -243 -321 4091 0
-4092 10 0
-4092 244 0
-4092 322 0
-10 -244 -322 4092 0
-4093 11 0
-4093 245 0
-4093 323 0
-11 -245 -323 4093 0
-4094 12 0
-4094 246 0
-4094 324 0
-12 -246 -324 4094 0
-4095 13 0
-4095 247 0
-4095 325 0
-13 -247 -325 4095 0
-4096 14 0
-4096 248 0
-4096 326 0
-14 -248 -326 4096 0
-4097 15 0
-4097 249 0
-4097 327 0
-15 -249 -327 4097 0
-4098 16 0
-4098 250 0
-4098 328 0
-16 -250 -328 4098 0
-4099 17 0
-4099 251 0
-4099 329 0
-17 -251 -329 4099 0
-4100 18 0
-4100 252 0
-4100 330 0
-18 -252 -330 4100 0
-4101 19 0
-4101 253 0
-4101 331 0
-19 -253 -331 4101 0
-4102 20 0
-4102 254 0
-4102 332 0
-20 -254 -332 4102 0
-4103 21 0
-4103 255 0
-4103 333 0
-21 -255 -333 4103 0
-4104 22 0
-4104 256 0
-4104 334 0
-22 -256 -334 4104 0
-4105 23 0
-4105 257 0
-4105 335 0
-23 -257 -335 4105 0
-4106 24 0
-4106 258 0
-4106 336 0
-24 -258 -336 4106 0
-4107 25 0
-4107 259 0
-4107 337 0
-25 -259 -337 4107 0
-4108 26 0
-4108 260 0
-4108 338 0
-26 -260 -338 4108 0
-4083 9969 0
-4084 9969 0
-4085 9969 0
-4086 9969 0
-4087 9969 0
-4088 9969 0
-4089 9969 0
-4090 9969 0
-4091 9969 0
-4092 9969 0
-4093 9969 0
-4094 9969 0
-4095 9969 0
-4096 9969 0
-4097 9969 0
-4098 9969 0
-4099 9969 0
-4100 9969 0
-4101 9969 0
-4102 9969 0
-4103 9969 0
-4104 9969 0
-4105 9969 0
-4106 9969 0
-4107 9969 0
-4108 9969 0
-9969 4083 4084 4085 4086 4087 4088 4089 4090 4091 4092 4093 4094 4095 4096 4097 4098 4099 4100 4101 4102 4103 4104 4105 4106 4107 4108 0
-4109 1 0
-4109 261 0
-4109 287 0
-1 -261 -287 4109 0
-4110 2 0
-4110 262 0
-4110 288 0
-2 -262 -288 4110 0
-4111 3 0
-4111 263 0
-4111 289 0
-3 -263 -289 4111 0
-4112 4 0
-4112 264 0
-4112 290 0
-4 -264 -290 4112 0
-4113 5 0
-4113 265 0
-4113 291 0
-5 -265 -291 4113 0
-4114 6 0
-4114 266 0
-4114 292 0
-6 -266 -292 4114 0
-4115 7 0
-4115 267 0
-4115 293 0
-7 -267 -293 4115 0
-4116 8 0
-4116 268 0
-4116 294 0
-8 -268 -294 4116 0
-4117 9 0
-4117 269 0
-4117 295 0
-9 -269 -295 4117 0
-4118 10 0
-4118 270 0
-4118 296 0
-10 -270 -296 4118 0
-4119 11 0
-4119 271 0
-4119 297 0
-11 -271 -297 4119 0
-4120 12 0
-4120 272 0
-4120 298 0
-12 -272 -298 4120 0
-4121 13 0
-4121 273 0
-4121 299 0
-13 -273 -299 4121 0
-4122 14 0
-4122 274 0
-4122 300 0
-14 -274 -300 4122 0
-4123 15 0
-4123 275 0
-4123 301 0
-15 -275 -301 4123 0
-4124 16 0
-4124 276 0
-4124 302 0
-16 -276 -302 4124 0
-4125 17 0
-4125 277 0
-4125 303 0
-17 -277 -303 4125 0
-4126 18 0
-4126 278 0
-4126 304 0
-18 -278 -304 4126 0
-4127 19 0
-4127 279 0
-4127 305 0
-19 -279 -305 4127 0
-4128 20 0
-4128 280 0
-4128 306 0
-20 -280 -306 4128 0
-4129 21 0
-4129 281 0
-4129 307 0
-21 -281 -307 4129 0
-4130 22 0
-4130 282 0
-4130 308 0
-22 -282 -308 4130 0
-4131 23 0
-4131 283 0
-4131 309 0
-23 -283 -309 4131 0
-4132 24 0
-4132 284 0
-4132 310 0
-24 -284 -310 4132 0
-4133 25 0
-4133 285 0
-4133 311 0
-25 -285 -311 4133 0
-4134 26 0
-4134 286 0
-4134 312 0
-26 -286 -312 4134 0
-4109 9970 0
-4110 9970 0
-4111 9970 0
-4112 9970 0
-4113 9970 0
-4114 9970 0
-4115 9970 0
-4116 9970 0
-4117 9970 0
-4118 9970 0
-4119 9970 0
-4120 9970 0
-4121 9970 0
-4122 9970 0
-4123 9970 0
-4124 9970 0
-4125 9970 0
-4126 9970 0
-4127 9970 0
-4128 9970 0
-4129 9970 0
-4130 9970 0
-4131 9970 0
-4132 9970 0
-4133 9970 0
-4134 9970 0
-9970 4109 4110 4111 4112 4113 4114 4115 4116 4117 4118 4119 4120 4121 4122 4123 4124 4125 4126 4127 4128 4129 4130 4131 4132 4133 4134 0
-4135 1 0
-4135 261 0
-4135 313 0
-1 -261 -313 4135 0
-4136 2 0
-4136 262 0
-4136 314 0
-2 -262 -314 4136 0
-4137 3 0
-4137 263 0
-4137 315 0
-3 -263 -315 4137 0
-4138 4 0
-4138 264 0
-4138 316 0
-4 -264 -316 4138 0
-4139 5 0
-4139 265 0
-4139 317 0
-5 -265 -317 4139 0
-4140 6 0
-4140 266 0
-4140 318 0
-6 -266 -318 4140 0
-4141 7 0
-4141 267 0
-4141 319 0
-7 -267 -319 4141 0
-4142 8 0
-4142 268 0
-4142 320 0
-8 -268 -320 4142 0
-4143 9 0
-4143 269 0
-4143 321 0
-9 -269 -321 4143 0
-4144 10 0
-4144 270 0
-4144 322 0
-10 -270 -322 4144 0
-4145 11 0
-4145 271 0
-4145 323 0
-11 -271 -323 4145 0
-4146 12 0
-4146 272 0
-4146 324 0
-12 -272 -324 4146 0
-4147 13 0
-4147 273 0
-4147 325 0
-13 -273 -325 4147 0
-4148 14 0
-4148 274 0
-4148 326 0
-14 -274 -326 4148 0
-4149 15 0
-4149 275 0
-4149 327 0
-15 -275 -327 4149 0
-4150 16 0
-4150 276 0
-4150 328 0
-16 -276 -328 4150 0
-4151 17 0
-4151 277 0
-4151 329 0
-17 -277 -329 4151 0
-4152 18 0
-4152 278 0
-4152 330 0
-18 -278 -330 4152 0
-4153 19 0
-4153 279 0
-4153 331 0
-19 -279 -331 4153 0
-4154 20 0
-4154 280 0
-4154 332 0
-20 -280 -332 4154 0
-4155 21 0
-4155 281 0
-4155 333 0
-21 -281 -333 4155 0
-4156 22 0
-4156 282 0
-4156 334 0
-22 -282 -334 4156 0
-4157 23 0
-4157 283 0
-4157 335 0
-23 -283 -335 4157 0
-4158 24 0
-4158 284 0
-4158 336 0
-24 -284 -336 4158 0
-4159 25 0
-4159 285 0
-4159 337 0
-25 -285 -337 4159 0
-4160 26 0
-4160 286 0
-4160 338 0
-26 -286 -338 4160 0
-4135 9971 0
-4136 9971 0
-4137 9971 0
-4138 9971 0
-4139 9971 0
-4140 9971 0
-4141 9971 0
-4142 9971 0
-4143 9971 0
-4144 9971 0
-4145 9971 0
-4146 9971 0
-4147 9971 0
-4148 9971 0
-4149 9971 0
-4150 9971 0
-4151 9971 0
-4152 9971 0
-4153 9971 0
-4154 9971 0
-4155 9971 0
-4156 9971 0
-4157 9971 0
-4158 9971 0
-4159 9971 0
-4160 9971 0
-9971 4135 4136 4137 4138 4139 4140 4141 4142 4143 4144 4145 4146 4147 4148 4149 4150 4151 4152 4153 4154 4155 4156 4157 4158 4159 4160 0
-4161 1 0
-4161 287 0
-4161 313 0
-1 -287 -313 4161 0
-4162 2 0
-4162 288 0
-4162 314 0
-2 -288 -314 4162 0
-4163 3 0
-4163 289 0
-4163 315 0
-3 -289 -315 4163 0
-4164 4 0
-4164 290 0
-4164 316 0
-4 -290 -316 4164 0
-4165 5 0
-4165 291 0
-4165 317 0
-5 -291 -317 4165 0
-4166 6 0
-4166 292 0
-4166 318 0
-6 -292 -318 4166 0
-4167 7 0
-4167 293 0
-4167 319 0
-7 -293 -319 4167 0
-4168 8 0
-4168 294 0
-4168 320 0
-8 -294 -320 4168 0
-4169 9 0
-4169 295 0
-4169 321 0
-9 -295 -321 4169 0
-4170 10 0
-4170 296 0
-4170 322 0
-10 -296 -322 4170 0
-4171 11 0
-4171 297 0
-4171 323 0
-11 -297 -323 4171 0
-4172 12 0
-4172 298 0
-4172 324 0
-12 -298 -324 4172 0
-4173 13 0
-4173 299 0
-4173 325 0
-13 -299 -325 4173 0
-4174 14 0
-4174 300 0
-4174 326 0
-14 -300 -326 4174 0
-4175 15 0
-4175 301 0
-4175 327 0
-15 -301 -327 4175 0
-4176 16 0
-4176 302 0
-4176 328 0
-16 -302 -328 4176 0
-4177 17 0
-4177 303 0
-4177 329 0
-17 -303 -329 4177 0
-4178 18 0
-4178 304 0
-4178 330 0
-18 -304 -330 4178 0
-4179 19 0
-4179 305 0
-4179 331 0
-19 -305 -331 4179 0
-4180 20 0
-4180 306 0
-4180 332 0
-20 -306 -332 4180 0
-4181 21 0
-4181 307 0
-4181 333 0
-21 -307 -333 4181 0
-4182 22 0
-4182 308 0
-4182 334 0
-22 -308 -334 4182 0
-4183 23 0
-4183 309 0
-4183 335 0
-23 -309 -335 4183 0
-4184 24 0
-4184 310 0
-4184 336 0
-24 -310 -336 4184 0
-4185 25 0
-4185 311 0
-4185 337 0
-25 -311 -337 4185 0
-4186 26 0
-4186 312 0
-4186 338 0
-26 -312 -338 4186 0
-4161 9972 0
-4162 9972 0
-4163 9972 0
-4164 9972 0
-4165 9972 0
-4166 9972 0
-4167 9972 0
-4168 9972 0
-4169 9972 0
-4170 9972 0
-4171 9972 0
-4172 9972 0
-4173 9972 0
-4174 9972 0
-4175 9972 0
-4176 9972 0
-4177 9972 0
-4178 9972 0
-4179 9972 0
-4180 9972 0
-4181 9972 0
-4182 9972 0
-4183 9972 0
-4184 9972 0
-4185 9972 0
-4186 9972 0
-9972 4161 4162 4163 4164 4165 4166 4167 4168 4169 4170 4171 4172 4173 4174 4175 4176 4177 4178 4179 4180 4181 4182 4183 4184 4185 4186 0
-4187 27 0
-4187 53 0
-4187 79 0
-27 -53 -79 4187 0
-4188 28 0
-4188 54 0
-4188 80 0
-28 -54 -80 4188 0
-4189 29 0
-4189 55 0
-4189 81 0
-29 -55 -81 4189 0
-4190 30 0
-4190 56 0
-4190 82 0
-30 -56 -82 4190 0
-4191 31 0
-4191 57 0
-4191 83 0
-31 -57 -83 4191 0
-4192 32 0
-4192 58 0
-4192 84 0
-32 -58 -84 4192 0
-4193 33 0
-4193 59 0
-4193 85 0
-33 -59 -85 4193 0
-4194 34 0
-4194 60 0
-4194 86 0
-34 -60 -86 4194 0
-4195 35 0
-4195 61 0
-4195 87 0
-35 -61 -87 4195 0
-4196 36 0
-4196 62 0
-4196 88 0
-36 -62 -88 4196 0
-4197 37 0
-4197 63 0
-4197 89 0
-37 -63 -89 4197 0
-4198 38 0
-4198 64 0
-4198 90 0
-38 -64 -90 4198 0
-4199 39 0
-4199 65 0
-4199 91 0
-39 -65 -91 4199 0
-4200 40 0
-4200 66 0
-4200 92 0
-40 -66 -92 4200 0
-4201 41 0
-4201 67 0
-4201 93 0
-41 -67 -93 4201 0
-4202 42 0
-4202 68 0
-4202 94 0
-42 -68 -94 4202 0
-4203 43 0
-4203 69 0
-4203 95 0
-43 -69 -95 4203 0
-4204 44 0
-4204 70 0
-4204 96 0
-44 -70 -96 4204 0
-4205 45 0
-4205 71 0
-4205 97 0
-45 -71 -97 4205 0
-4206 46 0
-4206 72 0
-4206 98 0
-46 -72 -98 4206 0
-4207 47 0
-4207 73 0
-4207 99 0
-47 -73 -99 4207 0
-4208 48 0
-4208 74 0
-4208 100 0
-48 -74 -100 4208 0
-4209 49 0
-4209 75 0
-4209 101 0
-49 -75 -101 4209 0
-4210 50 0
-4210 76 0
-4210 102 0
-50 -76 -102 4210 0
-4211 51 0
-4211 77 0
-4211 103 0
-51 -77 -103 4211 0
-4212 52 0
-4212 78 0
-4212 104 0
-52 -78 -104 4212 0
-4187 9973 0
-4188 9973 0
-4189 9973 0
-4190 9973 0
-4191 9973 0
-4192 9973 0
-4193 9973 0
-4194 9973 0
-4195 9973 0
-4196 9973 0
-4197 9973 0
-4198 9973 0
-4199 9973 0
-4200 9973 0
-4201 9973 0
-4202 9973 0
-4203 9973 0
-4204 9973 0
-4205 9973 0
-4206 9973 0
-4207 9973 0
-4208 9973 0
-4209 9973 0
-4210 9973 0
-4211 9973 0
-4212 9973 0
-9973 4187 4188 4189 4190 4191 4192 4193 4194 4195 4196 4197 4198 4199 4200 4201 4202 4203 4204 4205 4206 4207 4208 4209 4210 4211 4212 0
-4213 27 0
-4213 53 0
-4213 105 0
-27 -53 -105 4213 0
-4214 28 0
-4214 54 0
-4214 106 0
-28 -54 -106 4214 0
-4215 29 0
-4215 55 0
-4215 107 0
-29 -55 -107 4215 0
-4216 30 0
-4216 56 0
-4216 108 0
-30 -56 -108 4216 0
-4217 31 0
-4217 57 0
-4217 109 0
-31 -57 -109 4217 0
-4218 32 0
-4218 58 0
-4218 110 0
-32 -58 -110 4218 0
-4219 33 0
-4219 59 0
-4219 111 0
-33 -59 -111 4219 0
-4220 34 0
-4220 60 0
-4220 112 0
-34 -60 -112 4220 0
-4221 35 0
-4221 61 0
-4221 113 0
-35 -61 -113 4221 0
-4222 36 0
-4222 62 0
-4222 114 0
-36 -62 -114 4222 0
-4223 37 0
-4223 63 0
-4223 115 0
-37 -63 -115 4223 0
-4224 38 0
-4224 64 0
-4224 116 0
-38 -64 -116 4224 0
-4225 39 0
-4225 65 0
-4225 117 0
-39 -65 -117 4225 0
-4226 40 0
-4226 66 0
-4226 118 0
-40 -66 -118 4226 0
-4227 41 0
-4227 67 0
-4227 119 0
-41 -67 -119 4227 0
-4228 42 0
-4228 68 0
-4228 120 0
-42 -68 -120 4228 0
-4229 43 0
-4229 69 0
-4229 121 0
-43 -69 -121 4229 0
-4230 44 0
-4230 70 0
-4230 122 0
-44 -70 -122 4230 0
-4231 45 0
-4231 71 0
-4231 123 0
-45 -71 -123 4231 0
-4232 46 0
-4232 72 0
-4232 124 0
-46 -72 -124 4232 0
-4233 47 0
-4233 73 0
-4233 125 0
-47 -73 -125 4233 0
-4234 48 0
-4234 74 0
-4234 126 0
-48 -74 -126 4234 0
-4235 49 0
-4235 75 0
-4235 127 0
-49 -75 -127 4235 0
-4236 50 0
-4236 76 0
-4236 128 0
-50 -76 -128 4236 0
-4237 51 0
-4237 77 0
-4237 129 0
-51 -77 -129 4237 0
-4238 52 0
-4238 78 0
-4238 130 0
-52 -78 -130 4238 0
-4213 9974 0
-4214 9974 0
-4215 9974 0
-4216 9974 0
-4217 9974 0
-4218 9974 0
-4219 9974 0
-4220 9974 0
-4221 9974 0
-4222 9974 0
-4223 9974 0
-4224 9974 0
-4225 9974 0
-4226 9974 0
-4227 9974 0
-4228 9974 0
-4229 9974 0
-4230 9974 0
-4231 9974 0
-4232 9974 0
-4233 9974 0
-4234 9974 0
-4235 9974 0
-4236 9974 0
-4237 9974 0
-4238 9974 0
-9974 4213 4214 4215 4216 4217 4218 4219 4220 4221 4222 4223 4224 4225 4226 4227 4228 4229 4230 4231 4232 4233 4234 4235 4236 4237 4238 0
-4239 27 0
-4239 53 0
-4239 131 0
-27 -53 -131 4239 0
-4240 28 0
-4240 54 0
-4240 132 0
-28 -54 -132 4240 0
-4241 29 0
-4241 55 0
-4241 133 0
-29 -55 -133 4241 0
-4242 30 0
-4242 56 0
-4242 134 0
-30 -56 -134 4242 0
-4243 31 0
-4243 57 0
-4243 135 0
-31 -57 -135 4243 0
-4244 32 0
-4244 58 0
-4244 136 0
-32 -58 -136 4244 0
-4245 33 0
-4245 59 0
-4245 137 0
-33 -59 -137 4245 0
-4246 34 0
-4246 60 0
-4246 138 0
-34 -60 -138 4246 0
-4247 35 0
-4247 61 0
-4247 139 0
-35 -61 -139 4247 0
-4248 36 0
-4248 62 0
-4248 140 0
-36 -62 -140 4248 0
-4249 37 0
-4249 63 0
-4249 141 0
-37 -63 -141 4249 0
-4250 38 0
-4250 64 0
-4250 142 0
-38 -64 -142 4250 0
-4251 39 0
-4251 65 0
-4251 143 0
-39 -65 -143 4251 0
-4252 40 0
-4252 66 0
-4252 144 0
-40 -66 -144 4252 0
-4253 41 0
-4253 67 0
-4253 145 0
-41 -67 -145 4253 0
-4254 42 0
-4254 68 0
-4254 146 0
-42 -68 -146 4254 0
-4255 43 0
-4255 69 0
-4255 147 0
-43 -69 -147 4255 0
-4256 44 0
-4256 70 0
-4256 148 0
-44 -70 -148 4256 0
-4257 45 0
-4257 71 0
-4257 149 0
-45 -71 -149 4257 0
-4258 46 0
-4258 72 0
-4258 150 0
-46 -72 -150 4258 0
-4259 47 0
-4259 73 0
-4259 151 0
-47 -73 -151 4259 0
-4260 48 0
-4260 74 0
-4260 152 0
-48 -74 -152 4260 0
-4261 49 0
-4261 75 0
-4261 153 0
-49 -75 -153 4261 0
-4262 50 0
-4262 76 0
-4262 154 0
-50 -76 -154 4262 0
-4263 51 0
-4263 77 0
-4263 155 0
-51 -77 -155 4263 0
-4264 52 0
-4264 78 0
-4264 156 0
-52 -78 -156 4264 0
-4239 9975 0
-4240 9975 0
-4241 9975 0
-4242 9975 0
-4243 9975 0
-4244 9975 0
-4245 9975 0
-4246 9975 0
-4247 9975 0
-4248 9975 0
-4249 9975 0
-4250 9975 0
-4251 9975 0
-4252 9975 0
-4253 9975 0
-4254 9975 0
-4255 9975 0
-4256 9975 0
-4257 9975 0
-4258 9975 0
-4259 9975 0
-4260 9975 0
-4261 9975 0
-4262 9975 0
-4263 9975 0
-4264 9975 0
-9975 4239 4240 4241 4242 4243 4244 4245 4246 4247 4248 4249 4250 4251 4252 4253 4254 4255 4256 4257 4258 4259 4260 4261 4262 4263 4264 0
-4265 27 0
-4265 53 0
-4265 157 0
-27 -53 -157 4265 0
-4266 28 0
-4266 54 0
-4266 158 0
-28 -54 -158 4266 0
-4267 29 0
-4267 55 0
-4267 159 0
-29 -55 -159 4267 0
-4268 30 0
-4268 56 0
-4268 160 0
-30 -56 -160 4268 0
-4269 31 0
-4269 57 0
-4269 161 0
-31 -57 -161 4269 0
-4270 32 0
-4270 58 0
-4270 162 0
-32 -58 -162 4270 0
-4271 33 0
-4271 59 0
-4271 163 0
-33 -59 -163 4271 0
-4272 34 0
-4272 60 0
-4272 164 0
-34 -60 -164 4272 0
-4273 35 0
-4273 61 0
-4273 165 0
-35 -61 -165 4273 0
-4274 36 0
-4274 62 0
-4274 166 0
-36 -62 -166 4274 0
-4275 37 0
-4275 63 0
-4275 167 0
-37 -63 -167 4275 0
-4276 38 0
-4276 64 0
-4276 168 0
-38 -64 -168 4276 0
-4277 39 0
-4277 65 0
-4277 169 0
-39 -65 -169 4277 0
-4278 40 0
-4278 66 0
-4278 170 0
-40 -66 -170 4278 0
-4279 41 0
-4279 67 0
-4279 171 0
-41 -67 -171 4279 0
-4280 42 0
-4280 68 0
-4280 172 0
-42 -68 -172 4280 0
-4281 43 0
-4281 69 0
-4281 173 0
-43 -69 -173 4281 0
-4282 44 0
-4282 70 0
-4282 174 0
-44 -70 -174 4282 0
-4283 45 0
-4283 71 0
-4283 175 0
-45 -71 -175 4283 0
-4284 46 0
-4284 72 0
-4284 176 0
-46 -72 -176 4284 0
-4285 47 0
-4285 73 0
-4285 177 0
-47 -73 -177 4285 0
-4286 48 0
-4286 74 0
-4286 178 0
-48 -74 -178 4286 0
-4287 49 0
-4287 75 0
-4287 179 0
-49 -75 -179 4287 0
-4288 50 0
-4288 76 0
-4288 180 0
-50 -76 -180 4288 0
-4289 51 0
-4289 77 0
-4289 181 0
-51 -77 -181 4289 0
-4290 52 0
-4290 78 0
-4290 182 0
-52 -78 -182 4290 0
-4265 9976 0
-4266 9976 0
-4267 9976 0
-4268 9976 0
-4269 9976 0
-4270 9976 0
-4271 9976 0
-4272 9976 0
-4273 9976 0
-4274 9976 0
-4275 9976 0
-4276 9976 0
-4277 9976 0
-4278 9976 0
-4279 9976 0
-4280 9976 0
-4281 9976 0
-4282 9976 0
-4283 9976 0
-4284 9976 0
-4285 9976 0
-4286 9976 0
-4287 9976 0
-4288 9976 0
-4289 9976 0
-4290 9976 0
-9976 4265 4266 4267 4268 4269 4270 4271 4272 4273 4274 4275 4276 4277 4278 4279 4280 4281 4282 4283 4284 4285 4286 4287 4288 4289 4290 0
-4291 27 0
-4291 53 0
-4291 183 0
-27 -53 -183 4291 0
-4292 28 0
-4292 54 0
-4292 184 0
-28 -54 -184 4292 0
-4293 29 0
-4293 55 0
-4293 185 0
-29 -55 -185 4293 0
-4294 30 0
-4294 56 0
-4294 186 0
-30 -56 -186 4294 0
-4295 31 0
-4295 57 0
-4295 187 0
-31 -57 -187 4295 0
-4296 32 0
-4296 58 0
-4296 188 0
-32 -58 -188 4296 0
-4297 33 0
-4297 59 0
-4297 189 0
-33 -59 -189 4297 0
-4298 34 0
-4298 60 0
-4298 190 0
-34 -60 -190 4298 0
-4299 35 0
-4299 61 0
-4299 191 0
-35 -61 -191 4299 0
-4300 36 0
-4300 62 0
-4300 192 0
-36 -62 -192 4300 0
-4301 37 0
-4301 63 0
-4301 193 0
-37 -63 -193 4301 0
-4302 38 0
-4302 64 0
-4302 194 0
-38 -64 -194 4302 0
-4303 39 0
-4303 65 0
-4303 195 0
-39 -65 -195 4303 0
-4304 40 0
-4304 66 0
-4304 196 0
-40 -66 -196 4304 0
-4305 41 0
-4305 67 0
-4305 197 0
-41 -67 -197 4305 0
-4306 42 0
-4306 68 0
-4306 198 0
-42 -68 -198 4306 0
-4307 43 0
-4307 69 0
-4307 199 0
-43 -69 -199 4307 0
-4308 44 0
-4308 70 0
-4308 200 0
-44 -70 -200 4308 0
-4309 45 0
-4309 71 0
-4309 201 0
-45 -71 -201 4309 0
-4310 46 0
-4310 72 0
-4310 202 0
-46 -72 -202 4310 0
-4311 47 0
-4311 73 0
-4311 203 0
-47 -73 -203 4311 0
-4312 48 0
-4312 74 0
-4312 204 0
-48 -74 -204 4312 0
-4313 49 0
-4313 75 0
-4313 205 0
-49 -75 -205 4313 0
-4314 50 0
-4314 76 0
-4314 206 0
-50 -76 -206 4314 0
-4315 51 0
-4315 77 0
-4315 207 0
-51 -77 -207 4315 0
-4316 52 0
-4316 78 0
-4316 208 0
-52 -78 -208 4316 0
-4291 9977 0
-4292 9977 0
-4293 9977 0
-4294 9977 0
-4295 9977 0
-4296 9977 0
-4297 9977 0
-4298 9977 0
-4299 9977 0
-4300 9977 0
-4301 9977 0
-4302 9977 0
-4303 9977 0
-4304 9977 0
-4305 9977 0
-4306 9977 0
-4307 9977 0
-4308 9977 0
-4309 9977 0
-4310 9977 0
-4311 9977 0
-4312 9977 0
-4313 9977 0
-4314 9977 0
-4315 9977 0
-4316 9977 0
-9977 4291 4292 4293 4294 4295 4296 4297 4298 4299 4300 4301 4302 4303 4304 4305 4306 4307 4308 4309 4310 4311 4312 4313 4314 4315 4316 0
-4317 27 0
-4317 53 0
-4317 209 0
-27 -53 -209 4317 0
-4318 28 0
-4318 54 0
-4318 210 0
-28 -54 -210 4318 0
-4319 29 0
-4319 55 0
-4319 211 0
-29 -55 -211 4319 0
-4320 30 0
-4320 56 0
-4320 212 0
-30 -56 -212 4320 0
-4321 31 0
-4321 57 0
-4321 213 0
-31 -57 -213 4321 0
-4322 32 0
-4322 58 0
-4322 214 0
-32 -58 -214 4322 0
-4323 33 0
-4323 59 0
-4323 215 0
-33 -59 -215 4323 0
-4324 34 0
-4324 60 0
-4324 216 0
-34 -60 -216 4324 0
-4325 35 0
-4325 61 0
-4325 217 0
-35 -61 -217 4325 0
-4326 36 0
-4326 62 0
-4326 218 0
-36 -62 -218 4326 0
-4327 37 0
-4327 63 0
-4327 219 0
-37 -63 -219 4327 0
-4328 38 0
-4328 64 0
-4328 220 0
-38 -64 -220 4328 0
-4329 39 0
-4329 65 0
-4329 221 0
-39 -65 -221 4329 0
-4330 40 0
-4330 66 0
-4330 222 0
-40 -66 -222 4330 0
-4331 41 0
-4331 67 0
-4331 223 0
-41 -67 -223 4331 0
-4332 42 0
-4332 68 0
-4332 224 0
-42 -68 -224 4332 0
-4333 43 0
-4333 69 0
-4333 225 0
-43 -69 -225 4333 0
-4334 44 0
-4334 70 0
-4334 226 0
-44 -70 -226 4334 0
-4335 45 0
-4335 71 0
-4335 227 0
-45 -71 -227 4335 0
-4336 46 0
-4336 72 0
-4336 228 0
-46 -72 -228 4336 0
-4337 47 0
-4337 73 0
-4337 229 0
-47 -73 -229 4337 0
-4338 48 0
-4338 74 0
-4338 230 0
-48 -74 -230 4338 0
-4339 49 0
-4339 75 0
-4339 231 0
-49 -75 -231 4339 0
-4340 50 0
-4340 76 0
-4340 232 0
-50 -76 -232 4340 0
-4341 51 0
-4341 77 0
-4341 233 0
-51 -77 -233 4341 0
-4342 52 0
-4342 78 0
-4342 234 0
-52 -78 -234 4342 0
-4317 9978 0
-4318 9978 0
-4319 9978 0
-4320 9978 0
-4321 9978 0
-4322 9978 0
-4323 9978 0
-4324 9978 0
-4325 9978 0
-4326 9978 0
-4327 9978 0
-4328 9978 0
-4329 9978 0
-4330 9978 0
-4331 9978 0
-4332 9978 0
-4333 9978 0
-4334 9978 0
-4335 9978 0
-4336 9978 0
-4337 9978 0
-4338 9978 0
-4339 9978 0
-4340 9978 0
-4341 9978 0
-4342 9978 0
-9978 4317 4318 4319 4320 4321 4322 4323 4324 4325 4326 4327 4328 4329 4330 4331 4332 4333 4334 4335 4336 4337 4338 4339 4340 4341 4342 0
-4343 27 0
-4343 53 0
-4343 235 0
-27 -53 -235 4343 0
-4344 28 0
-4344 54 0
-4344 236 0
-28 -54 -236 4344 0
-4345 29 0
-4345 55 0
-4345 237 0
-29 -55 -237 4345 0
-4346 30 0
-4346 56 0
-4346 238 0
-30 -56 -238 4346 0
-4347 31 0
-4347 57 0
-4347 239 0
-31 -57 -239 4347 0
-4348 32 0
-4348 58 0
-4348 240 0
-32 -58 -240 4348 0
-4349 33 0
-4349 59 0
-4349 241 0
-33 -59 -241 4349 0
-4350 34 0
-4350 60 0
-4350 242 0
-34 -60 -242 4350 0
-4351 35 0
-4351 61 0
-4351 243 0
-35 -61 -243 4351 0
-4352 36 0
-4352 62 0
-4352 244 0
-36 -62 -244 4352 0
-4353 37 0
-4353 63 0
-4353 245 0
-37 -63 -245 4353 0
-4354 38 0
-4354 64 0
-4354 246 0
-38 -64 -246 4354 0
-4355 39 0
-4355 65 0
-4355 247 0
-39 -65 -247 4355 0
-4356 40 0
-4356 66 0
-4356 248 0
-40 -66 -248 4356 0
-4357 41 0
-4357 67 0
-4357 249 0
-41 -67 -249 4357 0
-4358 42 0
-4358 68 0
-4358 250 0
-42 -68 -250 4358 0
-4359 43 0
-4359 69 0
-4359 251 0
-43 -69 -251 4359 0
-4360 44 0
-4360 70 0
-4360 252 0
-44 -70 -252 4360 0
-4361 45 0
-4361 71 0
-4361 253 0
-45 -71 -253 4361 0
-4362 46 0
-4362 72 0
-4362 254 0
-46 -72 -254 4362 0
-4363 47 0
-4363 73 0
-4363 255 0
-47 -73 -255 4363 0
-4364 48 0
-4364 74 0
-4364 256 0
-48 -74 -256 4364 0
-4365 49 0
-4365 75 0
-4365 257 0
-49 -75 -257 4365 0
-4366 50 0
-4366 76 0
-4366 258 0
-50 -76 -258 4366 0
-4367 51 0
-4367 77 0
-4367 259 0
-51 -77 -259 4367 0
-4368 52 0
-4368 78 0
-4368 260 0
-52 -78 -260 4368 0
-4343 9979 0
-4344 9979 0
-4345 9979 0
-4346 9979 0
-4347 9979 0
-4348 9979 0
-4349 9979 0
-4350 9979 0
-4351 9979 0
-4352 9979 0
-4353 9979 0
-4354 9979 0
-4355 9979 0
-4356 9979 0
-4357 9979 0
-4358 9979 0
-4359 9979 0
-4360 9979 0
-4361 9979 0
-4362 9979 0
-4363 9979 0
-4364 9979 0
-4365 9979 0
-4366 9979 0
-4367 9979 0
-4368 9979 0
-9979 4343 4344 4345 4346 4347 4348 4349 4350 4351 4352 4353 4354 4355 4356 4357 4358 4359 4360 4361 4362 4363 4364 4365 4366 4367 4368 0
-4369 27 0
-4369 53 0
-4369 261 0
-27 -53 -261 4369 0
-4370 28 0
-4370 54 0
-4370 262 0
-28 -54 -262 4370 0
-4371 29 0
-4371 55 0
-4371 263 0
-29 -55 -263 4371 0
-4372 30 0
-4372 56 0
-4372 264 0
-30 -56 -264 4372 0
-4373 31 0
-4373 57 0
-4373 265 0
-31 -57 -265 4373 0
-4374 32 0
-4374 58 0
-4374 266 0
-32 -58 -266 4374 0
-4375 33 0
-4375 59 0
-4375 267 0
-33 -59 -267 4375 0
-4376 34 0
-4376 60 0
-4376 268 0
-34 -60 -268 4376 0
-4377 35 0
-4377 61 0
-4377 269 0
-35 -61 -269 4377 0
-4378 36 0
-4378 62 0
-4378 270 0
-36 -62 -270 4378 0
-4379 37 0
-4379 63 0
-4379 271 0
-37 -63 -271 4379 0
-4380 38 0
-4380 64 0
-4380 272 0
-38 -64 -272 4380 0
-4381 39 0
-4381 65 0
-4381 273 0
-39 -65 -273 4381 0
-4382 40 0
-4382 66 0
-4382 274 0
-40 -66 -274 4382 0
-4383 41 0
-4383 67 0
-4383 275 0
-41 -67 -275 4383 0
-4384 42 0
-4384 68 0
-4384 276 0
-42 -68 -276 4384 0
-4385 43 0
-4385 69 0
-4385 277 0
-43 -69 -277 4385 0
-4386 44 0
-4386 70 0
-4386 278 0
-44 -70 -278 4386 0
-4387 45 0
-4387 71 0
-4387 279 0
-45 -71 -279 4387 0
-4388 46 0
-4388 72 0
-4388 280 0
-46 -72 -280 4388 0
-4389 47 0
-4389 73 0
-4389 281 0
-47 -73 -281 4389 0
-4390 48 0
-4390 74 0
-4390 282 0
-48 -74 -282 4390 0
-4391 49 0
-4391 75 0
-4391 283 0
-49 -75 -283 4391 0
-4392 50 0
-4392 76 0
-4392 284 0
-50 -76 -284 4392 0
-4393 51 0
-4393 77 0
-4393 285 0
-51 -77 -285 4393 0
-4394 52 0
-4394 78 0
-4394 286 0
-52 -78 -286 4394 0
-4369 9980 0
-4370 9980 0
-4371 9980 0
-4372 9980 0
-4373 9980 0
-4374 9980 0
-4375 9980 0
-4376 9980 0
-4377 9980 0
-4378 9980 0
-4379 9980 0
-4380 9980 0
-4381 9980 0
-4382 9980 0
-4383 9980 0
-4384 9980 0
-4385 9980 0
-4386 9980 0
-4387 9980 0
-4388 9980 0
-4389 9980 0
-4390 9980 0
-4391 9980 0
-4392 9980 0
-4393 9980 0
-4394 9980 0
-9980 4369 4370 4371 4372 4373 4374 4375 4376 4377 4378 4379 4380 4381 4382 4383 4384 4385 4386 4387 4388 4389 4390 4391 4392 4393 4394 0
-4395 27 0
-4395 53 0
-4395 287 0
-27 -53 -287 4395 0
-4396 28 0
-4396 54 0
-4396 288 0
-28 -54 -288 4396 0
-4397 29 0
-4397 55 0
-4397 289 0
-29 -55 -289 4397 0
-4398 30 0
-4398 56 0
-4398 290 0
-30 -56 -290 4398 0
-4399 31 0
-4399 57 0
-4399 291 0
-31 -57 -291 4399 0
-4400 32 0
-4400 58 0
-4400 292 0
-32 -58 -292 4400 0
-4401 33 0
-4401 59 0
-4401 293 0
-33 -59 -293 4401 0
-4402 34 0
-4402 60 0
-4402 294 0
-34 -60 -294 4402 0
-4403 35 0
-4403 61 0
-4403 295 0
-35 -61 -295 4403 0
-4404 36 0
-4404 62 0
-4404 296 0
-36 -62 -296 4404 0
-4405 37 0
-4405 63 0
-4405 297 0
-37 -63 -297 4405 0
-4406 38 0
-4406 64 0
-4406 298 0
-38 -64 -298 4406 0
-4407 39 0
-4407 65 0
-4407 299 0
-39 -65 -299 4407 0
-4408 40 0
-4408 66 0
-4408 300 0
-40 -66 -300 4408 0
-4409 41 0
-4409 67 0
-4409 301 0
-41 -67 -301 4409 0
-4410 42 0
-4410 68 0
-4410 302 0
-42 -68 -302 4410 0
-4411 43 0
-4411 69 0
-4411 303 0
-43 -69 -303 4411 0
-4412 44 0
-4412 70 0
-4412 304 0
-44 -70 -304 4412 0
-4413 45 0
-4413 71 0
-4413 305 0
-45 -71 -305 4413 0
-4414 46 0
-4414 72 0
-4414 306 0
-46 -72 -306 4414 0
-4415 47 0
-4415 73 0
-4415 307 0
-47 -73 -307 4415 0
-4416 48 0
-4416 74 0
-4416 308 0
-48 -74 -308 4416 0
-4417 49 0
-4417 75 0
-4417 309 0
-49 -75 -309 4417 0
-4418 50 0
-4418 76 0
-4418 310 0
-50 -76 -310 4418 0
-4419 51 0
-4419 77 0
-4419 311 0
-51 -77 -311 4419 0
-4420 52 0
-4420 78 0
-4420 312 0
-52 -78 -312 4420 0
-4395 9981 0
-4396 9981 0
-4397 9981 0
-4398 9981 0
-4399 9981 0
-4400 9981 0
-4401 9981 0
-4402 9981 0
-4403 9981 0
-4404 9981 0
-4405 9981 0
-4406 9981 0
-4407 9981 0
-4408 9981 0
-4409 9981 0
-4410 9981 0
-4411 9981 0
-4412 9981 0
-4413 9981 0
-4414 9981 0
-4415 9981 0
-4416 9981 0
-4417 9981 0
-4418 9981 0
-4419 9981 0
-4420 9981 0
-9981 4395 4396 4397 4398 4399 4400 4401 4402 4403 4404 4405 4406 4407 4408 4409 4410 4411 4412 4413 4414 4415 4416 4417 4418 4419 4420 0
-4421 27 0
-4421 53 0
-4421 313 0
-27 -53 -313 4421 0
-4422 28 0
-4422 54 0
-4422 314 0
-28 -54 -314 4422 0
-4423 29 0
-4423 55 0
-4423 315 0
-29 -55 -315 4423 0
-4424 30 0
-4424 56 0
-4424 316 0
-30 -56 -316 4424 0
-4425 31 0
-4425 57 0
-4425 317 0
-31 -57 -317 4425 0
-4426 32 0
-4426 58 0
-4426 318 0
-32 -58 -318 4426 0
-4427 33 0
-4427 59 0
-4427 319 0
-33 -59 -319 4427 0
-4428 34 0
-4428 60 0
-4428 320 0
-34 -60 -320 4428 0
-4429 35 0
-4429 61 0
-4429 321 0
-35 -61 -321 4429 0
-4430 36 0
-4430 62 0
-4430 322 0
-36 -62 -322 4430 0
-4431 37 0
-4431 63 0
-4431 323 0
-37 -63 -323 4431 0
-4432 38 0
-4432 64 0
-4432 324 0
-38 -64 -324 4432 0
-4433 39 0
-4433 65 0
-4433 325 0
-39 -65 -325 4433 0
-4434 40 0
-4434 66 0
-4434 326 0
-40 -66 -326 4434 0
-4435 41 0
-4435 67 0
-4435 327 0
-41 -67 -327 4435 0
-4436 42 0
-4436 68 0
-4436 328 0
-42 -68 -328 4436 0
-4437 43 0
-4437 69 0
-4437 329 0
-43 -69 -329 4437 0
-4438 44 0
-4438 70 0
-4438 330 0
-44 -70 -330 4438 0
-4439 45 0
-4439 71 0
-4439 331 0
-45 -71 -331 4439 0
-4440 46 0
-4440 72 0
-4440 332 0
-46 -72 -332 4440 0
-4441 47 0
-4441 73 0
-4441 333 0
-47 -73 -333 4441 0
-4442 48 0
-4442 74 0
-4442 334 0
-48 -74 -334 4442 0
-4443 49 0
-4443 75 0
-4443 335 0
-49 -75 -335 4443 0
-4444 50 0
-4444 76 0
-4444 336 0
-50 -76 -336 4444 0
-4445 51 0
-4445 77 0
-4445 337 0
-51 -77 -337 4445 0
-4446 52 0
-4446 78 0
-4446 338 0
-52 -78 -338 4446 0
-4421 9982 0
-4422 9982 0
-4423 9982 0
-4424 9982 0
-4425 9982 0
-4426 9982 0
-4427 9982 0
-4428 9982 0
-4429 9982 0
-4430 9982 0
-4431 9982 0
-4432 9982 0
-4433 9982 0
-4434 9982 0
-4435 9982 0
-4436 9982 0
-4437 9982 0
-4438 9982 0
-4439 9982 0
-4440 9982 0
-4441 9982 0
-4442 9982 0
-4443 9982 0
-4444 9982 0
-4445 9982 0
-4446 9982 0
-9982 4421 4422 4423 4424 4425 4426 4427 4428 4429 4430 4431 4432 4433 4434 4435 4436 4437 4438 4439 4440 4441 4442 4443 4444 4445 4446 0
-4447 27 0
-4447 79 0
-4447 105 0
-27 -79 -105 4447 0
-4448 28 0
-4448 80 0
-4448 106 0
-28 -80 -106 4448 0
-4449 29 0
-4449 81 0
-4449 107 0
-29 -81 -107 4449 0
-4450 30 0
-4450 82 0
-4450 108 0
-30 -82 -108 4450 0
-4451 31 0
-4451 83 0
-4451 109 0
-31 -83 -109 4451 0
-4452 32 0
-4452 84 0
-4452 110 0
-32 -84 -110 4452 0
-4453 33 0
-4453 85 0
-4453 111 0
-33 -85 -111 4453 0
-4454 34 0
-4454 86 0
-4454 112 0
-34 -86 -112 4454 0
-4455 35 0
-4455 87 0
-4455 113 0
-35 -87 -113 4455 0
-4456 36 0
-4456 88 0
-4456 114 0
-36 -88 -114 4456 0
-4457 37 0
-4457 89 0
-4457 115 0
-37 -89 -115 4457 0
-4458 38 0
-4458 90 0
-4458 116 0
-38 -90 -116 4458 0
-4459 39 0
-4459 91 0
-4459 117 0
-39 -91 -117 4459 0
-4460 40 0
-4460 92 0
-4460 118 0
-40 -92 -118 4460 0
-4461 41 0
-4461 93 0
-4461 119 0
-41 -93 -119 4461 0
-4462 42 0
-4462 94 0
-4462 120 0
-42 -94 -120 4462 0
-4463 43 0
-4463 95 0
-4463 121 0
-43 -95 -121 4463 0
-4464 44 0
-4464 96 0
-4464 122 0
-44 -96 -122 4464 0
-4465 45 0
-4465 97 0
-4465 123 0
-45 -97 -123 4465 0
-4466 46 0
-4466 98 0
-4466 124 0
-46 -98 -124 4466 0
-4467 47 0
-4467 99 0
-4467 125 0
-47 -99 -125 4467 0
-4468 48 0
-4468 100 0
-4468 126 0
-48 -100 -126 4468 0
-4469 49 0
-4469 101 0
-4469 127 0
-49 -101 -127 4469 0
-4470 50 0
-4470 102 0
-4470 128 0
-50 -102 -128 4470 0
-4471 51 0
-4471 103 0
-4471 129 0
-51 -103 -129 4471 0
-4472 52 0
-4472 104 0
-4472 130 0
-52 -104 -130 4472 0
-4447 9983 0
-4448 9983 0
-4449 9983 0
-4450 9983 0
-4451 9983 0
-4452 9983 0
-4453 9983 0
-4454 9983 0
-4455 9983 0
-4456 9983 0
-4457 9983 0
-4458 9983 0
-4459 9983 0
-4460 9983 0
-4461 9983 0
-4462 9983 0
-4463 9983 0
-4464 9983 0
-4465 9983 0
-4466 9983 0
-4467 9983 0
-4468 9983 0
-4469 9983 0
-4470 9983 0
-4471 9983 0
-4472 9983 0
-9983 4447 4448 4449 4450 4451 4452 4453 4454 4455 4456 4457 4458 4459 4460 4461 4462 4463 4464 4465 4466 4467 4468 4469 4470 4471 4472 0
-4473 27 0
-4473 79 0
-4473 131 0
-27 -79 -131 4473 0
-4474 28 0
-4474 80 0
-4474 132 0
-28 -80 -132 4474 0
-4475 29 0
-4475 81 0
-4475 133 0
-29 -81 -133 4475 0
-4476 30 0
-4476 82 0
-4476 134 0
-30 -82 -134 4476 0
-4477 31 0
-4477 83 0
-4477 135 0
-31 -83 -135 4477 0
-4478 32 0
-4478 84 0
-4478 136 0
-32 -84 -136 4478 0
-4479 33 0
-4479 85 0
-4479 137 0
-33 -85 -137 4479 0
-4480 34 0
-4480 86 0
-4480 138 0
-34 -86 -138 4480 0
-4481 35 0
-4481 87 0
-4481 139 0
-35 -87 -139 4481 0
-4482 36 0
-4482 88 0
-4482 140 0
-36 -88 -140 4482 0
-4483 37 0
-4483 89 0
-4483 141 0
-37 -89 -141 4483 0
-4484 38 0
-4484 90 0
-4484 142 0
-38 -90 -142 4484 0
-4485 39 0
-4485 91 0
-4485 143 0
-39 -91 -143 4485 0
-4486 40 0
-4486 92 0
-4486 144 0
-40 -92 -144 4486 0
-4487 41 0
-4487 93 0
-4487 145 0
-41 -93 -145 4487 0
-4488 42 0
-4488 94 0
-4488 146 0
-42 -94 -146 4488 0
-4489 43 0
-4489 95 0
-4489 147 0
-43 -95 -147 4489 0
-4490 44 0
-4490 96 0
-4490 148 0
-44 -96 -148 4490 0
-4491 45 0
-4491 97 0
-4491 149 0
-45 -97 -149 4491 0
-4492 46 0
-4492 98 0
-4492 150 0
-46 -98 -150 4492 0
-4493 47 0
-4493 99 0
-4493 151 0
-47 -99 -151 4493 0
-4494 48 0
-4494 100 0
-4494 152 0
-48 -100 -152 4494 0
-4495 49 0
-4495 101 0
-4495 153 0
-49 -101 -153 4495 0
-4496 50 0
-4496 102 0
-4496 154 0
-50 -102 -154 4496 0
-4497 51 0
-4497 103 0
-4497 155 0
-51 -103 -155 4497 0
-4498 52 0
-4498 104 0
-4498 156 0
-52 -104 -156 4498 0
-4473 9984 0
-4474 9984 0
-4475 9984 0
-4476 9984 0
-4477 9984 0
-4478 9984 0
-4479 9984 0
-4480 9984 0
-4481 9984 0
-4482 9984 0
-4483 9984 0
-4484 9984 0
-4485 9984 0
-4486 9984 0
-4487 9984 0
-4488 9984 0
-4489 9984 0
-4490 9984 0
-4491 9984 0
-4492 9984 0
-4493 9984 0
-4494 9984 0
-4495 9984 0
-4496 9984 0
-4497 9984 0
-4498 9984 0
-9984 4473 4474 4475 4476 4477 4478 4479 4480 4481 4482 4483 4484 4485 4486 4487 4488 4489 4490 4491 4492 4493 4494 4495 4496 4497 4498 0
-4499 27 0
-4499 79 0
-4499 157 0
-27 -79 -157 4499 0
-4500 28 0
-4500 80 0
-4500 158 0
-28 -80 -158 4500 0
-4501 29 0
-4501 81 0
-4501 159 0
-29 -81 -159 4501 0
-4502 30 0
-4502 82 0
-4502 160 0
-30 -82 -160 4502 0
-4503 31 0
-4503 83 0
-4503 161 0
-31 -83 -161 4503 0
-4504 32 0
-4504 84 0
-4504 162 0
-32 -84 -162 4504 0
-4505 33 0
-4505 85 0
-4505 163 0
-33 -85 -163 4505 0
-4506 34 0
-4506 86 0
-4506 164 0
-34 -86 -164 4506 0
-4507 35 0
-4507 87 0
-4507 165 0
-35 -87 -165 4507 0
-4508 36 0
-4508 88 0
-4508 166 0
-36 -88 -166 4508 0
-4509 37 0
-4509 89 0
-4509 167 0
-37 -89 -167 4509 0
-4510 38 0
-4510 90 0
-4510 168 0
-38 -90 -168 4510 0
-4511 39 0
-4511 91 0
-4511 169 0
-39 -91 -169 4511 0
-4512 40 0
-4512 92 0
-4512 170 0
-40 -92 -170 4512 0
-4513 41 0
-4513 93 0
-4513 171 0
-41 -93 -171 4513 0
-4514 42 0
-4514 94 0
-4514 172 0
-42 -94 -172 4514 0
-4515 43 0
-4515 95 0
-4515 173 0
-43 -95 -173 4515 0
-4516 44 0
-4516 96 0
-4516 174 0
-44 -96 -174 4516 0
-4517 45 0
-4517 97 0
-4517 175 0
-45 -97 -175 4517 0
-4518 46 0
-4518 98 0
-4518 176 0
-46 -98 -176 4518 0
-4519 47 0
-4519 99 0
-4519 177 0
-47 -99 -177 4519 0
-4520 48 0
-4520 100 0
-4520 178 0
-48 -100 -178 4520 0
-4521 49 0
-4521 101 0
-4521 179 0
-49 -101 -179 4521 0
-4522 50 0
-4522 102 0
-4522 180 0
-50 -102 -180 4522 0
-4523 51 0
-4523 103 0
-4523 181 0
-51 -103 -181 4523 0
-4524 52 0
-4524 104 0
-4524 182 0
-52 -104 -182 4524 0
-4499 9985 0
-4500 9985 0
-4501 9985 0
-4502 9985 0
-4503 9985 0
-4504 9985 0
-4505 9985 0
-4506 9985 0
-4507 9985 0
-4508 9985 0
-4509 9985 0
-4510 9985 0
-4511 9985 0
-4512 9985 0
-4513 9985 0
-4514 9985 0
-4515 9985 0
-4516 9985 0
-4517 9985 0
-4518 9985 0
-4519 9985 0
-4520 9985 0
-4521 9985 0
-4522 9985 0
-4523 9985 0
-4524 9985 0
-9985 4499 4500 4501 4502 4503 4504 4505 4506 4507 4508 4509 4510 4511 4512 4513 4514 4515 4516 4517 4518 4519 4520 4521 4522 4523 4524 0
-4525 27 0
-4525 79 0
-4525 183 0
-27 -79 -183 4525 0
-4526 28 0
-4526 80 0
-4526 184 0
-28 -80 -184 4526 0
-4527 29 0
-4527 81 0
-4527 185 0
-29 -81 -185 4527 0
-4528 30 0
-4528 82 0
-4528 186 0
-30 -82 -186 4528 0
-4529 31 0
-4529 83 0
-4529 187 0
-31 -83 -187 4529 0
-4530 32 0
-4530 84 0
-4530 188 0
-32 -84 -188 4530 0
-4531 33 0
-4531 85 0
-4531 189 0
-33 -85 -189 4531 0
-4532 34 0
-4532 86 0
-4532 190 0
-34 -86 -190 4532 0
-4533 35 0
-4533 87 0
-4533 191 0
-35 -87 -191 4533 0
-4534 36 0
-4534 88 0
-4534 192 0
-36 -88 -192 4534 0
-4535 37 0
-4535 89 0
-4535 193 0
-37 -89 -193 4535 0
-4536 38 0
-4536 90 0
-4536 194 0
-38 -90 -194 4536 0
-4537 39 0
-4537 91 0
-4537 195 0
-39 -91 -195 4537 0
-4538 40 0
-4538 92 0
-4538 196 0
-40 -92 -196 4538 0
-4539 41 0
-4539 93 0
-4539 197 0
-41 -93 -197 4539 0
-4540 42 0
-4540 94 0
-4540 198 0
-42 -94 -198 4540 0
-4541 43 0
-4541 95 0
-4541 199 0
-43 -95 -199 4541 0
-4542 44 0
-4542 96 0
-4542 200 0
-44 -96 -200 4542 0
-4543 45 0
-4543 97 0
-4543 201 0
-45 -97 -201 4543 0
-4544 46 0
-4544 98 0
-4544 202 0
-46 -98 -202 4544 0
-4545 47 0
-4545 99 0
-4545 203 0
-47 -99 -203 4545 0
-4546 48 0
-4546 100 0
-4546 204 0
-48 -100 -204 4546 0
-4547 49 0
-4547 101 0
-4547 205 0
-49 -101 -205 4547 0
-4548 50 0
-4548 102 0
-4548 206 0
-50 -102 -206 4548 0
-4549 51 0
-4549 103 0
-4549 207 0
-51 -103 -207 4549 0
-4550 52 0
-4550 104 0
-4550 208 0
-52 -104 -208 4550 0
-4525 9986 0
-4526 9986 0
-4527 9986 0
-4528 9986 0
-4529 9986 0
-4530 9986 0
-4531 9986 0
-4532 9986 0
-4533 9986 0
-4534 9986 0
-4535 9986 0
-4536 9986 0
-4537 9986 0
-4538 9986 0
-4539 9986 0
-4540 9986 0
-4541 9986 0
-4542 9986 0
-4543 9986 0
-4544 9986 0
-4545 9986 0
-4546 9986 0
-4547 9986 0
-4548 9986 0
-4549 9986 0
-4550 9986 0
-9986 4525 4526 4527 4528 4529 4530 4531 4532 4533 4534 4535 4536 4537 4538 4539 4540 4541 4542 4543 4544 4545 4546 4547 4548 4549 4550 0
-4551 27 0
-4551 79 0
-4551 209 0
-27 -79 -209 4551 0
-4552 28 0
-4552 80 0
-4552 210 0
-28 -80 -210 4552 0
-4553 29 0
-4553 81 0
-4553 211 0
-29 -81 -211 4553 0
-4554 30 0
-4554 82 0
-4554 212 0
-30 -82 -212 4554 0
-4555 31 0
-4555 83 0
-4555 213 0
-31 -83 -213 4555 0
-4556 32 0
-4556 84 0
-4556 214 0
-32 -84 -214 4556 0
-4557 33 0
-4557 85 0
-4557 215 0
-33 -85 -215 4557 0
-4558 34 0
-4558 86 0
-4558 216 0
-34 -86 -216 4558 0
-4559 35 0
-4559 87 0
-4559 217 0
-35 -87 -217 4559 0
-4560 36 0
-4560 88 0
-4560 218 0
-36 -88 -218 4560 0
-4561 37 0
-4561 89 0
-4561 219 0
-37 -89 -219 4561 0
-4562 38 0
-4562 90 0
-4562 220 0
-38 -90 -220 4562 0
-4563 39 0
-4563 91 0
-4563 221 0
-39 -91 -221 4563 0
-4564 40 0
-4564 92 0
-4564 222 0
-40 -92 -222 4564 0
-4565 41 0
-4565 93 0
-4565 223 0
-41 -93 -223 4565 0
-4566 42 0
-4566 94 0
-4566 224 0
-42 -94 -224 4566 0
-4567 43 0
-4567 95 0
-4567 225 0
-43 -95 -225 4567 0
-4568 44 0
-4568 96 0
-4568 226 0
-44 -96 -226 4568 0
-4569 45 0
-4569 97 0
-4569 227 0
-45 -97 -227 4569 0
-4570 46 0
-4570 98 0
-4570 228 0
-46 -98 -228 4570 0
-4571 47 0
-4571 99 0
-4571 229 0
-47 -99 -229 4571 0
-4572 48 0
-4572 100 0
-4572 230 0
-48 -100 -230 4572 0
-4573 49 0
-4573 101 0
-4573 231 0
-49 -101 -231 4573 0
-4574 50 0
-4574 102 0
-4574 232 0
-50 -102 -232 4574 0
-4575 51 0
-4575 103 0
-4575 233 0
-51 -103 -233 4575 0
-4576 52 0
-4576 104 0
-4576 234 0
-52 -104 -234 4576 0
-4551 9987 0
-4552 9987 0
-4553 9987 0
-4554 9987 0
-4555 9987 0
-4556 9987 0
-4557 9987 0
-4558 9987 0
-4559 9987 0
-4560 9987 0
-4561 9987 0
-4562 9987 0
-4563 9987 0
-4564 9987 0
-4565 9987 0
-4566 9987 0
-4567 9987 0
-4568 9987 0
-4569 9987 0
-4570 9987 0
-4571 9987 0
-4572 9987 0
-4573 9987 0
-4574 9987 0
-4575 9987 0
-4576 9987 0
-9987 4551 4552 4553 4554 4555 4556 4557 4558 4559 4560 4561 4562 4563 4564 4565 4566 4567 4568 4569 4570 4571 4572 4573 4574 4575 4576 0
-4577 27 0
-4577 79 0
-4577 235 0
-27 -79 -235 4577 0
-4578 28 0
-4578 80 0
-4578 236 0
-28 -80 -236 4578 0
-4579 29 0
-4579 81 0
-4579 237 0
-29 -81 -237 4579 0
-4580 30 0
-4580 82 0
-4580 238 0
-30 -82 -238 4580 0
-4581 31 0
-4581 83 0
-4581 239 0
-31 -83 -239 4581 0
-4582 32 0
-4582 84 0
-4582 240 0
-32 -84 -240 4582 0
-4583 33 0
-4583 85 0
-4583 241 0
-33 -85 -241 4583 0
-4584 34 0
-4584 86 0
-4584 242 0
-34 -86 -242 4584 0
-4585 35 0
-4585 87 0
-4585 243 0
-35 -87 -243 4585 0
-4586 36 0
-4586 88 0
-4586 244 0
-36 -88 -244 4586 0
-4587 37 0
-4587 89 0
-4587 245 0
-37 -89 -245 4587 0
-4588 38 0
-4588 90 0
-4588 246 0
-38 -90 -246 4588 0
-4589 39 0
-4589 91 0
-4589 247 0
-39 -91 -247 4589 0
-4590 40 0
-4590 92 0
-4590 248 0
-40 -92 -248 4590 0
-4591 41 0
-4591 93 0
-4591 249 0
-41 -93 -249 4591 0
-4592 42 0
-4592 94 0
-4592 250 0
-42 -94 -250 4592 0
-4593 43 0
-4593 95 0
-4593 251 0
-43 -95 -251 4593 0
-4594 44 0
-4594 96 0
-4594 252 0
-44 -96 -252 4594 0
-4595 45 0
-4595 97 0
-4595 253 0
-45 -97 -253 4595 0
-4596 46 0
-4596 98 0
-4596 254 0
-46 -98 -254 4596 0
-4597 47 0
-4597 99 0
-4597 255 0
-47 -99 -255 4597 0
-4598 48 0
-4598 100 0
-4598 256 0
-48 -100 -256 4598 0
-4599 49 0
-4599 101 0
-4599 257 0
-49 -101 -257 4599 0
-4600 50 0
-4600 102 0
-4600 258 0
-50 -102 -258 4600 0
-4601 51 0
-4601 103 0
-4601 259 0
-51 -103 -259 4601 0
-4602 52 0
-4602 104 0
-4602 260 0
-52 -104 -260 4602 0
-4577 9988 0
-4578 9988 0
-4579 9988 0
-4580 9988 0
-4581 9988 0
-4582 9988 0
-4583 9988 0
-4584 9988 0
-4585 9988 0
-4586 9988 0
-4587 9988 0
-4588 9988 0
-4589 9988 0
-4590 9988 0
-4591 9988 0
-4592 9988 0
-4593 9988 0
-4594 9988 0
-4595 9988 0
-4596 9988 0
-4597 9988 0
-4598 9988 0
-4599 9988 0
-4600 9988 0
-4601 9988 0
-4602 9988 0
-9988 4577 4578 4579 4580 4581 4582 4583 4584 4585 4586 4587 4588 4589 4590 4591 4592 4593 4594 4595 4596 4597 4598 4599 4600 4601 4602 0
-4603 27 0
-4603 79 0
-4603 261 0
-27 -79 -261 4603 0
-4604 28 0
-4604 80 0
-4604 262 0
-28 -80 -262 4604 0
-4605 29 0
-4605 81 0
-4605 263 0
-29 -81 -263 4605 0
-4606 30 0
-4606 82 0
-4606 264 0
-30 -82 -264 4606 0
-4607 31 0
-4607 83 0
-4607 265 0
-31 -83 -265 4607 0
-4608 32 0
-4608 84 0
-4608 266 0
-32 -84 -266 4608 0
-4609 33 0
-4609 85 0
-4609 267 0
-33 -85 -267 4609 0
-4610 34 0
-4610 86 0
-4610 268 0
-34 -86 -268 4610 0
-4611 35 0
-4611 87 0
-4611 269 0
-35 -87 -269 4611 0
-4612 36 0
-4612 88 0
-4612 270 0
-36 -88 -270 4612 0
-4613 37 0
-4613 89 0
-4613 271 0
-37 -89 -271 4613 0
-4614 38 0
-4614 90 0
-4614 272 0
-38 -90 -272 4614 0
-4615 39 0
-4615 91 0
-4615 273 0
-39 -91 -273 4615 0
-4616 40 0
-4616 92 0
-4616 274 0
-40 -92 -274 4616 0
-4617 41 0
-4617 93 0
-4617 275 0
-41 -93 -275 4617 0
-4618 42 0
-4618 94 0
-4618 276 0
-42 -94 -276 4618 0
-4619 43 0
-4619 95 0
-4619 277 0
-43 -95 -277 4619 0
-4620 44 0
-4620 96 0
-4620 278 0
-44 -96 -278 4620 0
-4621 45 0
-4621 97 0
-4621 279 0
-45 -97 -279 4621 0
-4622 46 0
-4622 98 0
-4622 280 0
-46 -98 -280 4622 0
-4623 47 0
-4623 99 0
-4623 281 0
-47 -99 -281 4623 0
-4624 48 0
-4624 100 0
-4624 282 0
-48 -100 -282 4624 0
-4625 49 0
-4625 101 0
-4625 283 0
-49 -101 -283 4625 0
-4626 50 0
-4626 102 0
-4626 284 0
-50 -102 -284 4626 0
-4627 51 0
-4627 103 0
-4627 285 0
-51 -103 -285 4627 0
-4628 52 0
-4628 104 0
-4628 286 0
-52 -104 -286 4628 0
-4603 9989 0
-4604 9989 0
-4605 9989 0
-4606 9989 0
-4607 9989 0
-4608 9989 0
-4609 9989 0
-4610 9989 0
-4611 9989 0
-4612 9989 0
-4613 9989 0
-4614 9989 0
-4615 9989 0
-4616 9989 0
-4617 9989 0
-4618 9989 0
-4619 9989 0
-4620 9989 0
-4621 9989 0
-4622 9989 0
-4623 9989 0
-4624 9989 0
-4625 9989 0
-4626 9989 0
-4627 9989 0
-4628 9989 0
-9989 4603 4604 4605 4606 4607 4608 4609 4610 4611 4612 4613 4614 4615 4616 4617 4618 4619 4620 4621 4622 4623 4624 4625 4626 4627 4628 0
-4629 27 0
-4629 79 0
-4629 287 0
-27 -79 -287 4629 0
-4630 28 0
-4630 80 0
-4630 288 0
-28 -80 -288 4630 0
-4631 29 0
-4631 81 0
-4631 289 0
-29 -81 -289 4631 0
-4632 30 0
-4632 82 0
-4632 290 0
-30 -82 -290 4632 0
-4633 31 0
-4633 83 0
-4633 291 0
-31 -83 -291 4633 0
-4634 32 0
-4634 84 0
-4634 292 0
-32 -84 -292 4634 0
-4635 33 0
-4635 85 0
-4635 293 0
-33 -85 -293 4635 0
-4636 34 0
-4636 86 0
-4636 294 0
-34 -86 -294 4636 0
-4637 35 0
-4637 87 0
-4637 295 0
-35 -87 -295 4637 0
-4638 36 0
-4638 88 0
-4638 296 0
-36 -88 -296 4638 0
-4639 37 0
-4639 89 0
-4639 297 0
-37 -89 -297 4639 0
-4640 38 0
-4640 90 0
-4640 298 0
-38 -90 -298 4640 0
-4641 39 0
-4641 91 0
-4641 299 0
-39 -91 -299 4641 0
-4642 40 0
-4642 92 0
-4642 300 0
-40 -92 -300 4642 0
-4643 41 0
-4643 93 0
-4643 301 0
-41 -93 -301 4643 0
-4644 42 0
-4644 94 0
-4644 302 0
-42 -94 -302 4644 0
-4645 43 0
-4645 95 0
-4645 303 0
-43 -95 -303 4645 0
-4646 44 0
-4646 96 0
-4646 304 0
-44 -96 -304 4646 0
-4647 45 0
-4647 97 0
-4647 305 0
-45 -97 -305 4647 0
-4648 46 0
-4648 98 0
-4648 306 0
-46 -98 -306 4648 0
-4649 47 0
-4649 99 0
-4649 307 0
-47 -99 -307 4649 0
-4650 48 0
-4650 100 0
-4650 308 0
-48 -100 -308 4650 0
-4651 49 0
-4651 101 0
-4651 309 0
-49 -101 -309 4651 0
-4652 50 0
-4652 102 0
-4652 310 0
-50 -102 -310 4652 0
-4653 51 0
-4653 103 0
-4653 311 0
-51 -103 -311 4653 0
-4654 52 0
-4654 104 0
-4654 312 0
-52 -104 -312 4654 0
-4629 9990 0
-4630 9990 0
-4631 9990 0
-4632 9990 0
-4633 9990 0
-4634 9990 0
-4635 9990 0
-4636 9990 0
-4637 9990 0
-4638 9990 0
-4639 9990 0
-4640 9990 0
-4641 9990 0
-4642 9990 0
-4643 9990 0
-4644 9990 0
-4645 9990 0
-4646 9990 0
-4647 9990 0
-4648 9990 0
-4649 9990 0
-4650 9990 0
-4651 9990 0
-4652 9990 0
-4653 9990 0
-4654 9990 0
-9990 4629 4630 4631 4632 4633 4634 4635 4636 4637 4638 4639 4640 4641 4642 4643 4644 4645 4646 4647 4648 4649 4650 4651 4652 4653 4654 0
-4655 27 0
-4655 79 0
-4655 313 0
-27 -79 -313 4655 0
-4656 28 0
-4656 80 0
-4656 314 0
-28 -80 -314 4656 0
-4657 29 0
-4657 81 0
-4657 315 0
-29 -81 -315 4657 0
-4658 30 0
-4658 82 0
-4658 316 0
-30 -82 -316 4658 0
-4659 31 0
-4659 83 0
-4659 317 0
-31 -83 -317 4659 0
-4660 32 0
-4660 84 0
-4660 318 0
-32 -84 -318 4660 0
-4661 33 0
-4661 85 0
-4661 319 0
-33 -85 -319 4661 0
-4662 34 0
-4662 86 0
-4662 320 0
-34 -86 -320 4662 0
-4663 35 0
-4663 87 0
-4663 321 0
-35 -87 -321 4663 0
-4664 36 0
-4664 88 0
-4664 322 0
-36 -88 -322 4664 0
-4665 37 0
-4665 89 0
-4665 323 0
-37 -89 -323 4665 0
-4666 38 0
-4666 90 0
-4666 324 0
-38 -90 -324 4666 0
-4667 39 0
-4667 91 0
-4667 325 0
-39 -91 -325 4667 0
-4668 40 0
-4668 92 0
-4668 326 0
-40 -92 -326 4668 0
-4669 41 0
-4669 93 0
-4669 327 0
-41 -93 -327 4669 0
-4670 42 0
-4670 94 0
-4670 328 0
-42 -94 -328 4670 0
-4671 43 0
-4671 95 0
-4671 329 0
-43 -95 -329 4671 0
-4672 44 0
-4672 96 0
-4672 330 0
-44 -96 -330 4672 0
-4673 45 0
-4673 97 0
-4673 331 0
-45 -97 -331 4673 0
-4674 46 0
-4674 98 0
-4674 332 0
-46 -98 -332 4674 0
-4675 47 0
-4675 99 0
-4675 333 0
-47 -99 -333 4675 0
-4676 48 0
-4676 100 0
-4676 334 0
-48 -100 -334 4676 0
-4677 49 0
-4677 101 0
-4677 335 0
-49 -101 -335 4677 0
-4678 50 0
-4678 102 0
-4678 336 0
-50 -102 -336 4678 0
-4679 51 0
-4679 103 0
-4679 337 0
-51 -103 -337 4679 0
-4680 52 0
-4680 104 0
-4680 338 0
-52 -104 -338 4680 0
-4655 9991 0
-4656 9991 0
-4657 9991 0
-4658 9991 0
-4659 9991 0
-4660 9991 0
-4661 9991 0
-4662 9991 0
-4663 9991 0
-4664 9991 0
-4665 9991 0
-4666 9991 0
-4667 9991 0
-4668 9991 0
-4669 9991 0
-4670 9991 0
-4671 9991 0
-4672 9991 0
-4673 9991 0
-4674 9991 0
-4675 9991 0
-4676 9991 0
-4677 9991 0
-4678 9991 0
-4679 9991 0
-4680 9991 0
-9991 4655 4656 4657 4658 4659 4660 4661 4662 4663 4664 4665 4666 4667 4668 4669 4670 4671 4672 4673 4674 4675 4676 4677 4678 4679 4680 0
-4681 27 0
-4681 105 0
-4681 131 0
-27 -105 -131 4681 0
-4682 28 0
-4682 106 0
-4682 132 0
-28 -106 -132 4682 0
-4683 29 0
-4683 107 0
-4683 133 0
-29 -107 -133 4683 0
-4684 30 0
-4684 108 0
-4684 134 0
-30 -108 -134 4684 0
-4685 31 0
-4685 109 0
-4685 135 0
-31 -109 -135 4685 0
-4686 32 0
-4686 110 0
-4686 136 0
-32 -110 -136 4686 0
-4687 33 0
-4687 111 0
-4687 137 0
-33 -111 -137 4687 0
-4688 34 0
-4688 112 0
-4688 138 0
-34 -112 -138 4688 0
-4689 35 0
-4689 113 0
-4689 139 0
-35 -113 -139 4689 0
-4690 36 0
-4690 114 0
-4690 140 0
-36 -114 -140 4690 0
-4691 37 0
-4691 115 0
-4691 141 0
-37 -115 -141 4691 0
-4692 38 0
-4692 116 0
-4692 142 0
-38 -116 -142 4692 0
-4693 39 0
-4693 117 0
-4693 143 0
-39 -117 -143 4693 0
-4694 40 0
-4694 118 0
-4694 144 0
-40 -118 -144 4694 0
-4695 41 0
-4695 119 0
-4695 145 0
-41 -119 -145 4695 0
-4696 42 0
-4696 120 0
-4696 146 0
-42 -120 -146 4696 0
-4697 43 0
-4697 121 0
-4697 147 0
-43 -121 -147 4697 0
-4698 44 0
-4698 122 0
-4698 148 0
-44 -122 -148 4698 0
-4699 45 0
-4699 123 0
-4699 149 0
-45 -123 -149 4699 0
-4700 46 0
-4700 124 0
-4700 150 0
-46 -124 -150 4700 0
-4701 47 0
-4701 125 0
-4701 151 0
-47 -125 -151 4701 0
-4702 48 0
-4702 126 0
-4702 152 0
-48 -126 -152 4702 0
-4703 49 0
-4703 127 0
-4703 153 0
-49 -127 -153 4703 0
-4704 50 0
-4704 128 0
-4704 154 0
-50 -128 -154 4704 0
-4705 51 0
-4705 129 0
-4705 155 0
-51 -129 -155 4705 0
-4706 52 0
-4706 130 0
-4706 156 0
-52 -130 -156 4706 0
-4681 9992 0
-4682 9992 0
-4683 9992 0
-4684 9992 0
-4685 9992 0
-4686 9992 0
-4687 9992 0
-4688 9992 0
-4689 9992 0
-4690 9992 0
-4691 9992 0
-4692 9992 0
-4693 9992 0
-4694 9992 0
-4695 9992 0
-4696 9992 0
-4697 9992 0
-4698 9992 0
-4699 9992 0
-4700 9992 0
-4701 9992 0
-4702 9992 0
-4703 9992 0
-4704 9992 0
-4705 9992 0
-4706 9992 0
-9992 4681 4682 4683 4684 4685 4686 4687 4688 4689 4690 4691 4692 4693 4694 4695 4696 4697 4698 4699 4700 4701 4702 4703 4704 4705 4706 0
-4707 27 0
-4707 105 0
-4707 157 0
-27 -105 -157 4707 0
-4708 28 0
-4708 106 0
-4708 158 0
-28 -106 -158 4708 0
-4709 29 0
-4709 107 0
-4709 159 0
-29 -107 -159 4709 0
-4710 30 0
-4710 108 0
-4710 160 0
-30 -108 -160 4710 0
-4711 31 0
-4711 109 0
-4711 161 0
-31 -109 -161 4711 0
-4712 32 0
-4712 110 0
-4712 162 0
-32 -110 -162 4712 0
-4713 33 0
-4713 111 0
-4713 163 0
-33 -111 -163 4713 0
-4714 34 0
-4714 112 0
-4714 164 0
-34 -112 -164 4714 0
-4715 35 0
-4715 113 0
-4715 165 0
-35 -113 -165 4715 0
-4716 36 0
-4716 114 0
-4716 166 0
-36 -114 -166 4716 0
-4717 37 0
-4717 115 0
-4717 167 0
-37 -115 -167 4717 0
-4718 38 0
-4718 116 0
-4718 168 0
-38 -116 -168 4718 0
-4719 39 0
-4719 117 0
-4719 169 0
-39 -117 -169 4719 0
-4720 40 0
-4720 118 0
-4720 170 0
-40 -118 -170 4720 0
-4721 41 0
-4721 119 0
-4721 171 0
-41 -119 -171 4721 0
-4722 42 0
-4722 120 0
-4722 172 0
-42 -120 -172 4722 0
-4723 43 0
-4723 121 0
-4723 173 0
-43 -121 -173 4723 0
-4724 44 0
-4724 122 0
-4724 174 0
-44 -122 -174 4724 0
-4725 45 0
-4725 123 0
-4725 175 0
-45 -123 -175 4725 0
-4726 46 0
-4726 124 0
-4726 176 0
-46 -124 -176 4726 0
-4727 47 0
-4727 125 0
-4727 177 0
-47 -125 -177 4727 0
-4728 48 0
-4728 126 0
-4728 178 0
-48 -126 -178 4728 0
-4729 49 0
-4729 127 0
-4729 179 0
-49 -127 -179 4729 0
-4730 50 0
-4730 128 0
-4730 180 0
-50 -128 -180 4730 0
-4731 51 0
-4731 129 0
-4731 181 0
-51 -129 -181 4731 0
-4732 52 0
-4732 130 0
-4732 182 0
-52 -130 -182 4732 0
-4707 9993 0
-4708 9993 0
-4709 9993 0
-4710 9993 0
-4711 9993 0
-4712 9993 0
-4713 9993 0
-4714 9993 0
-4715 9993 0
-4716 9993 0
-4717 9993 0
-4718 9993 0
-4719 9993 0
-4720 9993 0
-4721 9993 0
-4722 9993 0
-4723 9993 0
-4724 9993 0
-4725 9993 0
-4726 9993 0
-4727 9993 0
-4728 9993 0
-4729 9993 0
-4730 9993 0
-4731 9993 0
-4732 9993 0
-9993 4707 4708 4709 4710 4711 4712 4713 4714 4715 4716 4717 4718 4719 4720 4721 4722 4723 4724 4725 4726 4727 4728 4729 4730 4731 4732 0
-4733 27 0
-4733 105 0
-4733 183 0
-27 -105 -183 4733 0
-4734 28 0
-4734 106 0
-4734 184 0
-28 -106 -184 4734 0
-4735 29 0
-4735 107 0
-4735 185 0
-29 -107 -185 4735 0
-4736 30 0
-4736 108 0
-4736 186 0
-30 -108 -186 4736 0
-4737 31 0
-4737 109 0
-4737 187 0
-31 -109 -187 4737 0
-4738 32 0
-4738 110 0
-4738 188 0
-32 -110 -188 4738 0
-4739 33 0
-4739 111 0
-4739 189 0
-33 -111 -189 4739 0
-4740 34 0
-4740 112 0
-4740 190 0
-34 -112 -190 4740 0
-4741 35 0
-4741 113 0
-4741 191 0
-35 -113 -191 4741 0
-4742 36 0
-4742 114 0
-4742 192 0
-36 -114 -192 4742 0
-4743 37 0
-4743 115 0
-4743 193 0
-37 -115 -193 4743 0
-4744 38 0
-4744 116 0
-4744 194 0
-38 -116 -194 4744 0
-4745 39 0
-4745 117 0
-4745 195 0
-39 -117 -195 4745 0
-4746 40 0
-4746 118 0
-4746 196 0
-40 -118 -196 4746 0
-4747 41 0
-4747 119 0
-4747 197 0
-41 -119 -197 4747 0
-4748 42 0
-4748 120 0
-4748 198 0
-42 -120 -198 4748 0
-4749 43 0
-4749 121 0
-4749 199 0
-43 -121 -199 4749 0
-4750 44 0
-4750 122 0
-4750 200 0
-44 -122 -200 4750 0
-4751 45 0
-4751 123 0
-4751 201 0
-45 -123 -201 4751 0
-4752 46 0
-4752 124 0
-4752 202 0
-46 -124 -202 4752 0
-4753 47 0
-4753 125 0
-4753 203 0
-47 -125 -203 4753 0
-4754 48 0
-4754 126 0
-4754 204 0
-48 -126 -204 4754 0
-4755 49 0
-4755 127 0
-4755 205 0
-49 -127 -205 4755 0
-4756 50 0
-4756 128 0
-4756 206 0
-50 -128 -206 4756 0
-4757 51 0
-4757 129 0
-4757 207 0
-51 -129 -207 4757 0
-4758 52 0
-4758 130 0
-4758 208 0
-52 -130 -208 4758 0
-4733 9994 0
-4734 9994 0
-4735 9994 0
-4736 9994 0
-4737 9994 0
-4738 9994 0
-4739 9994 0
-4740 9994 0
-4741 9994 0
-4742 9994 0
-4743 9994 0
-4744 9994 0
-4745 9994 0
-4746 9994 0
-4747 9994 0
-4748 9994 0
-4749 9994 0
-4750 9994 0
-4751 9994 0
-4752 9994 0
-4753 9994 0
-4754 9994 0
-4755 9994 0
-4756 9994 0
-4757 9994 0
-4758 9994 0
-9994 4733 4734 4735 4736 4737 4738 4739 4740 4741 4742 4743 4744 4745 4746 4747 4748 4749 4750 4751 4752 4753 4754 4755 4756 4757 4758 0
-4759 27 0
-4759 105 0
-4759 209 0
-27 -105 -209 4759 0
-4760 28 0
-4760 106 0
-4760 210 0
-28 -106 -210 4760 0
-4761 29 0
-4761 107 0
-4761 211 0
-29 -107 -211 4761 0
-4762 30 0
-4762 108 0
-4762 212 0
-30 -108 -212 4762 0
-4763 31 0
-4763 109 0
-4763 213 0
-31 -109 -213 4763 0
-4764 32 0
-4764 110 0
-4764 214 0
-32 -110 -214 4764 0
-4765 33 0
-4765 111 0
-4765 215 0
-33 -111 -215 4765 0
-4766 34 0
-4766 112 0
-4766 216 0
-34 -112 -216 4766 0
-4767 35 0
-4767 113 0
-4767 217 0
-35 -113 -217 4767 0
-4768 36 0
-4768 114 0
-4768 218 0
-36 -114 -218 4768 0
-4769 37 0
-4769 115 0
-4769 219 0
-37 -115 -219 4769 0
-4770 38 0
-4770 116 0
-4770 220 0
-38 -116 -220 4770 0
-4771 39 0
-4771 117 0
-4771 221 0
-39 -117 -221 4771 0
-4772 40 0
-4772 118 0
-4772 222 0
-40 -118 -222 4772 0
-4773 41 0
-4773 119 0
-4773 223 0
-41 -119 -223 4773 0
-4774 42 0
-4774 120 0
-4774 224 0
-42 -120 -224 4774 0
-4775 43 0
-4775 121 0
-4775 225 0
-43 -121 -225 4775 0
-4776 44 0
-4776 122 0
-4776 226 0
-44 -122 -226 4776 0
-4777 45 0
-4777 123 0
-4777 227 0
-45 -123 -227 4777 0
-4778 46 0
-4778 124 0
-4778 228 0
-46 -124 -228 4778 0
-4779 47 0
-4779 125 0
-4779 229 0
-47 -125 -229 4779 0
-4780 48 0
-4780 126 0
-4780 230 0
-48 -126 -230 4780 0
-4781 49 0
-4781 127 0
-4781 231 0
-49 -127 -231 4781 0
-4782 50 0
-4782 128 0
-4782 232 0
-50 -128 -232 4782 0
-4783 51 0
-4783 129 0
-4783 233 0
-51 -129 -233 4783 0
-4784 52 0
-4784 130 0
-4784 234 0
-52 -130 -234 4784 0
-4759 9995 0
-4760 9995 0
-4761 9995 0
-4762 9995 0
-4763 9995 0
-4764 9995 0
-4765 9995 0
-4766 9995 0
-4767 9995 0
-4768 9995 0
-4769 9995 0
-4770 9995 0
-4771 9995 0
-4772 9995 0
-4773 9995 0
-4774 9995 0
-4775 9995 0
-4776 9995 0
-4777 9995 0
-4778 9995 0
-4779 9995 0
-4780 9995 0
-4781 9995 0
-4782 9995 0
-4783 9995 0
-4784 9995 0
-9995 4759 4760 4761 4762 4763 4764 4765 4766 4767 4768 4769 4770 4771 4772 4773 4774 4775 4776 4777 4778 4779 4780 4781 4782 4783 4784 0
-4785 27 0
-4785 105 0
-4785 235 0
-27 -105 -235 4785 0
-4786 28 0
-4786 106 0
-4786 236 0
-28 -106 -236 4786 0
-4787 29 0
-4787 107 0
-4787 237 0
-29 -107 -237 4787 0
-4788 30 0
-4788 108 0
-4788 238 0
-30 -108 -238 4788 0
-4789 31 0
-4789 109 0
-4789 239 0
-31 -109 -239 4789 0
-4790 32 0
-4790 110 0
-4790 240 0
-32 -110 -240 4790 0
-4791 33 0
-4791 111 0
-4791 241 0
-33 -111 -241 4791 0
-4792 34 0
-4792 112 0
-4792 242 0
-34 -112 -242 4792 0
-4793 35 0
-4793 113 0
-4793 243 0
-35 -113 -243 4793 0
-4794 36 0
-4794 114 0
-4794 244 0
-36 -114 -244 4794 0
-4795 37 0
-4795 115 0
-4795 245 0
-37 -115 -245 4795 0
-4796 38 0
-4796 116 0
-4796 246 0
-38 -116 -246 4796 0
-4797 39 0
-4797 117 0
-4797 247 0
-39 -117 -247 4797 0
-4798 40 0
-4798 118 0
-4798 248 0
-40 -118 -248 4798 0
-4799 41 0
-4799 119 0
-4799 249 0
-41 -119 -249 4799 0
-4800 42 0
-4800 120 0
-4800 250 0
-42 -120 -250 4800 0
-4801 43 0
-4801 121 0
-4801 251 0
-43 -121 -251 4801 0
-4802 44 0
-4802 122 0
-4802 252 0
-44 -122 -252 4802 0
-4803 45 0
-4803 123 0
-4803 253 0
-45 -123 -253 4803 0
-4804 46 0
-4804 124 0
-4804 254 0
-46 -124 -254 4804 0
-4805 47 0
-4805 125 0
-4805 255 0
-47 -125 -255 4805 0
-4806 48 0
-4806 126 0
-4806 256 0
-48 -126 -256 4806 0
-4807 49 0
-4807 127 0
-4807 257 0
-49 -127 -257 4807 0
-4808 50 0
-4808 128 0
-4808 258 0
-50 -128 -258 4808 0
-4809 51 0
-4809 129 0
-4809 259 0
-51 -129 -259 4809 0
-4810 52 0
-4810 130 0
-4810 260 0
-52 -130 -260 4810 0
-4785 9996 0
-4786 9996 0
-4787 9996 0
-4788 9996 0
-4789 9996 0
-4790 9996 0
-4791 9996 0
-4792 9996 0
-4793 9996 0
-4794 9996 0
-4795 9996 0
-4796 9996 0
-4797 9996 0
-4798 9996 0
-4799 9996 0
-4800 9996 0
-4801 9996 0
-4802 9996 0
-4803 9996 0
-4804 9996 0
-4805 9996 0
-4806 9996 0
-4807 9996 0
-4808 9996 0
-4809 9996 0
-4810 9996 0
-9996 4785 4786 4787 4788 4789 4790 4791 4792 4793 4794 4795 4796 4797 4798 4799 4800 4801 4802 4803 4804 4805 4806 4807 4808 4809 4810 0
-4811 27 0
-4811 105 0
-4811 261 0
-27 -105 -261 4811 0
-4812 28 0
-4812 106 0
-4812 262 0
-28 -106 -262 4812 0
-4813 29 0
-4813 107 0
-4813 263 0
-29 -107 -263 4813 0
-4814 30 0
-4814 108 0
-4814 264 0
-30 -108 -264 4814 0
-4815 31 0
-4815 109 0
-4815 265 0
-31 -109 -265 4815 0
-4816 32 0
-4816 110 0
-4816 266 0
-32 -110 -266 4816 0
-4817 33 0
-4817 111 0
-4817 267 0
-33 -111 -267 4817 0
-4818 34 0
-4818 112 0
-4818 268 0
-34 -112 -268 4818 0
-4819 35 0
-4819 113 0
-4819 269 0
-35 -113 -269 4819 0
-4820 36 0
-4820 114 0
-4820 270 0
-36 -114 -270 4820 0
-4821 37 0
-4821 115 0
-4821 271 0
-37 -115 -271 4821 0
-4822 38 0
-4822 116 0
-4822 272 0
-38 -116 -272 4822 0
-4823 39 0
-4823 117 0
-4823 273 0
-39 -117 -273 4823 0
-4824 40 0
-4824 118 0
-4824 274 0
-40 -118 -274 4824 0
-4825 41 0
-4825 119 0
-4825 275 0
-41 -119 -275 4825 0
-4826 42 0
-4826 120 0
-4826 276 0
-42 -120 -276 4826 0
-4827 43 0
-4827 121 0
-4827 277 0
-43 -121 -277 4827 0
-4828 44 0
-4828 122 0
-4828 278 0
-44 -122 -278 4828 0
-4829 45 0
-4829 123 0
-4829 279 0
-45 -123 -279 4829 0
-4830 46 0
-4830 124 0
-4830 280 0
-46 -124 -280 4830 0
-4831 47 0
-4831 125 0
-4831 281 0
-47 -125 -281 4831 0
-4832 48 0
-4832 126 0
-4832 282 0
-48 -126 -282 4832 0
-4833 49 0
-4833 127 0
-4833 283 0
-49 -127 -283 4833 0
-4834 50 0
-4834 128 0
-4834 284 0
-50 -128 -284 4834 0
-4835 51 0
-4835 129 0
-4835 285 0
-51 -129 -285 4835 0
-4836 52 0
-4836 130 0
-4836 286 0
-52 -130 -286 4836 0
-4811 9997 0
-4812 9997 0
-4813 9997 0
-4814 9997 0
-4815 9997 0
-4816 9997 0
-4817 9997 0
-4818 9997 0
-4819 9997 0
-4820 9997 0
-4821 9997 0
-4822 9997 0
-4823 9997 0
-4824 9997 0
-4825 9997 0
-4826 9997 0
-4827 9997 0
-4828 9997 0
-4829 9997 0
-4830 9997 0
-4831 9997 0
-4832 9997 0
-4833 9997 0
-4834 9997 0
-4835 9997 0
-4836 9997 0
-9997 4811 4812 4813 4814 4815 4816 4817 4818 4819 4820 4821 4822 4823 4824 4825 4826 4827 4828 4829 4830 4831 4832 4833 4834 4835 4836 0
-4837 27 0
-4837 105 0
-4837 287 0
-27 -105 -287 4837 0
-4838 28 0
-4838 106 0
-4838 288 0
-28 -106 -288 4838 0
-4839 29 0
-4839 107 0
-4839 289 0
-29 -107 -289 4839 0
-4840 30 0
-4840 108 0
-4840 290 0
-30 -108 -290 4840 0
-4841 31 0
-4841 109 0
-4841 291 0
-31 -109 -291 4841 0
-4842 32 0
-4842 110 0
-4842 292 0
-32 -110 -292 4842 0
-4843 33 0
-4843 111 0
-4843 293 0
-33 -111 -293 4843 0
-4844 34 0
-4844 112 0
-4844 294 0
-34 -112 -294 4844 0
-4845 35 0
-4845 113 0
-4845 295 0
-35 -113 -295 4845 0
-4846 36 0
-4846 114 0
-4846 296 0
-36 -114 -296 4846 0
-4847 37 0
-4847 115 0
-4847 297 0
-37 -115 -297 4847 0
-4848 38 0
-4848 116 0
-4848 298 0
-38 -116 -298 4848 0
-4849 39 0
-4849 117 0
-4849 299 0
-39 -117 -299 4849 0
-4850 40 0
-4850 118 0
-4850 300 0
-40 -118 -300 4850 0
-4851 41 0
-4851 119 0
-4851 301 0
-41 -119 -301 4851 0
-4852 42 0
-4852 120 0
-4852 302 0
-42 -120 -302 4852 0
-4853 43 0
-4853 121 0
-4853 303 0
-43 -121 -303 4853 0
-4854 44 0
-4854 122 0
-4854 304 0
-44 -122 -304 4854 0
-4855 45 0
-4855 123 0
-4855 305 0
-45 -123 -305 4855 0
-4856 46 0
-4856 124 0
-4856 306 0
-46 -124 -306 4856 0
-4857 47 0
-4857 125 0
-4857 307 0
-47 -125 -307 4857 0
-4858 48 0
-4858 126 0
-4858 308 0
-48 -126 -308 4858 0
-4859 49 0
-4859 127 0
-4859 309 0
-49 -127 -309 4859 0
-4860 50 0
-4860 128 0
-4860 310 0
-50 -128 -310 4860 0
-4861 51 0
-4861 129 0
-4861 311 0
-51 -129 -311 4861 0
-4862 52 0
-4862 130 0
-4862 312 0
-52 -130 -312 4862 0
-4837 9998 0
-4838 9998 0
-4839 9998 0
-4840 9998 0
-4841 9998 0
-4842 9998 0
-4843 9998 0
-4844 9998 0
-4845 9998 0
-4846 9998 0
-4847 9998 0
-4848 9998 0
-4849 9998 0
-4850 9998 0
-4851 9998 0
-4852 9998 0
-4853 9998 0
-4854 9998 0
-4855 9998 0
-4856 9998 0
-4857 9998 0
-4858 9998 0
-4859 9998 0
-4860 9998 0
-4861 9998 0
-4862 9998 0
-9998 4837 4838 4839 4840 4841 4842 4843 4844 4845 4846 4847 4848 4849 4850 4851 4852 4853 4854 4855 4856 4857 4858 4859 4860 4861 4862 0
-4863 27 0
-4863 105 0
-4863 313 0
-27 -105 -313 4863 0
-4864 28 0
-4864 106 0
-4864 314 0
-28 -106 -314 4864 0
-4865 29 0
-4865 107 0
-4865 315 0
-29 -107 -315 4865 0
-4866 30 0
-4866 108 0
-4866 316 0
-30 -108 -316 4866 0
-4867 31 0
-4867 109 0
-4867 317 0
-31 -109 -317 4867 0
-4868 32 0
-4868 110 0
-4868 318 0
-32 -110 -318 4868 0
-4869 33 0
-4869 111 0
-4869 319 0
-33 -111 -319 4869 0
-4870 34 0
-4870 112 0
-4870 320 0
-34 -112 -320 4870 0
-4871 35 0
-4871 113 0
-4871 321 0
-35 -113 -321 4871 0
-4872 36 0
-4872 114 0
-4872 322 0
-36 -114 -322 4872 0
-4873 37 0
-4873 115 0
-4873 323 0
-37 -115 -323 4873 0
-4874 38 0
-4874 116 0
-4874 324 0
-38 -116 -324 4874 0
-4875 39 0
-4875 117 0
-4875 325 0
-39 -117 -325 4875 0
-4876 40 0
-4876 118 0
-4876 326 0
-40 -118 -326 4876 0
-4877 41 0
-4877 119 0
-4877 327 0
-41 -119 -327 4877 0
-4878 42 0
-4878 120 0
-4878 328 0
-42 -120 -328 4878 0
-4879 43 0
-4879 121 0
-4879 329 0
-43 -121 -329 4879 0
-4880 44 0
-4880 122 0
-4880 330 0
-44 -122 -330 4880 0
-4881 45 0
-4881 123 0
-4881 331 0
-45 -123 -331 4881 0
-4882 46 0
-4882 124 0
-4882 332 0
-46 -124 -332 4882 0
-4883 47 0
-4883 125 0
-4883 333 0
-47 -125 -333 4883 0
-4884 48 0
-4884 126 0
-4884 334 0
-48 -126 -334 4884 0
-4885 49 0
-4885 127 0
-4885 335 0
-49 -127 -335 4885 0
-4886 50 0
-4886 128 0
-4886 336 0
-50 -128 -336 4886 0
-4887 51 0
-4887 129 0
-4887 337 0
-51 -129 -337 4887 0
-4888 52 0
-4888 130 0
-4888 338 0
-52 -130 -338 4888 0
-4863 9999 0
-4864 9999 0
-4865 9999 0
-4866 9999 0
-4867 9999 0
-4868 9999 0
-4869 9999 0
-4870 9999 0
-4871 9999 0
-4872 9999 0
-4873 9999 0
-4874 9999 0
-4875 9999 0
-4876 9999 0
-4877 9999 0
-4878 9999 0
-4879 9999 0
-4880 9999 0
-4881 9999 0
-4882 9999 0
-4883 9999 0
-4884 9999 0
-4885 9999 0
-4886 9999 0
-4887 9999 0
-4888 9999 0
-9999 4863 4864 4865 4866 4867 4868 4869 4870 4871 4872 4873 4874 4875 4876 4877 4878 4879 4880 4881 4882 4883 4884 4885 4886 4887 4888 0
-4889 27 0
-4889 131 0
-4889 157 0
-27 -131 -157 4889 0
-4890 28 0
-4890 132 0
-4890 158 0
-28 -132 -158 4890 0
-4891 29 0
-4891 133 0
-4891 159 0
-29 -133 -159 4891 0
-4892 30 0
-4892 134 0
-4892 160 0
-30 -134 -160 4892 0
-4893 31 0
-4893 135 0
-4893 161 0
-31 -135 -161 4893 0
-4894 32 0
-4894 136 0
-4894 162 0
-32 -136 -162 4894 0
-4895 33 0
-4895 137 0
-4895 163 0
-33 -137 -163 4895 0
-4896 34 0
-4896 138 0
-4896 164 0
-34 -138 -164 4896 0
-4897 35 0
-4897 139 0
-4897 165 0
-35 -139 -165 4897 0
-4898 36 0
-4898 140 0
-4898 166 0
-36 -140 -166 4898 0
-4899 37 0
-4899 141 0
-4899 167 0
-37 -141 -167 4899 0
-4900 38 0
-4900 142 0
-4900 168 0
-38 -142 -168 4900 0
-4901 39 0
-4901 143 0
-4901 169 0
-39 -143 -169 4901 0
-4902 40 0
-4902 144 0
-4902 170 0
-40 -144 -170 4902 0
-4903 41 0
-4903 145 0
-4903 171 0
-41 -145 -171 4903 0
-4904 42 0
-4904 146 0
-4904 172 0
-42 -146 -172 4904 0
-4905 43 0
-4905 147 0
-4905 173 0
-43 -147 -173 4905 0
-4906 44 0
-4906 148 0
-4906 174 0
-44 -148 -174 4906 0
-4907 45 0
-4907 149 0
-4907 175 0
-45 -149 -175 4907 0
-4908 46 0
-4908 150 0
-4908 176 0
-46 -150 -176 4908 0
-4909 47 0
-4909 151 0
-4909 177 0
-47 -151 -177 4909 0
-4910 48 0
-4910 152 0
-4910 178 0
-48 -152 -178 4910 0
-4911 49 0
-4911 153 0
-4911 179 0
-49 -153 -179 4911 0
-4912 50 0
-4912 154 0
-4912 180 0
-50 -154 -180 4912 0
-4913 51 0
-4913 155 0
-4913 181 0
-51 -155 -181 4913 0
-4914 52 0
-4914 156 0
-4914 182 0
-52 -156 -182 4914 0
-4889 10000 0
-4890 10000 0
-4891 10000 0
-4892 10000 0
-4893 10000 0
-4894 10000 0
-4895 10000 0
-4896 10000 0
-4897 10000 0
-4898 10000 0
-4899 10000 0
-4900 10000 0
-4901 10000 0
-4902 10000 0
-4903 10000 0
-4904 10000 0
-4905 10000 0
-4906 10000 0
-4907 10000 0
-4908 10000 0
-4909 10000 0
-4910 10000 0
-4911 10000 0
-4912 10000 0
-4913 10000 0
-4914 10000 0
-10000 4889 4890 4891 4892 4893 4894 4895 4896 4897 4898 4899 4900 4901 4902 4903 4904 4905 4906 4907 4908 4909 4910 4911 4912 4913 4914 0
-4915 27 0
-4915 131 0
-4915 183 0
-27 -131 -183 4915 0
-4916 28 0
-4916 132 0
-4916 184 0
-28 -132 -184 4916 0
-4917 29 0
-4917 133 0
-4917 185 0
-29 -133 -185 4917 0
-4918 30 0
-4918 134 0
-4918 186 0
-30 -134 -186 4918 0
-4919 31 0
-4919 135 0
-4919 187 0
-31 -135 -187 4919 0
-4920 32 0
-4920 136 0
-4920 188 0
-32 -136 -188 4920 0
-4921 33 0
-4921 137 0
-4921 189 0
-33 -137 -189 4921 0
-4922 34 0
-4922 138 0
-4922 190 0
-34 -138 -190 4922 0
-4923 35 0
-4923 139 0
-4923 191 0
-35 -139 -191 4923 0
-4924 36 0
-4924 140 0
-4924 192 0
-36 -140 -192 4924 0
-4925 37 0
-4925 141 0
-4925 193 0
-37 -141 -193 4925 0
-4926 38 0
-4926 142 0
-4926 194 0
-38 -142 -194 4926 0
-4927 39 0
-4927 143 0
-4927 195 0
-39 -143 -195 4927 0
-4928 40 0
-4928 144 0
-4928 196 0
-40 -144 -196 4928 0
-4929 41 0
-4929 145 0
-4929 197 0
-41 -145 -197 4929 0
-4930 42 0
-4930 146 0
-4930 198 0
-42 -146 -198 4930 0
-4931 43 0
-4931 147 0
-4931 199 0
-43 -147 -199 4931 0
-4932 44 0
-4932 148 0
-4932 200 0
-44 -148 -200 4932 0
-4933 45 0
-4933 149 0
-4933 201 0
-45 -149 -201 4933 0
-4934 46 0
-4934 150 0
-4934 202 0
-46 -150 -202 4934 0
-4935 47 0
-4935 151 0
-4935 203 0
-47 -151 -203 4935 0
-4936 48 0
-4936 152 0
-4936 204 0
-48 -152 -204 4936 0
-4937 49 0
-4937 153 0
-4937 205 0
-49 -153 -205 4937 0
-4938 50 0
-4938 154 0
-4938 206 0
-50 -154 -206 4938 0
-4939 51 0
-4939 155 0
-4939 207 0
-51 -155 -207 4939 0
-4940 52 0
-4940 156 0
-4940 208 0
-52 -156 -208 4940 0
-4915 10001 0
-4916 10001 0
-4917 10001 0
-4918 10001 0
-4919 10001 0
-4920 10001 0
-4921 10001 0
-4922 10001 0
-4923 10001 0
-4924 10001 0
-4925 10001 0
-4926 10001 0
-4927 10001 0
-4928 10001 0
-4929 10001 0
-4930 10001 0
-4931 10001 0
-4932 10001 0
-4933 10001 0
-4934 10001 0
-4935 10001 0
-4936 10001 0
-4937 10001 0
-4938 10001 0
-4939 10001 0
-4940 10001 0
-10001 4915 4916 4917 4918 4919 4920 4921 4922 4923 4924 4925 4926 4927 4928 4929 4930 4931 4932 4933 4934 4935 4936 4937 4938 4939 4940 0
-4941 27 0
-4941 131 0
-4941 209 0
-27 -131 -209 4941 0
-4942 28 0
-4942 132 0
-4942 210 0
-28 -132 -210 4942 0
-4943 29 0
-4943 133 0
-4943 211 0
-29 -133 -211 4943 0
-4944 30 0
-4944 134 0
-4944 212 0
-30 -134 -212 4944 0
-4945 31 0
-4945 135 0
-4945 213 0
-31 -135 -213 4945 0
-4946 32 0
-4946 136 0
-4946 214 0
-32 -136 -214 4946 0
-4947 33 0
-4947 137 0
-4947 215 0
-33 -137 -215 4947 0
-4948 34 0
-4948 138 0
-4948 216 0
-34 -138 -216 4948 0
-4949 35 0
-4949 139 0
-4949 217 0
-35 -139 -217 4949 0
-4950 36 0
-4950 140 0
-4950 218 0
-36 -140 -218 4950 0
-4951 37 0
-4951 141 0
-4951 219 0
-37 -141 -219 4951 0
-4952 38 0
-4952 142 0
-4952 220 0
-38 -142 -220 4952 0
-4953 39 0
-4953 143 0
-4953 221 0
-39 -143 -221 4953 0
-4954 40 0
-4954 144 0
-4954 222 0
-40 -144 -222 4954 0
-4955 41 0
-4955 145 0
-4955 223 0
-41 -145 -223 4955 0
-4956 42 0
-4956 146 0
-4956 224 0
-42 -146 -224 4956 0
-4957 43 0
-4957 147 0
-4957 225 0
-43 -147 -225 4957 0
-4958 44 0
-4958 148 0
-4958 226 0
-44 -148 -226 4958 0
-4959 45 0
-4959 149 0
-4959 227 0
-45 -149 -227 4959 0
-4960 46 0
-4960 150 0
-4960 228 0
-46 -150 -228 4960 0
-4961 47 0
-4961 151 0
-4961 229 0
-47 -151 -229 4961 0
-4962 48 0
-4962 152 0
-4962 230 0
-48 -152 -230 4962 0
-4963 49 0
-4963 153 0
-4963 231 0
-49 -153 -231 4963 0
-4964 50 0
-4964 154 0
-4964 232 0
-50 -154 -232 4964 0
-4965 51 0
-4965 155 0
-4965 233 0
-51 -155 -233 4965 0
-4966 52 0
-4966 156 0
-4966 234 0
-52 -156 -234 4966 0
-4941 10002 0
-4942 10002 0
-4943 10002 0
-4944 10002 0
-4945 10002 0
-4946 10002 0
-4947 10002 0
-4948 10002 0
-4949 10002 0
-4950 10002 0
-4951 10002 0
-4952 10002 0
-4953 10002 0
-4954 10002 0
-4955 10002 0
-4956 10002 0
-4957 10002 0
-4958 10002 0
-4959 10002 0
-4960 10002 0
-4961 10002 0
-4962 10002 0
-4963 10002 0
-4964 10002 0
-4965 10002 0
-4966 10002 0
-10002 4941 4942 4943 4944 4945 4946 4947 4948 4949 4950 4951 4952 4953 4954 4955 4956 4957 4958 4959 4960 4961 4962 4963 4964 4965 4966 0
-4967 27 0
-4967 131 0
-4967 235 0
-27 -131 -235 4967 0
-4968 28 0
-4968 132 0
-4968 236 0
-28 -132 -236 4968 0
-4969 29 0
-4969 133 0
-4969 237 0
-29 -133 -237 4969 0
-4970 30 0
-4970 134 0
-4970 238 0
-30 -134 -238 4970 0
-4971 31 0
-4971 135 0
-4971 239 0
-31 -135 -239 4971 0
-4972 32 0
-4972 136 0
-4972 240 0
-32 -136 -240 4972 0
-4973 33 0
-4973 137 0
-4973 241 0
-33 -137 -241 4973 0
-4974 34 0
-4974 138 0
-4974 242 0
-34 -138 -242 4974 0
-4975 35 0
-4975 139 0
-4975 243 0
-35 -139 -243 4975 0
-4976 36 0
-4976 140 0
-4976 244 0
-36 -140 -244 4976 0
-4977 37 0
-4977 141 0
-4977 245 0
-37 -141 -245 4977 0
-4978 38 0
-4978 142 0
-4978 246 0
-38 -142 -246 4978 0
-4979 39 0
-4979 143 0
-4979 247 0
-39 -143 -247 4979 0
-4980 40 0
-4980 144 0
-4980 248 0
-40 -144 -248 4980 0
-4981 41 0
-4981 145 0
-4981 249 0
-41 -145 -249 4981 0
-4982 42 0
-4982 146 0
-4982 250 0
-42 -146 -250 4982 0
-4983 43 0
-4983 147 0
-4983 251 0
-43 -147 -251 4983 0
-4984 44 0
-4984 148 0
-4984 252 0
-44 -148 -252 4984 0
-4985 45 0
-4985 149 0
-4985 253 0
-45 -149 -253 4985 0
-4986 46 0
-4986 150 0
-4986 254 0
-46 -150 -254 4986 0
-4987 47 0
-4987 151 0
-4987 255 0
-47 -151 -255 4987 0
-4988 48 0
-4988 152 0
-4988 256 0
-48 -152 -256 4988 0
-4989 49 0
-4989 153 0
-4989 257 0
-49 -153 -257 4989 0
-4990 50 0
-4990 154 0
-4990 258 0
-50 -154 -258 4990 0
-4991 51 0
-4991 155 0
-4991 259 0
-51 -155 -259 4991 0
-4992 52 0
-4992 156 0
-4992 260 0
-52 -156 -260 4992 0
-4967 10003 0
-4968 10003 0
-4969 10003 0
-4970 10003 0
-4971 10003 0
-4972 10003 0
-4973 10003 0
-4974 10003 0
-4975 10003 0
-4976 10003 0
-4977 10003 0
-4978 10003 0
-4979 10003 0
-4980 10003 0
-4981 10003 0
-4982 10003 0
-4983 10003 0
-4984 10003 0
-4985 10003 0
-4986 10003 0
-4987 10003 0
-4988 10003 0
-4989 10003 0
-4990 10003 0
-4991 10003 0
-4992 10003 0
-10003 4967 4968 4969 4970 4971 4972 4973 4974 4975 4976 4977 4978 4979 4980 4981 4982 4983 4984 4985 4986 4987 4988 4989 4990 4991 4992 0
-4993 27 0
-4993 131 0
-4993 261 0
-27 -131 -261 4993 0
-4994 28 0
-4994 132 0
-4994 262 0
-28 -132 -262 4994 0
-4995 29 0
-4995 133 0
-4995 263 0
-29 -133 -263 4995 0
-4996 30 0
-4996 134 0
-4996 264 0
-30 -134 -264 4996 0
-4997 31 0
-4997 135 0
-4997 265 0
-31 -135 -265 4997 0
-4998 32 0
-4998 136 0
-4998 266 0
-32 -136 -266 4998 0
-4999 33 0
-4999 137 0
-4999 267 0
-33 -137 -267 4999 0
-5000 34 0
-5000 138 0
-5000 268 0
-34 -138 -268 5000 0
-5001 35 0
-5001 139 0
-5001 269 0
-35 -139 -269 5001 0
-5002 36 0
-5002 140 0
-5002 270 0
-36 -140 -270 5002 0
-5003 37 0
-5003 141 0
-5003 271 0
-37 -141 -271 5003 0
-5004 38 0
-5004 142 0
-5004 272 0
-38 -142 -272 5004 0
-5005 39 0
-5005 143 0
-5005 273 0
-39 -143 -273 5005 0
-5006 40 0
-5006 144 0
-5006 274 0
-40 -144 -274 5006 0
-5007 41 0
-5007 145 0
-5007 275 0
-41 -145 -275 5007 0
-5008 42 0
-5008 146 0
-5008 276 0
-42 -146 -276 5008 0
-5009 43 0
-5009 147 0
-5009 277 0
-43 -147 -277 5009 0
-5010 44 0
-5010 148 0
-5010 278 0
-44 -148 -278 5010 0
-5011 45 0
-5011 149 0
-5011 279 0
-45 -149 -279 5011 0
-5012 46 0
-5012 150 0
-5012 280 0
-46 -150 -280 5012 0
-5013 47 0
-5013 151 0
-5013 281 0
-47 -151 -281 5013 0
-5014 48 0
-5014 152 0
-5014 282 0
-48 -152 -282 5014 0
-5015 49 0
-5015 153 0
-5015 283 0
-49 -153 -283 5015 0
-5016 50 0
-5016 154 0
-5016 284 0
-50 -154 -284 5016 0
-5017 51 0
-5017 155 0
-5017 285 0
-51 -155 -285 5017 0
-5018 52 0
-5018 156 0
-5018 286 0
-52 -156 -286 5018 0
-4993 10004 0
-4994 10004 0
-4995 10004 0
-4996 10004 0
-4997 10004 0
-4998 10004 0
-4999 10004 0
-5000 10004 0
-5001 10004 0
-5002 10004 0
-5003 10004 0
-5004 10004 0
-5005 10004 0
-5006 10004 0
-5007 10004 0
-5008 10004 0
-5009 10004 0
-5010 10004 0
-5011 10004 0
-5012 10004 0
-5013 10004 0
-5014 10004 0
-5015 10004 0
-5016 10004 0
-5017 10004 0
-5018 10004 0
-10004 4993 4994 4995 4996 4997 4998 4999 5000 5001 5002 5003 5004 5005 5006 5007 5008 5009 5010 5011 5012 5013 5014 5015 5016 5017 5018 0
-5019 27 0
-5019 131 0
-5019 287 0
-27 -131 -287 5019 0
-5020 28 0
-5020 132 0
-5020 288 0
-28 -132 -288 5020 0
-5021 29 0
-5021 133 0
-5021 289 0
-29 -133 -289 5021 0
-5022 30 0
-5022 134 0
-5022 290 0
-30 -134 -290 5022 0
-5023 31 0
-5023 135 0
-5023 291 0
-31 -135 -291 5023 0
-5024 32 0
-5024 136 0
-5024 292 0
-32 -136 -292 5024 0
-5025 33 0
-5025 137 0
-5025 293 0
-33 -137 -293 5025 0
-5026 34 0
-5026 138 0
-5026 294 0
-34 -138 -294 5026 0
-5027 35 0
-5027 139 0
-5027 295 0
-35 -139 -295 5027 0
-5028 36 0
-5028 140 0
-5028 296 0
-36 -140 -296 5028 0
-5029 37 0
-5029 141 0
-5029 297 0
-37 -141 -297 5029 0
-5030 38 0
-5030 142 0
-5030 298 0
-38 -142 -298 5030 0
-5031 39 0
-5031 143 0
-5031 299 0
-39 -143 -299 5031 0
-5032 40 0
-5032 144 0
-5032 300 0
-40 -144 -300 5032 0
-5033 41 0
-5033 145 0
-5033 301 0
-41 -145 -301 5033 0
-5034 42 0
-5034 146 0
-5034 302 0
-42 -146 -302 5034 0
-5035 43 0
-5035 147 0
-5035 303 0
-43 -147 -303 5035 0
-5036 44 0
-5036 148 0
-5036 304 0
-44 -148 -304 5036 0
-5037 45 0
-5037 149 0
-5037 305 0
-45 -149 -305 5037 0
-5038 46 0
-5038 150 0
-5038 306 0
-46 -150 -306 5038 0
-5039 47 0
-5039 151 0
-5039 307 0
-47 -151 -307 5039 0
-5040 48 0
-5040 152 0
-5040 308 0
-48 -152 -308 5040 0
-5041 49 0
-5041 153 0
-5041 309 0
-49 -153 -309 5041 0
-5042 50 0
-5042 154 0
-5042 310 0
-50 -154 -310 5042 0
-5043 51 0
-5043 155 0
-5043 311 0
-51 -155 -311 5043 0
-5044 52 0
-5044 156 0
-5044 312 0
-52 -156 -312 5044 0
-5019 10005 0
-5020 10005 0
-5021 10005 0
-5022 10005 0
-5023 10005 0
-5024 10005 0
-5025 10005 0
-5026 10005 0
-5027 10005 0
-5028 10005 0
-5029 10005 0
-5030 10005 0
-5031 10005 0
-5032 10005 0
-5033 10005 0
-5034 10005 0
-5035 10005 0
-5036 10005 0
-5037 10005 0
-5038 10005 0
-5039 10005 0
-5040 10005 0
-5041 10005 0
-5042 10005 0
-5043 10005 0
-5044 10005 0
-10005 5019 5020 5021 5022 5023 5024 5025 5026 5027 5028 5029 5030 5031 5032 5033 5034 5035 5036 5037 5038 5039 5040 5041 5042 5043 5044 0
-5045 27 0
-5045 131 0
-5045 313 0
-27 -131 -313 5045 0
-5046 28 0
-5046 132 0
-5046 314 0
-28 -132 -314 5046 0
-5047 29 0
-5047 133 0
-5047 315 0
-29 -133 -315 5047 0
-5048 30 0
-5048 134 0
-5048 316 0
-30 -134 -316 5048 0
-5049 31 0
-5049 135 0
-5049 317 0
-31 -135 -317 5049 0
-5050 32 0
-5050 136 0
-5050 318 0
-32 -136 -318 5050 0
-5051 33 0
-5051 137 0
-5051 319 0
-33 -137 -319 5051 0
-5052 34 0
-5052 138 0
-5052 320 0
-34 -138 -320 5052 0
-5053 35 0
-5053 139 0
-5053 321 0
-35 -139 -321 5053 0
-5054 36 0
-5054 140 0
-5054 322 0
-36 -140 -322 5054 0
-5055 37 0
-5055 141 0
-5055 323 0
-37 -141 -323 5055 0
-5056 38 0
-5056 142 0
-5056 324 0
-38 -142 -324 5056 0
-5057 39 0
-5057 143 0
-5057 325 0
-39 -143 -325 5057 0
-5058 40 0
-5058 144 0
-5058 326 0
-40 -144 -326 5058 0
-5059 41 0
-5059 145 0
-5059 327 0
-41 -145 -327 5059 0
-5060 42 0
-5060 146 0
-5060 328 0
-42 -146 -328 5060 0
-5061 43 0
-5061 147 0
-5061 329 0
-43 -147 -329 5061 0
-5062 44 0
-5062 148 0
-5062 330 0
-44 -148 -330 5062 0
-5063 45 0
-5063 149 0
-5063 331 0
-45 -149 -331 5063 0
-5064 46 0
-5064 150 0
-5064 332 0
-46 -150 -332 5064 0
-5065 47 0
-5065 151 0
-5065 333 0
-47 -151 -333 5065 0
-5066 48 0
-5066 152 0
-5066 334 0
-48 -152 -334 5066 0
-5067 49 0
-5067 153 0
-5067 335 0
-49 -153 -335 5067 0
-5068 50 0
-5068 154 0
-5068 336 0
-50 -154 -336 5068 0
-5069 51 0
-5069 155 0
-5069 337 0
-51 -155 -337 5069 0
-5070 52 0
-5070 156 0
-5070 338 0
-52 -156 -338 5070 0
-5045 10006 0
-5046 10006 0
-5047 10006 0
-5048 10006 0
-5049 10006 0
-5050 10006 0
-5051 10006 0
-5052 10006 0
-5053 10006 0
-5054 10006 0
-5055 10006 0
-5056 10006 0
-5057 10006 0
-5058 10006 0
-5059 10006 0
-5060 10006 0
-5061 10006 0
-5062 10006 0
-5063 10006 0
-5064 10006 0
-5065 10006 0
-5066 10006 0
-5067 10006 0
-5068 10006 0
-5069 10006 0
-5070 10006 0
-10006 5045 5046 5047 5048 5049 5050 5051 5052 5053 5054 5055 5056 5057 5058 5059 5060 5061 5062 5063 5064 5065 5066 5067 5068 5069 5070 0
-5071 27 0
-5071 157 0
-5071 183 0
-27 -157 -183 5071 0
-5072 28 0
-5072 158 0
-5072 184 0
-28 -158 -184 5072 0
-5073 29 0
-5073 159 0
-5073 185 0
-29 -159 -185 5073 0
-5074 30 0
-5074 160 0
-5074 186 0
-30 -160 -186 5074 0
-5075 31 0
-5075 161 0
-5075 187 0
-31 -161 -187 5075 0
-5076 32 0
-5076 162 0
-5076 188 0
-32 -162 -188 5076 0
-5077 33 0
-5077 163 0
-5077 189 0
-33 -163 -189 5077 0
-5078 34 0
-5078 164 0
-5078 190 0
-34 -164 -190 5078 0
-5079 35 0
-5079 165 0
-5079 191 0
-35 -165 -191 5079 0
-5080 36 0
-5080 166 0
-5080 192 0
-36 -166 -192 5080 0
-5081 37 0
-5081 167 0
-5081 193 0
-37 -167 -193 5081 0
-5082 38 0
-5082 168 0
-5082 194 0
-38 -168 -194 5082 0
-5083 39 0
-5083 169 0
-5083 195 0
-39 -169 -195 5083 0
-5084 40 0
-5084 170 0
-5084 196 0
-40 -170 -196 5084 0
-5085 41 0
-5085 171 0
-5085 197 0
-41 -171 -197 5085 0
-5086 42 0
-5086 172 0
-5086 198 0
-42 -172 -198 5086 0
-5087 43 0
-5087 173 0
-5087 199 0
-43 -173 -199 5087 0
-5088 44 0
-5088 174 0
-5088 200 0
-44 -174 -200 5088 0
-5089 45 0
-5089 175 0
-5089 201 0
-45 -175 -201 5089 0
-5090 46 0
-5090 176 0
-5090 202 0
-46 -176 -202 5090 0
-5091 47 0
-5091 177 0
-5091 203 0
-47 -177 -203 5091 0
-5092 48 0
-5092 178 0
-5092 204 0
-48 -178 -204 5092 0
-5093 49 0
-5093 179 0
-5093 205 0
-49 -179 -205 5093 0
-5094 50 0
-5094 180 0
-5094 206 0
-50 -180 -206 5094 0
-5095 51 0
-5095 181 0
-5095 207 0
-51 -181 -207 5095 0
-5096 52 0
-5096 182 0
-5096 208 0
-52 -182 -208 5096 0
-5071 10007 0
-5072 10007 0
-5073 10007 0
-5074 10007 0
-5075 10007 0
-5076 10007 0
-5077 10007 0
-5078 10007 0
-5079 10007 0
-5080 10007 0
-5081 10007 0
-5082 10007 0
-5083 10007 0
-5084 10007 0
-5085 10007 0
-5086 10007 0
-5087 10007 0
-5088 10007 0
-5089 10007 0
-5090 10007 0
-5091 10007 0
-5092 10007 0
-5093 10007 0
-5094 10007 0
-5095 10007 0
-5096 10007 0
-10007 5071 5072 5073 5074 5075 5076 5077 5078 5079 5080 5081 5082 5083 5084 5085 5086 5087 5088 5089 5090 5091 5092 5093 5094 5095 5096 0
-5097 27 0
-5097 157 0
-5097 209 0
-27 -157 -209 5097 0
-5098 28 0
-5098 158 0
-5098 210 0
-28 -158 -210 5098 0
-5099 29 0
-5099 159 0
-5099 211 0
-29 -159 -211 5099 0
-5100 30 0
-5100 160 0
-5100 212 0
-30 -160 -212 5100 0
-5101 31 0
-5101 161 0
-5101 213 0
-31 -161 -213 5101 0
-5102 32 0
-5102 162 0
-5102 214 0
-32 -162 -214 5102 0
-5103 33 0
-5103 163 0
-5103 215 0
-33 -163 -215 5103 0
-5104 34 0
-5104 164 0
-5104 216 0
-34 -164 -216 5104 0
-5105 35 0
-5105 165 0
-5105 217 0
-35 -165 -217 5105 0
-5106 36 0
-5106 166 0
-5106 218 0
-36 -166 -218 5106 0
-5107 37 0
-5107 167 0
-5107 219 0
-37 -167 -219 5107 0
-5108 38 0
-5108 168 0
-5108 220 0
-38 -168 -220 5108 0
-5109 39 0
-5109 169 0
-5109 221 0
-39 -169 -221 5109 0
-5110 40 0
-5110 170 0
-5110 222 0
-40 -170 -222 5110 0
-5111 41 0
-5111 171 0
-5111 223 0
-41 -171 -223 5111 0
-5112 42 0
-5112 172 0
-5112 224 0
-42 -172 -224 5112 0
-5113 43 0
-5113 173 0
-5113 225 0
-43 -173 -225 5113 0
-5114 44 0
-5114 174 0
-5114 226 0
-44 -174 -226 5114 0
-5115 45 0
-5115 175 0
-5115 227 0
-45 -175 -227 5115 0
-5116 46 0
-5116 176 0
-5116 228 0
-46 -176 -228 5116 0
-5117 47 0
-5117 177 0
-5117 229 0
-47 -177 -229 5117 0
-5118 48 0
-5118 178 0
-5118 230 0
-48 -178 -230 5118 0
-5119 49 0
-5119 179 0
-5119 231 0
-49 -179 -231 5119 0
-5120 50 0
-5120 180 0
-5120 232 0
-50 -180 -232 5120 0
-5121 51 0
-5121 181 0
-5121 233 0
-51 -181 -233 5121 0
-5122 52 0
-5122 182 0
-5122 234 0
-52 -182 -234 5122 0
-5097 10008 0
-5098 10008 0
-5099 10008 0
-5100 10008 0
-5101 10008 0
-5102 10008 0
-5103 10008 0
-5104 10008 0
-5105 10008 0
-5106 10008 0
-5107 10008 0
-5108 10008 0
-5109 10008 0
-5110 10008 0
-5111 10008 0
-5112 10008 0
-5113 10008 0
-5114 10008 0
-5115 10008 0
-5116 10008 0
-5117 10008 0
-5118 10008 0
-5119 10008 0
-5120 10008 0
-5121 10008 0
-5122 10008 0
-10008 5097 5098 5099 5100 5101 5102 5103 5104 5105 5106 5107 5108 5109 5110 5111 5112 5113 5114 5115 5116 5117 5118 5119 5120 5121 5122 0
-5123 27 0
-5123 157 0
-5123 235 0
-27 -157 -235 5123 0
-5124 28 0
-5124 158 0
-5124 236 0
-28 -158 -236 5124 0
-5125 29 0
-5125 159 0
-5125 237 0
-29 -159 -237 5125 0
-5126 30 0
-5126 160 0
-5126 238 0
-30 -160 -238 5126 0
-5127 31 0
-5127 161 0
-5127 239 0
-31 -161 -239 5127 0
-5128 32 0
-5128 162 0
-5128 240 0
-32 -162 -240 5128 0
-5129 33 0
-5129 163 0
-5129 241 0
-33 -163 -241 5129 0
-5130 34 0
-5130 164 0
-5130 242 0
-34 -164 -242 5130 0
-5131 35 0
-5131 165 0
-5131 243 0
-35 -165 -243 5131 0
-5132 36 0
-5132 166 0
-5132 244 0
-36 -166 -244 5132 0
-5133 37 0
-5133 167 0
-5133 245 0
-37 -167 -245 5133 0
-5134 38 0
-5134 168 0
-5134 246 0
-38 -168 -246 5134 0
-5135 39 0
-5135 169 0
-5135 247 0
-39 -169 -247 5135 0
-5136 40 0
-5136 170 0
-5136 248 0
-40 -170 -248 5136 0
-5137 41 0
-5137 171 0
-5137 249 0
-41 -171 -249 5137 0
-5138 42 0
-5138 172 0
-5138 250 0
-42 -172 -250 5138 0
-5139 43 0
-5139 173 0
-5139 251 0
-43 -173 -251 5139 0
-5140 44 0
-5140 174 0
-5140 252 0
-44 -174 -252 5140 0
-5141 45 0
-5141 175 0
-5141 253 0
-45 -175 -253 5141 0
-5142 46 0
-5142 176 0
-5142 254 0
-46 -176 -254 5142 0
-5143 47 0
-5143 177 0
-5143 255 0
-47 -177 -255 5143 0
-5144 48 0
-5144 178 0
-5144 256 0
-48 -178 -256 5144 0
-5145 49 0
-5145 179 0
-5145 257 0
-49 -179 -257 5145 0
-5146 50 0
-5146 180 0
-5146 258 0
-50 -180 -258 5146 0
-5147 51 0
-5147 181 0
-5147 259 0
-51 -181 -259 5147 0
-5148 52 0
-5148 182 0
-5148 260 0
-52 -182 -260 5148 0
-5123 10009 0
-5124 10009 0
-5125 10009 0
-5126 10009 0
-5127 10009 0
-5128 10009 0
-5129 10009 0
-5130 10009 0
-5131 10009 0
-5132 10009 0
-5133 10009 0
-5134 10009 0
-5135 10009 0
-5136 10009 0
-5137 10009 0
-5138 10009 0
-5139 10009 0
-5140 10009 0
-5141 10009 0
-5142 10009 0
-5143 10009 0
-5144 10009 0
-5145 10009 0
-5146 10009 0
-5147 10009 0
-5148 10009 0
-10009 5123 5124 5125 5126 5127 5128 5129 5130 5131 5132 5133 5134 5135 5136 5137 5138 5139 5140 5141 5142 5143 5144 5145 5146 5147 5148 0
-5149 27 0
-5149 157 0
-5149 261 0
-27 -157 -261 5149 0
-5150 28 0
-5150 158 0
-5150 262 0
-28 -158 -262 5150 0
-5151 29 0
-5151 159 0
-5151 263 0
-29 -159 -263 5151 0
-5152 30 0
-5152 160 0
-5152 264 0
-30 -160 -264 5152 0
-5153 31 0
-5153 161 0
-5153 265 0
-31 -161 -265 5153 0
-5154 32 0
-5154 162 0
-5154 266 0
-32 -162 -266 5154 0
-5155 33 0
-5155 163 0
-5155 267 0
-33 -163 -267 5155 0
-5156 34 0
-5156 164 0
-5156 268 0
-34 -164 -268 5156 0
-5157 35 0
-5157 165 0
-5157 269 0
-35 -165 -269 5157 0
-5158 36 0
-5158 166 0
-5158 270 0
-36 -166 -270 5158 0
-5159 37 0
-5159 167 0
-5159 271 0
-37 -167 -271 5159 0
-5160 38 0
-5160 168 0
-5160 272 0
-38 -168 -272 5160 0
-5161 39 0
-5161 169 0
-5161 273 0
-39 -169 -273 5161 0
-5162 40 0
-5162 170 0
-5162 274 0
-40 -170 -274 5162 0
-5163 41 0
-5163 171 0
-5163 275 0
-41 -171 -275 5163 0
-5164 42 0
-5164 172 0
-5164 276 0
-42 -172 -276 5164 0
-5165 43 0
-5165 173 0
-5165 277 0
-43 -173 -277 5165 0
-5166 44 0
-5166 174 0
-5166 278 0
-44 -174 -278 5166 0
-5167 45 0
-5167 175 0
-5167 279 0
-45 -175 -279 5167 0
-5168 46 0
-5168 176 0
-5168 280 0
-46 -176 -280 5168 0
-5169 47 0
-5169 177 0
-5169 281 0
-47 -177 -281 5169 0
-5170 48 0
-5170 178 0
-5170 282 0
-48 -178 -282 5170 0
-5171 49 0
-5171 179 0
-5171 283 0
-49 -179 -283 5171 0
-5172 50 0
-5172 180 0
-5172 284 0
-50 -180 -284 5172 0
-5173 51 0
-5173 181 0
-5173 285 0
-51 -181 -285 5173 0
-5174 52 0
-5174 182 0
-5174 286 0
-52 -182 -286 5174 0
-5149 10010 0
-5150 10010 0
-5151 10010 0
-5152 10010 0
-5153 10010 0
-5154 10010 0
-5155 10010 0
-5156 10010 0
-5157 10010 0
-5158 10010 0
-5159 10010 0
-5160 10010 0
-5161 10010 0
-5162 10010 0
-5163 10010 0
-5164 10010 0
-5165 10010 0
-5166 10010 0
-5167 10010 0
-5168 10010 0
-5169 10010 0
-5170 10010 0
-5171 10010 0
-5172 10010 0
-5173 10010 0
-5174 10010 0
-10010 5149 5150 5151 5152 5153 5154 5155 5156 5157 5158 5159 5160 5161 5162 5163 5164 5165 5166 5167 5168 5169 5170 5171 5172 5173 5174 0
-5175 27 0
-5175 157 0
-5175 287 0
-27 -157 -287 5175 0
-5176 28 0
-5176 158 0
-5176 288 0
-28 -158 -288 5176 0
-5177 29 0
-5177 159 0
-5177 289 0
-29 -159 -289 5177 0
-5178 30 0
-5178 160 0
-5178 290 0
-30 -160 -290 5178 0
-5179 31 0
-5179 161 0
-5179 291 0
-31 -161 -291 5179 0
-5180 32 0
-5180 162 0
-5180 292 0
-32 -162 -292 5180 0
-5181 33 0
-5181 163 0
-5181 293 0
-33 -163 -293 5181 0
-5182 34 0
-5182 164 0
-5182 294 0
-34 -164 -294 5182 0
-5183 35 0
-5183 165 0
-5183 295 0
-35 -165 -295 5183 0
-5184 36 0
-5184 166 0
-5184 296 0
-36 -166 -296 5184 0
-5185 37 0
-5185 167 0
-5185 297 0
-37 -167 -297 5185 0
-5186 38 0
-5186 168 0
-5186 298 0
-38 -168 -298 5186 0
-5187 39 0
-5187 169 0
-5187 299 0
-39 -169 -299 5187 0
-5188 40 0
-5188 170 0
-5188 300 0
-40 -170 -300 5188 0
-5189 41 0
-5189 171 0
-5189 301 0
-41 -171 -301 5189 0
-5190 42 0
-5190 172 0
-5190 302 0
-42 -172 -302 5190 0
-5191 43 0
-5191 173 0
-5191 303 0
-43 -173 -303 5191 0
-5192 44 0
-5192 174 0
-5192 304 0
-44 -174 -304 5192 0
-5193 45 0
-5193 175 0
-5193 305 0
-45 -175 -305 5193 0
-5194 46 0
-5194 176 0
-5194 306 0
-46 -176 -306 5194 0
-5195 47 0
-5195 177 0
-5195 307 0
-47 -177 -307 5195 0
-5196 48 0
-5196 178 0
-5196 308 0
-48 -178 -308 5196 0
-5197 49 0
-5197 179 0
-5197 309 0
-49 -179 -309 5197 0
-5198 50 0
-5198 180 0
-5198 310 0
-50 -180 -310 5198 0
-5199 51 0
-5199 181 0
-5199 311 0
-51 -181 -311 5199 0
-5200 52 0
-5200 182 0
-5200 312 0
-52 -182 -312 5200 0
-5175 10011 0
-5176 10011 0
-5177 10011 0
-5178 10011 0
-5179 10011 0
-5180 10011 0
-5181 10011 0
-5182 10011 0
-5183 10011 0
-5184 10011 0
-5185 10011 0
-5186 10011 0
-5187 10011 0
-5188 10011 0
-5189 10011 0
-5190 10011 0
-5191 10011 0
-5192 10011 0
-5193 10011 0
-5194 10011 0
-5195 10011 0
-5196 10011 0
-5197 10011 0
-5198 10011 0
-5199 10011 0
-5200 10011 0
-10011 5175 5176 5177 5178 5179 5180 5181 5182 5183 5184 5185 5186 5187 5188 5189 5190 5191 5192 5193 5194 5195 5196 5197 5198 5199 5200 0
-5201 27 0
-5201 157 0
-5201 313 0
-27 -157 -313 5201 0
-5202 28 0
-5202 158 0
-5202 314 0
-28 -158 -314 5202 0
-5203 29 0
-5203 159 0
-5203 315 0
-29 -159 -315 5203 0
-5204 30 0
-5204 160 0
-5204 316 0
-30 -160 -316 5204 0
-5205 31 0
-5205 161 0
-5205 317 0
-31 -161 -317 5205 0
-5206 32 0
-5206 162 0
-5206 318 0
-32 -162 -318 5206 0
-5207 33 0
-5207 163 0
-5207 319 0
-33 -163 -319 5207 0
-5208 34 0
-5208 164 0
-5208 320 0
-34 -164 -320 5208 0
-5209 35 0
-5209 165 0
-5209 321 0
-35 -165 -321 5209 0
-5210 36 0
-5210 166 0
-5210 322 0
-36 -166 -322 5210 0
-5211 37 0
-5211 167 0
-5211 323 0
-37 -167 -323 5211 0
-5212 38 0
-5212 168 0
-5212 324 0
-38 -168 -324 5212 0
-5213 39 0
-5213 169 0
-5213 325 0
-39 -169 -325 5213 0
-5214 40 0
-5214 170 0
-5214 326 0
-40 -170 -326 5214 0
-5215 41 0
-5215 171 0
-5215 327 0
-41 -171 -327 5215 0
-5216 42 0
-5216 172 0
-5216 328 0
-42 -172 -328 5216 0
-5217 43 0
-5217 173 0
-5217 329 0
-43 -173 -329 5217 0
-5218 44 0
-5218 174 0
-5218 330 0
-44 -174 -330 5218 0
-5219 45 0
-5219 175 0
-5219 331 0
-45 -175 -331 5219 0
-5220 46 0
-5220 176 0
-5220 332 0
-46 -176 -332 5220 0
-5221 47 0
-5221 177 0
-5221 333 0
-47 -177 -333 5221 0
-5222 48 0
-5222 178 0
-5222 334 0
-48 -178 -334 5222 0
-5223 49 0
-5223 179 0
-5223 335 0
-49 -179 -335 5223 0
-5224 50 0
-5224 180 0
-5224 336 0
-50 -180 -336 5224 0
-5225 51 0
-5225 181 0
-5225 337 0
-51 -181 -337 5225 0
-5226 52 0
-5226 182 0
-5226 338 0
-52 -182 -338 5226 0
-5201 10012 0
-5202 10012 0
-5203 10012 0
-5204 10012 0
-5205 10012 0
-5206 10012 0
-5207 10012 0
-5208 10012 0
-5209 10012 0
-5210 10012 0
-5211 10012 0
-5212 10012 0
-5213 10012 0
-5214 10012 0
-5215 10012 0
-5216 10012 0
-5217 10012 0
-5218 10012 0
-5219 10012 0
-5220 10012 0
-5221 10012 0
-5222 10012 0
-5223 10012 0
-5224 10012 0
-5225 10012 0
-5226 10012 0
-10012 5201 5202 5203 5204 5205 5206 5207 5208 5209 5210 5211 5212 5213 5214 5215 5216 5217 5218 5219 5220 5221 5222 5223 5224 5225 5226 0
-5227 27 0
-5227 183 0
-5227 209 0
-27 -183 -209 5227 0
-5228 28 0
-5228 184 0
-5228 210 0
-28 -184 -210 5228 0
-5229 29 0
-5229 185 0
-5229 211 0
-29 -185 -211 5229 0
-5230 30 0
-5230 186 0
-5230 212 0
-30 -186 -212 5230 0
-5231 31 0
-5231 187 0
-5231 213 0
-31 -187 -213 5231 0
-5232 32 0
-5232 188 0
-5232 214 0
-32 -188 -214 5232 0
-5233 33 0
-5233 189 0
-5233 215 0
-33 -189 -215 5233 0
-5234 34 0
-5234 190 0
-5234 216 0
-34 -190 -216 5234 0
-5235 35 0
-5235 191 0
-5235 217 0
-35 -191 -217 5235 0
-5236 36 0
-5236 192 0
-5236 218 0
-36 -192 -218 5236 0
-5237 37 0
-5237 193 0
-5237 219 0
-37 -193 -219 5237 0
-5238 38 0
-5238 194 0
-5238 220 0
-38 -194 -220 5238 0
-5239 39 0
-5239 195 0
-5239 221 0
-39 -195 -221 5239 0
-5240 40 0
-5240 196 0
-5240 222 0
-40 -196 -222 5240 0
-5241 41 0
-5241 197 0
-5241 223 0
-41 -197 -223 5241 0
-5242 42 0
-5242 198 0
-5242 224 0
-42 -198 -224 5242 0
-5243 43 0
-5243 199 0
-5243 225 0
-43 -199 -225 5243 0
-5244 44 0
-5244 200 0
-5244 226 0
-44 -200 -226 5244 0
-5245 45 0
-5245 201 0
-5245 227 0
-45 -201 -227 5245 0
-5246 46 0
-5246 202 0
-5246 228 0
-46 -202 -228 5246 0
-5247 47 0
-5247 203 0
-5247 229 0
-47 -203 -229 5247 0
-5248 48 0
-5248 204 0
-5248 230 0
-48 -204 -230 5248 0
-5249 49 0
-5249 205 0
-5249 231 0
-49 -205 -231 5249 0
-5250 50 0
-5250 206 0
-5250 232 0
-50 -206 -232 5250 0
-5251 51 0
-5251 207 0
-5251 233 0
-51 -207 -233 5251 0
-5252 52 0
-5252 208 0
-5252 234 0
-52 -208 -234 5252 0
-5227 10013 0
-5228 10013 0
-5229 10013 0
-5230 10013 0
-5231 10013 0
-5232 10013 0
-5233 10013 0
-5234 10013 0
-5235 10013 0
-5236 10013 0
-5237 10013 0
-5238 10013 0
-5239 10013 0
-5240 10013 0
-5241 10013 0
-5242 10013 0
-5243 10013 0
-5244 10013 0
-5245 10013 0
-5246 10013 0
-5247 10013 0
-5248 10013 0
-5249 10013 0
-5250 10013 0
-5251 10013 0
-5252 10013 0
-10013 5227 5228 5229 5230 5231 5232 5233 5234 5235 5236 5237 5238 5239 5240 5241 5242 5243 5244 5245 5246 5247 5248 5249 5250 5251 5252 0
-5253 27 0
-5253 183 0
-5253 235 0
-27 -183 -235 5253 0
-5254 28 0
-5254 184 0
-5254 236 0
-28 -184 -236 5254 0
-5255 29 0
-5255 185 0
-5255 237 0
-29 -185 -237 5255 0
-5256 30 0
-5256 186 0
-5256 238 0
-30 -186 -238 5256 0
-5257 31 0
-5257 187 0
-5257 239 0
-31 -187 -239 5257 0
-5258 32 0
-5258 188 0
-5258 240 0
-32 -188 -240 5258 0
-5259 33 0
-5259 189 0
-5259 241 0
-33 -189 -241 5259 0
-5260 34 0
-5260 190 0
-5260 242 0
-34 -190 -242 5260 0
-5261 35 0
-5261 191 0
-5261 243 0
-35 -191 -243 5261 0
-5262 36 0
-5262 192 0
-5262 244 0
-36 -192 -244 5262 0
-5263 37 0
-5263 193 0
-5263 245 0
-37 -193 -245 5263 0
-5264 38 0
-5264 194 0
-5264 246 0
-38 -194 -246 5264 0
-5265 39 0
-5265 195 0
-5265 247 0
-39 -195 -247 5265 0
-5266 40 0
-5266 196 0
-5266 248 0
-40 -196 -248 5266 0
-5267 41 0
-5267 197 0
-5267 249 0
-41 -197 -249 5267 0
-5268 42 0
-5268 198 0
-5268 250 0
-42 -198 -250 5268 0
-5269 43 0
-5269 199 0
-5269 251 0
-43 -199 -251 5269 0
-5270 44 0
-5270 200 0
-5270 252 0
-44 -200 -252 5270 0
-5271 45 0
-5271 201 0
-5271 253 0
-45 -201 -253 5271 0
-5272 46 0
-5272 202 0
-5272 254 0
-46 -202 -254 5272 0
-5273 47 0
-5273 203 0
-5273 255 0
-47 -203 -255 5273 0
-5274 48 0
-5274 204 0
-5274 256 0
-48 -204 -256 5274 0
-5275 49 0
-5275 205 0
-5275 257 0
-49 -205 -257 5275 0
-5276 50 0
-5276 206 0
-5276 258 0
-50 -206 -258 5276 0
-5277 51 0
-5277 207 0
-5277 259 0
-51 -207 -259 5277 0
-5278 52 0
-5278 208 0
-5278 260 0
-52 -208 -260 5278 0
-5253 10014 0
-5254 10014 0
-5255 10014 0
-5256 10014 0
-5257 10014 0
-5258 10014 0
-5259 10014 0
-5260 10014 0
-5261 10014 0
-5262 10014 0
-5263 10014 0
-5264 10014 0
-5265 10014 0
-5266 10014 0
-5267 10014 0
-5268 10014 0
-5269 10014 0
-5270 10014 0
-5271 10014 0
-5272 10014 0
-5273 10014 0
-5274 10014 0
-5275 10014 0
-5276 10014 0
-5277 10014 0
-5278 10014 0
-10014 5253 5254 5255 5256 5257 5258 5259 5260 5261 5262 5263 5264 5265 5266 5267 5268 5269 5270 5271 5272 5273 5274 5275 5276 5277 5278 0
-5279 27 0
-5279 183 0
-5279 261 0
-27 -183 -261 5279 0
-5280 28 0
-5280 184 0
-5280 262 0
-28 -184 -262 5280 0
-5281 29 0
-5281 185 0
-5281 263 0
-29 -185 -263 5281 0
-5282 30 0
-5282 186 0
-5282 264 0
-30 -186 -264 5282 0
-5283 31 0
-5283 187 0
-5283 265 0
-31 -187 -265 5283 0
-5284 32 0
-5284 188 0
-5284 266 0
-32 -188 -266 5284 0
-5285 33 0
-5285 189 0
-5285 267 0
-33 -189 -267 5285 0
-5286 34 0
-5286 190 0
-5286 268 0
-34 -190 -268 5286 0
-5287 35 0
-5287 191 0
-5287 269 0
-35 -191 -269 5287 0
-5288 36 0
-5288 192 0
-5288 270 0
-36 -192 -270 5288 0
-5289 37 0
-5289 193 0
-5289 271 0
-37 -193 -271 5289 0
-5290 38 0
-5290 194 0
-5290 272 0
-38 -194 -272 5290 0
-5291 39 0
-5291 195 0
-5291 273 0
-39 -195 -273 5291 0
-5292 40 0
-5292 196 0
-5292 274 0
-40 -196 -274 5292 0
-5293 41 0
-5293 197 0
-5293 275 0
-41 -197 -275 5293 0
-5294 42 0
-5294 198 0
-5294 276 0
-42 -198 -276 5294 0
-5295 43 0
-5295 199 0
-5295 277 0
-43 -199 -277 5295 0
-5296 44 0
-5296 200 0
-5296 278 0
-44 -200 -278 5296 0
-5297 45 0
-5297 201 0
-5297 279 0
-45 -201 -279 5297 0
-5298 46 0
-5298 202 0
-5298 280 0
-46 -202 -280 5298 0
-5299 47 0
-5299 203 0
-5299 281 0
-47 -203 -281 5299 0
-5300 48 0
-5300 204 0
-5300 282 0
-48 -204 -282 5300 0
-5301 49 0
-5301 205 0
-5301 283 0
-49 -205 -283 5301 0
-5302 50 0
-5302 206 0
-5302 284 0
-50 -206 -284 5302 0
-5303 51 0
-5303 207 0
-5303 285 0
-51 -207 -285 5303 0
-5304 52 0
-5304 208 0
-5304 286 0
-52 -208 -286 5304 0
-5279 10015 0
-5280 10015 0
-5281 10015 0
-5282 10015 0
-5283 10015 0
-5284 10015 0
-5285 10015 0
-5286 10015 0
-5287 10015 0
-5288 10015 0
-5289 10015 0
-5290 10015 0
-5291 10015 0
-5292 10015 0
-5293 10015 0
-5294 10015 0
-5295 10015 0
-5296 10015 0
-5297 10015 0
-5298 10015 0
-5299 10015 0
-5300 10015 0
-5301 10015 0
-5302 10015 0
-5303 10015 0
-5304 10015 0
-10015 5279 5280 5281 5282 5283 5284 5285 5286 5287 5288 5289 5290 5291 5292 5293 5294 5295 5296 5297 5298 5299 5300 5301 5302 5303 5304 0
-5305 27 0
-5305 183 0
-5305 287 0
-27 -183 -287 5305 0
-5306 28 0
-5306 184 0
-5306 288 0
-28 -184 -288 5306 0
-5307 29 0
-5307 185 0
-5307 289 0
-29 -185 -289 5307 0
-5308 30 0
-5308 186 0
-5308 290 0
-30 -186 -290 5308 0
-5309 31 0
-5309 187 0
-5309 291 0
-31 -187 -291 5309 0
-5310 32 0
-5310 188 0
-5310 292 0
-32 -188 -292 5310 0
-5311 33 0
-5311 189 0
-5311 293 0
-33 -189 -293 5311 0
-5312 34 0
-5312 190 0
-5312 294 0
-34 -190 -294 5312 0
-5313 35 0
-5313 191 0
-5313 295 0
-35 -191 -295 5313 0
-5314 36 0
-5314 192 0
-5314 296 0
-36 -192 -296 5314 0
-5315 37 0
-5315 193 0
-5315 297 0
-37 -193 -297 5315 0
-5316 38 0
-5316 194 0
-5316 298 0
-38 -194 -298 5316 0
-5317 39 0
-5317 195 0
-5317 299 0
-39 -195 -299 5317 0
-5318 40 0
-5318 196 0
-5318 300 0
-40 -196 -300 5318 0
-5319 41 0
-5319 197 0
-5319 301 0
-41 -197 -301 5319 0
-5320 42 0
-5320 198 0
-5320 302 0
-42 -198 -302 5320 0
-5321 43 0
-5321 199 0
-5321 303 0
-43 -199 -303 5321 0
-5322 44 0
-5322 200 0
-5322 304 0
-44 -200 -304 5322 0
-5323 45 0
-5323 201 0
-5323 305 0
-45 -201 -305 5323 0
-5324 46 0
-5324 202 0
-5324 306 0
-46 -202 -306 5324 0
-5325 47 0
-5325 203 0
-5325 307 0
-47 -203 -307 5325 0
-5326 48 0
-5326 204 0
-5326 308 0
-48 -204 -308 5326 0
-5327 49 0
-5327 205 0
-5327 309 0
-49 -205 -309 5327 0
-5328 50 0
-5328 206 0
-5328 310 0
-50 -206 -310 5328 0
-5329 51 0
-5329 207 0
-5329 311 0
-51 -207 -311 5329 0
-5330 52 0
-5330 208 0
-5330 312 0
-52 -208 -312 5330 0
-5305 10016 0
-5306 10016 0
-5307 10016 0
-5308 10016 0
-5309 10016 0
-5310 10016 0
-5311 10016 0
-5312 10016 0
-5313 10016 0
-5314 10016 0
-5315 10016 0
-5316 10016 0
-5317 10016 0
-5318 10016 0
-5319 10016 0
-5320 10016 0
-5321 10016 0
-5322 10016 0
-5323 10016 0
-5324 10016 0
-5325 10016 0
-5326 10016 0
-5327 10016 0
-5328 10016 0
-5329 10016 0
-5330 10016 0
-10016 5305 5306 5307 5308 5309 5310 5311 5312 5313 5314 5315 5316 5317 5318 5319 5320 5321 5322 5323 5324 5325 5326 5327 5328 5329 5330 0
-5331 27 0
-5331 183 0
-5331 313 0
-27 -183 -313 5331 0
-5332 28 0
-5332 184 0
-5332 314 0
-28 -184 -314 5332 0
-5333 29 0
-5333 185 0
-5333 315 0
-29 -185 -315 5333 0
-5334 30 0
-5334 186 0
-5334 316 0
-30 -186 -316 5334 0
-5335 31 0
-5335 187 0
-5335 317 0
-31 -187 -317 5335 0
-5336 32 0
-5336 188 0
-5336 318 0
-32 -188 -318 5336 0
-5337 33 0
-5337 189 0
-5337 319 0
-33 -189 -319 5337 0
-5338 34 0
-5338 190 0
-5338 320 0
-34 -190 -320 5338 0
-5339 35 0
-5339 191 0
-5339 321 0
-35 -191 -321 5339 0
-5340 36 0
-5340 192 0
-5340 322 0
-36 -192 -322 5340 0
-5341 37 0
-5341 193 0
-5341 323 0
-37 -193 -323 5341 0
-5342 38 0
-5342 194 0
-5342 324 0
-38 -194 -324 5342 0
-5343 39 0
-5343 195 0
-5343 325 0
-39 -195 -325 5343 0
-5344 40 0
-5344 196 0
-5344 326 0
-40 -196 -326 5344 0
-5345 41 0
-5345 197 0
-5345 327 0
-41 -197 -327 5345 0
-5346 42 0
-5346 198 0
-5346 328 0
-42 -198 -328 5346 0
-5347 43 0
-5347 199 0
-5347 329 0
-43 -199 -329 5347 0
-5348 44 0
-5348 200 0
-5348 330 0
-44 -200 -330 5348 0
-5349 45 0
-5349 201 0
-5349 331 0
-45 -201 -331 5349 0
-5350 46 0
-5350 202 0
-5350 332 0
-46 -202 -332 5350 0
-5351 47 0
-5351 203 0
-5351 333 0
-47 -203 -333 5351 0
-5352 48 0
-5352 204 0
-5352 334 0
-48 -204 -334 5352 0
-5353 49 0
-5353 205 0
-5353 335 0
-49 -205 -335 5353 0
-5354 50 0
-5354 206 0
-5354 336 0
-50 -206 -336 5354 0
-5355 51 0
-5355 207 0
-5355 337 0
-51 -207 -337 5355 0
-5356 52 0
-5356 208 0
-5356 338 0
-52 -208 -338 5356 0
-5331 10017 0
-5332 10017 0
-5333 10017 0
-5334 10017 0
-5335 10017 0
-5336 10017 0
-5337 10017 0
-5338 10017 0
-5339 10017 0
-5340 10017 0
-5341 10017 0
-5342 10017 0
-5343 10017 0
-5344 10017 0
-5345 10017 0
-5346 10017 0
-5347 10017 0
-5348 10017 0
-5349 10017 0
-5350 10017 0
-5351 10017 0
-5352 10017 0
-5353 10017 0
-5354 10017 0
-5355 10017 0
-5356 10017 0
-10017 5331 5332 5333 5334 5335 5336 5337 5338 5339 5340 5341 5342 5343 5344 5345 5346 5347 5348 5349 5350 5351 5352 5353 5354 5355 5356 0
-5357 27 0
-5357 209 0
-5357 235 0
-27 -209 -235 5357 0
-5358 28 0
-5358 210 0
-5358 236 0
-28 -210 -236 5358 0
-5359 29 0
-5359 211 0
-5359 237 0
-29 -211 -237 5359 0
-5360 30 0
-5360 212 0
-5360 238 0
-30 -212 -238 5360 0
-5361 31 0
-5361 213 0
-5361 239 0
-31 -213 -239 5361 0
-5362 32 0
-5362 214 0
-5362 240 0
-32 -214 -240 5362 0
-5363 33 0
-5363 215 0
-5363 241 0
-33 -215 -241 5363 0
-5364 34 0
-5364 216 0
-5364 242 0
-34 -216 -242 5364 0
-5365 35 0
-5365 217 0
-5365 243 0
-35 -217 -243 5365 0
-5366 36 0
-5366 218 0
-5366 244 0
-36 -218 -244 5366 0
-5367 37 0
-5367 219 0
-5367 245 0
-37 -219 -245 5367 0
-5368 38 0
-5368 220 0
-5368 246 0
-38 -220 -246 5368 0
-5369 39 0
-5369 221 0
-5369 247 0
-39 -221 -247 5369 0
-5370 40 0
-5370 222 0
-5370 248 0
-40 -222 -248 5370 0
-5371 41 0
-5371 223 0
-5371 249 0
-41 -223 -249 5371 0
-5372 42 0
-5372 224 0
-5372 250 0
-42 -224 -250 5372 0
-5373 43 0
-5373 225 0
-5373 251 0
-43 -225 -251 5373 0
-5374 44 0
-5374 226 0
-5374 252 0
-44 -226 -252 5374 0
-5375 45 0
-5375 227 0
-5375 253 0
-45 -227 -253 5375 0
-5376 46 0
-5376 228 0
-5376 254 0
-46 -228 -254 5376 0
-5377 47 0
-5377 229 0
-5377 255 0
-47 -229 -255 5377 0
-5378 48 0
-5378 230 0
-5378 256 0
-48 -230 -256 5378 0
-5379 49 0
-5379 231 0
-5379 257 0
-49 -231 -257 5379 0
-5380 50 0
-5380 232 0
-5380 258 0
-50 -232 -258 5380 0
-5381 51 0
-5381 233 0
-5381 259 0
-51 -233 -259 5381 0
-5382 52 0
-5382 234 0
-5382 260 0
-52 -234 -260 5382 0
-5357 10018 0
-5358 10018 0
-5359 10018 0
-5360 10018 0
-5361 10018 0
-5362 10018 0
-5363 10018 0
-5364 10018 0
-5365 10018 0
-5366 10018 0
-5367 10018 0
-5368 10018 0
-5369 10018 0
-5370 10018 0
-5371 10018 0
-5372 10018 0
-5373 10018 0
-5374 10018 0
-5375 10018 0
-5376 10018 0
-5377 10018 0
-5378 10018 0
-5379 10018 0
-5380 10018 0
-5381 10018 0
-5382 10018 0
-10018 5357 5358 5359 5360 5361 5362 5363 5364 5365 5366 5367 5368 5369 5370 5371 5372 5373 5374 5375 5376 5377 5378 5379 5380 5381 5382 0
-5383 27 0
-5383 209 0
-5383 261 0
-27 -209 -261 5383 0
-5384 28 0
-5384 210 0
-5384 262 0
-28 -210 -262 5384 0
-5385 29 0
-5385 211 0
-5385 263 0
-29 -211 -263 5385 0
-5386 30 0
-5386 212 0
-5386 264 0
-30 -212 -264 5386 0
-5387 31 0
-5387 213 0
-5387 265 0
-31 -213 -265 5387 0
-5388 32 0
-5388 214 0
-5388 266 0
-32 -214 -266 5388 0
-5389 33 0
-5389 215 0
-5389 267 0
-33 -215 -267 5389 0
-5390 34 0
-5390 216 0
-5390 268 0
-34 -216 -268 5390 0
-5391 35 0
-5391 217 0
-5391 269 0
-35 -217 -269 5391 0
-5392 36 0
-5392 218 0
-5392 270 0
-36 -218 -270 5392 0
-5393 37 0
-5393 219 0
-5393 271 0
-37 -219 -271 5393 0
-5394 38 0
-5394 220 0
-5394 272 0
-38 -220 -272 5394 0
-5395 39 0
-5395 221 0
-5395 273 0
-39 -221 -273 5395 0
-5396 40 0
-5396 222 0
-5396 274 0
-40 -222 -274 5396 0
-5397 41 0
-5397 223 0
-5397 275 0
-41 -223 -275 5397 0
-5398 42 0
-5398 224 0
-5398 276 0
-42 -224 -276 5398 0
-5399 43 0
-5399 225 0
-5399 277 0
-43 -225 -277 5399 0
-5400 44 0
-5400 226 0
-5400 278 0
-44 -226 -278 5400 0
-5401 45 0
-5401 227 0
-5401 279 0
-45 -227 -279 5401 0
-5402 46 0
-5402 228 0
-5402 280 0
-46 -228 -280 5402 0
-5403 47 0
-5403 229 0
-5403 281 0
-47 -229 -281 5403 0
-5404 48 0
-5404 230 0
-5404 282 0
-48 -230 -282 5404 0
-5405 49 0
-5405 231 0
-5405 283 0
-49 -231 -283 5405 0
-5406 50 0
-5406 232 0
-5406 284 0
-50 -232 -284 5406 0
-5407 51 0
-5407 233 0
-5407 285 0
-51 -233 -285 5407 0
-5408 52 0
-5408 234 0
-5408 286 0
-52 -234 -286 5408 0
-5383 10019 0
-5384 10019 0
-5385 10019 0
-5386 10019 0
-5387 10019 0
-5388 10019 0
-5389 10019 0
-5390 10019 0
-5391 10019 0
-5392 10019 0
-5393 10019 0
-5394 10019 0
-5395 10019 0
-5396 10019 0
-5397 10019 0
-5398 10019 0
-5399 10019 0
-5400 10019 0
-5401 10019 0
-5402 10019 0
-5403 10019 0
-5404 10019 0
-5405 10019 0
-5406 10019 0
-5407 10019 0
-5408 10019 0
-10019 5383 5384 5385 5386 5387 5388 5389 5390 5391 5392 5393 5394 5395 5396 5397 5398 5399 5400 5401 5402 5403 5404 5405 5406 5407 5408 0
-5409 27 0
-5409 209 0
-5409 287 0
-27 -209 -287 5409 0
-5410 28 0
-5410 210 0
-5410 288 0
-28 -210 -288 5410 0
-5411 29 0
-5411 211 0
-5411 289 0
-29 -211 -289 5411 0
-5412 30 0
-5412 212 0
-5412 290 0
-30 -212 -290 5412 0
-5413 31 0
-5413 213 0
-5413 291 0
-31 -213 -291 5413 0
-5414 32 0
-5414 214 0
-5414 292 0
-32 -214 -292 5414 0
-5415 33 0
-5415 215 0
-5415 293 0
-33 -215 -293 5415 0
-5416 34 0
-5416 216 0
-5416 294 0
-34 -216 -294 5416 0
-5417 35 0
-5417 217 0
-5417 295 0
-35 -217 -295 5417 0
-5418 36 0
-5418 218 0
-5418 296 0
-36 -218 -296 5418 0
-5419 37 0
-5419 219 0
-5419 297 0
-37 -219 -297 5419 0
-5420 38 0
-5420 220 0
-5420 298 0
-38 -220 -298 5420 0
-5421 39 0
-5421 221 0
-5421 299 0
-39 -221 -299 5421 0
-5422 40 0
-5422 222 0
-5422 300 0
-40 -222 -300 5422 0
-5423 41 0
-5423 223 0
-5423 301 0
-41 -223 -301 5423 0
-5424 42 0
-5424 224 0
-5424 302 0
-42 -224 -302 5424 0
-5425 43 0
-5425 225 0
-5425 303 0
-43 -225 -303 5425 0
-5426 44 0
-5426 226 0
-5426 304 0
-44 -226 -304 5426 0
-5427 45 0
-5427 227 0
-5427 305 0
-45 -227 -305 5427 0
-5428 46 0
-5428 228 0
-5428 306 0
-46 -228 -306 5428 0
-5429 47 0
-5429 229 0
-5429 307 0
-47 -229 -307 5429 0
-5430 48 0
-5430 230 0
-5430 308 0
-48 -230 -308 5430 0
-5431 49 0
-5431 231 0
-5431 309 0
-49 -231 -309 5431 0
-5432 50 0
-5432 232 0
-5432 310 0
-50 -232 -310 5432 0
-5433 51 0
-5433 233 0
-5433 311 0
-51 -233 -311 5433 0
-5434 52 0
-5434 234 0
-5434 312 0
-52 -234 -312 5434 0
-5409 10020 0
-5410 10020 0
-5411 10020 0
-5412 10020 0
-5413 10020 0
-5414 10020 0
-5415 10020 0
-5416 10020 0
-5417 10020 0
-5418 10020 0
-5419 10020 0
-5420 10020 0
-5421 10020 0
-5422 10020 0
-5423 10020 0
-5424 10020 0
-5425 10020 0
-5426 10020 0
-5427 10020 0
-5428 10020 0
-5429 10020 0
-5430 10020 0
-5431 10020 0
-5432 10020 0
-5433 10020 0
-5434 10020 0
-10020 5409 5410 5411 5412 5413 5414 5415 5416 5417 5418 5419 5420 5421 5422 5423 5424 5425 5426 5427 5428 5429 5430 5431 5432 5433 5434 0
-5435 27 0
-5435 209 0
-5435 313 0
-27 -209 -313 5435 0
-5436 28 0
-5436 210 0
-5436 314 0
-28 -210 -314 5436 0
-5437 29 0
-5437 211 0
-5437 315 0
-29 -211 -315 5437 0
-5438 30 0
-5438 212 0
-5438 316 0
-30 -212 -316 5438 0
-5439 31 0
-5439 213 0
-5439 317 0
-31 -213 -317 5439 0
-5440 32 0
-5440 214 0
-5440 318 0
-32 -214 -318 5440 0
-5441 33 0
-5441 215 0
-5441 319 0
-33 -215 -319 5441 0
-5442 34 0
-5442 216 0
-5442 320 0
-34 -216 -320 5442 0
-5443 35 0
-5443 217 0
-5443 321 0
-35 -217 -321 5443 0
-5444 36 0
-5444 218 0
-5444 322 0
-36 -218 -322 5444 0
-5445 37 0
-5445 219 0
-5445 323 0
-37 -219 -323 5445 0
-5446 38 0
-5446 220 0
-5446 324 0
-38 -220 -324 5446 0
-5447 39 0
-5447 221 0
-5447 325 0
-39 -221 -325 5447 0
-5448 40 0
-5448 222 0
-5448 326 0
-40 -222 -326 5448 0
-5449 41 0
-5449 223 0
-5449 327 0
-41 -223 -327 5449 0
-5450 42 0
-5450 224 0
-5450 328 0
-42 -224 -328 5450 0
-5451 43 0
-5451 225 0
-5451 329 0
-43 -225 -329 5451 0
-5452 44 0
-5452 226 0
-5452 330 0
-44 -226 -330 5452 0
-5453 45 0
-5453 227 0
-5453 331 0
-45 -227 -331 5453 0
-5454 46 0
-5454 228 0
-5454 332 0
-46 -228 -332 5454 0
-5455 47 0
-5455 229 0
-5455 333 0
-47 -229 -333 5455 0
-5456 48 0
-5456 230 0
-5456 334 0
-48 -230 -334 5456 0
-5457 49 0
-5457 231 0
-5457 335 0
-49 -231 -335 5457 0
-5458 50 0
-5458 232 0
-5458 336 0
-50 -232 -336 5458 0
-5459 51 0
-5459 233 0
-5459 337 0
-51 -233 -337 5459 0
-5460 52 0
-5460 234 0
-5460 338 0
-52 -234 -338 5460 0
-5435 10021 0
-5436 10021 0
-5437 10021 0
-5438 10021 0
-5439 10021 0
-5440 10021 0
-5441 10021 0
-5442 10021 0
-5443 10021 0
-5444 10021 0
-5445 10021 0
-5446 10021 0
-5447 10021 0
-5448 10021 0
-5449 10021 0
-5450 10021 0
-5451 10021 0
-5452 10021 0
-5453 10021 0
-5454 10021 0
-5455 10021 0
-5456 10021 0
-5457 10021 0
-5458 10021 0
-5459 10021 0
-5460 10021 0
-10021 5435 5436 5437 5438 5439 5440 5441 5442 5443 5444 5445 5446 5447 5448 5449 5450 5451 5452 5453 5454 5455 5456 5457 5458 5459 5460 0
-5461 27 0
-5461 235 0
-5461 261 0
-27 -235 -261 5461 0
-5462 28 0
-5462 236 0
-5462 262 0
-28 -236 -262 5462 0
-5463 29 0
-5463 237 0
-5463 263 0
-29 -237 -263 5463 0
-5464 30 0
-5464 238 0
-5464 264 0
-30 -238 -264 5464 0
-5465 31 0
-5465 239 0
-5465 265 0
-31 -239 -265 5465 0
-5466 32 0
-5466 240 0
-5466 266 0
-32 -240 -266 5466 0
-5467 33 0
-5467 241 0
-5467 267 0
-33 -241 -267 5467 0
-5468 34 0
-5468 242 0
-5468 268 0
-34 -242 -268 5468 0
-5469 35 0
-5469 243 0
-5469 269 0
-35 -243 -269 5469 0
-5470 36 0
-5470 244 0
-5470 270 0
-36 -244 -270 5470 0
-5471 37 0
-5471 245 0
-5471 271 0
-37 -245 -271 5471 0
-5472 38 0
-5472 246 0
-5472 272 0
-38 -246 -272 5472 0
-5473 39 0
-5473 247 0
-5473 273 0
-39 -247 -273 5473 0
-5474 40 0
-5474 248 0
-5474 274 0
-40 -248 -274 5474 0
-5475 41 0
-5475 249 0
-5475 275 0
-41 -249 -275 5475 0
-5476 42 0
-5476 250 0
-5476 276 0
-42 -250 -276 5476 0
-5477 43 0
-5477 251 0
-5477 277 0
-43 -251 -277 5477 0
-5478 44 0
-5478 252 0
-5478 278 0
-44 -252 -278 5478 0
-5479 45 0
-5479 253 0
-5479 279 0
-45 -253 -279 5479 0
-5480 46 0
-5480 254 0
-5480 280 0
-46 -254 -280 5480 0
-5481 47 0
-5481 255 0
-5481 281 0
-47 -255 -281 5481 0
-5482 48 0
-5482 256 0
-5482 282 0
-48 -256 -282 5482 0
-5483 49 0
-5483 257 0
-5483 283 0
-49 -257 -283 5483 0
-5484 50 0
-5484 258 0
-5484 284 0
-50 -258 -284 5484 0
-5485 51 0
-5485 259 0
-5485 285 0
-51 -259 -285 5485 0
-5486 52 0
-5486 260 0
-5486 286 0
-52 -260 -286 5486 0
-5461 10022 0
-5462 10022 0
-5463 10022 0
-5464 10022 0
-5465 10022 0
-5466 10022 0
-5467 10022 0
-5468 10022 0
-5469 10022 0
-5470 10022 0
-5471 10022 0
-5472 10022 0
-5473 10022 0
-5474 10022 0
-5475 10022 0
-5476 10022 0
-5477 10022 0
-5478 10022 0
-5479 10022 0
-5480 10022 0
-5481 10022 0
-5482 10022 0
-5483 10022 0
-5484 10022 0
-5485 10022 0
-5486 10022 0
-10022 5461 5462 5463 5464 5465 5466 5467 5468 5469 5470 5471 5472 5473 5474 5475 5476 5477 5478 5479 5480 5481 5482 5483 5484 5485 5486 0
-5487 27 0
-5487 235 0
-5487 287 0
-27 -235 -287 5487 0
-5488 28 0
-5488 236 0
-5488 288 0
-28 -236 -288 5488 0
-5489 29 0
-5489 237 0
-5489 289 0
-29 -237 -289 5489 0
-5490 30 0
-5490 238 0
-5490 290 0
-30 -238 -290 5490 0
-5491 31 0
-5491 239 0
-5491 291 0
-31 -239 -291 5491 0
-5492 32 0
-5492 240 0
-5492 292 0
-32 -240 -292 5492 0
-5493 33 0
-5493 241 0
-5493 293 0
-33 -241 -293 5493 0
-5494 34 0
-5494 242 0
-5494 294 0
-34 -242 -294 5494 0
-5495 35 0
-5495 243 0
-5495 295 0
-35 -243 -295 5495 0
-5496 36 0
-5496 244 0
-5496 296 0
-36 -244 -296 5496 0
-5497 37 0
-5497 245 0
-5497 297 0
-37 -245 -297 5497 0
-5498 38 0
-5498 246 0
-5498 298 0
-38 -246 -298 5498 0
-5499 39 0
-5499 247 0
-5499 299 0
-39 -247 -299 5499 0
-5500 40 0
-5500 248 0
-5500 300 0
-40 -248 -300 5500 0
-5501 41 0
-5501 249 0
-5501 301 0
-41 -249 -301 5501 0
-5502 42 0
-5502 250 0
-5502 302 0
-42 -250 -302 5502 0
-5503 43 0
-5503 251 0
-5503 303 0
-43 -251 -303 5503 0
-5504 44 0
-5504 252 0
-5504 304 0
-44 -252 -304 5504 0
-5505 45 0
-5505 253 0
-5505 305 0
-45 -253 -305 5505 0
-5506 46 0
-5506 254 0
-5506 306 0
-46 -254 -306 5506 0
-5507 47 0
-5507 255 0
-5507 307 0
-47 -255 -307 5507 0
-5508 48 0
-5508 256 0
-5508 308 0
-48 -256 -308 5508 0
-5509 49 0
-5509 257 0
-5509 309 0
-49 -257 -309 5509 0
-5510 50 0
-5510 258 0
-5510 310 0
-50 -258 -310 5510 0
-5511 51 0
-5511 259 0
-5511 311 0
-51 -259 -311 5511 0
-5512 52 0
-5512 260 0
-5512 312 0
-52 -260 -312 5512 0
-5487 10023 0
-5488 10023 0
-5489 10023 0
-5490 10023 0
-5491 10023 0
-5492 10023 0
-5493 10023 0
-5494 10023 0
-5495 10023 0
-5496 10023 0
-5497 10023 0
-5498 10023 0
-5499 10023 0
-5500 10023 0
-5501 10023 0
-5502 10023 0
-5503 10023 0
-5504 10023 0
-5505 10023 0
-5506 10023 0
-5507 10023 0
-5508 10023 0
-5509 10023 0
-5510 10023 0
-5511 10023 0
-5512 10023 0
-10023 5487 5488 5489 5490 5491 5492 5493 5494 5495 5496 5497 5498 5499 5500 5501 5502 5503 5504 5505 5506 5507 5508 5509 5510 5511 5512 0
-5513 27 0
-5513 235 0
-5513 313 0
-27 -235 -313 5513 0
-5514 28 0
-5514 236 0
-5514 314 0
-28 -236 -314 5514 0
-5515 29 0
-5515 237 0
-5515 315 0
-29 -237 -315 5515 0
-5516 30 0
-5516 238 0
-5516 316 0
-30 -238 -316 5516 0
-5517 31 0
-5517 239 0
-5517 317 0
-31 -239 -317 5517 0
-5518 32 0
-5518 240 0
-5518 318 0
-32 -240 -318 5518 0
-5519 33 0
-5519 241 0
-5519 319 0
-33 -241 -319 5519 0
-5520 34 0
-5520 242 0
-5520 320 0
-34 -242 -320 5520 0
-5521 35 0
-5521 243 0
-5521 321 0
-35 -243 -321 5521 0
-5522 36 0
-5522 244 0
-5522 322 0
-36 -244 -322 5522 0
-5523 37 0
-5523 245 0
-5523 323 0
-37 -245 -323 5523 0
-5524 38 0
-5524 246 0
-5524 324 0
-38 -246 -324 5524 0
-5525 39 0
-5525 247 0
-5525 325 0
-39 -247 -325 5525 0
-5526 40 0
-5526 248 0
-5526 326 0
-40 -248 -326 5526 0
-5527 41 0
-5527 249 0
-5527 327 0
-41 -249 -327 5527 0
-5528 42 0
-5528 250 0
-5528 328 0
-42 -250 -328 5528 0
-5529 43 0
-5529 251 0
-5529 329 0
-43 -251 -329 5529 0
-5530 44 0
-5530 252 0
-5530 330 0
-44 -252 -330 5530 0
-5531 45 0
-5531 253 0
-5531 331 0
-45 -253 -331 5531 0
-5532 46 0
-5532 254 0
-5532 332 0
-46 -254 -332 5532 0
-5533 47 0
-5533 255 0
-5533 333 0
-47 -255 -333 5533 0
-5534 48 0
-5534 256 0
-5534 334 0
-48 -256 -334 5534 0
-5535 49 0
-5535 257 0
-5535 335 0
-49 -257 -335 5535 0
-5536 50 0
-5536 258 0
-5536 336 0
-50 -258 -336 5536 0
-5537 51 0
-5537 259 0
-5537 337 0
-51 -259 -337 5537 0
-5538 52 0
-5538 260 0
-5538 338 0
-52 -260 -338 5538 0
-5513 10024 0
-5514 10024 0
-5515 10024 0
-5516 10024 0
-5517 10024 0
-5518 10024 0
-5519 10024 0
-5520 10024 0
-5521 10024 0
-5522 10024 0
-5523 10024 0
-5524 10024 0
-5525 10024 0
-5526 10024 0
-5527 10024 0
-5528 10024 0
-5529 10024 0
-5530 10024 0
-5531 10024 0
-5532 10024 0
-5533 10024 0
-5534 10024 0
-5535 10024 0
-5536 10024 0
-5537 10024 0
-5538 10024 0
-10024 5513 5514 5515 5516 5517 5518 5519 5520 5521 5522 5523 5524 5525 5526 5527 5528 5529 5530 5531 5532 5533 5534 5535 5536 5537 5538 0
-5539 27 0
-5539 261 0
-5539 287 0
-27 -261 -287 5539 0
-5540 28 0
-5540 262 0
-5540 288 0
-28 -262 -288 5540 0
-5541 29 0
-5541 263 0
-5541 289 0
-29 -263 -289 5541 0
-5542 30 0
-5542 264 0
-5542 290 0
-30 -264 -290 5542 0
-5543 31 0
-5543 265 0
-5543 291 0
-31 -265 -291 5543 0
-5544 32 0
-5544 266 0
-5544 292 0
-32 -266 -292 5544 0
-5545 33 0
-5545 267 0
-5545 293 0
-33 -267 -293 5545 0
-5546 34 0
-5546 268 0
-5546 294 0
-34 -268 -294 5546 0
-5547 35 0
-5547 269 0
-5547 295 0
-35 -269 -295 5547 0
-5548 36 0
-5548 270 0
-5548 296 0
-36 -270 -296 5548 0
-5549 37 0
-5549 271 0
-5549 297 0
-37 -271 -297 5549 0
-5550 38 0
-5550 272 0
-5550 298 0
-38 -272 -298 5550 0
-5551 39 0
-5551 273 0
-5551 299 0
-39 -273 -299 5551 0
-5552 40 0
-5552 274 0
-5552 300 0
-40 -274 -300 5552 0
-5553 41 0
-5553 275 0
-5553 301 0
-41 -275 -301 5553 0
-5554 42 0
-5554 276 0
-5554 302 0
-42 -276 -302 5554 0
-5555 43 0
-5555 277 0
-5555 303 0
-43 -277 -303 5555 0
-5556 44 0
-5556 278 0
-5556 304 0
-44 -278 -304 5556 0
-5557 45 0
-5557 279 0
-5557 305 0
-45 -279 -305 5557 0
-5558 46 0
-5558 280 0
-5558 306 0
-46 -280 -306 5558 0
-5559 47 0
-5559 281 0
-5559 307 0
-47 -281 -307 5559 0
-5560 48 0
-5560 282 0
-5560 308 0
-48 -282 -308 5560 0
-5561 49 0
-5561 283 0
-5561 309 0
-49 -283 -309 5561 0
-5562 50 0
-5562 284 0
-5562 310 0
-50 -284 -310 5562 0
-5563 51 0
-5563 285 0
-5563 311 0
-51 -285 -311 5563 0
-5564 52 0
-5564 286 0
-5564 312 0
-52 -286 -312 5564 0
-5539 10025 0
-5540 10025 0
-5541 10025 0
-5542 10025 0
-5543 10025 0
-5544 10025 0
-5545 10025 0
-5546 10025 0
-5547 10025 0
-5548 10025 0
-5549 10025 0
-5550 10025 0
-5551 10025 0
-5552 10025 0
-5553 10025 0
-5554 10025 0
-5555 10025 0
-5556 10025 0
-5557 10025 0
-5558 10025 0
-5559 10025 0
-5560 10025 0
-5561 10025 0
-5562 10025 0
-5563 10025 0
-5564 10025 0
-10025 5539 5540 5541 5542 5543 5544 5545 5546 5547 5548 5549 5550 5551 5552 5553 5554 5555 5556 5557 5558 5559 5560 5561 5562 5563 5564 0
-5565 27 0
-5565 261 0
-5565 313 0
-27 -261 -313 5565 0
-5566 28 0
-5566 262 0
-5566 314 0
-28 -262 -314 5566 0
-5567 29 0
-5567 263 0
-5567 315 0
-29 -263 -315 5567 0
-5568 30 0
-5568 264 0
-5568 316 0
-30 -264 -316 5568 0
-5569 31 0
-5569 265 0
-5569 317 0
-31 -265 -317 5569 0
-5570 32 0
-5570 266 0
-5570 318 0
-32 -266 -318 5570 0
-5571 33 0
-5571 267 0
-5571 319 0
-33 -267 -319 5571 0
-5572 34 0
-5572 268 0
-5572 320 0
-34 -268 -320 5572 0
-5573 35 0
-5573 269 0
-5573 321 0
-35 -269 -321 5573 0
-5574 36 0
-5574 270 0
-5574 322 0
-36 -270 -322 5574 0
-5575 37 0
-5575 271 0
-5575 323 0
-37 -271 -323 5575 0
-5576 38 0
-5576 272 0
-5576 324 0
-38 -272 -324 5576 0
-5577 39 0
-5577 273 0
-5577 325 0
-39 -273 -325 5577 0
-5578 40 0
-5578 274 0
-5578 326 0
-40 -274 -326 5578 0
-5579 41 0
-5579 275 0
-5579 327 0
-41 -275 -327 5579 0
-5580 42 0
-5580 276 0
-5580 328 0
-42 -276 -328 5580 0
-5581 43 0
-5581 277 0
-5581 329 0
-43 -277 -329 5581 0
-5582 44 0
-5582 278 0
-5582 330 0
-44 -278 -330 5582 0
-5583 45 0
-5583 279 0
-5583 331 0
-45 -279 -331 5583 0
-5584 46 0
-5584 280 0
-5584 332 0
-46 -280 -332 5584 0
-5585 47 0
-5585 281 0
-5585 333 0
-47 -281 -333 5585 0
-5586 48 0
-5586 282 0
-5586 334 0
-48 -282 -334 5586 0
-5587 49 0
-5587 283 0
-5587 335 0
-49 -283 -335 5587 0
-5588 50 0
-5588 284 0
-5588 336 0
-50 -284 -336 5588 0
-5589 51 0
-5589 285 0
-5589 337 0
-51 -285 -337 5589 0
-5590 52 0
-5590 286 0
-5590 338 0
-52 -286 -338 5590 0
-5565 10026 0
-5566 10026 0
-5567 10026 0
-5568 10026 0
-5569 10026 0
-5570 10026 0
-5571 10026 0
-5572 10026 0
-5573 10026 0
-5574 10026 0
-5575 10026 0
-5576 10026 0
-5577 10026 0
-5578 10026 0
-5579 10026 0
-5580 10026 0
-5581 10026 0
-5582 10026 0
-5583 10026 0
-5584 10026 0
-5585 10026 0
-5586 10026 0
-5587 10026 0
-5588 10026 0
-5589 10026 0
-5590 10026 0
-10026 5565 5566 5567 5568 5569 5570 5571 5572 5573 5574 5575 5576 5577 5578 5579 5580 5581 5582 5583 5584 5585 5586 5587 5588 5589 5590 0
-5591 27 0
-5591 287 0
-5591 313 0
-27 -287 -313 5591 0
-5592 28 0
-5592 288 0
-5592 314 0
-28 -288 -314 5592 0
-5593 29 0
-5593 289 0
-5593 315 0
-29 -289 -315 5593 0
-5594 30 0
-5594 290 0
-5594 316 0
-30 -290 -316 5594 0
-5595 31 0
-5595 291 0
-5595 317 0
-31 -291 -317 5595 0
-5596 32 0
-5596 292 0
-5596 318 0
-32 -292 -318 5596 0
-5597 33 0
-5597 293 0
-5597 319 0
-33 -293 -319 5597 0
-5598 34 0
-5598 294 0
-5598 320 0
-34 -294 -320 5598 0
-5599 35 0
-5599 295 0
-5599 321 0
-35 -295 -321 5599 0
-5600 36 0
-5600 296 0
-5600 322 0
-36 -296 -322 5600 0
-5601 37 0
-5601 297 0
-5601 323 0
-37 -297 -323 5601 0
-5602 38 0
-5602 298 0
-5602 324 0
-38 -298 -324 5602 0
-5603 39 0
-5603 299 0
-5603 325 0
-39 -299 -325 5603 0
-5604 40 0
-5604 300 0
-5604 326 0
-40 -300 -326 5604 0
-5605 41 0
-5605 301 0
-5605 327 0
-41 -301 -327 5605 0
-5606 42 0
-5606 302 0
-5606 328 0
-42 -302 -328 5606 0
-5607 43 0
-5607 303 0
-5607 329 0
-43 -303 -329 5607 0
-5608 44 0
-5608 304 0
-5608 330 0
-44 -304 -330 5608 0
-5609 45 0
-5609 305 0
-5609 331 0
-45 -305 -331 5609 0
-5610 46 0
-5610 306 0
-5610 332 0
-46 -306 -332 5610 0
-5611 47 0
-5611 307 0
-5611 333 0
-47 -307 -333 5611 0
-5612 48 0
-5612 308 0
-5612 334 0
-48 -308 -334 5612 0
-5613 49 0
-5613 309 0
-5613 335 0
-49 -309 -335 5613 0
-5614 50 0
-5614 310 0
-5614 336 0
-50 -310 -336 5614 0
-5615 51 0
-5615 311 0
-5615 337 0
-51 -311 -337 5615 0
-5616 52 0
-5616 312 0
-5616 338 0
-52 -312 -338 5616 0
-5591 10027 0
-5592 10027 0
-5593 10027 0
-5594 10027 0
-5595 10027 0
-5596 10027 0
-5597 10027 0
-5598 10027 0
-5599 10027 0
-5600 10027 0
-5601 10027 0
-5602 10027 0
-5603 10027 0
-5604 10027 0
-5605 10027 0
-5606 10027 0
-5607 10027 0
-5608 10027 0
-5609 10027 0
-5610 10027 0
-5611 10027 0
-5612 10027 0
-5613 10027 0
-5614 10027 0
-5615 10027 0
-5616 10027 0
-10027 5591 5592 5593 5594 5595 5596 5597 5598 5599 5600 5601 5602 5603 5604 5605 5606 5607 5608 5609 5610 5611 5612 5613 5614 5615 5616 0
-5617 53 0
-5617 79 0
-5617 105 0
-53 -79 -105 5617 0
-5618 54 0
-5618 80 0
-5618 106 0
-54 -80 -106 5618 0
-5619 55 0
-5619 81 0
-5619 107 0
-55 -81 -107 5619 0
-5620 56 0
-5620 82 0
-5620 108 0
-56 -82 -108 5620 0
-5621 57 0
-5621 83 0
-5621 109 0
-57 -83 -109 5621 0
-5622 58 0
-5622 84 0
-5622 110 0
-58 -84 -110 5622 0
-5623 59 0
-5623 85 0
-5623 111 0
-59 -85 -111 5623 0
-5624 60 0
-5624 86 0
-5624 112 0
-60 -86 -112 5624 0
-5625 61 0
-5625 87 0
-5625 113 0
-61 -87 -113 5625 0
-5626 62 0
-5626 88 0
-5626 114 0
-62 -88 -114 5626 0
-5627 63 0
-5627 89 0
-5627 115 0
-63 -89 -115 5627 0
-5628 64 0
-5628 90 0
-5628 116 0
-64 -90 -116 5628 0
-5629 65 0
-5629 91 0
-5629 117 0
-65 -91 -117 5629 0
-5630 66 0
-5630 92 0
-5630 118 0
-66 -92 -118 5630 0
-5631 67 0
-5631 93 0
-5631 119 0
-67 -93 -119 5631 0
-5632 68 0
-5632 94 0
-5632 120 0
-68 -94 -120 5632 0
-5633 69 0
-5633 95 0
-5633 121 0
-69 -95 -121 5633 0
-5634 70 0
-5634 96 0
-5634 122 0
-70 -96 -122 5634 0
-5635 71 0
-5635 97 0
-5635 123 0
-71 -97 -123 5635 0
-5636 72 0
-5636 98 0
-5636 124 0
-72 -98 -124 5636 0
-5637 73 0
-5637 99 0
-5637 125 0
-73 -99 -125 5637 0
-5638 74 0
-5638 100 0
-5638 126 0
-74 -100 -126 5638 0
-5639 75 0
-5639 101 0
-5639 127 0
-75 -101 -127 5639 0
-5640 76 0
-5640 102 0
-5640 128 0
-76 -102 -128 5640 0
-5641 77 0
-5641 103 0
-5641 129 0
-77 -103 -129 5641 0
-5642 78 0
-5642 104 0
-5642 130 0
-78 -104 -130 5642 0
-5617 10028 0
-5618 10028 0
-5619 10028 0
-5620 10028 0
-5621 10028 0
-5622 10028 0
-5623 10028 0
-5624 10028 0
-5625 10028 0
-5626 10028 0
-5627 10028 0
-5628 10028 0
-5629 10028 0
-5630 10028 0
-5631 10028 0
-5632 10028 0
-5633 10028 0
-5634 10028 0
-5635 10028 0
-5636 10028 0
-5637 10028 0
-5638 10028 0
-5639 10028 0
-5640 10028 0
-5641 10028 0
-5642 10028 0
-10028 5617 5618 5619 5620 5621 5622 5623 5624 5625 5626 5627 5628 5629 5630 5631 5632 5633 5634 5635 5636 5637 5638 5639 5640 5641 5642 0
-5643 53 0
-5643 79 0
-5643 131 0
-53 -79 -131 5643 0
-5644 54 0
-5644 80 0
-5644 132 0
-54 -80 -132 5644 0
-5645 55 0
-5645 81 0
-5645 133 0
-55 -81 -133 5645 0
-5646 56 0
-5646 82 0
-5646 134 0
-56 -82 -134 5646 0
-5647 57 0
-5647 83 0
-5647 135 0
-57 -83 -135 5647 0
-5648 58 0
-5648 84 0
-5648 136 0
-58 -84 -136 5648 0
-5649 59 0
-5649 85 0
-5649 137 0
-59 -85 -137 5649 0
-5650 60 0
-5650 86 0
-5650 138 0
-60 -86 -138 5650 0
-5651 61 0
-5651 87 0
-5651 139 0
-61 -87 -139 5651 0
-5652 62 0
-5652 88 0
-5652 140 0
-62 -88 -140 5652 0
-5653 63 0
-5653 89 0
-5653 141 0
-63 -89 -141 5653 0
-5654 64 0
-5654 90 0
-5654 142 0
-64 -90 -142 5654 0
-5655 65 0
-5655 91 0
-5655 143 0
-65 -91 -143 5655 0
-5656 66 0
-5656 92 0
-5656 144 0
-66 -92 -144 5656 0
-5657 67 0
-5657 93 0
-5657 145 0
-67 -93 -145 5657 0
-5658 68 0
-5658 94 0
-5658 146 0
-68 -94 -146 5658 0
-5659 69 0
-5659 95 0
-5659 147 0
-69 -95 -147 5659 0
-5660 70 0
-5660 96 0
-5660 148 0
-70 -96 -148 5660 0
-5661 71 0
-5661 97 0
-5661 149 0
-71 -97 -149 5661 0
-5662 72 0
-5662 98 0
-5662 150 0
-72 -98 -150 5662 0
-5663 73 0
-5663 99 0
-5663 151 0
-73 -99 -151 5663 0
-5664 74 0
-5664 100 0
-5664 152 0
-74 -100 -152 5664 0
-5665 75 0
-5665 101 0
-5665 153 0
-75 -101 -153 5665 0
-5666 76 0
-5666 102 0
-5666 154 0
-76 -102 -154 5666 0
-5667 77 0
-5667 103 0
-5667 155 0
-77 -103 -155 5667 0
-5668 78 0
-5668 104 0
-5668 156 0
-78 -104 -156 5668 0
-5643 10029 0
-5644 10029 0
-5645 10029 0
-5646 10029 0
-5647 10029 0
-5648 10029 0
-5649 10029 0
-5650 10029 0
-5651 10029 0
-5652 10029 0
-5653 10029 0
-5654 10029 0
-5655 10029 0
-5656 10029 0
-5657 10029 0
-5658 10029 0
-5659 10029 0
-5660 10029 0
-5661 10029 0
-5662 10029 0
-5663 10029 0
-5664 10029 0
-5665 10029 0
-5666 10029 0
-5667 10029 0
-5668 10029 0
-10029 5643 5644 5645 5646 5647 5648 5649 5650 5651 5652 5653 5654 5655 5656 5657 5658 5659 5660 5661 5662 5663 5664 5665 5666 5667 5668 0
-5669 53 0
-5669 79 0
-5669 157 0
-53 -79 -157 5669 0
-5670 54 0
-5670 80 0
-5670 158 0
-54 -80 -158 5670 0
-5671 55 0
-5671 81 0
-5671 159 0
-55 -81 -159 5671 0
-5672 56 0
-5672 82 0
-5672 160 0
-56 -82 -160 5672 0
-5673 57 0
-5673 83 0
-5673 161 0
-57 -83 -161 5673 0
-5674 58 0
-5674 84 0
-5674 162 0
-58 -84 -162 5674 0
-5675 59 0
-5675 85 0
-5675 163 0
-59 -85 -163 5675 0
-5676 60 0
-5676 86 0
-5676 164 0
-60 -86 -164 5676 0
-5677 61 0
-5677 87 0
-5677 165 0
-61 -87 -165 5677 0
-5678 62 0
-5678 88 0
-5678 166 0
-62 -88 -166 5678 0
-5679 63 0
-5679 89 0
-5679 167 0
-63 -89 -167 5679 0
-5680 64 0
-5680 90 0
-5680 168 0
-64 -90 -168 5680 0
-5681 65 0
-5681 91 0
-5681 169 0
-65 -91 -169 5681 0
-5682 66 0
-5682 92 0
-5682 170 0
-66 -92 -170 5682 0
-5683 67 0
-5683 93 0
-5683 171 0
-67 -93 -171 5683 0
-5684 68 0
-5684 94 0
-5684 172 0
-68 -94 -172 5684 0
-5685 69 0
-5685 95 0
-5685 173 0
-69 -95 -173 5685 0
-5686 70 0
-5686 96 0
-5686 174 0
-70 -96 -174 5686 0
-5687 71 0
-5687 97 0
-5687 175 0
-71 -97 -175 5687 0
-5688 72 0
-5688 98 0
-5688 176 0
-72 -98 -176 5688 0
-5689 73 0
-5689 99 0
-5689 177 0
-73 -99 -177 5689 0
-5690 74 0
-5690 100 0
-5690 178 0
-74 -100 -178 5690 0
-5691 75 0
-5691 101 0
-5691 179 0
-75 -101 -179 5691 0
-5692 76 0
-5692 102 0
-5692 180 0
-76 -102 -180 5692 0
-5693 77 0
-5693 103 0
-5693 181 0
-77 -103 -181 5693 0
-5694 78 0
-5694 104 0
-5694 182 0
-78 -104 -182 5694 0
-5669 10030 0
-5670 10030 0
-5671 10030 0
-5672 10030 0
-5673 10030 0
-5674 10030 0
-5675 10030 0
-5676 10030 0
-5677 10030 0
-5678 10030 0
-5679 10030 0
-5680 10030 0
-5681 10030 0
-5682 10030 0
-5683 10030 0
-5684 10030 0
-5685 10030 0
-5686 10030 0
-5687 10030 0
-5688 10030 0
-5689 10030 0
-5690 10030 0
-5691 10030 0
-5692 10030 0
-5693 10030 0
-5694 10030 0
-10030 5669 5670 5671 5672 5673 5674 5675 5676 5677 5678 5679 5680 5681 5682 5683 5684 5685 5686 5687 5688 5689 5690 5691 5692 5693 5694 0
-5695 53 0
-5695 79 0
-5695 183 0
-53 -79 -183 5695 0
-5696 54 0
-5696 80 0
-5696 184 0
-54 -80 -184 5696 0
-5697 55 0
-5697 81 0
-5697 185 0
-55 -81 -185 5697 0
-5698 56 0
-5698 82 0
-5698 186 0
-56 -82 -186 5698 0
-5699 57 0
-5699 83 0
-5699 187 0
-57 -83 -187 5699 0
-5700 58 0
-5700 84 0
-5700 188 0
-58 -84 -188 5700 0
-5701 59 0
-5701 85 0
-5701 189 0
-59 -85 -189 5701 0
-5702 60 0
-5702 86 0
-5702 190 0
-60 -86 -190 5702 0
-5703 61 0
-5703 87 0
-5703 191 0
-61 -87 -191 5703 0
-5704 62 0
-5704 88 0
-5704 192 0
-62 -88 -192 5704 0
-5705 63 0
-5705 89 0
-5705 193 0
-63 -89 -193 5705 0
-5706 64 0
-5706 90 0
-5706 194 0
-64 -90 -194 5706 0
-5707 65 0
-5707 91 0
-5707 195 0
-65 -91 -195 5707 0
-5708 66 0
-5708 92 0
-5708 196 0
-66 -92 -196 5708 0
-5709 67 0
-5709 93 0
-5709 197 0
-67 -93 -197 5709 0
-5710 68 0
-5710 94 0
-5710 198 0
-68 -94 -198 5710 0
-5711 69 0
-5711 95 0
-5711 199 0
-69 -95 -199 5711 0
-5712 70 0
-5712 96 0
-5712 200 0
-70 -96 -200 5712 0
-5713 71 0
-5713 97 0
-5713 201 0
-71 -97 -201 5713 0
-5714 72 0
-5714 98 0
-5714 202 0
-72 -98 -202 5714 0
-5715 73 0
-5715 99 0
-5715 203 0
-73 -99 -203 5715 0
-5716 74 0
-5716 100 0
-5716 204 0
-74 -100 -204 5716 0
-5717 75 0
-5717 101 0
-5717 205 0
-75 -101 -205 5717 0
-5718 76 0
-5718 102 0
-5718 206 0
-76 -102 -206 5718 0
-5719 77 0
-5719 103 0
-5719 207 0
-77 -103 -207 5719 0
-5720 78 0
-5720 104 0
-5720 208 0
-78 -104 -208 5720 0
-5695 10031 0
-5696 10031 0
-5697 10031 0
-5698 10031 0
-5699 10031 0
-5700 10031 0
-5701 10031 0
-5702 10031 0
-5703 10031 0
-5704 10031 0
-5705 10031 0
-5706 10031 0
-5707 10031 0
-5708 10031 0
-5709 10031 0
-5710 10031 0
-5711 10031 0
-5712 10031 0
-5713 10031 0
-5714 10031 0
-5715 10031 0
-5716 10031 0
-5717 10031 0
-5718 10031 0
-5719 10031 0
-5720 10031 0
-10031 5695 5696 5697 5698 5699 5700 5701 5702 5703 5704 5705 5706 5707 5708 5709 5710 5711 5712 5713 5714 5715 5716 5717 5718 5719 5720 0
-5721 53 0
-5721 79 0
-5721 209 0
-53 -79 -209 5721 0
-5722 54 0
-5722 80 0
-5722 210 0
-54 -80 -210 5722 0
-5723 55 0
-5723 81 0
-5723 211 0
-55 -81 -211 5723 0
-5724 56 0
-5724 82 0
-5724 212 0
-56 -82 -212 5724 0
-5725 57 0
-5725 83 0
-5725 213 0
-57 -83 -213 5725 0
-5726 58 0
-5726 84 0
-5726 214 0
-58 -84 -214 5726 0
-5727 59 0
-5727 85 0
-5727 215 0
-59 -85 -215 5727 0
-5728 60 0
-5728 86 0
-5728 216 0
-60 -86 -216 5728 0
-5729 61 0
-5729 87 0
-5729 217 0
-61 -87 -217 5729 0
-5730 62 0
-5730 88 0
-5730 218 0
-62 -88 -218 5730 0
-5731 63 0
-5731 89 0
-5731 219 0
-63 -89 -219 5731 0
-5732 64 0
-5732 90 0
-5732 220 0
-64 -90 -220 5732 0
-5733 65 0
-5733 91 0
-5733 221 0
-65 -91 -221 5733 0
-5734 66 0
-5734 92 0
-5734 222 0
-66 -92 -222 5734 0
-5735 67 0
-5735 93 0
-5735 223 0
-67 -93 -223 5735 0
-5736 68 0
-5736 94 0
-5736 224 0
-68 -94 -224 5736 0
-5737 69 0
-5737 95 0
-5737 225 0
-69 -95 -225 5737 0
-5738 70 0
-5738 96 0
-5738 226 0
-70 -96 -226 5738 0
-5739 71 0
-5739 97 0
-5739 227 0
-71 -97 -227 5739 0
-5740 72 0
-5740 98 0
-5740 228 0
-72 -98 -228 5740 0
-5741 73 0
-5741 99 0
-5741 229 0
-73 -99 -229 5741 0
-5742 74 0
-5742 100 0
-5742 230 0
-74 -100 -230 5742 0
-5743 75 0
-5743 101 0
-5743 231 0
-75 -101 -231 5743 0
-5744 76 0
-5744 102 0
-5744 232 0
-76 -102 -232 5744 0
-5745 77 0
-5745 103 0
-5745 233 0
-77 -103 -233 5745 0
-5746 78 0
-5746 104 0
-5746 234 0
-78 -104 -234 5746 0
-5721 10032 0
-5722 10032 0
-5723 10032 0
-5724 10032 0
-5725 10032 0
-5726 10032 0
-5727 10032 0
-5728 10032 0
-5729 10032 0
-5730 10032 0
-5731 10032 0
-5732 10032 0
-5733 10032 0
-5734 10032 0
-5735 10032 0
-5736 10032 0
-5737 10032 0
-5738 10032 0
-5739 10032 0
-5740 10032 0
-5741 10032 0
-5742 10032 0
-5743 10032 0
-5744 10032 0
-5745 10032 0
-5746 10032 0
-10032 5721 5722 5723 5724 5725 5726 5727 5728 5729 5730 5731 5732 5733 5734 5735 5736 5737 5738 5739 5740 5741 5742 5743 5744 5745 5746 0
-5747 53 0
-5747 79 0
-5747 235 0
-53 -79 -235 5747 0
-5748 54 0
-5748 80 0
-5748 236 0
-54 -80 -236 5748 0
-5749 55 0
-5749 81 0
-5749 237 0
-55 -81 -237 5749 0
-5750 56 0
-5750 82 0
-5750 238 0
-56 -82 -238 5750 0
-5751 57 0
-5751 83 0
-5751 239 0
-57 -83 -239 5751 0
-5752 58 0
-5752 84 0
-5752 240 0
-58 -84 -240 5752 0
-5753 59 0
-5753 85 0
-5753 241 0
-59 -85 -241 5753 0
-5754 60 0
-5754 86 0
-5754 242 0
-60 -86 -242 5754 0
-5755 61 0
-5755 87 0
-5755 243 0
-61 -87 -243 5755 0
-5756 62 0
-5756 88 0
-5756 244 0
-62 -88 -244 5756 0
-5757 63 0
-5757 89 0
-5757 245 0
-63 -89 -245 5757 0
-5758 64 0
-5758 90 0
-5758 246 0
-64 -90 -246 5758 0
-5759 65 0
-5759 91 0
-5759 247 0
-65 -91 -247 5759 0
-5760 66 0
-5760 92 0
-5760 248 0
-66 -92 -248 5760 0
-5761 67 0
-5761 93 0
-5761 249 0
-67 -93 -249 5761 0
-5762 68 0
-5762 94 0
-5762 250 0
-68 -94 -250 5762 0
-5763 69 0
-5763 95 0
-5763 251 0
-69 -95 -251 5763 0
-5764 70 0
-5764 96 0
-5764 252 0
-70 -96 -252 5764 0
-5765 71 0
-5765 97 0
-5765 253 0
-71 -97 -253 5765 0
-5766 72 0
-5766 98 0
-5766 254 0
-72 -98 -254 5766 0
-5767 73 0
-5767 99 0
-5767 255 0
-73 -99 -255 5767 0
-5768 74 0
-5768 100 0
-5768 256 0
-74 -100 -256 5768 0
-5769 75 0
-5769 101 0
-5769 257 0
-75 -101 -257 5769 0
-5770 76 0
-5770 102 0
-5770 258 0
-76 -102 -258 5770 0
-5771 77 0
-5771 103 0
-5771 259 0
-77 -103 -259 5771 0
-5772 78 0
-5772 104 0
-5772 260 0
-78 -104 -260 5772 0
-5747 10033 0
-5748 10033 0
-5749 10033 0
-5750 10033 0
-5751 10033 0
-5752 10033 0
-5753 10033 0
-5754 10033 0
-5755 10033 0
-5756 10033 0
-5757 10033 0
-5758 10033 0
-5759 10033 0
-5760 10033 0
-5761 10033 0
-5762 10033 0
-5763 10033 0
-5764 10033 0
-5765 10033 0
-5766 10033 0
-5767 10033 0
-5768 10033 0
-5769 10033 0
-5770 10033 0
-5771 10033 0
-5772 10033 0
-10033 5747 5748 5749 5750 5751 5752 5753 5754 5755 5756 5757 5758 5759 5760 5761 5762 5763 5764 5765 5766 5767 5768 5769 5770 5771 5772 0
-5773 53 0
-5773 79 0
-5773 261 0
-53 -79 -261 5773 0
-5774 54 0
-5774 80 0
-5774 262 0
-54 -80 -262 5774 0
-5775 55 0
-5775 81 0
-5775 263 0
-55 -81 -263 5775 0
-5776 56 0
-5776 82 0
-5776 264 0
-56 -82 -264 5776 0
-5777 57 0
-5777 83 0
-5777 265 0
-57 -83 -265 5777 0
-5778 58 0
-5778 84 0
-5778 266 0
-58 -84 -266 5778 0
-5779 59 0
-5779 85 0
-5779 267 0
-59 -85 -267 5779 0
-5780 60 0
-5780 86 0
-5780 268 0
-60 -86 -268 5780 0
-5781 61 0
-5781 87 0
-5781 269 0
-61 -87 -269 5781 0
-5782 62 0
-5782 88 0
-5782 270 0
-62 -88 -270 5782 0
-5783 63 0
-5783 89 0
-5783 271 0
-63 -89 -271 5783 0
-5784 64 0
-5784 90 0
-5784 272 0
-64 -90 -272 5784 0
-5785 65 0
-5785 91 0
-5785 273 0
-65 -91 -273 5785 0
-5786 66 0
-5786 92 0
-5786 274 0
-66 -92 -274 5786 0
-5787 67 0
-5787 93 0
-5787 275 0
-67 -93 -275 5787 0
-5788 68 0
-5788 94 0
-5788 276 0
-68 -94 -276 5788 0
-5789 69 0
-5789 95 0
-5789 277 0
-69 -95 -277 5789 0
-5790 70 0
-5790 96 0
-5790 278 0
-70 -96 -278 5790 0
-5791 71 0
-5791 97 0
-5791 279 0
-71 -97 -279 5791 0
-5792 72 0
-5792 98 0
-5792 280 0
-72 -98 -280 5792 0
-5793 73 0
-5793 99 0
-5793 281 0
-73 -99 -281 5793 0
-5794 74 0
-5794 100 0
-5794 282 0
-74 -100 -282 5794 0
-5795 75 0
-5795 101 0
-5795 283 0
-75 -101 -283 5795 0
-5796 76 0
-5796 102 0
-5796 284 0
-76 -102 -284 5796 0
-5797 77 0
-5797 103 0
-5797 285 0
-77 -103 -285 5797 0
-5798 78 0
-5798 104 0
-5798 286 0
-78 -104 -286 5798 0
-5773 10034 0
-5774 10034 0
-5775 10034 0
-5776 10034 0
-5777 10034 0
-5778 10034 0
-5779 10034 0
-5780 10034 0
-5781 10034 0
-5782 10034 0
-5783 10034 0
-5784 10034 0
-5785 10034 0
-5786 10034 0
-5787 10034 0
-5788 10034 0
-5789 10034 0
-5790 10034 0
-5791 10034 0
-5792 10034 0
-5793 10034 0
-5794 10034 0
-5795 10034 0
-5796 10034 0
-5797 10034 0
-5798 10034 0
-10034 5773 5774 5775 5776 5777 5778 5779 5780 5781 5782 5783 5784 5785 5786 5787 5788 5789 5790 5791 5792 5793 5794 5795 5796 5797 5798 0
-5799 53 0
-5799 79 0
-5799 287 0
-53 -79 -287 5799 0
-5800 54 0
-5800 80 0
-5800 288 0
-54 -80 -288 5800 0
-5801 55 0
-5801 81 0
-5801 289 0
-55 -81 -289 5801 0
-5802 56 0
-5802 82 0
-5802 290 0
-56 -82 -290 5802 0
-5803 57 0
-5803 83 0
-5803 291 0
-57 -83 -291 5803 0
-5804 58 0
-5804 84 0
-5804 292 0
-58 -84 -292 5804 0
-5805 59 0
-5805 85 0
-5805 293 0
-59 -85 -293 5805 0
-5806 60 0
-5806 86 0
-5806 294 0
-60 -86 -294 5806 0
-5807 61 0
-5807 87 0
-5807 295 0
-61 -87 -295 5807 0
-5808 62 0
-5808 88 0
-5808 296 0
-62 -88 -296 5808 0
-5809 63 0
-5809 89 0
-5809 297 0
-63 -89 -297 5809 0
-5810 64 0
-5810 90 0
-5810 298 0
-64 -90 -298 5810 0
-5811 65 0
-5811 91 0
-5811 299 0
-65 -91 -299 5811 0
-5812 66 0
-5812 92 0
-5812 300 0
-66 -92 -300 5812 0
-5813 67 0
-5813 93 0
-5813 301 0
-67 -93 -301 5813 0
-5814 68 0
-5814 94 0
-5814 302 0
-68 -94 -302 5814 0
-5815 69 0
-5815 95 0
-5815 303 0
-69 -95 -303 5815 0
-5816 70 0
-5816 96 0
-5816 304 0
-70 -96 -304 5816 0
-5817 71 0
-5817 97 0
-5817 305 0
-71 -97 -305 5817 0
-5818 72 0
-5818 98 0
-5818 306 0
-72 -98 -306 5818 0
-5819 73 0
-5819 99 0
-5819 307 0
-73 -99 -307 5819 0
-5820 74 0
-5820 100 0
-5820 308 0
-74 -100 -308 5820 0
-5821 75 0
-5821 101 0
-5821 309 0
-75 -101 -309 5821 0
-5822 76 0
-5822 102 0
-5822 310 0
-76 -102 -310 5822 0
-5823 77 0
-5823 103 0
-5823 311 0
-77 -103 -311 5823 0
-5824 78 0
-5824 104 0
-5824 312 0
-78 -104 -312 5824 0
-5799 10035 0
-5800 10035 0
-5801 10035 0
-5802 10035 0
-5803 10035 0
-5804 10035 0
-5805 10035 0
-5806 10035 0
-5807 10035 0
-5808 10035 0
-5809 10035 0
-5810 10035 0
-5811 10035 0
-5812 10035 0
-5813 10035 0
-5814 10035 0
-5815 10035 0
-5816 10035 0
-5817 10035 0
-5818 10035 0
-5819 10035 0
-5820 10035 0
-5821 10035 0
-5822 10035 0
-5823 10035 0
-5824 10035 0
-10035 5799 5800 5801 5802 5803 5804 5805 5806 5807 5808 5809 5810 5811 5812 5813 5814 5815 5816 5817 5818 5819 5820 5821 5822 5823 5824 0
-5825 53 0
-5825 79 0
-5825 313 0
-53 -79 -313 5825 0
-5826 54 0
-5826 80 0
-5826 314 0
-54 -80 -314 5826 0
-5827 55 0
-5827 81 0
-5827 315 0
-55 -81 -315 5827 0
-5828 56 0
-5828 82 0
-5828 316 0
-56 -82 -316 5828 0
-5829 57 0
-5829 83 0
-5829 317 0
-57 -83 -317 5829 0
-5830 58 0
-5830 84 0
-5830 318 0
-58 -84 -318 5830 0
-5831 59 0
-5831 85 0
-5831 319 0
-59 -85 -319 5831 0
-5832 60 0
-5832 86 0
-5832 320 0
-60 -86 -320 5832 0
-5833 61 0
-5833 87 0
-5833 321 0
-61 -87 -321 5833 0
-5834 62 0
-5834 88 0
-5834 322 0
-62 -88 -322 5834 0
-5835 63 0
-5835 89 0
-5835 323 0
-63 -89 -323 5835 0
-5836 64 0
-5836 90 0
-5836 324 0
-64 -90 -324 5836 0
-5837 65 0
-5837 91 0
-5837 325 0
-65 -91 -325 5837 0
-5838 66 0
-5838 92 0
-5838 326 0
-66 -92 -326 5838 0
-5839 67 0
-5839 93 0
-5839 327 0
-67 -93 -327 5839 0
-5840 68 0
-5840 94 0
-5840 328 0
-68 -94 -328 5840 0
-5841 69 0
-5841 95 0
-5841 329 0
-69 -95 -329 5841 0
-5842 70 0
-5842 96 0
-5842 330 0
-70 -96 -330 5842 0
-5843 71 0
-5843 97 0
-5843 331 0
-71 -97 -331 5843 0
-5844 72 0
-5844 98 0
-5844 332 0
-72 -98 -332 5844 0
-5845 73 0
-5845 99 0
-5845 333 0
-73 -99 -333 5845 0
-5846 74 0
-5846 100 0
-5846 334 0
-74 -100 -334 5846 0
-5847 75 0
-5847 101 0
-5847 335 0
-75 -101 -335 5847 0
-5848 76 0
-5848 102 0
-5848 336 0
-76 -102 -336 5848 0
-5849 77 0
-5849 103 0
-5849 337 0
-77 -103 -337 5849 0
-5850 78 0
-5850 104 0
-5850 338 0
-78 -104 -338 5850 0
-5825 10036 0
-5826 10036 0
-5827 10036 0
-5828 10036 0
-5829 10036 0
-5830 10036 0
-5831 10036 0
-5832 10036 0
-5833 10036 0
-5834 10036 0
-5835 10036 0
-5836 10036 0
-5837 10036 0
-5838 10036 0
-5839 10036 0
-5840 10036 0
-5841 10036 0
-5842 10036 0
-5843 10036 0
-5844 10036 0
-5845 10036 0
-5846 10036 0
-5847 10036 0
-5848 10036 0
-5849 10036 0
-5850 10036 0
-10036 5825 5826 5827 5828 5829 5830 5831 5832 5833 5834 5835 5836 5837 5838 5839 5840 5841 5842 5843 5844 5845 5846 5847 5848 5849 5850 0
-5851 53 0
-5851 105 0
-5851 131 0
-53 -105 -131 5851 0
-5852 54 0
-5852 106 0
-5852 132 0
-54 -106 -132 5852 0
-5853 55 0
-5853 107 0
-5853 133 0
-55 -107 -133 5853 0
-5854 56 0
-5854 108 0
-5854 134 0
-56 -108 -134 5854 0
-5855 57 0
-5855 109 0
-5855 135 0
-57 -109 -135 5855 0
-5856 58 0
-5856 110 0
-5856 136 0
-58 -110 -136 5856 0
-5857 59 0
-5857 111 0
-5857 137 0
-59 -111 -137 5857 0
-5858 60 0
-5858 112 0
-5858 138 0
-60 -112 -138 5858 0
-5859 61 0
-5859 113 0
-5859 139 0
-61 -113 -139 5859 0
-5860 62 0
-5860 114 0
-5860 140 0
-62 -114 -140 5860 0
-5861 63 0
-5861 115 0
-5861 141 0
-63 -115 -141 5861 0
-5862 64 0
-5862 116 0
-5862 142 0
-64 -116 -142 5862 0
-5863 65 0
-5863 117 0
-5863 143 0
-65 -117 -143 5863 0
-5864 66 0
-5864 118 0
-5864 144 0
-66 -118 -144 5864 0
-5865 67 0
-5865 119 0
-5865 145 0
-67 -119 -145 5865 0
-5866 68 0
-5866 120 0
-5866 146 0
-68 -120 -146 5866 0
-5867 69 0
-5867 121 0
-5867 147 0
-69 -121 -147 5867 0
-5868 70 0
-5868 122 0
-5868 148 0
-70 -122 -148 5868 0
-5869 71 0
-5869 123 0
-5869 149 0
-71 -123 -149 5869 0
-5870 72 0
-5870 124 0
-5870 150 0
-72 -124 -150 5870 0
-5871 73 0
-5871 125 0
-5871 151 0
-73 -125 -151 5871 0
-5872 74 0
-5872 126 0
-5872 152 0
-74 -126 -152 5872 0
-5873 75 0
-5873 127 0
-5873 153 0
-75 -127 -153 5873 0
-5874 76 0
-5874 128 0
-5874 154 0
-76 -128 -154 5874 0
-5875 77 0
-5875 129 0
-5875 155 0
-77 -129 -155 5875 0
-5876 78 0
-5876 130 0
-5876 156 0
-78 -130 -156 5876 0
-5851 10037 0
-5852 10037 0
-5853 10037 0
-5854 10037 0
-5855 10037 0
-5856 10037 0
-5857 10037 0
-5858 10037 0
-5859 10037 0
-5860 10037 0
-5861 10037 0
-5862 10037 0
-5863 10037 0
-5864 10037 0
-5865 10037 0
-5866 10037 0
-5867 10037 0
-5868 10037 0
-5869 10037 0
-5870 10037 0
-5871 10037 0
-5872 10037 0
-5873 10037 0
-5874 10037 0
-5875 10037 0
-5876 10037 0
-10037 5851 5852 5853 5854 5855 5856 5857 5858 5859 5860 5861 5862 5863 5864 5865 5866 5867 5868 5869 5870 5871 5872 5873 5874 5875 5876 0
-5877 53 0
-5877 105 0
-5877 157 0
-53 -105 -157 5877 0
-5878 54 0
-5878 106 0
-5878 158 0
-54 -106 -158 5878 0
-5879 55 0
-5879 107 0
-5879 159 0
-55 -107 -159 5879 0
-5880 56 0
-5880 108 0
-5880 160 0
-56 -108 -160 5880 0
-5881 57 0
-5881 109 0
-5881 161 0
-57 -109 -161 5881 0
-5882 58 0
-5882 110 0
-5882 162 0
-58 -110 -162 5882 0
-5883 59 0
-5883 111 0
-5883 163 0
-59 -111 -163 5883 0
-5884 60 0
-5884 112 0
-5884 164 0
-60 -112 -164 5884 0
-5885 61 0
-5885 113 0
-5885 165 0
-61 -113 -165 5885 0
-5886 62 0
-5886 114 0
-5886 166 0
-62 -114 -166 5886 0
-5887 63 0
-5887 115 0
-5887 167 0
-63 -115 -167 5887 0
-5888 64 0
-5888 116 0
-5888 168 0
-64 -116 -168 5888 0
-5889 65 0
-5889 117 0
-5889 169 0
-65 -117 -169 5889 0
-5890 66 0
-5890 118 0
-5890 170 0
-66 -118 -170 5890 0
-5891 67 0
-5891 119 0
-5891 171 0
-67 -119 -171 5891 0
-5892 68 0
-5892 120 0
-5892 172 0
-68 -120 -172 5892 0
-5893 69 0
-5893 121 0
-5893 173 0
-69 -121 -173 5893 0
-5894 70 0
-5894 122 0
-5894 174 0
-70 -122 -174 5894 0
-5895 71 0
-5895 123 0
-5895 175 0
-71 -123 -175 5895 0
-5896 72 0
-5896 124 0
-5896 176 0
-72 -124 -176 5896 0
-5897 73 0
-5897 125 0
-5897 177 0
-73 -125 -177 5897 0
-5898 74 0
-5898 126 0
-5898 178 0
-74 -126 -178 5898 0
-5899 75 0
-5899 127 0
-5899 179 0
-75 -127 -179 5899 0
-5900 76 0
-5900 128 0
-5900 180 0
-76 -128 -180 5900 0
-5901 77 0
-5901 129 0
-5901 181 0
-77 -129 -181 5901 0
-5902 78 0
-5902 130 0
-5902 182 0
-78 -130 -182 5902 0
-5877 10038 0
-5878 10038 0
-5879 10038 0
-5880 10038 0
-5881 10038 0
-5882 10038 0
-5883 10038 0
-5884 10038 0
-5885 10038 0
-5886 10038 0
-5887 10038 0
-5888 10038 0
-5889 10038 0
-5890 10038 0
-5891 10038 0
-5892 10038 0
-5893 10038 0
-5894 10038 0
-5895 10038 0
-5896 10038 0
-5897 10038 0
-5898 10038 0
-5899 10038 0
-5900 10038 0
-5901 10038 0
-5902 10038 0
-10038 5877 5878 5879 5880 5881 5882 5883 5884 5885 5886 5887 5888 5889 5890 5891 5892 5893 5894 5895 5896 5897 5898 5899 5900 5901 5902 0
-5903 53 0
-5903 105 0
-5903 183 0
-53 -105 -183 5903 0
-5904 54 0
-5904 106 0
-5904 184 0
-54 -106 -184 5904 0
-5905 55 0
-5905 107 0
-5905 185 0
-55 -107 -185 5905 0
-5906 56 0
-5906 108 0
-5906 186 0
-56 -108 -186 5906 0
-5907 57 0
-5907 109 0
-5907 187 0
-57 -109 -187 5907 0
-5908 58 0
-5908 110 0
-5908 188 0
-58 -110 -188 5908 0
-5909 59 0
-5909 111 0
-5909 189 0
-59 -111 -189 5909 0
-5910 60 0
-5910 112 0
-5910 190 0
-60 -112 -190 5910 0
-5911 61 0
-5911 113 0
-5911 191 0
-61 -113 -191 5911 0
-5912 62 0
-5912 114 0
-5912 192 0
-62 -114 -192 5912 0
-5913 63 0
-5913 115 0
-5913 193 0
-63 -115 -193 5913 0
-5914 64 0
-5914 116 0
-5914 194 0
-64 -116 -194 5914 0
-5915 65 0
-5915 117 0
-5915 195 0
-65 -117 -195 5915 0
-5916 66 0
-5916 118 0
-5916 196 0
-66 -118 -196 5916 0
-5917 67 0
-5917 119 0
-5917 197 0
-67 -119 -197 5917 0
-5918 68 0
-5918 120 0
-5918 198 0
-68 -120 -198 5918 0
-5919 69 0
-5919 121 0
-5919 199 0
-69 -121 -199 5919 0
-5920 70 0
-5920 122 0
-5920 200 0
-70 -122 -200 5920 0
-5921 71 0
-5921 123 0
-5921 201 0
-71 -123 -201 5921 0
-5922 72 0
-5922 124 0
-5922 202 0
-72 -124 -202 5922 0
-5923 73 0
-5923 125 0
-5923 203 0
-73 -125 -203 5923 0
-5924 74 0
-5924 126 0
-5924 204 0
-74 -126 -204 5924 0
-5925 75 0
-5925 127 0
-5925 205 0
-75 -127 -205 5925 0
-5926 76 0
-5926 128 0
-5926 206 0
-76 -128 -206 5926 0
-5927 77 0
-5927 129 0
-5927 207 0
-77 -129 -207 5927 0
-5928 78 0
-5928 130 0
-5928 208 0
-78 -130 -208 5928 0
-5903 10039 0
-5904 10039 0
-5905 10039 0
-5906 10039 0
-5907 10039 0
-5908 10039 0
-5909 10039 0
-5910 10039 0
-5911 10039 0
-5912 10039 0
-5913 10039 0
-5914 10039 0
-5915 10039 0
-5916 10039 0
-5917 10039 0
-5918 10039 0
-5919 10039 0
-5920 10039 0
-5921 10039 0
-5922 10039 0
-5923 10039 0
-5924 10039 0
-5925 10039 0
-5926 10039 0
-5927 10039 0
-5928 10039 0
-10039 5903 5904 5905 5906 5907 5908 5909 5910 5911 5912 5913 5914 5915 5916 5917 5918 5919 5920 5921 5922 5923 5924 5925 5926 5927 5928 0
-5929 53 0
-5929 105 0
-5929 209 0
-53 -105 -209 5929 0
-5930 54 0
-5930 106 0
-5930 210 0
-54 -106 -210 5930 0
-5931 55 0
-5931 107 0
-5931 211 0
-55 -107 -211 5931 0
-5932 56 0
-5932 108 0
-5932 212 0
-56 -108 -212 5932 0
-5933 57 0
-5933 109 0
-5933 213 0
-57 -109 -213 5933 0
-5934 58 0
-5934 110 0
-5934 214 0
-58 -110 -214 5934 0
-5935 59 0
-5935 111 0
-5935 215 0
-59 -111 -215 5935 0
-5936 60 0
-5936 112 0
-5936 216 0
-60 -112 -216 5936 0
-5937 61 0
-5937 113 0
-5937 217 0
-61 -113 -217 5937 0
-5938 62 0
-5938 114 0
-5938 218 0
-62 -114 -218 5938 0
-5939 63 0
-5939 115 0
-5939 219 0
-63 -115 -219 5939 0
-5940 64 0
-5940 116 0
-5940 220 0
-64 -116 -220 5940 0
-5941 65 0
-5941 117 0
-5941 221 0
-65 -117 -221 5941 0
-5942 66 0
-5942 118 0
-5942 222 0
-66 -118 -222 5942 0
-5943 67 0
-5943 119 0
-5943 223 0
-67 -119 -223 5943 0
-5944 68 0
-5944 120 0
-5944 224 0
-68 -120 -224 5944 0
-5945 69 0
-5945 121 0
-5945 225 0
-69 -121 -225 5945 0
-5946 70 0
-5946 122 0
-5946 226 0
-70 -122 -226 5946 0
-5947 71 0
-5947 123 0
-5947 227 0
-71 -123 -227 5947 0
-5948 72 0
-5948 124 0
-5948 228 0
-72 -124 -228 5948 0
-5949 73 0
-5949 125 0
-5949 229 0
-73 -125 -229 5949 0
-5950 74 0
-5950 126 0
-5950 230 0
-74 -126 -230 5950 0
-5951 75 0
-5951 127 0
-5951 231 0
-75 -127 -231 5951 0
-5952 76 0
-5952 128 0
-5952 232 0
-76 -128 -232 5952 0
-5953 77 0
-5953 129 0
-5953 233 0
-77 -129 -233 5953 0
-5954 78 0
-5954 130 0
-5954 234 0
-78 -130 -234 5954 0
-5929 10040 0
-5930 10040 0
-5931 10040 0
-5932 10040 0
-5933 10040 0
-5934 10040 0
-5935 10040 0
-5936 10040 0
-5937 10040 0
-5938 10040 0
-5939 10040 0
-5940 10040 0
-5941 10040 0
-5942 10040 0
-5943 10040 0
-5944 10040 0
-5945 10040 0
-5946 10040 0
-5947 10040 0
-5948 10040 0
-5949 10040 0
-5950 10040 0
-5951 10040 0
-5952 10040 0
-5953 10040 0
-5954 10040 0
-10040 5929 5930 5931 5932 5933 5934 5935 5936 5937 5938 5939 5940 5941 5942 5943 5944 5945 5946 5947 5948 5949 5950 5951 5952 5953 5954 0
-5955 53 0
-5955 105 0
-5955 235 0
-53 -105 -235 5955 0
-5956 54 0
-5956 106 0
-5956 236 0
-54 -106 -236 5956 0
-5957 55 0
-5957 107 0
-5957 237 0
-55 -107 -237 5957 0
-5958 56 0
-5958 108 0
-5958 238 0
-56 -108 -238 5958 0
-5959 57 0
-5959 109 0
-5959 239 0
-57 -109 -239 5959 0
-5960 58 0
-5960 110 0
-5960 240 0
-58 -110 -240 5960 0
-5961 59 0
-5961 111 0
-5961 241 0
-59 -111 -241 5961 0
-5962 60 0
-5962 112 0
-5962 242 0
-60 -112 -242 5962 0
-5963 61 0
-5963 113 0
-5963 243 0
-61 -113 -243 5963 0
-5964 62 0
-5964 114 0
-5964 244 0
-62 -114 -244 5964 0
-5965 63 0
-5965 115 0
-5965 245 0
-63 -115 -245 5965 0
-5966 64 0
-5966 116 0
-5966 246 0
-64 -116 -246 5966 0
-5967 65 0
-5967 117 0
-5967 247 0
-65 -117 -247 5967 0
-5968 66 0
-5968 118 0
-5968 248 0
-66 -118 -248 5968 0
-5969 67 0
-5969 119 0
-5969 249 0
-67 -119 -249 5969 0
-5970 68 0
-5970 120 0
-5970 250 0
-68 -120 -250 5970 0
-5971 69 0
-5971 121 0
-5971 251 0
-69 -121 -251 5971 0
-5972 70 0
-5972 122 0
-5972 252 0
-70 -122 -252 5972 0
-5973 71 0
-5973 123 0
-5973 253 0
-71 -123 -253 5973 0
-5974 72 0
-5974 124 0
-5974 254 0
-72 -124 -254 5974 0
-5975 73 0
-5975 125 0
-5975 255 0
-73 -125 -255 5975 0
-5976 74 0
-5976 126 0
-5976 256 0
-74 -126 -256 5976 0
-5977 75 0
-5977 127 0
-5977 257 0
-75 -127 -257 5977 0
-5978 76 0
-5978 128 0
-5978 258 0
-76 -128 -258 5978 0
-5979 77 0
-5979 129 0
-5979 259 0
-77 -129 -259 5979 0
-5980 78 0
-5980 130 0
-5980 260 0
-78 -130 -260 5980 0
-5955 10041 0
-5956 10041 0
-5957 10041 0
-5958 10041 0
-5959 10041 0
-5960 10041 0
-5961 10041 0
-5962 10041 0
-5963 10041 0
-5964 10041 0
-5965 10041 0
-5966 10041 0
-5967 10041 0
-5968 10041 0
-5969 10041 0
-5970 10041 0
-5971 10041 0
-5972 10041 0
-5973 10041 0
-5974 10041 0
-5975 10041 0
-5976 10041 0
-5977 10041 0
-5978 10041 0
-5979 10041 0
-5980 10041 0
-10041 5955 5956 5957 5958 5959 5960 5961 5962 5963 5964 5965 5966 5967 5968 5969 5970 5971 5972 5973 5974 5975 5976 5977 5978 5979 5980 0
-5981 53 0
-5981 105 0
-5981 261 0
-53 -105 -261 5981 0
-5982 54 0
-5982 106 0
-5982 262 0
-54 -106 -262 5982 0
-5983 55 0
-5983 107 0
-5983 263 0
-55 -107 -263 5983 0
-5984 56 0
-5984 108 0
-5984 264 0
-56 -108 -264 5984 0
-5985 57 0
-5985 109 0
-5985 265 0
-57 -109 -265 5985 0
-5986 58 0
-5986 110 0
-5986 266 0
-58 -110 -266 5986 0
-5987 59 0
-5987 111 0
-5987 267 0
-59 -111 -267 5987 0
-5988 60 0
-5988 112 0
-5988 268 0
-60 -112 -268 5988 0
-5989 61 0
-5989 113 0
-5989 269 0
-61 -113 -269 5989 0
-5990 62 0
-5990 114 0
-5990 270 0
-62 -114 -270 5990 0
-5991 63 0
-5991 115 0
-5991 271 0
-63 -115 -271 5991 0
-5992 64 0
-5992 116 0
-5992 272 0
-64 -116 -272 5992 0
-5993 65 0
-5993 117 0
-5993 273 0
-65 -117 -273 5993 0
-5994 66 0
-5994 118 0
-5994 274 0
-66 -118 -274 5994 0
-5995 67 0
-5995 119 0
-5995 275 0
-67 -119 -275 5995 0
-5996 68 0
-5996 120 0
-5996 276 0
-68 -120 -276 5996 0
-5997 69 0
-5997 121 0
-5997 277 0
-69 -121 -277 5997 0
-5998 70 0
-5998 122 0
-5998 278 0
-70 -122 -278 5998 0
-5999 71 0
-5999 123 0
-5999 279 0
-71 -123 -279 5999 0
-6000 72 0
-6000 124 0
-6000 280 0
-72 -124 -280 6000 0
-6001 73 0
-6001 125 0
-6001 281 0
-73 -125 -281 6001 0
-6002 74 0
-6002 126 0
-6002 282 0
-74 -126 -282 6002 0
-6003 75 0
-6003 127 0
-6003 283 0
-75 -127 -283 6003 0
-6004 76 0
-6004 128 0
-6004 284 0
-76 -128 -284 6004 0
-6005 77 0
-6005 129 0
-6005 285 0
-77 -129 -285 6005 0
-6006 78 0
-6006 130 0
-6006 286 0
-78 -130 -286 6006 0
-5981 10042 0
-5982 10042 0
-5983 10042 0
-5984 10042 0
-5985 10042 0
-5986 10042 0
-5987 10042 0
-5988 10042 0
-5989 10042 0
-5990 10042 0
-5991 10042 0
-5992 10042 0
-5993 10042 0
-5994 10042 0
-5995 10042 0
-5996 10042 0
-5997 10042 0
-5998 10042 0
-5999 10042 0
-6000 10042 0
-6001 10042 0
-6002 10042 0
-6003 10042 0
-6004 10042 0
-6005 10042 0
-6006 10042 0
-10042 5981 5982 5983 5984 5985 5986 5987 5988 5989 5990 5991 5992 5993 5994 5995 5996 5997 5998 5999 6000 6001 6002 6003 6004 6005 6006 0
-6007 53 0
-6007 105 0
-6007 287 0
-53 -105 -287 6007 0
-6008 54 0
-6008 106 0
-6008 288 0
-54 -106 -288 6008 0
-6009 55 0
-6009 107 0
-6009 289 0
-55 -107 -289 6009 0
-6010 56 0
-6010 108 0
-6010 290 0
-56 -108 -290 6010 0
-6011 57 0
-6011 109 0
-6011 291 0
-57 -109 -291 6011 0
-6012 58 0
-6012 110 0
-6012 292 0
-58 -110 -292 6012 0
-6013 59 0
-6013 111 0
-6013 293 0
-59 -111 -293 6013 0
-6014 60 0
-6014 112 0
-6014 294 0
-60 -112 -294 6014 0
-6015 61 0
-6015 113 0
-6015 295 0
-61 -113 -295 6015 0
-6016 62 0
-6016 114 0
-6016 296 0
-62 -114 -296 6016 0
-6017 63 0
-6017 115 0
-6017 297 0
-63 -115 -297 6017 0
-6018 64 0
-6018 116 0
-6018 298 0
-64 -116 -298 6018 0
-6019 65 0
-6019 117 0
-6019 299 0
-65 -117 -299 6019 0
-6020 66 0
-6020 118 0
-6020 300 0
-66 -118 -300 6020 0
-6021 67 0
-6021 119 0
-6021 301 0
-67 -119 -301 6021 0
-6022 68 0
-6022 120 0
-6022 302 0
-68 -120 -302 6022 0
-6023 69 0
-6023 121 0
-6023 303 0
-69 -121 -303 6023 0
-6024 70 0
-6024 122 0
-6024 304 0
-70 -122 -304 6024 0
-6025 71 0
-6025 123 0
-6025 305 0
-71 -123 -305 6025 0
-6026 72 0
-6026 124 0
-6026 306 0
-72 -124 -306 6026 0
-6027 73 0
-6027 125 0
-6027 307 0
-73 -125 -307 6027 0
-6028 74 0
-6028 126 0
-6028 308 0
-74 -126 -308 6028 0
-6029 75 0
-6029 127 0
-6029 309 0
-75 -127 -309 6029 0
-6030 76 0
-6030 128 0
-6030 310 0
-76 -128 -310 6030 0
-6031 77 0
-6031 129 0
-6031 311 0
-77 -129 -311 6031 0
-6032 78 0
-6032 130 0
-6032 312 0
-78 -130 -312 6032 0
-6007 10043 0
-6008 10043 0
-6009 10043 0
-6010 10043 0
-6011 10043 0
-6012 10043 0
-6013 10043 0
-6014 10043 0
-6015 10043 0
-6016 10043 0
-6017 10043 0
-6018 10043 0
-6019 10043 0
-6020 10043 0
-6021 10043 0
-6022 10043 0
-6023 10043 0
-6024 10043 0
-6025 10043 0
-6026 10043 0
-6027 10043 0
-6028 10043 0
-6029 10043 0
-6030 10043 0
-6031 10043 0
-6032 10043 0
-10043 6007 6008 6009 6010 6011 6012 6013 6014 6015 6016 6017 6018 6019 6020 6021 6022 6023 6024 6025 6026 6027 6028 6029 6030 6031 6032 0
-6033 53 0
-6033 105 0
-6033 313 0
-53 -105 -313 6033 0
-6034 54 0
-6034 106 0
-6034 314 0
-54 -106 -314 6034 0
-6035 55 0
-6035 107 0
-6035 315 0
-55 -107 -315 6035 0
-6036 56 0
-6036 108 0
-6036 316 0
-56 -108 -316 6036 0
-6037 57 0
-6037 109 0
-6037 317 0
-57 -109 -317 6037 0
-6038 58 0
-6038 110 0
-6038 318 0
-58 -110 -318 6038 0
-6039 59 0
-6039 111 0
-6039 319 0
-59 -111 -319 6039 0
-6040 60 0
-6040 112 0
-6040 320 0
-60 -112 -320 6040 0
-6041 61 0
-6041 113 0
-6041 321 0
-61 -113 -321 6041 0
-6042 62 0
-6042 114 0
-6042 322 0
-62 -114 -322 6042 0
-6043 63 0
-6043 115 0
-6043 323 0
-63 -115 -323 6043 0
-6044 64 0
-6044 116 0
-6044 324 0
-64 -116 -324 6044 0
-6045 65 0
-6045 117 0
-6045 325 0
-65 -117 -325 6045 0
-6046 66 0
-6046 118 0
-6046 326 0
-66 -118 -326 6046 0
-6047 67 0
-6047 119 0
-6047 327 0
-67 -119 -327 6047 0
-6048 68 0
-6048 120 0
-6048 328 0
-68 -120 -328 6048 0
-6049 69 0
-6049 121 0
-6049 329 0
-69 -121 -329 6049 0
-6050 70 0
-6050 122 0
-6050 330 0
-70 -122 -330 6050 0
-6051 71 0
-6051 123 0
-6051 331 0
-71 -123 -331 6051 0
-6052 72 0
-6052 124 0
-6052 332 0
-72 -124 -332 6052 0
-6053 73 0
-6053 125 0
-6053 333 0
-73 -125 -333 6053 0
-6054 74 0
-6054 126 0
-6054 334 0
-74 -126 -334 6054 0
-6055 75 0
-6055 127 0
-6055 335 0
-75 -127 -335 6055 0
-6056 76 0
-6056 128 0
-6056 336 0
-76 -128 -336 6056 0
-6057 77 0
-6057 129 0
-6057 337 0
-77 -129 -337 6057 0
-6058 78 0
-6058 130 0
-6058 338 0
-78 -130 -338 6058 0
-6033 10044 0
-6034 10044 0
-6035 10044 0
-6036 10044 0
-6037 10044 0
-6038 10044 0
-6039 10044 0
-6040 10044 0
-6041 10044 0
-6042 10044 0
-6043 10044 0
-6044 10044 0
-6045 10044 0
-6046 10044 0
-6047 10044 0
-6048 10044 0
-6049 10044 0
-6050 10044 0
-6051 10044 0
-6052 10044 0
-6053 10044 0
-6054 10044 0
-6055 10044 0
-6056 10044 0
-6057 10044 0
-6058 10044 0
-10044 6033 6034 6035 6036 6037 6038 6039 6040 6041 6042 6043 6044 6045 6046 6047 6048 6049 6050 6051 6052 6053 6054 6055 6056 6057 6058 0
-6059 53 0
-6059 131 0
-6059 157 0
-53 -131 -157 6059 0
-6060 54 0
-6060 132 0
-6060 158 0
-54 -132 -158 6060 0
-6061 55 0
-6061 133 0
-6061 159 0
-55 -133 -159 6061 0
-6062 56 0
-6062 134 0
-6062 160 0
-56 -134 -160 6062 0
-6063 57 0
-6063 135 0
-6063 161 0
-57 -135 -161 6063 0
-6064 58 0
-6064 136 0
-6064 162 0
-58 -136 -162 6064 0
-6065 59 0
-6065 137 0
-6065 163 0
-59 -137 -163 6065 0
-6066 60 0
-6066 138 0
-6066 164 0
-60 -138 -164 6066 0
-6067 61 0
-6067 139 0
-6067 165 0
-61 -139 -165 6067 0
-6068 62 0
-6068 140 0
-6068 166 0
-62 -140 -166 6068 0
-6069 63 0
-6069 141 0
-6069 167 0
-63 -141 -167 6069 0
-6070 64 0
-6070 142 0
-6070 168 0
-64 -142 -168 6070 0
-6071 65 0
-6071 143 0
-6071 169 0
-65 -143 -169 6071 0
-6072 66 0
-6072 144 0
-6072 170 0
-66 -144 -170 6072 0
-6073 67 0
-6073 145 0
-6073 171 0
-67 -145 -171 6073 0
-6074 68 0
-6074 146 0
-6074 172 0
-68 -146 -172 6074 0
-6075 69 0
-6075 147 0
-6075 173 0
-69 -147 -173 6075 0
-6076 70 0
-6076 148 0
-6076 174 0
-70 -148 -174 6076 0
-6077 71 0
-6077 149 0
-6077 175 0
-71 -149 -175 6077 0
-6078 72 0
-6078 150 0
-6078 176 0
-72 -150 -176 6078 0
-6079 73 0
-6079 151 0
-6079 177 0
-73 -151 -177 6079 0
-6080 74 0
-6080 152 0
-6080 178 0
-74 -152 -178 6080 0
-6081 75 0
-6081 153 0
-6081 179 0
-75 -153 -179 6081 0
-6082 76 0
-6082 154 0
-6082 180 0
-76 -154 -180 6082 0
-6083 77 0
-6083 155 0
-6083 181 0
-77 -155 -181 6083 0
-6084 78 0
-6084 156 0
-6084 182 0
-78 -156 -182 6084 0
-6059 10045 0
-6060 10045 0
-6061 10045 0
-6062 10045 0
-6063 10045 0
-6064 10045 0
-6065 10045 0
-6066 10045 0
-6067 10045 0
-6068 10045 0
-6069 10045 0
-6070 10045 0
-6071 10045 0
-6072 10045 0
-6073 10045 0
-6074 10045 0
-6075 10045 0
-6076 10045 0
-6077 10045 0
-6078 10045 0
-6079 10045 0
-6080 10045 0
-6081 10045 0
-6082 10045 0
-6083 10045 0
-6084 10045 0
-10045 6059 6060 6061 6062 6063 6064 6065 6066 6067 6068 6069 6070 6071 6072 6073 6074 6075 6076 6077 6078 6079 6080 6081 6082 6083 6084 0
-6085 53 0
-6085 131 0
-6085 183 0
-53 -131 -183 6085 0
-6086 54 0
-6086 132 0
-6086 184 0
-54 -132 -184 6086 0
-6087 55 0
-6087 133 0
-6087 185 0
-55 -133 -185 6087 0
-6088 56 0
-6088 134 0
-6088 186 0
-56 -134 -186 6088 0
-6089 57 0
-6089 135 0
-6089 187 0
-57 -135 -187 6089 0
-6090 58 0
-6090 136 0
-6090 188 0
-58 -136 -188 6090 0
-6091 59 0
-6091 137 0
-6091 189 0
-59 -137 -189 6091 0
-6092 60 0
-6092 138 0
-6092 190 0
-60 -138 -190 6092 0
-6093 61 0
-6093 139 0
-6093 191 0
-61 -139 -191 6093 0
-6094 62 0
-6094 140 0
-6094 192 0
-62 -140 -192 6094 0
-6095 63 0
-6095 141 0
-6095 193 0
-63 -141 -193 6095 0
-6096 64 0
-6096 142 0
-6096 194 0
-64 -142 -194 6096 0
-6097 65 0
-6097 143 0
-6097 195 0
-65 -143 -195 6097 0
-6098 66 0
-6098 144 0
-6098 196 0
-66 -144 -196 6098 0
-6099 67 0
-6099 145 0
-6099 197 0
-67 -145 -197 6099 0
-6100 68 0
-6100 146 0
-6100 198 0
-68 -146 -198 6100 0
-6101 69 0
-6101 147 0
-6101 199 0
-69 -147 -199 6101 0
-6102 70 0
-6102 148 0
-6102 200 0
-70 -148 -200 6102 0
-6103 71 0
-6103 149 0
-6103 201 0
-71 -149 -201 6103 0
-6104 72 0
-6104 150 0
-6104 202 0
-72 -150 -202 6104 0
-6105 73 0
-6105 151 0
-6105 203 0
-73 -151 -203 6105 0
-6106 74 0
-6106 152 0
-6106 204 0
-74 -152 -204 6106 0
-6107 75 0
-6107 153 0
-6107 205 0
-75 -153 -205 6107 0
-6108 76 0
-6108 154 0
-6108 206 0
-76 -154 -206 6108 0
-6109 77 0
-6109 155 0
-6109 207 0
-77 -155 -207 6109 0
-6110 78 0
-6110 156 0
-6110 208 0
-78 -156 -208 6110 0
-6085 10046 0
-6086 10046 0
-6087 10046 0
-6088 10046 0
-6089 10046 0
-6090 10046 0
-6091 10046 0
-6092 10046 0
-6093 10046 0
-6094 10046 0
-6095 10046 0
-6096 10046 0
-6097 10046 0
-6098 10046 0
-6099 10046 0
-6100 10046 0
-6101 10046 0
-6102 10046 0
-6103 10046 0
-6104 10046 0
-6105 10046 0
-6106 10046 0
-6107 10046 0
-6108 10046 0
-6109 10046 0
-6110 10046 0
-10046 6085 6086 6087 6088 6089 6090 6091 6092 6093 6094 6095 6096 6097 6098 6099 6100 6101 6102 6103 6104 6105 6106 6107 6108 6109 6110 0
-6111 53 0
-6111 131 0
-6111 209 0
-53 -131 -209 6111 0
-6112 54 0
-6112 132 0
-6112 210 0
-54 -132 -210 6112 0
-6113 55 0
-6113 133 0
-6113 211 0
-55 -133 -211 6113 0
-6114 56 0
-6114 134 0
-6114 212 0
-56 -134 -212 6114 0
-6115 57 0
-6115 135 0
-6115 213 0
-57 -135 -213 6115 0
-6116 58 0
-6116 136 0
-6116 214 0
-58 -136 -214 6116 0
-6117 59 0
-6117 137 0
-6117 215 0
-59 -137 -215 6117 0
-6118 60 0
-6118 138 0
-6118 216 0
-60 -138 -216 6118 0
-6119 61 0
-6119 139 0
-6119 217 0
-61 -139 -217 6119 0
-6120 62 0
-6120 140 0
-6120 218 0
-62 -140 -218 6120 0
-6121 63 0
-6121 141 0
-6121 219 0
-63 -141 -219 6121 0
-6122 64 0
-6122 142 0
-6122 220 0
-64 -142 -220 6122 0
-6123 65 0
-6123 143 0
-6123 221 0
-65 -143 -221 6123 0
-6124 66 0
-6124 144 0
-6124 222 0
-66 -144 -222 6124 0
-6125 67 0
-6125 145 0
-6125 223 0
-67 -145 -223 6125 0
-6126 68 0
-6126 146 0
-6126 224 0
-68 -146 -224 6126 0
-6127 69 0
-6127 147 0
-6127 225 0
-69 -147 -225 6127 0
-6128 70 0
-6128 148 0
-6128 226 0
-70 -148 -226 6128 0
-6129 71 0
-6129 149 0
-6129 227 0
-71 -149 -227 6129 0
-6130 72 0
-6130 150 0
-6130 228 0
-72 -150 -228 6130 0
-6131 73 0
-6131 151 0
-6131 229 0
-73 -151 -229 6131 0
-6132 74 0
-6132 152 0
-6132 230 0
-74 -152 -230 6132 0
-6133 75 0
-6133 153 0
-6133 231 0
-75 -153 -231 6133 0
-6134 76 0
-6134 154 0
-6134 232 0
-76 -154 -232 6134 0
-6135 77 0
-6135 155 0
-6135 233 0
-77 -155 -233 6135 0
-6136 78 0
-6136 156 0
-6136 234 0
-78 -156 -234 6136 0
-6111 10047 0
-6112 10047 0
-6113 10047 0
-6114 10047 0
-6115 10047 0
-6116 10047 0
-6117 10047 0
-6118 10047 0
-6119 10047 0
-6120 10047 0
-6121 10047 0
-6122 10047 0
-6123 10047 0
-6124 10047 0
-6125 10047 0
-6126 10047 0
-6127 10047 0
-6128 10047 0
-6129 10047 0
-6130 10047 0
-6131 10047 0
-6132 10047 0
-6133 10047 0
-6134 10047 0
-6135 10047 0
-6136 10047 0
-10047 6111 6112 6113 6114 6115 6116 6117 6118 6119 6120 6121 6122 6123 6124 6125 6126 6127 6128 6129 6130 6131 6132 6133 6134 6135 6136 0
-6137 53 0
-6137 131 0
-6137 235 0
-53 -131 -235 6137 0
-6138 54 0
-6138 132 0
-6138 236 0
-54 -132 -236 6138 0
-6139 55 0
-6139 133 0
-6139 237 0
-55 -133 -237 6139 0
-6140 56 0
-6140 134 0
-6140 238 0
-56 -134 -238 6140 0
-6141 57 0
-6141 135 0
-6141 239 0
-57 -135 -239 6141 0
-6142 58 0
-6142 136 0
-6142 240 0
-58 -136 -240 6142 0
-6143 59 0
-6143 137 0
-6143 241 0
-59 -137 -241 6143 0
-6144 60 0
-6144 138 0
-6144 242 0
-60 -138 -242 6144 0
-6145 61 0
-6145 139 0
-6145 243 0
-61 -139 -243 6145 0
-6146 62 0
-6146 140 0
-6146 244 0
-62 -140 -244 6146 0
-6147 63 0
-6147 141 0
-6147 245 0
-63 -141 -245 6147 0
-6148 64 0
-6148 142 0
-6148 246 0
-64 -142 -246 6148 0
-6149 65 0
-6149 143 0
-6149 247 0
-65 -143 -247 6149 0
-6150 66 0
-6150 144 0
-6150 248 0
-66 -144 -248 6150 0
-6151 67 0
-6151 145 0
-6151 249 0
-67 -145 -249 6151 0
-6152 68 0
-6152 146 0
-6152 250 0
-68 -146 -250 6152 0
-6153 69 0
-6153 147 0
-6153 251 0
-69 -147 -251 6153 0
-6154 70 0
-6154 148 0
-6154 252 0
-70 -148 -252 6154 0
-6155 71 0
-6155 149 0
-6155 253 0
-71 -149 -253 6155 0
-6156 72 0
-6156 150 0
-6156 254 0
-72 -150 -254 6156 0
-6157 73 0
-6157 151 0
-6157 255 0
-73 -151 -255 6157 0
-6158 74 0
-6158 152 0
-6158 256 0
-74 -152 -256 6158 0
-6159 75 0
-6159 153 0
-6159 257 0
-75 -153 -257 6159 0
-6160 76 0
-6160 154 0
-6160 258 0
-76 -154 -258 6160 0
-6161 77 0
-6161 155 0
-6161 259 0
-77 -155 -259 6161 0
-6162 78 0
-6162 156 0
-6162 260 0
-78 -156 -260 6162 0
-6137 10048 0
-6138 10048 0
-6139 10048 0
-6140 10048 0
-6141 10048 0
-6142 10048 0
-6143 10048 0
-6144 10048 0
-6145 10048 0
-6146 10048 0
-6147 10048 0
-6148 10048 0
-6149 10048 0
-6150 10048 0
-6151 10048 0
-6152 10048 0
-6153 10048 0
-6154 10048 0
-6155 10048 0
-6156 10048 0
-6157 10048 0
-6158 10048 0
-6159 10048 0
-6160 10048 0
-6161 10048 0
-6162 10048 0
-10048 6137 6138 6139 6140 6141 6142 6143 6144 6145 6146 6147 6148 6149 6150 6151 6152 6153 6154 6155 6156 6157 6158 6159 6160 6161 6162 0
-6163 53 0
-6163 131 0
-6163 261 0
-53 -131 -261 6163 0
-6164 54 0
-6164 132 0
-6164 262 0
-54 -132 -262 6164 0
-6165 55 0
-6165 133 0
-6165 263 0
-55 -133 -263 6165 0
-6166 56 0
-6166 134 0
-6166 264 0
-56 -134 -264 6166 0
-6167 57 0
-6167 135 0
-6167 265 0
-57 -135 -265 6167 0
-6168 58 0
-6168 136 0
-6168 266 0
-58 -136 -266 6168 0
-6169 59 0
-6169 137 0
-6169 267 0
-59 -137 -267 6169 0
-6170 60 0
-6170 138 0
-6170 268 0
-60 -138 -268 6170 0
-6171 61 0
-6171 139 0
-6171 269 0
-61 -139 -269 6171 0
-6172 62 0
-6172 140 0
-6172 270 0
-62 -140 -270 6172 0
-6173 63 0
-6173 141 0
-6173 271 0
-63 -141 -271 6173 0
-6174 64 0
-6174 142 0
-6174 272 0
-64 -142 -272 6174 0
-6175 65 0
-6175 143 0
-6175 273 0
-65 -143 -273 6175 0
-6176 66 0
-6176 144 0
-6176 274 0
-66 -144 -274 6176 0
-6177 67 0
-6177 145 0
-6177 275 0
-67 -145 -275 6177 0
-6178 68 0
-6178 146 0
-6178 276 0
-68 -146 -276 6178 0
-6179 69 0
-6179 147 0
-6179 277 0
-69 -147 -277 6179 0
-6180 70 0
-6180 148 0
-6180 278 0
-70 -148 -278 6180 0
-6181 71 0
-6181 149 0
-6181 279 0
-71 -149 -279 6181 0
-6182 72 0
-6182 150 0
-6182 280 0
-72 -150 -280 6182 0
-6183 73 0
-6183 151 0
-6183 281 0
-73 -151 -281 6183 0
-6184 74 0
-6184 152 0
-6184 282 0
-74 -152 -282 6184 0
-6185 75 0
-6185 153 0
-6185 283 0
-75 -153 -283 6185 0
-6186 76 0
-6186 154 0
-6186 284 0
-76 -154 -284 6186 0
-6187 77 0
-6187 155 0
-6187 285 0
-77 -155 -285 6187 0
-6188 78 0
-6188 156 0
-6188 286 0
-78 -156 -286 6188 0
-6163 10049 0
-6164 10049 0
-6165 10049 0
-6166 10049 0
-6167 10049 0
-6168 10049 0
-6169 10049 0
-6170 10049 0
-6171 10049 0
-6172 10049 0
-6173 10049 0
-6174 10049 0
-6175 10049 0
-6176 10049 0
-6177 10049 0
-6178 10049 0
-6179 10049 0
-6180 10049 0
-6181 10049 0
-6182 10049 0
-6183 10049 0
-6184 10049 0
-6185 10049 0
-6186 10049 0
-6187 10049 0
-6188 10049 0
-10049 6163 6164 6165 6166 6167 6168 6169 6170 6171 6172 6173 6174 6175 6176 6177 6178 6179 6180 6181 6182 6183 6184 6185 6186 6187 6188 0
-6189 53 0
-6189 131 0
-6189 287 0
-53 -131 -287 6189 0
-6190 54 0
-6190 132 0
-6190 288 0
-54 -132 -288 6190 0
-6191 55 0
-6191 133 0
-6191 289 0
-55 -133 -289 6191 0
-6192 56 0
-6192 134 0
-6192 290 0
-56 -134 -290 6192 0
-6193 57 0
-6193 135 0
-6193 291 0
-57 -135 -291 6193 0
-6194 58 0
-6194 136 0
-6194 292 0
-58 -136 -292 6194 0
-6195 59 0
-6195 137 0
-6195 293 0
-59 -137 -293 6195 0
-6196 60 0
-6196 138 0
-6196 294 0
-60 -138 -294 6196 0
-6197 61 0
-6197 139 0
-6197 295 0
-61 -139 -295 6197 0
-6198 62 0
-6198 140 0
-6198 296 0
-62 -140 -296 6198 0
-6199 63 0
-6199 141 0
-6199 297 0
-63 -141 -297 6199 0
-6200 64 0
-6200 142 0
-6200 298 0
-64 -142 -298 6200 0
-6201 65 0
-6201 143 0
-6201 299 0
-65 -143 -299 6201 0
-6202 66 0
-6202 144 0
-6202 300 0
-66 -144 -300 6202 0
-6203 67 0
-6203 145 0
-6203 301 0
-67 -145 -301 6203 0
-6204 68 0
-6204 146 0
-6204 302 0
-68 -146 -302 6204 0
-6205 69 0
-6205 147 0
-6205 303 0
-69 -147 -303 6205 0
-6206 70 0
-6206 148 0
-6206 304 0
-70 -148 -304 6206 0
-6207 71 0
-6207 149 0
-6207 305 0
-71 -149 -305 6207 0
-6208 72 0
-6208 150 0
-6208 306 0
-72 -150 -306 6208 0
-6209 73 0
-6209 151 0
-6209 307 0
-73 -151 -307 6209 0
-6210 74 0
-6210 152 0
-6210 308 0
-74 -152 -308 6210 0
-6211 75 0
-6211 153 0
-6211 309 0
-75 -153 -309 6211 0
-6212 76 0
-6212 154 0
-6212 310 0
-76 -154 -310 6212 0
-6213 77 0
-6213 155 0
-6213 311 0
-77 -155 -311 6213 0
-6214 78 0
-6214 156 0
-6214 312 0
-78 -156 -312 6214 0
-6189 10050 0
-6190 10050 0
-6191 10050 0
-6192 10050 0
-6193 10050 0
-6194 10050 0
-6195 10050 0
-6196 10050 0
-6197 10050 0
-6198 10050 0
-6199 10050 0
-6200 10050 0
-6201 10050 0
-6202 10050 0
-6203 10050 0
-6204 10050 0
-6205 10050 0
-6206 10050 0
-6207 10050 0
-6208 10050 0
-6209 10050 0
-6210 10050 0
-6211 10050 0
-6212 10050 0
-6213 10050 0
-6214 10050 0
-10050 6189 6190 6191 6192 6193 6194 6195 6196 6197 6198 6199 6200 6201 6202 6203 6204 6205 6206 6207 6208 6209 6210 6211 6212 6213 6214 0
-6215 53 0
-6215 131 0
-6215 313 0
-53 -131 -313 6215 0
-6216 54 0
-6216 132 0
-6216 314 0
-54 -132 -314 6216 0
-6217 55 0
-6217 133 0
-6217 315 0
-55 -133 -315 6217 0
-6218 56 0
-6218 134 0
-6218 316 0
-56 -134 -316 6218 0
-6219 57 0
-6219 135 0
-6219 317 0
-57 -135 -317 6219 0
-6220 58 0
-6220 136 0
-6220 318 0
-58 -136 -318 6220 0
-6221 59 0
-6221 137 0
-6221 319 0
-59 -137 -319 6221 0
-6222 60 0
-6222 138 0
-6222 320 0
-60 -138 -320 6222 0
-6223 61 0
-6223 139 0
-6223 321 0
-61 -139 -321 6223 0
-6224 62 0
-6224 140 0
-6224 322 0
-62 -140 -322 6224 0
-6225 63 0
-6225 141 0
-6225 323 0
-63 -141 -323 6225 0
-6226 64 0
-6226 142 0
-6226 324 0
-64 -142 -324 6226 0
-6227 65 0
-6227 143 0
-6227 325 0
-65 -143 -325 6227 0
-6228 66 0
-6228 144 0
-6228 326 0
-66 -144 -326 6228 0
-6229 67 0
-6229 145 0
-6229 327 0
-67 -145 -327 6229 0
-6230 68 0
-6230 146 0
-6230 328 0
-68 -146 -328 6230 0
-6231 69 0
-6231 147 0
-6231 329 0
-69 -147 -329 6231 0
-6232 70 0
-6232 148 0
-6232 330 0
-70 -148 -330 6232 0
-6233 71 0
-6233 149 0
-6233 331 0
-71 -149 -331 6233 0
-6234 72 0
-6234 150 0
-6234 332 0
-72 -150 -332 6234 0
-6235 73 0
-6235 151 0
-6235 333 0
-73 -151 -333 6235 0
-6236 74 0
-6236 152 0
-6236 334 0
-74 -152 -334 6236 0
-6237 75 0
-6237 153 0
-6237 335 0
-75 -153 -335 6237 0
-6238 76 0
-6238 154 0
-6238 336 0
-76 -154 -336 6238 0
-6239 77 0
-6239 155 0
-6239 337 0
-77 -155 -337 6239 0
-6240 78 0
-6240 156 0
-6240 338 0
-78 -156 -338 6240 0
-6215 10051 0
-6216 10051 0
-6217 10051 0
-6218 10051 0
-6219 10051 0
-6220 10051 0
-6221 10051 0
-6222 10051 0
-6223 10051 0
-6224 10051 0
-6225 10051 0
-6226 10051 0
-6227 10051 0
-6228 10051 0
-6229 10051 0
-6230 10051 0
-6231 10051 0
-6232 10051 0
-6233 10051 0
-6234 10051 0
-6235 10051 0
-6236 10051 0
-6237 10051 0
-6238 10051 0
-6239 10051 0
-6240 10051 0
-10051 6215 6216 6217 6218 6219 6220 6221 6222 6223 6224 6225 6226 6227 6228 6229 6230 6231 6232 6233 6234 6235 6236 6237 6238 6239 6240 0
-6241 53 0
-6241 157 0
-6241 183 0
-53 -157 -183 6241 0
-6242 54 0
-6242 158 0
-6242 184 0
-54 -158 -184 6242 0
-6243 55 0
-6243 159 0
-6243 185 0
-55 -159 -185 6243 0
-6244 56 0
-6244 160 0
-6244 186 0
-56 -160 -186 6244 0
-6245 57 0
-6245 161 0
-6245 187 0
-57 -161 -187 6245 0
-6246 58 0
-6246 162 0
-6246 188 0
-58 -162 -188 6246 0
-6247 59 0
-6247 163 0
-6247 189 0
-59 -163 -189 6247 0
-6248 60 0
-6248 164 0
-6248 190 0
-60 -164 -190 6248 0
-6249 61 0
-6249 165 0
-6249 191 0
-61 -165 -191 6249 0
-6250 62 0
-6250 166 0
-6250 192 0
-62 -166 -192 6250 0
-6251 63 0
-6251 167 0
-6251 193 0
-63 -167 -193 6251 0
-6252 64 0
-6252 168 0
-6252 194 0
-64 -168 -194 6252 0
-6253 65 0
-6253 169 0
-6253 195 0
-65 -169 -195 6253 0
-6254 66 0
-6254 170 0
-6254 196 0
-66 -170 -196 6254 0
-6255 67 0
-6255 171 0
-6255 197 0
-67 -171 -197 6255 0
-6256 68 0
-6256 172 0
-6256 198 0
-68 -172 -198 6256 0
-6257 69 0
-6257 173 0
-6257 199 0
-69 -173 -199 6257 0
-6258 70 0
-6258 174 0
-6258 200 0
-70 -174 -200 6258 0
-6259 71 0
-6259 175 0
-6259 201 0
-71 -175 -201 6259 0
-6260 72 0
-6260 176 0
-6260 202 0
-72 -176 -202 6260 0
-6261 73 0
-6261 177 0
-6261 203 0
-73 -177 -203 6261 0
-6262 74 0
-6262 178 0
-6262 204 0
-74 -178 -204 6262 0
-6263 75 0
-6263 179 0
-6263 205 0
-75 -179 -205 6263 0
-6264 76 0
-6264 180 0
-6264 206 0
-76 -180 -206 6264 0
-6265 77 0
-6265 181 0
-6265 207 0
-77 -181 -207 6265 0
-6266 78 0
-6266 182 0
-6266 208 0
-78 -182 -208 6266 0
-6241 10052 0
-6242 10052 0
-6243 10052 0
-6244 10052 0
-6245 10052 0
-6246 10052 0
-6247 10052 0
-6248 10052 0
-6249 10052 0
-6250 10052 0
-6251 10052 0
-6252 10052 0
-6253 10052 0
-6254 10052 0
-6255 10052 0
-6256 10052 0
-6257 10052 0
-6258 10052 0
-6259 10052 0
-6260 10052 0
-6261 10052 0
-6262 10052 0
-6263 10052 0
-6264 10052 0
-6265 10052 0
-6266 10052 0
-10052 6241 6242 6243 6244 6245 6246 6247 6248 6249 6250 6251 6252 6253 6254 6255 6256 6257 6258 6259 6260 6261 6262 6263 6264 6265 6266 0
-6267 53 0
-6267 157 0
-6267 209 0
-53 -157 -209 6267 0
-6268 54 0
-6268 158 0
-6268 210 0
-54 -158 -210 6268 0
-6269 55 0
-6269 159 0
-6269 211 0
-55 -159 -211 6269 0
-6270 56 0
-6270 160 0
-6270 212 0
-56 -160 -212 6270 0
-6271 57 0
-6271 161 0
-6271 213 0
-57 -161 -213 6271 0
-6272 58 0
-6272 162 0
-6272 214 0
-58 -162 -214 6272 0
-6273 59 0
-6273 163 0
-6273 215 0
-59 -163 -215 6273 0
-6274 60 0
-6274 164 0
-6274 216 0
-60 -164 -216 6274 0
-6275 61 0
-6275 165 0
-6275 217 0
-61 -165 -217 6275 0
-6276 62 0
-6276 166 0
-6276 218 0
-62 -166 -218 6276 0
-6277 63 0
-6277 167 0
-6277 219 0
-63 -167 -219 6277 0
-6278 64 0
-6278 168 0
-6278 220 0
-64 -168 -220 6278 0
-6279 65 0
-6279 169 0
-6279 221 0
-65 -169 -221 6279 0
-6280 66 0
-6280 170 0
-6280 222 0
-66 -170 -222 6280 0
-6281 67 0
-6281 171 0
-6281 223 0
-67 -171 -223 6281 0
-6282 68 0
-6282 172 0
-6282 224 0
-68 -172 -224 6282 0
-6283 69 0
-6283 173 0
-6283 225 0
-69 -173 -225 6283 0
-6284 70 0
-6284 174 0
-6284 226 0
-70 -174 -226 6284 0
-6285 71 0
-6285 175 0
-6285 227 0
-71 -175 -227 6285 0
-6286 72 0
-6286 176 0
-6286 228 0
-72 -176 -228 6286 0
-6287 73 0
-6287 177 0
-6287 229 0
-73 -177 -229 6287 0
-6288 74 0
-6288 178 0
-6288 230 0
-74 -178 -230 6288 0
-6289 75 0
-6289 179 0
-6289 231 0
-75 -179 -231 6289 0
-6290 76 0
-6290 180 0
-6290 232 0
-76 -180 -232 6290 0
-6291 77 0
-6291 181 0
-6291 233 0
-77 -181 -233 6291 0
-6292 78 0
-6292 182 0
-6292 234 0
-78 -182 -234 6292 0
-6267 10053 0
-6268 10053 0
-6269 10053 0
-6270 10053 0
-6271 10053 0
-6272 10053 0
-6273 10053 0
-6274 10053 0
-6275 10053 0
-6276 10053 0
-6277 10053 0
-6278 10053 0
-6279 10053 0
-6280 10053 0
-6281 10053 0
-6282 10053 0
-6283 10053 0
-6284 10053 0
-6285 10053 0
-6286 10053 0
-6287 10053 0
-6288 10053 0
-6289 10053 0
-6290 10053 0
-6291 10053 0
-6292 10053 0
-10053 6267 6268 6269 6270 6271 6272 6273 6274 6275 6276 6277 6278 6279 6280 6281 6282 6283 6284 6285 6286 6287 6288 6289 6290 6291 6292 0
-6293 53 0
-6293 157 0
-6293 235 0
-53 -157 -235 6293 0
-6294 54 0
-6294 158 0
-6294 236 0
-54 -158 -236 6294 0
-6295 55 0
-6295 159 0
-6295 237 0
-55 -159 -237 6295 0
-6296 56 0
-6296 160 0
-6296 238 0
-56 -160 -238 6296 0
-6297 57 0
-6297 161 0
-6297 239 0
-57 -161 -239 6297 0
-6298 58 0
-6298 162 0
-6298 240 0
-58 -162 -240 6298 0
-6299 59 0
-6299 163 0
-6299 241 0
-59 -163 -241 6299 0
-6300 60 0
-6300 164 0
-6300 242 0
-60 -164 -242 6300 0
-6301 61 0
-6301 165 0
-6301 243 0
-61 -165 -243 6301 0
-6302 62 0
-6302 166 0
-6302 244 0
-62 -166 -244 6302 0
-6303 63 0
-6303 167 0
-6303 245 0
-63 -167 -245 6303 0
-6304 64 0
-6304 168 0
-6304 246 0
-64 -168 -246 6304 0
-6305 65 0
-6305 169 0
-6305 247 0
-65 -169 -247 6305 0
-6306 66 0
-6306 170 0
-6306 248 0
-66 -170 -248 6306 0
-6307 67 0
-6307 171 0
-6307 249 0
-67 -171 -249 6307 0
-6308 68 0
-6308 172 0
-6308 250 0
-68 -172 -250 6308 0
-6309 69 0
-6309 173 0
-6309 251 0
-69 -173 -251 6309 0
-6310 70 0
-6310 174 0
-6310 252 0
-70 -174 -252 6310 0
-6311 71 0
-6311 175 0
-6311 253 0
-71 -175 -253 6311 0
-6312 72 0
-6312 176 0
-6312 254 0
-72 -176 -254 6312 0
-6313 73 0
-6313 177 0
-6313 255 0
-73 -177 -255 6313 0
-6314 74 0
-6314 178 0
-6314 256 0
-74 -178 -256 6314 0
-6315 75 0
-6315 179 0
-6315 257 0
-75 -179 -257 6315 0
-6316 76 0
-6316 180 0
-6316 258 0
-76 -180 -258 6316 0
-6317 77 0
-6317 181 0
-6317 259 0
-77 -181 -259 6317 0
-6318 78 0
-6318 182 0
-6318 260 0
-78 -182 -260 6318 0
-6293 10054 0
-6294 10054 0
-6295 10054 0
-6296 10054 0
-6297 10054 0
-6298 10054 0
-6299 10054 0
-6300 10054 0
-6301 10054 0
-6302 10054 0
-6303 10054 0
-6304 10054 0
-6305 10054 0
-6306 10054 0
-6307 10054 0
-6308 10054 0
-6309 10054 0
-6310 10054 0
-6311 10054 0
-6312 10054 0
-6313 10054 0
-6314 10054 0
-6315 10054 0
-6316 10054 0
-6317 10054 0
-6318 10054 0
-10054 6293 6294 6295 6296 6297 6298 6299 6300 6301 6302 6303 6304 6305 6306 6307 6308 6309 6310 6311 6312 6313 6314 6315 6316 6317 6318 0
-6319 53 0
-6319 157 0
-6319 261 0
-53 -157 -261 6319 0
-6320 54 0
-6320 158 0
-6320 262 0
-54 -158 -262 6320 0
-6321 55 0
-6321 159 0
-6321 263 0
-55 -159 -263 6321 0
-6322 56 0
-6322 160 0
-6322 264 0
-56 -160 -264 6322 0
-6323 57 0
-6323 161 0
-6323 265 0
-57 -161 -265 6323 0
-6324 58 0
-6324 162 0
-6324 266 0
-58 -162 -266 6324 0
-6325 59 0
-6325 163 0
-6325 267 0
-59 -163 -267 6325 0
-6326 60 0
-6326 164 0
-6326 268 0
-60 -164 -268 6326 0
-6327 61 0
-6327 165 0
-6327 269 0
-61 -165 -269 6327 0
-6328 62 0
-6328 166 0
-6328 270 0
-62 -166 -270 6328 0
-6329 63 0
-6329 167 0
-6329 271 0
-63 -167 -271 6329 0
-6330 64 0
-6330 168 0
-6330 272 0
-64 -168 -272 6330 0
-6331 65 0
-6331 169 0
-6331 273 0
-65 -169 -273 6331 0
-6332 66 0
-6332 170 0
-6332 274 0
-66 -170 -274 6332 0
-6333 67 0
-6333 171 0
-6333 275 0
-67 -171 -275 6333 0
-6334 68 0
-6334 172 0
-6334 276 0
-68 -172 -276 6334 0
-6335 69 0
-6335 173 0
-6335 277 0
-69 -173 -277 6335 0
-6336 70 0
-6336 174 0
-6336 278 0
-70 -174 -278 6336 0
-6337 71 0
-6337 175 0
-6337 279 0
-71 -175 -279 6337 0
-6338 72 0
-6338 176 0
-6338 280 0
-72 -176 -280 6338 0
-6339 73 0
-6339 177 0
-6339 281 0
-73 -177 -281 6339 0
-6340 74 0
-6340 178 0
-6340 282 0
-74 -178 -282 6340 0
-6341 75 0
-6341 179 0
-6341 283 0
-75 -179 -283 6341 0
-6342 76 0
-6342 180 0
-6342 284 0
-76 -180 -284 6342 0
-6343 77 0
-6343 181 0
-6343 285 0
-77 -181 -285 6343 0
-6344 78 0
-6344 182 0
-6344 286 0
-78 -182 -286 6344 0
-6319 10055 0
-6320 10055 0
-6321 10055 0
-6322 10055 0
-6323 10055 0
-6324 10055 0
-6325 10055 0
-6326 10055 0
-6327 10055 0
-6328 10055 0
-6329 10055 0
-6330 10055 0
-6331 10055 0
-6332 10055 0
-6333 10055 0
-6334 10055 0
-6335 10055 0
-6336 10055 0
-6337 10055 0
-6338 10055 0
-6339 10055 0
-6340 10055 0
-6341 10055 0
-6342 10055 0
-6343 10055 0
-6344 10055 0
-10055 6319 6320 6321 6322 6323 6324 6325 6326 6327 6328 6329 6330 6331 6332 6333 6334 6335 6336 6337 6338 6339 6340 6341 6342 6343 6344 0
-6345 53 0
-6345 157 0
-6345 287 0
-53 -157 -287 6345 0
-6346 54 0
-6346 158 0
-6346 288 0
-54 -158 -288 6346 0
-6347 55 0
-6347 159 0
-6347 289 0
-55 -159 -289 6347 0
-6348 56 0
-6348 160 0
-6348 290 0
-56 -160 -290 6348 0
-6349 57 0
-6349 161 0
-6349 291 0
-57 -161 -291 6349 0
-6350 58 0
-6350 162 0
-6350 292 0
-58 -162 -292 6350 0
-6351 59 0
-6351 163 0
-6351 293 0
-59 -163 -293 6351 0
-6352 60 0
-6352 164 0
-6352 294 0
-60 -164 -294 6352 0
-6353 61 0
-6353 165 0
-6353 295 0
-61 -165 -295 6353 0
-6354 62 0
-6354 166 0
-6354 296 0
-62 -166 -296 6354 0
-6355 63 0
-6355 167 0
-6355 297 0
-63 -167 -297 6355 0
-6356 64 0
-6356 168 0
-6356 298 0
-64 -168 -298 6356 0
-6357 65 0
-6357 169 0
-6357 299 0
-65 -169 -299 6357 0
-6358 66 0
-6358 170 0
-6358 300 0
-66 -170 -300 6358 0
-6359 67 0
-6359 171 0
-6359 301 0
-67 -171 -301 6359 0
-6360 68 0
-6360 172 0
-6360 302 0
-68 -172 -302 6360 0
-6361 69 0
-6361 173 0
-6361 303 0
-69 -173 -303 6361 0
-6362 70 0
-6362 174 0
-6362 304 0
-70 -174 -304 6362 0
-6363 71 0
-6363 175 0
-6363 305 0
-71 -175 -305 6363 0
-6364 72 0
-6364 176 0
-6364 306 0
-72 -176 -306 6364 0
-6365 73 0
-6365 177 0
-6365 307 0
-73 -177 -307 6365 0
-6366 74 0
-6366 178 0
-6366 308 0
-74 -178 -308 6366 0
-6367 75 0
-6367 179 0
-6367 309 0
-75 -179 -309 6367 0
-6368 76 0
-6368 180 0
-6368 310 0
-76 -180 -310 6368 0
-6369 77 0
-6369 181 0
-6369 311 0
-77 -181 -311 6369 0
-6370 78 0
-6370 182 0
-6370 312 0
-78 -182 -312 6370 0
-6345 10056 0
-6346 10056 0
-6347 10056 0
-6348 10056 0
-6349 10056 0
-6350 10056 0
-6351 10056 0
-6352 10056 0
-6353 10056 0
-6354 10056 0
-6355 10056 0
-6356 10056 0
-6357 10056 0
-6358 10056 0
-6359 10056 0
-6360 10056 0
-6361 10056 0
-6362 10056 0
-6363 10056 0
-6364 10056 0
-6365 10056 0
-6366 10056 0
-6367 10056 0
-6368 10056 0
-6369 10056 0
-6370 10056 0
-10056 6345 6346 6347 6348 6349 6350 6351 6352 6353 6354 6355 6356 6357 6358 6359 6360 6361 6362 6363 6364 6365 6366 6367 6368 6369 6370 0
-6371 53 0
-6371 157 0
-6371 313 0
-53 -157 -313 6371 0
-6372 54 0
-6372 158 0
-6372 314 0
-54 -158 -314 6372 0
-6373 55 0
-6373 159 0
-6373 315 0
-55 -159 -315 6373 0
-6374 56 0
-6374 160 0
-6374 316 0
-56 -160 -316 6374 0
-6375 57 0
-6375 161 0
-6375 317 0
-57 -161 -317 6375 0
-6376 58 0
-6376 162 0
-6376 318 0
-58 -162 -318 6376 0
-6377 59 0
-6377 163 0
-6377 319 0
-59 -163 -319 6377 0
-6378 60 0
-6378 164 0
-6378 320 0
-60 -164 -320 6378 0
-6379 61 0
-6379 165 0
-6379 321 0
-61 -165 -321 6379 0
-6380 62 0
-6380 166 0
-6380 322 0
-62 -166 -322 6380 0
-6381 63 0
-6381 167 0
-6381 323 0
-63 -167 -323 6381 0
-6382 64 0
-6382 168 0
-6382 324 0
-64 -168 -324 6382 0
-6383 65 0
-6383 169 0
-6383 325 0
-65 -169 -325 6383 0
-6384 66 0
-6384 170 0
-6384 326 0
-66 -170 -326 6384 0
-6385 67 0
-6385 171 0
-6385 327 0
-67 -171 -327 6385 0
-6386 68 0
-6386 172 0
-6386 328 0
-68 -172 -328 6386 0
-6387 69 0
-6387 173 0
-6387 329 0
-69 -173 -329 6387 0
-6388 70 0
-6388 174 0
-6388 330 0
-70 -174 -330 6388 0
-6389 71 0
-6389 175 0
-6389 331 0
-71 -175 -331 6389 0
-6390 72 0
-6390 176 0
-6390 332 0
-72 -176 -332 6390 0
-6391 73 0
-6391 177 0
-6391 333 0
-73 -177 -333 6391 0
-6392 74 0
-6392 178 0
-6392 334 0
-74 -178 -334 6392 0
-6393 75 0
-6393 179 0
-6393 335 0
-75 -179 -335 6393 0
-6394 76 0
-6394 180 0
-6394 336 0
-76 -180 -336 6394 0
-6395 77 0
-6395 181 0
-6395 337 0
-77 -181 -337 6395 0
-6396 78 0
-6396 182 0
-6396 338 0
-78 -182 -338 6396 0
-6371 10057 0
-6372 10057 0
-6373 10057 0
-6374 10057 0
-6375 10057 0
-6376 10057 0
-6377 10057 0
-6378 10057 0
-6379 10057 0
-6380 10057 0
-6381 10057 0
-6382 10057 0
-6383 10057 0
-6384 10057 0
-6385 10057 0
-6386 10057 0
-6387 10057 0
-6388 10057 0
-6389 10057 0
-6390 10057 0
-6391 10057 0
-6392 10057 0
-6393 10057 0
-6394 10057 0
-6395 10057 0
-6396 10057 0
-10057 6371 6372 6373 6374 6375 6376 6377 6378 6379 6380 6381 6382 6383 6384 6385 6386 6387 6388 6389 6390 6391 6392 6393 6394 6395 6396 0
-6397 53 0
-6397 183 0
-6397 209 0
-53 -183 -209 6397 0
-6398 54 0
-6398 184 0
-6398 210 0
-54 -184 -210 6398 0
-6399 55 0
-6399 185 0
-6399 211 0
-55 -185 -211 6399 0
-6400 56 0
-6400 186 0
-6400 212 0
-56 -186 -212 6400 0
-6401 57 0
-6401 187 0
-6401 213 0
-57 -187 -213 6401 0
-6402 58 0
-6402 188 0
-6402 214 0
-58 -188 -214 6402 0
-6403 59 0
-6403 189 0
-6403 215 0
-59 -189 -215 6403 0
-6404 60 0
-6404 190 0
-6404 216 0
-60 -190 -216 6404 0
-6405 61 0
-6405 191 0
-6405 217 0
-61 -191 -217 6405 0
-6406 62 0
-6406 192 0
-6406 218 0
-62 -192 -218 6406 0
-6407 63 0
-6407 193 0
-6407 219 0
-63 -193 -219 6407 0
-6408 64 0
-6408 194 0
-6408 220 0
-64 -194 -220 6408 0
-6409 65 0
-6409 195 0
-6409 221 0
-65 -195 -221 6409 0
-6410 66 0
-6410 196 0
-6410 222 0
-66 -196 -222 6410 0
-6411 67 0
-6411 197 0
-6411 223 0
-67 -197 -223 6411 0
-6412 68 0
-6412 198 0
-6412 224 0
-68 -198 -224 6412 0
-6413 69 0
-6413 199 0
-6413 225 0
-69 -199 -225 6413 0
-6414 70 0
-6414 200 0
-6414 226 0
-70 -200 -226 6414 0
-6415 71 0
-6415 201 0
-6415 227 0
-71 -201 -227 6415 0
-6416 72 0
-6416 202 0
-6416 228 0
-72 -202 -228 6416 0
-6417 73 0
-6417 203 0
-6417 229 0
-73 -203 -229 6417 0
-6418 74 0
-6418 204 0
-6418 230 0
-74 -204 -230 6418 0
-6419 75 0
-6419 205 0
-6419 231 0
-75 -205 -231 6419 0
-6420 76 0
-6420 206 0
-6420 232 0
-76 -206 -232 6420 0
-6421 77 0
-6421 207 0
-6421 233 0
-77 -207 -233 6421 0
-6422 78 0
-6422 208 0
-6422 234 0
-78 -208 -234 6422 0
-6397 10058 0
-6398 10058 0
-6399 10058 0
-6400 10058 0
-6401 10058 0
-6402 10058 0
-6403 10058 0
-6404 10058 0
-6405 10058 0
-6406 10058 0
-6407 10058 0
-6408 10058 0
-6409 10058 0
-6410 10058 0
-6411 10058 0
-6412 10058 0
-6413 10058 0
-6414 10058 0
-6415 10058 0
-6416 10058 0
-6417 10058 0
-6418 10058 0
-6419 10058 0
-6420 10058 0
-6421 10058 0
-6422 10058 0
-10058 6397 6398 6399 6400 6401 6402 6403 6404 6405 6406 6407 6408 6409 6410 6411 6412 6413 6414 6415 6416 6417 6418 6419 6420 6421 6422 0
-6423 53 0
-6423 183 0
-6423 235 0
-53 -183 -235 6423 0
-6424 54 0
-6424 184 0
-6424 236 0
-54 -184 -236 6424 0
-6425 55 0
-6425 185 0
-6425 237 0
-55 -185 -237 6425 0
-6426 56 0
-6426 186 0
-6426 238 0
-56 -186 -238 6426 0
-6427 57 0
-6427 187 0
-6427 239 0
-57 -187 -239 6427 0
-6428 58 0
-6428 188 0
-6428 240 0
-58 -188 -240 6428 0
-6429 59 0
-6429 189 0
-6429 241 0
-59 -189 -241 6429 0
-6430 60 0
-6430 190 0
-6430 242 0
-60 -190 -242 6430 0
-6431 61 0
-6431 191 0
-6431 243 0
-61 -191 -243 6431 0
-6432 62 0
-6432 192 0
-6432 244 0
-62 -192 -244 6432 0
-6433 63 0
-6433 193 0
-6433 245 0
-63 -193 -245 6433 0
-6434 64 0
-6434 194 0
-6434 246 0
-64 -194 -246 6434 0
-6435 65 0
-6435 195 0
-6435 247 0
-65 -195 -247 6435 0
-6436 66 0
-6436 196 0
-6436 248 0
-66 -196 -248 6436 0
-6437 67 0
-6437 197 0
-6437 249 0
-67 -197 -249 6437 0
-6438 68 0
-6438 198 0
-6438 250 0
-68 -198 -250 6438 0
-6439 69 0
-6439 199 0
-6439 251 0
-69 -199 -251 6439 0
-6440 70 0
-6440 200 0
-6440 252 0
-70 -200 -252 6440 0
-6441 71 0
-6441 201 0
-6441 253 0
-71 -201 -253 6441 0
-6442 72 0
-6442 202 0
-6442 254 0
-72 -202 -254 6442 0
-6443 73 0
-6443 203 0
-6443 255 0
-73 -203 -255 6443 0
-6444 74 0
-6444 204 0
-6444 256 0
-74 -204 -256 6444 0
-6445 75 0
-6445 205 0
-6445 257 0
-75 -205 -257 6445 0
-6446 76 0
-6446 206 0
-6446 258 0
-76 -206 -258 6446 0
-6447 77 0
-6447 207 0
-6447 259 0
-77 -207 -259 6447 0
-6448 78 0
-6448 208 0
-6448 260 0
-78 -208 -260 6448 0
-6423 10059 0
-6424 10059 0
-6425 10059 0
-6426 10059 0
-6427 10059 0
-6428 10059 0
-6429 10059 0
-6430 10059 0
-6431 10059 0
-6432 10059 0
-6433 10059 0
-6434 10059 0
-6435 10059 0
-6436 10059 0
-6437 10059 0
-6438 10059 0
-6439 10059 0
-6440 10059 0
-6441 10059 0
-6442 10059 0
-6443 10059 0
-6444 10059 0
-6445 10059 0
-6446 10059 0
-6447 10059 0
-6448 10059 0
-10059 6423 6424 6425 6426 6427 6428 6429 6430 6431 6432 6433 6434 6435 6436 6437 6438 6439 6440 6441 6442 6443 6444 6445 6446 6447 6448 0
-6449 53 0
-6449 183 0
-6449 261 0
-53 -183 -261 6449 0
-6450 54 0
-6450 184 0
-6450 262 0
-54 -184 -262 6450 0
-6451 55 0
-6451 185 0
-6451 263 0
-55 -185 -263 6451 0
-6452 56 0
-6452 186 0
-6452 264 0
-56 -186 -264 6452 0
-6453 57 0
-6453 187 0
-6453 265 0
-57 -187 -265 6453 0
-6454 58 0
-6454 188 0
-6454 266 0
-58 -188 -266 6454 0
-6455 59 0
-6455 189 0
-6455 267 0
-59 -189 -267 6455 0
-6456 60 0
-6456 190 0
-6456 268 0
-60 -190 -268 6456 0
-6457 61 0
-6457 191 0
-6457 269 0
-61 -191 -269 6457 0
-6458 62 0
-6458 192 0
-6458 270 0
-62 -192 -270 6458 0
-6459 63 0
-6459 193 0
-6459 271 0
-63 -193 -271 6459 0
-6460 64 0
-6460 194 0
-6460 272 0
-64 -194 -272 6460 0
-6461 65 0
-6461 195 0
-6461 273 0
-65 -195 -273 6461 0
-6462 66 0
-6462 196 0
-6462 274 0
-66 -196 -274 6462 0
-6463 67 0
-6463 197 0
-6463 275 0
-67 -197 -275 6463 0
-6464 68 0
-6464 198 0
-6464 276 0
-68 -198 -276 6464 0
-6465 69 0
-6465 199 0
-6465 277 0
-69 -199 -277 6465 0
-6466 70 0
-6466 200 0
-6466 278 0
-70 -200 -278 6466 0
-6467 71 0
-6467 201 0
-6467 279 0
-71 -201 -279 6467 0
-6468 72 0
-6468 202 0
-6468 280 0
-72 -202 -280 6468 0
-6469 73 0
-6469 203 0
-6469 281 0
-73 -203 -281 6469 0
-6470 74 0
-6470 204 0
-6470 282 0
-74 -204 -282 6470 0
-6471 75 0
-6471 205 0
-6471 283 0
-75 -205 -283 6471 0
-6472 76 0
-6472 206 0
-6472 284 0
-76 -206 -284 6472 0
-6473 77 0
-6473 207 0
-6473 285 0
-77 -207 -285 6473 0
-6474 78 0
-6474 208 0
-6474 286 0
-78 -208 -286 6474 0
-6449 10060 0
-6450 10060 0
-6451 10060 0
-6452 10060 0
-6453 10060 0
-6454 10060 0
-6455 10060 0
-6456 10060 0
-6457 10060 0
-6458 10060 0
-6459 10060 0
-6460 10060 0
-6461 10060 0
-6462 10060 0
-6463 10060 0
-6464 10060 0
-6465 10060 0
-6466 10060 0
-6467 10060 0
-6468 10060 0
-6469 10060 0
-6470 10060 0
-6471 10060 0
-6472 10060 0
-6473 10060 0
-6474 10060 0
-10060 6449 6450 6451 6452 6453 6454 6455 6456 6457 6458 6459 6460 6461 6462 6463 6464 6465 6466 6467 6468 6469 6470 6471 6472 6473 6474 0
-6475 53 0
-6475 183 0
-6475 287 0
-53 -183 -287 6475 0
-6476 54 0
-6476 184 0
-6476 288 0
-54 -184 -288 6476 0
-6477 55 0
-6477 185 0
-6477 289 0
-55 -185 -289 6477 0
-6478 56 0
-6478 186 0
-6478 290 0
-56 -186 -290 6478 0
-6479 57 0
-6479 187 0
-6479 291 0
-57 -187 -291 6479 0
-6480 58 0
-6480 188 0
-6480 292 0
-58 -188 -292 6480 0
-6481 59 0
-6481 189 0
-6481 293 0
-59 -189 -293 6481 0
-6482 60 0
-6482 190 0
-6482 294 0
-60 -190 -294 6482 0
-6483 61 0
-6483 191 0
-6483 295 0
-61 -191 -295 6483 0
-6484 62 0
-6484 192 0
-6484 296 0
-62 -192 -296 6484 0
-6485 63 0
-6485 193 0
-6485 297 0
-63 -193 -297 6485 0
-6486 64 0
-6486 194 0
-6486 298 0
-64 -194 -298 6486 0
-6487 65 0
-6487 195 0
-6487 299 0
-65 -195 -299 6487 0
-6488 66 0
-6488 196 0
-6488 300 0
-66 -196 -300 6488 0
-6489 67 0
-6489 197 0
-6489 301 0
-67 -197 -301 6489 0
-6490 68 0
-6490 198 0
-6490 302 0
-68 -198 -302 6490 0
-6491 69 0
-6491 199 0
-6491 303 0
-69 -199 -303 6491 0
-6492 70 0
-6492 200 0
-6492 304 0
-70 -200 -304 6492 0
-6493 71 0
-6493 201 0
-6493 305 0
-71 -201 -305 6493 0
-6494 72 0
-6494 202 0
-6494 306 0
-72 -202 -306 6494 0
-6495 73 0
-6495 203 0
-6495 307 0
-73 -203 -307 6495 0
-6496 74 0
-6496 204 0
-6496 308 0
-74 -204 -308 6496 0
-6497 75 0
-6497 205 0
-6497 309 0
-75 -205 -309 6497 0
-6498 76 0
-6498 206 0
-6498 310 0
-76 -206 -310 6498 0
-6499 77 0
-6499 207 0
-6499 311 0
-77 -207 -311 6499 0
-6500 78 0
-6500 208 0
-6500 312 0
-78 -208 -312 6500 0
-6475 10061 0
-6476 10061 0
-6477 10061 0
-6478 10061 0
-6479 10061 0
-6480 10061 0
-6481 10061 0
-6482 10061 0
-6483 10061 0
-6484 10061 0
-6485 10061 0
-6486 10061 0
-6487 10061 0
-6488 10061 0
-6489 10061 0
-6490 10061 0
-6491 10061 0
-6492 10061 0
-6493 10061 0
-6494 10061 0
-6495 10061 0
-6496 10061 0
-6497 10061 0
-6498 10061 0
-6499 10061 0
-6500 10061 0
-10061 6475 6476 6477 6478 6479 6480 6481 6482 6483 6484 6485 6486 6487 6488 6489 6490 6491 6492 6493 6494 6495 6496 6497 6498 6499 6500 0
-6501 53 0
-6501 183 0
-6501 313 0
-53 -183 -313 6501 0
-6502 54 0
-6502 184 0
-6502 314 0
-54 -184 -314 6502 0
-6503 55 0
-6503 185 0
-6503 315 0
-55 -185 -315 6503 0
-6504 56 0
-6504 186 0
-6504 316 0
-56 -186 -316 6504 0
-6505 57 0
-6505 187 0
-6505 317 0
-57 -187 -317 6505 0
-6506 58 0
-6506 188 0
-6506 318 0
-58 -188 -318 6506 0
-6507 59 0
-6507 189 0
-6507 319 0
-59 -189 -319 6507 0
-6508 60 0
-6508 190 0
-6508 320 0
-60 -190 -320 6508 0
-6509 61 0
-6509 191 0
-6509 321 0
-61 -191 -321 6509 0
-6510 62 0
-6510 192 0
-6510 322 0
-62 -192 -322 6510 0
-6511 63 0
-6511 193 0
-6511 323 0
-63 -193 -323 6511 0
-6512 64 0
-6512 194 0
-6512 324 0
-64 -194 -324 6512 0
-6513 65 0
-6513 195 0
-6513 325 0
-65 -195 -325 6513 0
-6514 66 0
-6514 196 0
-6514 326 0
-66 -196 -326 6514 0
-6515 67 0
-6515 197 0
-6515 327 0
-67 -197 -327 6515 0
-6516 68 0
-6516 198 0
-6516 328 0
-68 -198 -328 6516 0
-6517 69 0
-6517 199 0
-6517 329 0
-69 -199 -329 6517 0
-6518 70 0
-6518 200 0
-6518 330 0
-70 -200 -330 6518 0
-6519 71 0
-6519 201 0
-6519 331 0
-71 -201 -331 6519 0
-6520 72 0
-6520 202 0
-6520 332 0
-72 -202 -332 6520 0
-6521 73 0
-6521 203 0
-6521 333 0
-73 -203 -333 6521 0
-6522 74 0
-6522 204 0
-6522 334 0
-74 -204 -334 6522 0
-6523 75 0
-6523 205 0
-6523 335 0
-75 -205 -335 6523 0
-6524 76 0
-6524 206 0
-6524 336 0
-76 -206 -336 6524 0
-6525 77 0
-6525 207 0
-6525 337 0
-77 -207 -337 6525 0
-6526 78 0
-6526 208 0
-6526 338 0
-78 -208 -338 6526 0
-6501 10062 0
-6502 10062 0
-6503 10062 0
-6504 10062 0
-6505 10062 0
-6506 10062 0
-6507 10062 0
-6508 10062 0
-6509 10062 0
-6510 10062 0
-6511 10062 0
-6512 10062 0
-6513 10062 0
-6514 10062 0
-6515 10062 0
-6516 10062 0
-6517 10062 0
-6518 10062 0
-6519 10062 0
-6520 10062 0
-6521 10062 0
-6522 10062 0
-6523 10062 0
-6524 10062 0
-6525 10062 0
-6526 10062 0
-10062 6501 6502 6503 6504 6505 6506 6507 6508 6509 6510 6511 6512 6513 6514 6515 6516 6517 6518 6519 6520 6521 6522 6523 6524 6525 6526 0
-6527 53 0
-6527 209 0
-6527 235 0
-53 -209 -235 6527 0
-6528 54 0
-6528 210 0
-6528 236 0
-54 -210 -236 6528 0
-6529 55 0
-6529 211 0
-6529 237 0
-55 -211 -237 6529 0
-6530 56 0
-6530 212 0
-6530 238 0
-56 -212 -238 6530 0
-6531 57 0
-6531 213 0
-6531 239 0
-57 -213 -239 6531 0
-6532 58 0
-6532 214 0
-6532 240 0
-58 -214 -240 6532 0
-6533 59 0
-6533 215 0
-6533 241 0
-59 -215 -241 6533 0
-6534 60 0
-6534 216 0
-6534 242 0
-60 -216 -242 6534 0
-6535 61 0
-6535 217 0
-6535 243 0
-61 -217 -243 6535 0
-6536 62 0
-6536 218 0
-6536 244 0
-62 -218 -244 6536 0
-6537 63 0
-6537 219 0
-6537 245 0
-63 -219 -245 6537 0
-6538 64 0
-6538 220 0
-6538 246 0
-64 -220 -246 6538 0
-6539 65 0
-6539 221 0
-6539 247 0
-65 -221 -247 6539 0
-6540 66 0
-6540 222 0
-6540 248 0
-66 -222 -248 6540 0
-6541 67 0
-6541 223 0
-6541 249 0
-67 -223 -249 6541 0
-6542 68 0
-6542 224 0
-6542 250 0
-68 -224 -250 6542 0
-6543 69 0
-6543 225 0
-6543 251 0
-69 -225 -251 6543 0
-6544 70 0
-6544 226 0
-6544 252 0
-70 -226 -252 6544 0
-6545 71 0
-6545 227 0
-6545 253 0
-71 -227 -253 6545 0
-6546 72 0
-6546 228 0
-6546 254 0
-72 -228 -254 6546 0
-6547 73 0
-6547 229 0
-6547 255 0
-73 -229 -255 6547 0
-6548 74 0
-6548 230 0
-6548 256 0
-74 -230 -256 6548 0
-6549 75 0
-6549 231 0
-6549 257 0
-75 -231 -257 6549 0
-6550 76 0
-6550 232 0
-6550 258 0
-76 -232 -258 6550 0
-6551 77 0
-6551 233 0
-6551 259 0
-77 -233 -259 6551 0
-6552 78 0
-6552 234 0
-6552 260 0
-78 -234 -260 6552 0
-6527 10063 0
-6528 10063 0
-6529 10063 0
-6530 10063 0
-6531 10063 0
-6532 10063 0
-6533 10063 0
-6534 10063 0
-6535 10063 0
-6536 10063 0
-6537 10063 0
-6538 10063 0
-6539 10063 0
-6540 10063 0
-6541 10063 0
-6542 10063 0
-6543 10063 0
-6544 10063 0
-6545 10063 0
-6546 10063 0
-6547 10063 0
-6548 10063 0
-6549 10063 0
-6550 10063 0
-6551 10063 0
-6552 10063 0
-10063 6527 6528 6529 6530 6531 6532 6533 6534 6535 6536 6537 6538 6539 6540 6541 6542 6543 6544 6545 6546 6547 6548 6549 6550 6551 6552 0
-6553 53 0
-6553 209 0
-6553 261 0
-53 -209 -261 6553 0
-6554 54 0
-6554 210 0
-6554 262 0
-54 -210 -262 6554 0
-6555 55 0
-6555 211 0
-6555 263 0
-55 -211 -263 6555 0
-6556 56 0
-6556 212 0
-6556 264 0
-56 -212 -264 6556 0
-6557 57 0
-6557 213 0
-6557 265 0
-57 -213 -265 6557 0
-6558 58 0
-6558 214 0
-6558 266 0
-58 -214 -266 6558 0
-6559 59 0
-6559 215 0
-6559 267 0
-59 -215 -267 6559 0
-6560 60 0
-6560 216 0
-6560 268 0
-60 -216 -268 6560 0
-6561 61 0
-6561 217 0
-6561 269 0
-61 -217 -269 6561 0
-6562 62 0
-6562 218 0
-6562 270 0
-62 -218 -270 6562 0
-6563 63 0
-6563 219 0
-6563 271 0
-63 -219 -271 6563 0
-6564 64 0
-6564 220 0
-6564 272 0
-64 -220 -272 6564 0
-6565 65 0
-6565 221 0
-6565 273 0
-65 -221 -273 6565 0
-6566 66 0
-6566 222 0
-6566 274 0
-66 -222 -274 6566 0
-6567 67 0
-6567 223 0
-6567 275 0
-67 -223 -275 6567 0
-6568 68 0
-6568 224 0
-6568 276 0
-68 -224 -276 6568 0
-6569 69 0
-6569 225 0
-6569 277 0
-69 -225 -277 6569 0
-6570 70 0
-6570 226 0
-6570 278 0
-70 -226 -278 6570 0
-6571 71 0
-6571 227 0
-6571 279 0
-71 -227 -279 6571 0
-6572 72 0
-6572 228 0
-6572 280 0
-72 -228 -280 6572 0
-6573 73 0
-6573 229 0
-6573 281 0
-73 -229 -281 6573 0
-6574 74 0
-6574 230 0
-6574 282 0
-74 -230 -282 6574 0
-6575 75 0
-6575 231 0
-6575 283 0
-75 -231 -283 6575 0
-6576 76 0
-6576 232 0
-6576 284 0
-76 -232 -284 6576 0
-6577 77 0
-6577 233 0
-6577 285 0
-77 -233 -285 6577 0
-6578 78 0
-6578 234 0
-6578 286 0
-78 -234 -286 6578 0
-6553 10064 0
-6554 10064 0
-6555 10064 0
-6556 10064 0
-6557 10064 0
-6558 10064 0
-6559 10064 0
-6560 10064 0
-6561 10064 0
-6562 10064 0
-6563 10064 0
-6564 10064 0
-6565 10064 0
-6566 10064 0
-6567 10064 0
-6568 10064 0
-6569 10064 0
-6570 10064 0
-6571 10064 0
-6572 10064 0
-6573 10064 0
-6574 10064 0
-6575 10064 0
-6576 10064 0
-6577 10064 0
-6578 10064 0
-10064 6553 6554 6555 6556 6557 6558 6559 6560 6561 6562 6563 6564 6565 6566 6567 6568 6569 6570 6571 6572 6573 6574 6575 6576 6577 6578 0
-6579 53 0
-6579 209 0
-6579 287 0
-53 -209 -287 6579 0
-6580 54 0
-6580 210 0
-6580 288 0
-54 -210 -288 6580 0
-6581 55 0
-6581 211 0
-6581 289 0
-55 -211 -289 6581 0
-6582 56 0
-6582 212 0
-6582 290 0
-56 -212 -290 6582 0
-6583 57 0
-6583 213 0
-6583 291 0
-57 -213 -291 6583 0
-6584 58 0
-6584 214 0
-6584 292 0
-58 -214 -292 6584 0
-6585 59 0
-6585 215 0
-6585 293 0
-59 -215 -293 6585 0
-6586 60 0
-6586 216 0
-6586 294 0
-60 -216 -294 6586 0
-6587 61 0
-6587 217 0
-6587 295 0
-61 -217 -295 6587 0
-6588 62 0
-6588 218 0
-6588 296 0
-62 -218 -296 6588 0
-6589 63 0
-6589 219 0
-6589 297 0
-63 -219 -297 6589 0
-6590 64 0
-6590 220 0
-6590 298 0
-64 -220 -298 6590 0
-6591 65 0
-6591 221 0
-6591 299 0
-65 -221 -299 6591 0
-6592 66 0
-6592 222 0
-6592 300 0
-66 -222 -300 6592 0
-6593 67 0
-6593 223 0
-6593 301 0
-67 -223 -301 6593 0
-6594 68 0
-6594 224 0
-6594 302 0
-68 -224 -302 6594 0
-6595 69 0
-6595 225 0
-6595 303 0
-69 -225 -303 6595 0
-6596 70 0
-6596 226 0
-6596 304 0
-70 -226 -304 6596 0
-6597 71 0
-6597 227 0
-6597 305 0
-71 -227 -305 6597 0
-6598 72 0
-6598 228 0
-6598 306 0
-72 -228 -306 6598 0
-6599 73 0
-6599 229 0
-6599 307 0
-73 -229 -307 6599 0
-6600 74 0
-6600 230 0
-6600 308 0
-74 -230 -308 6600 0
-6601 75 0
-6601 231 0
-6601 309 0
-75 -231 -309 6601 0
-6602 76 0
-6602 232 0
-6602 310 0
-76 -232 -310 6602 0
-6603 77 0
-6603 233 0
-6603 311 0
-77 -233 -311 6603 0
-6604 78 0
-6604 234 0
-6604 312 0
-78 -234 -312 6604 0
-6579 10065 0
-6580 10065 0
-6581 10065 0
-6582 10065 0
-6583 10065 0
-6584 10065 0
-6585 10065 0
-6586 10065 0
-6587 10065 0
-6588 10065 0
-6589 10065 0
-6590 10065 0
-6591 10065 0
-6592 10065 0
-6593 10065 0
-6594 10065 0
-6595 10065 0
-6596 10065 0
-6597 10065 0
-6598 10065 0
-6599 10065 0
-6600 10065 0
-6601 10065 0
-6602 10065 0
-6603 10065 0
-6604 10065 0
-10065 6579 6580 6581 6582 6583 6584 6585 6586 6587 6588 6589 6590 6591 6592 6593 6594 6595 6596 6597 6598 6599 6600 6601 6602 6603 6604 0
-6605 53 0
-6605 209 0
-6605 313 0
-53 -209 -313 6605 0
-6606 54 0
-6606 210 0
-6606 314 0
-54 -210 -314 6606 0
-6607 55 0
-6607 211 0
-6607 315 0
-55 -211 -315 6607 0
-6608 56 0
-6608 212 0
-6608 316 0
-56 -212 -316 6608 0
-6609 57 0
-6609 213 0
-6609 317 0
-57 -213 -317 6609 0
-6610 58 0
-6610 214 0
-6610 318 0
-58 -214 -318 6610 0
-6611 59 0
-6611 215 0
-6611 319 0
-59 -215 -319 6611 0
-6612 60 0
-6612 216 0
-6612 320 0
-60 -216 -320 6612 0
-6613 61 0
-6613 217 0
-6613 321 0
-61 -217 -321 6613 0
-6614 62 0
-6614 218 0
-6614 322 0
-62 -218 -322 6614 0
-6615 63 0
-6615 219 0
-6615 323 0
-63 -219 -323 6615 0
-6616 64 0
-6616 220 0
-6616 324 0
-64 -220 -324 6616 0
-6617 65 0
-6617 221 0
-6617 325 0
-65 -221 -325 6617 0
-6618 66 0
-6618 222 0
-6618 326 0
-66 -222 -326 6618 0
-6619 67 0
-6619 223 0
-6619 327 0
-67 -223 -327 6619 0
-6620 68 0
-6620 224 0
-6620 328 0
-68 -224 -328 6620 0
-6621 69 0
-6621 225 0
-6621 329 0
-69 -225 -329 6621 0
-6622 70 0
-6622 226 0
-6622 330 0
-70 -226 -330 6622 0
-6623 71 0
-6623 227 0
-6623 331 0
-71 -227 -331 6623 0
-6624 72 0
-6624 228 0
-6624 332 0
-72 -228 -332 6624 0
-6625 73 0
-6625 229 0
-6625 333 0
-73 -229 -333 6625 0
-6626 74 0
-6626 230 0
-6626 334 0
-74 -230 -334 6626 0
-6627 75 0
-6627 231 0
-6627 335 0
-75 -231 -335 6627 0
-6628 76 0
-6628 232 0
-6628 336 0
-76 -232 -336 6628 0
-6629 77 0
-6629 233 0
-6629 337 0
-77 -233 -337 6629 0
-6630 78 0
-6630 234 0
-6630 338 0
-78 -234 -338 6630 0
-6605 10066 0
-6606 10066 0
-6607 10066 0
-6608 10066 0
-6609 10066 0
-6610 10066 0
-6611 10066 0
-6612 10066 0
-6613 10066 0
-6614 10066 0
-6615 10066 0
-6616 10066 0
-6617 10066 0
-6618 10066 0
-6619 10066 0
-6620 10066 0
-6621 10066 0
-6622 10066 0
-6623 10066 0
-6624 10066 0
-6625 10066 0
-6626 10066 0
-6627 10066 0
-6628 10066 0
-6629 10066 0
-6630 10066 0
-10066 6605 6606 6607 6608 6609 6610 6611 6612 6613 6614 6615 6616 6617 6618 6619 6620 6621 6622 6623 6624 6625 6626 6627 6628 6629 6630 0
-6631 53 0
-6631 235 0
-6631 261 0
-53 -235 -261 6631 0
-6632 54 0
-6632 236 0
-6632 262 0
-54 -236 -262 6632 0
-6633 55 0
-6633 237 0
-6633 263 0
-55 -237 -263 6633 0
-6634 56 0
-6634 238 0
-6634 264 0
-56 -238 -264 6634 0
-6635 57 0
-6635 239 0
-6635 265 0
-57 -239 -265 6635 0
-6636 58 0
-6636 240 0
-6636 266 0
-58 -240 -266 6636 0
-6637 59 0
-6637 241 0
-6637 267 0
-59 -241 -267 6637 0
-6638 60 0
-6638 242 0
-6638 268 0
-60 -242 -268 6638 0
-6639 61 0
-6639 243 0
-6639 269 0
-61 -243 -269 6639 0
-6640 62 0
-6640 244 0
-6640 270 0
-62 -244 -270 6640 0
-6641 63 0
-6641 245 0
-6641 271 0
-63 -245 -271 6641 0
-6642 64 0
-6642 246 0
-6642 272 0
-64 -246 -272 6642 0
-6643 65 0
-6643 247 0
-6643 273 0
-65 -247 -273 6643 0
-6644 66 0
-6644 248 0
-6644 274 0
-66 -248 -274 6644 0
-6645 67 0
-6645 249 0
-6645 275 0
-67 -249 -275 6645 0
-6646 68 0
-6646 250 0
-6646 276 0
-68 -250 -276 6646 0
-6647 69 0
-6647 251 0
-6647 277 0
-69 -251 -277 6647 0
-6648 70 0
-6648 252 0
-6648 278 0
-70 -252 -278 6648 0
-6649 71 0
-6649 253 0
-6649 279 0
-71 -253 -279 6649 0
-6650 72 0
-6650 254 0
-6650 280 0
-72 -254 -280 6650 0
-6651 73 0
-6651 255 0
-6651 281 0
-73 -255 -281 6651 0
-6652 74 0
-6652 256 0
-6652 282 0
-74 -256 -282 6652 0
-6653 75 0
-6653 257 0
-6653 283 0
-75 -257 -283 6653 0
-6654 76 0
-6654 258 0
-6654 284 0
-76 -258 -284 6654 0
-6655 77 0
-6655 259 0
-6655 285 0
-77 -259 -285 6655 0
-6656 78 0
-6656 260 0
-6656 286 0
-78 -260 -286 6656 0
-6631 10067 0
-6632 10067 0
-6633 10067 0
-6634 10067 0
-6635 10067 0
-6636 10067 0
-6637 10067 0
-6638 10067 0
-6639 10067 0
-6640 10067 0
-6641 10067 0
-6642 10067 0
-6643 10067 0
-6644 10067 0
-6645 10067 0
-6646 10067 0
-6647 10067 0
-6648 10067 0
-6649 10067 0
-6650 10067 0
-6651 10067 0
-6652 10067 0
-6653 10067 0
-6654 10067 0
-6655 10067 0
-6656 10067 0
-10067 6631 6632 6633 6634 6635 6636 6637 6638 6639 6640 6641 6642 6643 6644 6645 6646 6647 6648 6649 6650 6651 6652 6653 6654 6655 6656 0
-6657 53 0
-6657 235 0
-6657 287 0
-53 -235 -287 6657 0
-6658 54 0
-6658 236 0
-6658 288 0
-54 -236 -288 6658 0
-6659 55 0
-6659 237 0
-6659 289 0
-55 -237 -289 6659 0
-6660 56 0
-6660 238 0
-6660 290 0
-56 -238 -290 6660 0
-6661 57 0
-6661 239 0
-6661 291 0
-57 -239 -291 6661 0
-6662 58 0
-6662 240 0
-6662 292 0
-58 -240 -292 6662 0
-6663 59 0
-6663 241 0
-6663 293 0
-59 -241 -293 6663 0
-6664 60 0
-6664 242 0
-6664 294 0
-60 -242 -294 6664 0
-6665 61 0
-6665 243 0
-6665 295 0
-61 -243 -295 6665 0
-6666 62 0
-6666 244 0
-6666 296 0
-62 -244 -296 6666 0
-6667 63 0
-6667 245 0
-6667 297 0
-63 -245 -297 6667 0
-6668 64 0
-6668 246 0
-6668 298 0
-64 -246 -298 6668 0
-6669 65 0
-6669 247 0
-6669 299 0
-65 -247 -299 6669 0
-6670 66 0
-6670 248 0
-6670 300 0
-66 -248 -300 6670 0
-6671 67 0
-6671 249 0
-6671 301 0
-67 -249 -301 6671 0
-6672 68 0
-6672 250 0
-6672 302 0
-68 -250 -302 6672 0
-6673 69 0
-6673 251 0
-6673 303 0
-69 -251 -303 6673 0
-6674 70 0
-6674 252 0
-6674 304 0
-70 -252 -304 6674 0
-6675 71 0
-6675 253 0
-6675 305 0
-71 -253 -305 6675 0
-6676 72 0
-6676 254 0
-6676 306 0
-72 -254 -306 6676 0
-6677 73 0
-6677 255 0
-6677 307 0
-73 -255 -307 6677 0
-6678 74 0
-6678 256 0
-6678 308 0
-74 -256 -308 6678 0
-6679 75 0
-6679 257 0
-6679 309 0
-75 -257 -309 6679 0
-6680 76 0
-6680 258 0
-6680 310 0
-76 -258 -310 6680 0
-6681 77 0
-6681 259 0
-6681 311 0
-77 -259 -311 6681 0
-6682 78 0
-6682 260 0
-6682 312 0
-78 -260 -312 6682 0
-6657 10068 0
-6658 10068 0
-6659 10068 0
-6660 10068 0
-6661 10068 0
-6662 10068 0
-6663 10068 0
-6664 10068 0
-6665 10068 0
-6666 10068 0
-6667 10068 0
-6668 10068 0
-6669 10068 0
-6670 10068 0
-6671 10068 0
-6672 10068 0
-6673 10068 0
-6674 10068 0
-6675 10068 0
-6676 10068 0
-6677 10068 0
-6678 10068 0
-6679 10068 0
-6680 10068 0
-6681 10068 0
-6682 10068 0
-10068 6657 6658 6659 6660 6661 6662 6663 6664 6665 6666 6667 6668 6669 6670 6671 6672 6673 6674 6675 6676 6677 6678 6679 6680 6681 6682 0
-6683 53 0
-6683 235 0
-6683 313 0
-53 -235 -313 6683 0
-6684 54 0
-6684 236 0
-6684 314 0
-54 -236 -314 6684 0
-6685 55 0
-6685 237 0
-6685 315 0
-55 -237 -315 6685 0
-6686 56 0
-6686 238 0
-6686 316 0
-56 -238 -316 6686 0
-6687 57 0
-6687 239 0
-6687 317 0
-57 -239 -317 6687 0
-6688 58 0
-6688 240 0
-6688 318 0
-58 -240 -318 6688 0
-6689 59 0
-6689 241 0
-6689 319 0
-59 -241 -319 6689 0
-6690 60 0
-6690 242 0
-6690 320 0
-60 -242 -320 6690 0
-6691 61 0
-6691 243 0
-6691 321 0
-61 -243 -321 6691 0
-6692 62 0
-6692 244 0
-6692 322 0
-62 -244 -322 6692 0
-6693 63 0
-6693 245 0
-6693 323 0
-63 -245 -323 6693 0
-6694 64 0
-6694 246 0
-6694 324 0
-64 -246 -324 6694 0
-6695 65 0
-6695 247 0
-6695 325 0
-65 -247 -325 6695 0
-6696 66 0
-6696 248 0
-6696 326 0
-66 -248 -326 6696 0
-6697 67 0
-6697 249 0
-6697 327 0
-67 -249 -327 6697 0
-6698 68 0
-6698 250 0
-6698 328 0
-68 -250 -328 6698 0
-6699 69 0
-6699 251 0
-6699 329 0
-69 -251 -329 6699 0
-6700 70 0
-6700 252 0
-6700 330 0
-70 -252 -330 6700 0
-6701 71 0
-6701 253 0
-6701 331 0
-71 -253 -331 6701 0
-6702 72 0
-6702 254 0
-6702 332 0
-72 -254 -332 6702 0
-6703 73 0
-6703 255 0
-6703 333 0
-73 -255 -333 6703 0
-6704 74 0
-6704 256 0
-6704 334 0
-74 -256 -334 6704 0
-6705 75 0
-6705 257 0
-6705 335 0
-75 -257 -335 6705 0
-6706 76 0
-6706 258 0
-6706 336 0
-76 -258 -336 6706 0
-6707 77 0
-6707 259 0
-6707 337 0
-77 -259 -337 6707 0
-6708 78 0
-6708 260 0
-6708 338 0
-78 -260 -338 6708 0
-6683 10069 0
-6684 10069 0
-6685 10069 0
-6686 10069 0
-6687 10069 0
-6688 10069 0
-6689 10069 0
-6690 10069 0
-6691 10069 0
-6692 10069 0
-6693 10069 0
-6694 10069 0
-6695 10069 0
-6696 10069 0
-6697 10069 0
-6698 10069 0
-6699 10069 0
-6700 10069 0
-6701 10069 0
-6702 10069 0
-6703 10069 0
-6704 10069 0
-6705 10069 0
-6706 10069 0
-6707 10069 0
-6708 10069 0
-10069 6683 6684 6685 6686 6687 6688 6689 6690 6691 6692 6693 6694 6695 6696 6697 6698 6699 6700 6701 6702 6703 6704 6705 6706 6707 6708 0
-6709 53 0
-6709 261 0
-6709 287 0
-53 -261 -287 6709 0
-6710 54 0
-6710 262 0
-6710 288 0
-54 -262 -288 6710 0
-6711 55 0
-6711 263 0
-6711 289 0
-55 -263 -289 6711 0
-6712 56 0
-6712 264 0
-6712 290 0
-56 -264 -290 6712 0
-6713 57 0
-6713 265 0
-6713 291 0
-57 -265 -291 6713 0
-6714 58 0
-6714 266 0
-6714 292 0
-58 -266 -292 6714 0
-6715 59 0
-6715 267 0
-6715 293 0
-59 -267 -293 6715 0
-6716 60 0
-6716 268 0
-6716 294 0
-60 -268 -294 6716 0
-6717 61 0
-6717 269 0
-6717 295 0
-61 -269 -295 6717 0
-6718 62 0
-6718 270 0
-6718 296 0
-62 -270 -296 6718 0
-6719 63 0
-6719 271 0
-6719 297 0
-63 -271 -297 6719 0
-6720 64 0
-6720 272 0
-6720 298 0
-64 -272 -298 6720 0
-6721 65 0
-6721 273 0
-6721 299 0
-65 -273 -299 6721 0
-6722 66 0
-6722 274 0
-6722 300 0
-66 -274 -300 6722 0
-6723 67 0
-6723 275 0
-6723 301 0
-67 -275 -301 6723 0
-6724 68 0
-6724 276 0
-6724 302 0
-68 -276 -302 6724 0
-6725 69 0
-6725 277 0
-6725 303 0
-69 -277 -303 6725 0
-6726 70 0
-6726 278 0
-6726 304 0
-70 -278 -304 6726 0
-6727 71 0
-6727 279 0
-6727 305 0
-71 -279 -305 6727 0
-6728 72 0
-6728 280 0
-6728 306 0
-72 -280 -306 6728 0
-6729 73 0
-6729 281 0
-6729 307 0
-73 -281 -307 6729 0
-6730 74 0
-6730 282 0
-6730 308 0
-74 -282 -308 6730 0
-6731 75 0
-6731 283 0
-6731 309 0
-75 -283 -309 6731 0
-6732 76 0
-6732 284 0
-6732 310 0
-76 -284 -310 6732 0
-6733 77 0
-6733 285 0
-6733 311 0
-77 -285 -311 6733 0
-6734 78 0
-6734 286 0
-6734 312 0
-78 -286 -312 6734 0
-6709 10070 0
-6710 10070 0
-6711 10070 0
-6712 10070 0
-6713 10070 0
-6714 10070 0
-6715 10070 0
-6716 10070 0
-6717 10070 0
-6718 10070 0
-6719 10070 0
-6720 10070 0
-6721 10070 0
-6722 10070 0
-6723 10070 0
-6724 10070 0
-6725 10070 0
-6726 10070 0
-6727 10070 0
-6728 10070 0
-6729 10070 0
-6730 10070 0
-6731 10070 0
-6732 10070 0
-6733 10070 0
-6734 10070 0
-10070 6709 6710 6711 6712 6713 6714 6715 6716 6717 6718 6719 6720 6721 6722 6723 6724 6725 6726 6727 6728 6729 6730 6731 6732 6733 6734 0
-6735 53 0
-6735 261 0
-6735 313 0
-53 -261 -313 6735 0
-6736 54 0
-6736 262 0
-6736 314 0
-54 -262 -314 6736 0
-6737 55 0
-6737 263 0
-6737 315 0
-55 -263 -315 6737 0
-6738 56 0
-6738 264 0
-6738 316 0
-56 -264 -316 6738 0
-6739 57 0
-6739 265 0
-6739 317 0
-57 -265 -317 6739 0
-6740 58 0
-6740 266 0
-6740 318 0
-58 -266 -318 6740 0
-6741 59 0
-6741 267 0
-6741 319 0
-59 -267 -319 6741 0
-6742 60 0
-6742 268 0
-6742 320 0
-60 -268 -320 6742 0
-6743 61 0
-6743 269 0
-6743 321 0
-61 -269 -321 6743 0
-6744 62 0
-6744 270 0
-6744 322 0
-62 -270 -322 6744 0
-6745 63 0
-6745 271 0
-6745 323 0
-63 -271 -323 6745 0
-6746 64 0
-6746 272 0
-6746 324 0
-64 -272 -324 6746 0
-6747 65 0
-6747 273 0
-6747 325 0
-65 -273 -325 6747 0
-6748 66 0
-6748 274 0
-6748 326 0
-66 -274 -326 6748 0
-6749 67 0
-6749 275 0
-6749 327 0
-67 -275 -327 6749 0
-6750 68 0
-6750 276 0
-6750 328 0
-68 -276 -328 6750 0
-6751 69 0
-6751 277 0
-6751 329 0
-69 -277 -329 6751 0
-6752 70 0
-6752 278 0
-6752 330 0
-70 -278 -330 6752 0
-6753 71 0
-6753 279 0
-6753 331 0
-71 -279 -331 6753 0
-6754 72 0
-6754 280 0
-6754 332 0
-72 -280 -332 6754 0
-6755 73 0
-6755 281 0
-6755 333 0
-73 -281 -333 6755 0
-6756 74 0
-6756 282 0
-6756 334 0
-74 -282 -334 6756 0
-6757 75 0
-6757 283 0
-6757 335 0
-75 -283 -335 6757 0
-6758 76 0
-6758 284 0
-6758 336 0
-76 -284 -336 6758 0
-6759 77 0
-6759 285 0
-6759 337 0
-77 -285 -337 6759 0
-6760 78 0
-6760 286 0
-6760 338 0
-78 -286 -338 6760 0
-6735 10071 0
-6736 10071 0
-6737 10071 0
-6738 10071 0
-6739 10071 0
-6740 10071 0
-6741 10071 0
-6742 10071 0
-6743 10071 0
-6744 10071 0
-6745 10071 0
-6746 10071 0
-6747 10071 0
-6748 10071 0
-6749 10071 0
-6750 10071 0
-6751 10071 0
-6752 10071 0
-6753 10071 0
-6754 10071 0
-6755 10071 0
-6756 10071 0
-6757 10071 0
-6758 10071 0
-6759 10071 0
-6760 10071 0
-10071 6735 6736 6737 6738 6739 6740 6741 6742 6743 6744 6745 6746 6747 6748 6749 6750 6751 6752 6753 6754 6755 6756 6757 6758 6759 6760 0
-6761 53 0
-6761 287 0
-6761 313 0
-53 -287 -313 6761 0
-6762 54 0
-6762 288 0
-6762 314 0
-54 -288 -314 6762 0
-6763 55 0
-6763 289 0
-6763 315 0
-55 -289 -315 6763 0
-6764 56 0
-6764 290 0
-6764 316 0
-56 -290 -316 6764 0
-6765 57 0
-6765 291 0
-6765 317 0
-57 -291 -317 6765 0
-6766 58 0
-6766 292 0
-6766 318 0
-58 -292 -318 6766 0
-6767 59 0
-6767 293 0
-6767 319 0
-59 -293 -319 6767 0
-6768 60 0
-6768 294 0
-6768 320 0
-60 -294 -320 6768 0
-6769 61 0
-6769 295 0
-6769 321 0
-61 -295 -321 6769 0
-6770 62 0
-6770 296 0
-6770 322 0
-62 -296 -322 6770 0
-6771 63 0
-6771 297 0
-6771 323 0
-63 -297 -323 6771 0
-6772 64 0
-6772 298 0
-6772 324 0
-64 -298 -324 6772 0
-6773 65 0
-6773 299 0
-6773 325 0
-65 -299 -325 6773 0
-6774 66 0
-6774 300 0
-6774 326 0
-66 -300 -326 6774 0
-6775 67 0
-6775 301 0
-6775 327 0
-67 -301 -327 6775 0
-6776 68 0
-6776 302 0
-6776 328 0
-68 -302 -328 6776 0
-6777 69 0
-6777 303 0
-6777 329 0
-69 -303 -329 6777 0
-6778 70 0
-6778 304 0
-6778 330 0
-70 -304 -330 6778 0
-6779 71 0
-6779 305 0
-6779 331 0
-71 -305 -331 6779 0
-6780 72 0
-6780 306 0
-6780 332 0
-72 -306 -332 6780 0
-6781 73 0
-6781 307 0
-6781 333 0
-73 -307 -333 6781 0
-6782 74 0
-6782 308 0
-6782 334 0
-74 -308 -334 6782 0
-6783 75 0
-6783 309 0
-6783 335 0
-75 -309 -335 6783 0
-6784 76 0
-6784 310 0
-6784 336 0
-76 -310 -336 6784 0
-6785 77 0
-6785 311 0
-6785 337 0
-77 -311 -337 6785 0
-6786 78 0
-6786 312 0
-6786 338 0
-78 -312 -338 6786 0
-6761 10072 0
-6762 10072 0
-6763 10072 0
-6764 10072 0
-6765 10072 0
-6766 10072 0
-6767 10072 0
-6768 10072 0
-6769 10072 0
-6770 10072 0
-6771 10072 0
-6772 10072 0
-6773 10072 0
-6774 10072 0
-6775 10072 0
-6776 10072 0
-6777 10072 0
-6778 10072 0
-6779 10072 0
-6780 10072 0
-6781 10072 0
-6782 10072 0
-6783 10072 0
-6784 10072 0
-6785 10072 0
-6786 10072 0
-10072 6761 6762 6763 6764 6765 6766 6767 6768 6769 6770 6771 6772 6773 6774 6775 6776 6777 6778 6779 6780 6781 6782 6783 6784 6785 6786 0
-6787 79 0
-6787 105 0
-6787 131 0
-79 -105 -131 6787 0
-6788 80 0
-6788 106 0
-6788 132 0
-80 -106 -132 6788 0
-6789 81 0
-6789 107 0
-6789 133 0
-81 -107 -133 6789 0
-6790 82 0
-6790 108 0
-6790 134 0
-82 -108 -134 6790 0
-6791 83 0
-6791 109 0
-6791 135 0
-83 -109 -135 6791 0
-6792 84 0
-6792 110 0
-6792 136 0
-84 -110 -136 6792 0
-6793 85 0
-6793 111 0
-6793 137 0
-85 -111 -137 6793 0
-6794 86 0
-6794 112 0
-6794 138 0
-86 -112 -138 6794 0
-6795 87 0
-6795 113 0
-6795 139 0
-87 -113 -139 6795 0
-6796 88 0
-6796 114 0
-6796 140 0
-88 -114 -140 6796 0
-6797 89 0
-6797 115 0
-6797 141 0
-89 -115 -141 6797 0
-6798 90 0
-6798 116 0
-6798 142 0
-90 -116 -142 6798 0
-6799 91 0
-6799 117 0
-6799 143 0
-91 -117 -143 6799 0
-6800 92 0
-6800 118 0
-6800 144 0
-92 -118 -144 6800 0
-6801 93 0
-6801 119 0
-6801 145 0
-93 -119 -145 6801 0
-6802 94 0
-6802 120 0
-6802 146 0
-94 -120 -146 6802 0
-6803 95 0
-6803 121 0
-6803 147 0
-95 -121 -147 6803 0
-6804 96 0
-6804 122 0
-6804 148 0
-96 -122 -148 6804 0
-6805 97 0
-6805 123 0
-6805 149 0
-97 -123 -149 6805 0
-6806 98 0
-6806 124 0
-6806 150 0
-98 -124 -150 6806 0
-6807 99 0
-6807 125 0
-6807 151 0
-99 -125 -151 6807 0
-6808 100 0
-6808 126 0
-6808 152 0
-100 -126 -152 6808 0
-6809 101 0
-6809 127 0
-6809 153 0
-101 -127 -153 6809 0
-6810 102 0
-6810 128 0
-6810 154 0
-102 -128 -154 6810 0
-6811 103 0
-6811 129 0
-6811 155 0
-103 -129 -155 6811 0
-6812 104 0
-6812 130 0
-6812 156 0
-104 -130 -156 6812 0
-6787 10073 0
-6788 10073 0
-6789 10073 0
-6790 10073 0
-6791 10073 0
-6792 10073 0
-6793 10073 0
-6794 10073 0
-6795 10073 0
-6796 10073 0
-6797 10073 0
-6798 10073 0
-6799 10073 0
-6800 10073 0
-6801 10073 0
-6802 10073 0
-6803 10073 0
-6804 10073 0
-6805 10073 0
-6806 10073 0
-6807 10073 0
-6808 10073 0
-6809 10073 0
-6810 10073 0
-6811 10073 0
-6812 10073 0
-10073 6787 6788 6789 6790 6791 6792 6793 6794 6795 6796 6797 6798 6799 6800 6801 6802 6803 6804 6805 6806 6807 6808 6809 6810 6811 6812 0
-6813 79 0
-6813 105 0
-6813 157 0
-79 -105 -157 6813 0
-6814 80 0
-6814 106 0
-6814 158 0
-80 -106 -158 6814 0
-6815 81 0
-6815 107 0
-6815 159 0
-81 -107 -159 6815 0
-6816 82 0
-6816 108 0
-6816 160 0
-82 -108 -160 6816 0
-6817 83 0
-6817 109 0
-6817 161 0
-83 -109 -161 6817 0
-6818 84 0
-6818 110 0
-6818 162 0
-84 -110 -162 6818 0
-6819 85 0
-6819 111 0
-6819 163 0
-85 -111 -163 6819 0
-6820 86 0
-6820 112 0
-6820 164 0
-86 -112 -164 6820 0
-6821 87 0
-6821 113 0
-6821 165 0
-87 -113 -165 6821 0
-6822 88 0
-6822 114 0
-6822 166 0
-88 -114 -166 6822 0
-6823 89 0
-6823 115 0
-6823 167 0
-89 -115 -167 6823 0
-6824 90 0
-6824 116 0
-6824 168 0
-90 -116 -168 6824 0
-6825 91 0
-6825 117 0
-6825 169 0
-91 -117 -169 6825 0
-6826 92 0
-6826 118 0
-6826 170 0
-92 -118 -170 6826 0
-6827 93 0
-6827 119 0
-6827 171 0
-93 -119 -171 6827 0
-6828 94 0
-6828 120 0
-6828 172 0
-94 -120 -172 6828 0
-6829 95 0
-6829 121 0
-6829 173 0
-95 -121 -173 6829 0
-6830 96 0
-6830 122 0
-6830 174 0
-96 -122 -174 6830 0
-6831 97 0
-6831 123 0
-6831 175 0
-97 -123 -175 6831 0
-6832 98 0
-6832 124 0
-6832 176 0
-98 -124 -176 6832 0
-6833 99 0
-6833 125 0
-6833 177 0
-99 -125 -177 6833 0
-6834 100 0
-6834 126 0
-6834 178 0
-100 -126 -178 6834 0
-6835 101 0
-6835 127 0
-6835 179 0
-101 -127 -179 6835 0
-6836 102 0
-6836 128 0
-6836 180 0
-102 -128 -180 6836 0
-6837 103 0
-6837 129 0
-6837 181 0
-103 -129 -181 6837 0
-6838 104 0
-6838 130 0
-6838 182 0
-104 -130 -182 6838 0
-6813 10074 0
-6814 10074 0
-6815 10074 0
-6816 10074 0
-6817 10074 0
-6818 10074 0
-6819 10074 0
-6820 10074 0
-6821 10074 0
-6822 10074 0
-6823 10074 0
-6824 10074 0
-6825 10074 0
-6826 10074 0
-6827 10074 0
-6828 10074 0
-6829 10074 0
-6830 10074 0
-6831 10074 0
-6832 10074 0
-6833 10074 0
-6834 10074 0
-6835 10074 0
-6836 10074 0
-6837 10074 0
-6838 10074 0
-10074 6813 6814 6815 6816 6817 6818 6819 6820 6821 6822 6823 6824 6825 6826 6827 6828 6829 6830 6831 6832 6833 6834 6835 6836 6837 6838 0
-6839 79 0
-6839 105 0
-6839 183 0
-79 -105 -183 6839 0
-6840 80 0
-6840 106 0
-6840 184 0
-80 -106 -184 6840 0
-6841 81 0
-6841 107 0
-6841 185 0
-81 -107 -185 6841 0
-6842 82 0
-6842 108 0
-6842 186 0
-82 -108 -186 6842 0
-6843 83 0
-6843 109 0
-6843 187 0
-83 -109 -187 6843 0
-6844 84 0
-6844 110 0
-6844 188 0
-84 -110 -188 6844 0
-6845 85 0
-6845 111 0
-6845 189 0
-85 -111 -189 6845 0
-6846 86 0
-6846 112 0
-6846 190 0
-86 -112 -190 6846 0
-6847 87 0
-6847 113 0
-6847 191 0
-87 -113 -191 6847 0
-6848 88 0
-6848 114 0
-6848 192 0
-88 -114 -192 6848 0
-6849 89 0
-6849 115 0
-6849 193 0
-89 -115 -193 6849 0
-6850 90 0
-6850 116 0
-6850 194 0
-90 -116 -194 6850 0
-6851 91 0
-6851 117 0
-6851 195 0
-91 -117 -195 6851 0
-6852 92 0
-6852 118 0
-6852 196 0
-92 -118 -196 6852 0
-6853 93 0
-6853 119 0
-6853 197 0
-93 -119 -197 6853 0
-6854 94 0
-6854 120 0
-6854 198 0
-94 -120 -198 6854 0
-6855 95 0
-6855 121 0
-6855 199 0
-95 -121 -199 6855 0
-6856 96 0
-6856 122 0
-6856 200 0
-96 -122 -200 6856 0
-6857 97 0
-6857 123 0
-6857 201 0
-97 -123 -201 6857 0
-6858 98 0
-6858 124 0
-6858 202 0
-98 -124 -202 6858 0
-6859 99 0
-6859 125 0
-6859 203 0
-99 -125 -203 6859 0
-6860 100 0
-6860 126 0
-6860 204 0
-100 -126 -204 6860 0
-6861 101 0
-6861 127 0
-6861 205 0
-101 -127 -205 6861 0
-6862 102 0
-6862 128 0
-6862 206 0
-102 -128 -206 6862 0
-6863 103 0
-6863 129 0
-6863 207 0
-103 -129 -207 6863 0
-6864 104 0
-6864 130 0
-6864 208 0
-104 -130 -208 6864 0
-6839 10075 0
-6840 10075 0
-6841 10075 0
-6842 10075 0
-6843 10075 0
-6844 10075 0
-6845 10075 0
-6846 10075 0
-6847 10075 0
-6848 10075 0
-6849 10075 0
-6850 10075 0
-6851 10075 0
-6852 10075 0
-6853 10075 0
-6854 10075 0
-6855 10075 0
-6856 10075 0
-6857 10075 0
-6858 10075 0
-6859 10075 0
-6860 10075 0
-6861 10075 0
-6862 10075 0
-6863 10075 0
-6864 10075 0
-10075 6839 6840 6841 6842 6843 6844 6845 6846 6847 6848 6849 6850 6851 6852 6853 6854 6855 6856 6857 6858 6859 6860 6861 6862 6863 6864 0
-6865 79 0
-6865 105 0
-6865 209 0
-79 -105 -209 6865 0
-6866 80 0
-6866 106 0
-6866 210 0
-80 -106 -210 6866 0
-6867 81 0
-6867 107 0
-6867 211 0
-81 -107 -211 6867 0
-6868 82 0
-6868 108 0
-6868 212 0
-82 -108 -212 6868 0
-6869 83 0
-6869 109 0
-6869 213 0
-83 -109 -213 6869 0
-6870 84 0
-6870 110 0
-6870 214 0
-84 -110 -214 6870 0
-6871 85 0
-6871 111 0
-6871 215 0
-85 -111 -215 6871 0
-6872 86 0
-6872 112 0
-6872 216 0
-86 -112 -216 6872 0
-6873 87 0
-6873 113 0
-6873 217 0
-87 -113 -217 6873 0
-6874 88 0
-6874 114 0
-6874 218 0
-88 -114 -218 6874 0
-6875 89 0
-6875 115 0
-6875 219 0
-89 -115 -219 6875 0
-6876 90 0
-6876 116 0
-6876 220 0
-90 -116 -220 6876 0
-6877 91 0
-6877 117 0
-6877 221 0
-91 -117 -221 6877 0
-6878 92 0
-6878 118 0
-6878 222 0
-92 -118 -222 6878 0
-6879 93 0
-6879 119 0
-6879 223 0
-93 -119 -223 6879 0
-6880 94 0
-6880 120 0
-6880 224 0
-94 -120 -224 6880 0
-6881 95 0
-6881 121 0
-6881 225 0
-95 -121 -225 6881 0
-6882 96 0
-6882 122 0
-6882 226 0
-96 -122 -226 6882 0
-6883 97 0
-6883 123 0
-6883 227 0
-97 -123 -227 6883 0
-6884 98 0
-6884 124 0
-6884 228 0
-98 -124 -228 6884 0
-6885 99 0
-6885 125 0
-6885 229 0
-99 -125 -229 6885 0
-6886 100 0
-6886 126 0
-6886 230 0
-100 -126 -230 6886 0
-6887 101 0
-6887 127 0
-6887 231 0
-101 -127 -231 6887 0
-6888 102 0
-6888 128 0
-6888 232 0
-102 -128 -232 6888 0
-6889 103 0
-6889 129 0
-6889 233 0
-103 -129 -233 6889 0
-6890 104 0
-6890 130 0
-6890 234 0
-104 -130 -234 6890 0
-6865 10076 0
-6866 10076 0
-6867 10076 0
-6868 10076 0
-6869 10076 0
-6870 10076 0
-6871 10076 0
-6872 10076 0
-6873 10076 0
-6874 10076 0
-6875 10076 0
-6876 10076 0
-6877 10076 0
-6878 10076 0
-6879 10076 0
-6880 10076 0
-6881 10076 0
-6882 10076 0
-6883 10076 0
-6884 10076 0
-6885 10076 0
-6886 10076 0
-6887 10076 0
-6888 10076 0
-6889 10076 0
-6890 10076 0
-10076 6865 6866 6867 6868 6869 6870 6871 6872 6873 6874 6875 6876 6877 6878 6879 6880 6881 6882 6883 6884 6885 6886 6887 6888 6889 6890 0
-6891 79 0
-6891 105 0
-6891 235 0
-79 -105 -235 6891 0
-6892 80 0
-6892 106 0
-6892 236 0
-80 -106 -236 6892 0
-6893 81 0
-6893 107 0
-6893 237 0
-81 -107 -237 6893 0
-6894 82 0
-6894 108 0
-6894 238 0
-82 -108 -238 6894 0
-6895 83 0
-6895 109 0
-6895 239 0
-83 -109 -239 6895 0
-6896 84 0
-6896 110 0
-6896 240 0
-84 -110 -240 6896 0
-6897 85 0
-6897 111 0
-6897 241 0
-85 -111 -241 6897 0
-6898 86 0
-6898 112 0
-6898 242 0
-86 -112 -242 6898 0
-6899 87 0
-6899 113 0
-6899 243 0
-87 -113 -243 6899 0
-6900 88 0
-6900 114 0
-6900 244 0
-88 -114 -244 6900 0
-6901 89 0
-6901 115 0
-6901 245 0
-89 -115 -245 6901 0
-6902 90 0
-6902 116 0
-6902 246 0
-90 -116 -246 6902 0
-6903 91 0
-6903 117 0
-6903 247 0
-91 -117 -247 6903 0
-6904 92 0
-6904 118 0
-6904 248 0
-92 -118 -248 6904 0
-6905 93 0
-6905 119 0
-6905 249 0
-93 -119 -249 6905 0
-6906 94 0
-6906 120 0
-6906 250 0
-94 -120 -250 6906 0
-6907 95 0
-6907 121 0
-6907 251 0
-95 -121 -251 6907 0
-6908 96 0
-6908 122 0
-6908 252 0
-96 -122 -252 6908 0
-6909 97 0
-6909 123 0
-6909 253 0
-97 -123 -253 6909 0
-6910 98 0
-6910 124 0
-6910 254 0
-98 -124 -254 6910 0
-6911 99 0
-6911 125 0
-6911 255 0
-99 -125 -255 6911 0
-6912 100 0
-6912 126 0
-6912 256 0
-100 -126 -256 6912 0
-6913 101 0
-6913 127 0
-6913 257 0
-101 -127 -257 6913 0
-6914 102 0
-6914 128 0
-6914 258 0
-102 -128 -258 6914 0
-6915 103 0
-6915 129 0
-6915 259 0
-103 -129 -259 6915 0
-6916 104 0
-6916 130 0
-6916 260 0
-104 -130 -260 6916 0
-6891 10077 0
-6892 10077 0
-6893 10077 0
-6894 10077 0
-6895 10077 0
-6896 10077 0
-6897 10077 0
-6898 10077 0
-6899 10077 0
-6900 10077 0
-6901 10077 0
-6902 10077 0
-6903 10077 0
-6904 10077 0
-6905 10077 0
-6906 10077 0
-6907 10077 0
-6908 10077 0
-6909 10077 0
-6910 10077 0
-6911 10077 0
-6912 10077 0
-6913 10077 0
-6914 10077 0
-6915 10077 0
-6916 10077 0
-10077 6891 6892 6893 6894 6895 6896 6897 6898 6899 6900 6901 6902 6903 6904 6905 6906 6907 6908 6909 6910 6911 6912 6913 6914 6915 6916 0
-6917 79 0
-6917 105 0
-6917 261 0
-79 -105 -261 6917 0
-6918 80 0
-6918 106 0
-6918 262 0
-80 -106 -262 6918 0
-6919 81 0
-6919 107 0
-6919 263 0
-81 -107 -263 6919 0
-6920 82 0
-6920 108 0
-6920 264 0
-82 -108 -264 6920 0
-6921 83 0
-6921 109 0
-6921 265 0
-83 -109 -265 6921 0
-6922 84 0
-6922 110 0
-6922 266 0
-84 -110 -266 6922 0
-6923 85 0
-6923 111 0
-6923 267 0
-85 -111 -267 6923 0
-6924 86 0
-6924 112 0
-6924 268 0
-86 -112 -268 6924 0
-6925 87 0
-6925 113 0
-6925 269 0
-87 -113 -269 6925 0
-6926 88 0
-6926 114 0
-6926 270 0
-88 -114 -270 6926 0
-6927 89 0
-6927 115 0
-6927 271 0
-89 -115 -271 6927 0
-6928 90 0
-6928 116 0
-6928 272 0
-90 -116 -272 6928 0
-6929 91 0
-6929 117 0
-6929 273 0
-91 -117 -273 6929 0
-6930 92 0
-6930 118 0
-6930 274 0
-92 -118 -274 6930 0
-6931 93 0
-6931 119 0
-6931 275 0
-93 -119 -275 6931 0
-6932 94 0
-6932 120 0
-6932 276 0
-94 -120 -276 6932 0
-6933 95 0
-6933 121 0
-6933 277 0
-95 -121 -277 6933 0
-6934 96 0
-6934 122 0
-6934 278 0
-96 -122 -278 6934 0
-6935 97 0
-6935 123 0
-6935 279 0
-97 -123 -279 6935 0
-6936 98 0
-6936 124 0
-6936 280 0
-98 -124 -280 6936 0
-6937 99 0
-6937 125 0
-6937 281 0
-99 -125 -281 6937 0
-6938 100 0
-6938 126 0
-6938 282 0
-100 -126 -282 6938 0
-6939 101 0
-6939 127 0
-6939 283 0
-101 -127 -283 6939 0
-6940 102 0
-6940 128 0
-6940 284 0
-102 -128 -284 6940 0
-6941 103 0
-6941 129 0
-6941 285 0
-103 -129 -285 6941 0
-6942 104 0
-6942 130 0
-6942 286 0
-104 -130 -286 6942 0
-6917 10078 0
-6918 10078 0
-6919 10078 0
-6920 10078 0
-6921 10078 0
-6922 10078 0
-6923 10078 0
-6924 10078 0
-6925 10078 0
-6926 10078 0
-6927 10078 0
-6928 10078 0
-6929 10078 0
-6930 10078 0
-6931 10078 0
-6932 10078 0
-6933 10078 0
-6934 10078 0
-6935 10078 0
-6936 10078 0
-6937 10078 0
-6938 10078 0
-6939 10078 0
-6940 10078 0
-6941 10078 0
-6942 10078 0
-10078 6917 6918 6919 6920 6921 6922 6923 6924 6925 6926 6927 6928 6929 6930 6931 6932 6933 6934 6935 6936 6937 6938 6939 6940 6941 6942 0
-6943 79 0
-6943 105 0
-6943 287 0
-79 -105 -287 6943 0
-6944 80 0
-6944 106 0
-6944 288 0
-80 -106 -288 6944 0
-6945 81 0
-6945 107 0
-6945 289 0
-81 -107 -289 6945 0
-6946 82 0
-6946 108 0
-6946 290 0
-82 -108 -290 6946 0
-6947 83 0
-6947 109 0
-6947 291 0
-83 -109 -291 6947 0
-6948 84 0
-6948 110 0
-6948 292 0
-84 -110 -292 6948 0
-6949 85 0
-6949 111 0
-6949 293 0
-85 -111 -293 6949 0
-6950 86 0
-6950 112 0
-6950 294 0
-86 -112 -294 6950 0
-6951 87 0
-6951 113 0
-6951 295 0
-87 -113 -295 6951 0
-6952 88 0
-6952 114 0
-6952 296 0
-88 -114 -296 6952 0
-6953 89 0
-6953 115 0
-6953 297 0
-89 -115 -297 6953 0
-6954 90 0
-6954 116 0
-6954 298 0
-90 -116 -298 6954 0
-6955 91 0
-6955 117 0
-6955 299 0
-91 -117 -299 6955 0
-6956 92 0
-6956 118 0
-6956 300 0
-92 -118 -300 6956 0
-6957 93 0
-6957 119 0
-6957 301 0
-93 -119 -301 6957 0
-6958 94 0
-6958 120 0
-6958 302 0
-94 -120 -302 6958 0
-6959 95 0
-6959 121 0
-6959 303 0
-95 -121 -303 6959 0
-6960 96 0
-6960 122 0
-6960 304 0
-96 -122 -304 6960 0
-6961 97 0
-6961 123 0
-6961 305 0
-97 -123 -305 6961 0
-6962 98 0
-6962 124 0
-6962 306 0
-98 -124 -306 6962 0
-6963 99 0
-6963 125 0
-6963 307 0
-99 -125 -307 6963 0
-6964 100 0
-6964 126 0
-6964 308 0
-100 -126 -308 6964 0
-6965 101 0
-6965 127 0
-6965 309 0
-101 -127 -309 6965 0
-6966 102 0
-6966 128 0
-6966 310 0
-102 -128 -310 6966 0
-6967 103 0
-6967 129 0
-6967 311 0
-103 -129 -311 6967 0
-6968 104 0
-6968 130 0
-6968 312 0
-104 -130 -312 6968 0
-6943 10079 0
-6944 10079 0
-6945 10079 0
-6946 10079 0
-6947 10079 0
-6948 10079 0
-6949 10079 0
-6950 10079 0
-6951 10079 0
-6952 10079 0
-6953 10079 0
-6954 10079 0
-6955 10079 0
-6956 10079 0
-6957 10079 0
-6958 10079 0
-6959 10079 0
-6960 10079 0
-6961 10079 0
-6962 10079 0
-6963 10079 0
-6964 10079 0
-6965 10079 0
-6966 10079 0
-6967 10079 0
-6968 10079 0
-10079 6943 6944 6945 6946 6947 6948 6949 6950 6951 6952 6953 6954 6955 6956 6957 6958 6959 6960 6961 6962 6963 6964 6965 6966 6967 6968 0
-6969 79 0
-6969 105 0
-6969 313 0
-79 -105 -313 6969 0
-6970 80 0
-6970 106 0
-6970 314 0
-80 -106 -314 6970 0
-6971 81 0
-6971 107 0
-6971 315 0
-81 -107 -315 6971 0
-6972 82 0
-6972 108 0
-6972 316 0
-82 -108 -316 6972 0
-6973 83 0
-6973 109 0
-6973 317 0
-83 -109 -317 6973 0
-6974 84 0
-6974 110 0
-6974 318 0
-84 -110 -318 6974 0
-6975 85 0
-6975 111 0
-6975 319 0
-85 -111 -319 6975 0
-6976 86 0
-6976 112 0
-6976 320 0
-86 -112 -320 6976 0
-6977 87 0
-6977 113 0
-6977 321 0
-87 -113 -321 6977 0
-6978 88 0
-6978 114 0
-6978 322 0
-88 -114 -322 6978 0
-6979 89 0
-6979 115 0
-6979 323 0
-89 -115 -323 6979 0
-6980 90 0
-6980 116 0
-6980 324 0
-90 -116 -324 6980 0
-6981 91 0
-6981 117 0
-6981 325 0
-91 -117 -325 6981 0
-6982 92 0
-6982 118 0
-6982 326 0
-92 -118 -326 6982 0
-6983 93 0
-6983 119 0
-6983 327 0
-93 -119 -327 6983 0
-6984 94 0
-6984 120 0
-6984 328 0
-94 -120 -328 6984 0
-6985 95 0
-6985 121 0
-6985 329 0
-95 -121 -329 6985 0
-6986 96 0
-6986 122 0
-6986 330 0
-96 -122 -330 6986 0
-6987 97 0
-6987 123 0
-6987 331 0
-97 -123 -331 6987 0
-6988 98 0
-6988 124 0
-6988 332 0
-98 -124 -332 6988 0
-6989 99 0
-6989 125 0
-6989 333 0
-99 -125 -333 6989 0
-6990 100 0
-6990 126 0
-6990 334 0
-100 -126 -334 6990 0
-6991 101 0
-6991 127 0
-6991 335 0
-101 -127 -335 6991 0
-6992 102 0
-6992 128 0
-6992 336 0
-102 -128 -336 6992 0
-6993 103 0
-6993 129 0
-6993 337 0
-103 -129 -337 6993 0
-6994 104 0
-6994 130 0
-6994 338 0
-104 -130 -338 6994 0
-6969 10080 0
-6970 10080 0
-6971 10080 0
-6972 10080 0
-6973 10080 0
-6974 10080 0
-6975 10080 0
-6976 10080 0
-6977 10080 0
-6978 10080 0
-6979 10080 0
-6980 10080 0
-6981 10080 0
-6982 10080 0
-6983 10080 0
-6984 10080 0
-6985 10080 0
-6986 10080 0
-6987 10080 0
-6988 10080 0
-6989 10080 0
-6990 10080 0
-6991 10080 0
-6992 10080 0
-6993 10080 0
-6994 10080 0
-10080 6969 6970 6971 6972 6973 6974 6975 6976 6977 6978 6979 6980 6981 6982 6983 6984 6985 6986 6987 6988 6989 6990 6991 6992 6993 6994 0
-6995 79 0
-6995 131 0
-6995 157 0
-79 -131 -157 6995 0
-6996 80 0
-6996 132 0
-6996 158 0
-80 -132 -158 6996 0
-6997 81 0
-6997 133 0
-6997 159 0
-81 -133 -159 6997 0
-6998 82 0
-6998 134 0
-6998 160 0
-82 -134 -160 6998 0
-6999 83 0
-6999 135 0
-6999 161 0
-83 -135 -161 6999 0
-7000 84 0
-7000 136 0
-7000 162 0
-84 -136 -162 7000 0
-7001 85 0
-7001 137 0
-7001 163 0
-85 -137 -163 7001 0
-7002 86 0
-7002 138 0
-7002 164 0
-86 -138 -164 7002 0
-7003 87 0
-7003 139 0
-7003 165 0
-87 -139 -165 7003 0
-7004 88 0
-7004 140 0
-7004 166 0
-88 -140 -166 7004 0
-7005 89 0
-7005 141 0
-7005 167 0
-89 -141 -167 7005 0
-7006 90 0
-7006 142 0
-7006 168 0
-90 -142 -168 7006 0
-7007 91 0
-7007 143 0
-7007 169 0
-91 -143 -169 7007 0
-7008 92 0
-7008 144 0
-7008 170 0
-92 -144 -170 7008 0
-7009 93 0
-7009 145 0
-7009 171 0
-93 -145 -171 7009 0
-7010 94 0
-7010 146 0
-7010 172 0
-94 -146 -172 7010 0
-7011 95 0
-7011 147 0
-7011 173 0
-95 -147 -173 7011 0
-7012 96 0
-7012 148 0
-7012 174 0
-96 -148 -174 7012 0
-7013 97 0
-7013 149 0
-7013 175 0
-97 -149 -175 7013 0
-7014 98 0
-7014 150 0
-7014 176 0
-98 -150 -176 7014 0
-7015 99 0
-7015 151 0
-7015 177 0
-99 -151 -177 7015 0
-7016 100 0
-7016 152 0
-7016 178 0
-100 -152 -178 7016 0
-7017 101 0
-7017 153 0
-7017 179 0
-101 -153 -179 7017 0
-7018 102 0
-7018 154 0
-7018 180 0
-102 -154 -180 7018 0
-7019 103 0
-7019 155 0
-7019 181 0
-103 -155 -181 7019 0
-7020 104 0
-7020 156 0
-7020 182 0
-104 -156 -182 7020 0
-6995 10081 0
-6996 10081 0
-6997 10081 0
-6998 10081 0
-6999 10081 0
-7000 10081 0
-7001 10081 0
-7002 10081 0
-7003 10081 0
-7004 10081 0
-7005 10081 0
-7006 10081 0
-7007 10081 0
-7008 10081 0
-7009 10081 0
-7010 10081 0
-7011 10081 0
-7012 10081 0
-7013 10081 0
-7014 10081 0
-7015 10081 0
-7016 10081 0
-7017 10081 0
-7018 10081 0
-7019 10081 0
-7020 10081 0
-10081 6995 6996 6997 6998 6999 7000 7001 7002 7003 7004 7005 7006 7007 7008 7009 7010 7011 7012 7013 7014 7015 7016 7017 7018 7019 7020 0
-7021 79 0
-7021 131 0
-7021 183 0
-79 -131 -183 7021 0
-7022 80 0
-7022 132 0
-7022 184 0
-80 -132 -184 7022 0
-7023 81 0
-7023 133 0
-7023 185 0
-81 -133 -185 7023 0
-7024 82 0
-7024 134 0
-7024 186 0
-82 -134 -186 7024 0
-7025 83 0
-7025 135 0
-7025 187 0
-83 -135 -187 7025 0
-7026 84 0
-7026 136 0
-7026 188 0
-84 -136 -188 7026 0
-7027 85 0
-7027 137 0
-7027 189 0
-85 -137 -189 7027 0
-7028 86 0
-7028 138 0
-7028 190 0
-86 -138 -190 7028 0
-7029 87 0
-7029 139 0
-7029 191 0
-87 -139 -191 7029 0
-7030 88 0
-7030 140 0
-7030 192 0
-88 -140 -192 7030 0
-7031 89 0
-7031 141 0
-7031 193 0
-89 -141 -193 7031 0
-7032 90 0
-7032 142 0
-7032 194 0
-90 -142 -194 7032 0
-7033 91 0
-7033 143 0
-7033 195 0
-91 -143 -195 7033 0
-7034 92 0
-7034 144 0
-7034 196 0
-92 -144 -196 7034 0
-7035 93 0
-7035 145 0
-7035 197 0
-93 -145 -197 7035 0
-7036 94 0
-7036 146 0
-7036 198 0
-94 -146 -198 7036 0
-7037 95 0
-7037 147 0
-7037 199 0
-95 -147 -199 7037 0
-7038 96 0
-7038 148 0
-7038 200 0
-96 -148 -200 7038 0
-7039 97 0
-7039 149 0
-7039 201 0
-97 -149 -201 7039 0
-7040 98 0
-7040 150 0
-7040 202 0
-98 -150 -202 7040 0
-7041 99 0
-7041 151 0
-7041 203 0
-99 -151 -203 7041 0
-7042 100 0
-7042 152 0
-7042 204 0
-100 -152 -204 7042 0
-7043 101 0
-7043 153 0
-7043 205 0
-101 -153 -205 7043 0
-7044 102 0
-7044 154 0
-7044 206 0
-102 -154 -206 7044 0
-7045 103 0
-7045 155 0
-7045 207 0
-103 -155 -207 7045 0
-7046 104 0
-7046 156 0
-7046 208 0
-104 -156 -208 7046 0
-7021 10082 0
-7022 10082 0
-7023 10082 0
-7024 10082 0
-7025 10082 0
-7026 10082 0
-7027 10082 0
-7028 10082 0
-7029 10082 0
-7030 10082 0
-7031 10082 0
-7032 10082 0
-7033 10082 0
-7034 10082 0
-7035 10082 0
-7036 10082 0
-7037 10082 0
-7038 10082 0
-7039 10082 0
-7040 10082 0
-7041 10082 0
-7042 10082 0
-7043 10082 0
-7044 10082 0
-7045 10082 0
-7046 10082 0
-10082 7021 7022 7023 7024 7025 7026 7027 7028 7029 7030 7031 7032 7033 7034 7035 7036 7037 7038 7039 7040 7041 7042 7043 7044 7045 7046 0
-7047 79 0
-7047 131 0
-7047 209 0
-79 -131 -209 7047 0
-7048 80 0
-7048 132 0
-7048 210 0
-80 -132 -210 7048 0
-7049 81 0
-7049 133 0
-7049 211 0
-81 -133 -211 7049 0
-7050 82 0
-7050 134 0
-7050 212 0
-82 -134 -212 7050 0
-7051 83 0
-7051 135 0
-7051 213 0
-83 -135 -213 7051 0
-7052 84 0
-7052 136 0
-7052 214 0
-84 -136 -214 7052 0
-7053 85 0
-7053 137 0
-7053 215 0
-85 -137 -215 7053 0
-7054 86 0
-7054 138 0
-7054 216 0
-86 -138 -216 7054 0
-7055 87 0
-7055 139 0
-7055 217 0
-87 -139 -217 7055 0
-7056 88 0
-7056 140 0
-7056 218 0
-88 -140 -218 7056 0
-7057 89 0
-7057 141 0
-7057 219 0
-89 -141 -219 7057 0
-7058 90 0
-7058 142 0
-7058 220 0
-90 -142 -220 7058 0
-7059 91 0
-7059 143 0
-7059 221 0
-91 -143 -221 7059 0
-7060 92 0
-7060 144 0
-7060 222 0
-92 -144 -222 7060 0
-7061 93 0
-7061 145 0
-7061 223 0
-93 -145 -223 7061 0
-7062 94 0
-7062 146 0
-7062 224 0
-94 -146 -224 7062 0
-7063 95 0
-7063 147 0
-7063 225 0
-95 -147 -225 7063 0
-7064 96 0
-7064 148 0
-7064 226 0
-96 -148 -226 7064 0
-7065 97 0
-7065 149 0
-7065 227 0
-97 -149 -227 7065 0
-7066 98 0
-7066 150 0
-7066 228 0
-98 -150 -228 7066 0
-7067 99 0
-7067 151 0
-7067 229 0
-99 -151 -229 7067 0
-7068 100 0
-7068 152 0
-7068 230 0
-100 -152 -230 7068 0
-7069 101 0
-7069 153 0
-7069 231 0
-101 -153 -231 7069 0
-7070 102 0
-7070 154 0
-7070 232 0
-102 -154 -232 7070 0
-7071 103 0
-7071 155 0
-7071 233 0
-103 -155 -233 7071 0
-7072 104 0
-7072 156 0
-7072 234 0
-104 -156 -234 7072 0
-7047 10083 0
-7048 10083 0
-7049 10083 0
-7050 10083 0
-7051 10083 0
-7052 10083 0
-7053 10083 0
-7054 10083 0
-7055 10083 0
-7056 10083 0
-7057 10083 0
-7058 10083 0
-7059 10083 0
-7060 10083 0
-7061 10083 0
-7062 10083 0
-7063 10083 0
-7064 10083 0
-7065 10083 0
-7066 10083 0
-7067 10083 0
-7068 10083 0
-7069 10083 0
-7070 10083 0
-7071 10083 0
-7072 10083 0
-10083 7047 7048 7049 7050 7051 7052 7053 7054 7055 7056 7057 7058 7059 7060 7061 7062 7063 7064 7065 7066 7067 7068 7069 7070 7071 7072 0
-7073 79 0
-7073 131 0
-7073 235 0
-79 -131 -235 7073 0
-7074 80 0
-7074 132 0
-7074 236 0
-80 -132 -236 7074 0
-7075 81 0
-7075 133 0
-7075 237 0
-81 -133 -237 7075 0
-7076 82 0
-7076 134 0
-7076 238 0
-82 -134 -238 7076 0
-7077 83 0
-7077 135 0
-7077 239 0
-83 -135 -239 7077 0
-7078 84 0
-7078 136 0
-7078 240 0
-84 -136 -240 7078 0
-7079 85 0
-7079 137 0
-7079 241 0
-85 -137 -241 7079 0
-7080 86 0
-7080 138 0
-7080 242 0
-86 -138 -242 7080 0
-7081 87 0
-7081 139 0
-7081 243 0
-87 -139 -243 7081 0
-7082 88 0
-7082 140 0
-7082 244 0
-88 -140 -244 7082 0
-7083 89 0
-7083 141 0
-7083 245 0
-89 -141 -245 7083 0
-7084 90 0
-7084 142 0
-7084 246 0
-90 -142 -246 7084 0
-7085 91 0
-7085 143 0
-7085 247 0
-91 -143 -247 7085 0
-7086 92 0
-7086 144 0
-7086 248 0
-92 -144 -248 7086 0
-7087 93 0
-7087 145 0
-7087 249 0
-93 -145 -249 7087 0
-7088 94 0
-7088 146 0
-7088 250 0
-94 -146 -250 7088 0
-7089 95 0
-7089 147 0
-7089 251 0
-95 -147 -251 7089 0
-7090 96 0
-7090 148 0
-7090 252 0
-96 -148 -252 7090 0
-7091 97 0
-7091 149 0
-7091 253 0
-97 -149 -253 7091 0
-7092 98 0
-7092 150 0
-7092 254 0
-98 -150 -254 7092 0
-7093 99 0
-7093 151 0
-7093 255 0
-99 -151 -255 7093 0
-7094 100 0
-7094 152 0
-7094 256 0
-100 -152 -256 7094 0
-7095 101 0
-7095 153 0
-7095 257 0
-101 -153 -257 7095 0
-7096 102 0
-7096 154 0
-7096 258 0
-102 -154 -258 7096 0
-7097 103 0
-7097 155 0
-7097 259 0
-103 -155 -259 7097 0
-7098 104 0
-7098 156 0
-7098 260 0
-104 -156 -260 7098 0
-7073 10084 0
-7074 10084 0
-7075 10084 0
-7076 10084 0
-7077 10084 0
-7078 10084 0
-7079 10084 0
-7080 10084 0
-7081 10084 0
-7082 10084 0
-7083 10084 0
-7084 10084 0
-7085 10084 0
-7086 10084 0
-7087 10084 0
-7088 10084 0
-7089 10084 0
-7090 10084 0
-7091 10084 0
-7092 10084 0
-7093 10084 0
-7094 10084 0
-7095 10084 0
-7096 10084 0
-7097 10084 0
-7098 10084 0
-10084 7073 7074 7075 7076 7077 7078 7079 7080 7081 7082 7083 7084 7085 7086 7087 7088 7089 7090 7091 7092 7093 7094 7095 7096 7097 7098 0
-7099 79 0
-7099 131 0
-7099 261 0
-79 -131 -261 7099 0
-7100 80 0
-7100 132 0
-7100 262 0
-80 -132 -262 7100 0
-7101 81 0
-7101 133 0
-7101 263 0
-81 -133 -263 7101 0
-7102 82 0
-7102 134 0
-7102 264 0
-82 -134 -264 7102 0
-7103 83 0
-7103 135 0
-7103 265 0
-83 -135 -265 7103 0
-7104 84 0
-7104 136 0
-7104 266 0
-84 -136 -266 7104 0
-7105 85 0
-7105 137 0
-7105 267 0
-85 -137 -267 7105 0
-7106 86 0
-7106 138 0
-7106 268 0
-86 -138 -268 7106 0
-7107 87 0
-7107 139 0
-7107 269 0
-87 -139 -269 7107 0
-7108 88 0
-7108 140 0
-7108 270 0
-88 -140 -270 7108 0
-7109 89 0
-7109 141 0
-7109 271 0
-89 -141 -271 7109 0
-7110 90 0
-7110 142 0
-7110 272 0
-90 -142 -272 7110 0
-7111 91 0
-7111 143 0
-7111 273 0
-91 -143 -273 7111 0
-7112 92 0
-7112 144 0
-7112 274 0
-92 -144 -274 7112 0
-7113 93 0
-7113 145 0
-7113 275 0
-93 -145 -275 7113 0
-7114 94 0
-7114 146 0
-7114 276 0
-94 -146 -276 7114 0
-7115 95 0
-7115 147 0
-7115 277 0
-95 -147 -277 7115 0
-7116 96 0
-7116 148 0
-7116 278 0
-96 -148 -278 7116 0
-7117 97 0
-7117 149 0
-7117 279 0
-97 -149 -279 7117 0
-7118 98 0
-7118 150 0
-7118 280 0
-98 -150 -280 7118 0
-7119 99 0
-7119 151 0
-7119 281 0
-99 -151 -281 7119 0
-7120 100 0
-7120 152 0
-7120 282 0
-100 -152 -282 7120 0
-7121 101 0
-7121 153 0
-7121 283 0
-101 -153 -283 7121 0
-7122 102 0
-7122 154 0
-7122 284 0
-102 -154 -284 7122 0
-7123 103 0
-7123 155 0
-7123 285 0
-103 -155 -285 7123 0
-7124 104 0
-7124 156 0
-7124 286 0
-104 -156 -286 7124 0
-7099 10085 0
-7100 10085 0
-7101 10085 0
-7102 10085 0
-7103 10085 0
-7104 10085 0
-7105 10085 0
-7106 10085 0
-7107 10085 0
-7108 10085 0
-7109 10085 0
-7110 10085 0
-7111 10085 0
-7112 10085 0
-7113 10085 0
-7114 10085 0
-7115 10085 0
-7116 10085 0
-7117 10085 0
-7118 10085 0
-7119 10085 0
-7120 10085 0
-7121 10085 0
-7122 10085 0
-7123 10085 0
-7124 10085 0
-10085 7099 7100 7101 7102 7103 7104 7105 7106 7107 7108 7109 7110 7111 7112 7113 7114 7115 7116 7117 7118 7119 7120 7121 7122 7123 7124 0
-7125 79 0
-7125 131 0
-7125 287 0
-79 -131 -287 7125 0
-7126 80 0
-7126 132 0
-7126 288 0
-80 -132 -288 7126 0
-7127 81 0
-7127 133 0
-7127 289 0
-81 -133 -289 7127 0
-7128 82 0
-7128 134 0
-7128 290 0
-82 -134 -290 7128 0
-7129 83 0
-7129 135 0
-7129 291 0
-83 -135 -291 7129 0
-7130 84 0
-7130 136 0
-7130 292 0
-84 -136 -292 7130 0
-7131 85 0
-7131 137 0
-7131 293 0
-85 -137 -293 7131 0
-7132 86 0
-7132 138 0
-7132 294 0
-86 -138 -294 7132 0
-7133 87 0
-7133 139 0
-7133 295 0
-87 -139 -295 7133 0
-7134 88 0
-7134 140 0
-7134 296 0
-88 -140 -296 7134 0
-7135 89 0
-7135 141 0
-7135 297 0
-89 -141 -297 7135 0
-7136 90 0
-7136 142 0
-7136 298 0
-90 -142 -298 7136 0
-7137 91 0
-7137 143 0
-7137 299 0
-91 -143 -299 7137 0
-7138 92 0
-7138 144 0
-7138 300 0
-92 -144 -300 7138 0
-7139 93 0
-7139 145 0
-7139 301 0
-93 -145 -301 7139 0
-7140 94 0
-7140 146 0
-7140 302 0
-94 -146 -302 7140 0
-7141 95 0
-7141 147 0
-7141 303 0
-95 -147 -303 7141 0
-7142 96 0
-7142 148 0
-7142 304 0
-96 -148 -304 7142 0
-7143 97 0
-7143 149 0
-7143 305 0
-97 -149 -305 7143 0
-7144 98 0
-7144 150 0
-7144 306 0
-98 -150 -306 7144 0
-7145 99 0
-7145 151 0
-7145 307 0
-99 -151 -307 7145 0
-7146 100 0
-7146 152 0
-7146 308 0
-100 -152 -308 7146 0
-7147 101 0
-7147 153 0
-7147 309 0
-101 -153 -309 7147 0
-7148 102 0
-7148 154 0
-7148 310 0
-102 -154 -310 7148 0
-7149 103 0
-7149 155 0
-7149 311 0
-103 -155 -311 7149 0
-7150 104 0
-7150 156 0
-7150 312 0
-104 -156 -312 7150 0
-7125 10086 0
-7126 10086 0
-7127 10086 0
-7128 10086 0
-7129 10086 0
-7130 10086 0
-7131 10086 0
-7132 10086 0
-7133 10086 0
-7134 10086 0
-7135 10086 0
-7136 10086 0
-7137 10086 0
-7138 10086 0
-7139 10086 0
-7140 10086 0
-7141 10086 0
-7142 10086 0
-7143 10086 0
-7144 10086 0
-7145 10086 0
-7146 10086 0
-7147 10086 0
-7148 10086 0
-7149 10086 0
-7150 10086 0
-10086 7125 7126 7127 7128 7129 7130 7131 7132 7133 7134 7135 7136 7137 7138 7139 7140 7141 7142 7143 7144 7145 7146 7147 7148 7149 7150 0
-7151 79 0
-7151 131 0
-7151 313 0
-79 -131 -313 7151 0
-7152 80 0
-7152 132 0
-7152 314 0
-80 -132 -314 7152 0
-7153 81 0
-7153 133 0
-7153 315 0
-81 -133 -315 7153 0
-7154 82 0
-7154 134 0
-7154 316 0
-82 -134 -316 7154 0
-7155 83 0
-7155 135 0
-7155 317 0
-83 -135 -317 7155 0
-7156 84 0
-7156 136 0
-7156 318 0
-84 -136 -318 7156 0
-7157 85 0
-7157 137 0
-7157 319 0
-85 -137 -319 7157 0
-7158 86 0
-7158 138 0
-7158 320 0
-86 -138 -320 7158 0
-7159 87 0
-7159 139 0
-7159 321 0
-87 -139 -321 7159 0
-7160 88 0
-7160 140 0
-7160 322 0
-88 -140 -322 7160 0
-7161 89 0
-7161 141 0
-7161 323 0
-89 -141 -323 7161 0
-7162 90 0
-7162 142 0
-7162 324 0
-90 -142 -324 7162 0
-7163 91 0
-7163 143 0
-7163 325 0
-91 -143 -325 7163 0
-7164 92 0
-7164 144 0
-7164 326 0
-92 -144 -326 7164 0
-7165 93 0
-7165 145 0
-7165 327 0
-93 -145 -327 7165 0
-7166 94 0
-7166 146 0
-7166 328 0
-94 -146 -328 7166 0
-7167 95 0
-7167 147 0
-7167 329 0
-95 -147 -329 7167 0
-7168 96 0
-7168 148 0
-7168 330 0
-96 -148 -330 7168 0
-7169 97 0
-7169 149 0
-7169 331 0
-97 -149 -331 7169 0
-7170 98 0
-7170 150 0
-7170 332 0
-98 -150 -332 7170 0
-7171 99 0
-7171 151 0
-7171 333 0
-99 -151 -333 7171 0
-7172 100 0
-7172 152 0
-7172 334 0
-100 -152 -334 7172 0
-7173 101 0
-7173 153 0
-7173 335 0
-101 -153 -335 7173 0
-7174 102 0
-7174 154 0
-7174 336 0
-102 -154 -336 7174 0
-7175 103 0
-7175 155 0
-7175 337 0
-103 -155 -337 7175 0
-7176 104 0
-7176 156 0
-7176 338 0
-104 -156 -338 7176 0
-7151 10087 0
-7152 10087 0
-7153 10087 0
-7154 10087 0
-7155 10087 0
-7156 10087 0
-7157 10087 0
-7158 10087 0
-7159 10087 0
-7160 10087 0
-7161 10087 0
-7162 10087 0
-7163 10087 0
-7164 10087 0
-7165 10087 0
-7166 10087 0
-7167 10087 0
-7168 10087 0
-7169 10087 0
-7170 10087 0
-7171 10087 0
-7172 10087 0
-7173 10087 0
-7174 10087 0
-7175 10087 0
-7176 10087 0
-10087 7151 7152 7153 7154 7155 7156 7157 7158 7159 7160 7161 7162 7163 7164 7165 7166 7167 7168 7169 7170 7171 7172 7173 7174 7175 7176 0
-7177 79 0
-7177 157 0
-7177 183 0
-79 -157 -183 7177 0
-7178 80 0
-7178 158 0
-7178 184 0
-80 -158 -184 7178 0
-7179 81 0
-7179 159 0
-7179 185 0
-81 -159 -185 7179 0
-7180 82 0
-7180 160 0
-7180 186 0
-82 -160 -186 7180 0
-7181 83 0
-7181 161 0
-7181 187 0
-83 -161 -187 7181 0
-7182 84 0
-7182 162 0
-7182 188 0
-84 -162 -188 7182 0
-7183 85 0
-7183 163 0
-7183 189 0
-85 -163 -189 7183 0
-7184 86 0
-7184 164 0
-7184 190 0
-86 -164 -190 7184 0
-7185 87 0
-7185 165 0
-7185 191 0
-87 -165 -191 7185 0
-7186 88 0
-7186 166 0
-7186 192 0
-88 -166 -192 7186 0
-7187 89 0
-7187 167 0
-7187 193 0
-89 -167 -193 7187 0
-7188 90 0
-7188 168 0
-7188 194 0
-90 -168 -194 7188 0
-7189 91 0
-7189 169 0
-7189 195 0
-91 -169 -195 7189 0
-7190 92 0
-7190 170 0
-7190 196 0
-92 -170 -196 7190 0
-7191 93 0
-7191 171 0
-7191 197 0
-93 -171 -197 7191 0
-7192 94 0
-7192 172 0
-7192 198 0
-94 -172 -198 7192 0
-7193 95 0
-7193 173 0
-7193 199 0
-95 -173 -199 7193 0
-7194 96 0
-7194 174 0
-7194 200 0
-96 -174 -200 7194 0
-7195 97 0
-7195 175 0
-7195 201 0
-97 -175 -201 7195 0
-7196 98 0
-7196 176 0
-7196 202 0
-98 -176 -202 7196 0
-7197 99 0
-7197 177 0
-7197 203 0
-99 -177 -203 7197 0
-7198 100 0
-7198 178 0
-7198 204 0
-100 -178 -204 7198 0
-7199 101 0
-7199 179 0
-7199 205 0
-101 -179 -205 7199 0
-7200 102 0
-7200 180 0
-7200 206 0
-102 -180 -206 7200 0
-7201 103 0
-7201 181 0
-7201 207 0
-103 -181 -207 7201 0
-7202 104 0
-7202 182 0
-7202 208 0
-104 -182 -208 7202 0
-7177 10088 0
-7178 10088 0
-7179 10088 0
-7180 10088 0
-7181 10088 0
-7182 10088 0
-7183 10088 0
-7184 10088 0
-7185 10088 0
-7186 10088 0
-7187 10088 0
-7188 10088 0
-7189 10088 0
-7190 10088 0
-7191 10088 0
-7192 10088 0
-7193 10088 0
-7194 10088 0
-7195 10088 0
-7196 10088 0
-7197 10088 0
-7198 10088 0
-7199 10088 0
-7200 10088 0
-7201 10088 0
-7202 10088 0
-10088 7177 7178 7179 7180 7181 7182 7183 7184 7185 7186 7187 7188 7189 7190 7191 7192 7193 7194 7195 7196 7197 7198 7199 7200 7201 7202 0
-7203 79 0
-7203 157 0
-7203 209 0
-79 -157 -209 7203 0
-7204 80 0
-7204 158 0
-7204 210 0
-80 -158 -210 7204 0
-7205 81 0
-7205 159 0
-7205 211 0
-81 -159 -211 7205 0
-7206 82 0
-7206 160 0
-7206 212 0
-82 -160 -212 7206 0
-7207 83 0
-7207 161 0
-7207 213 0
-83 -161 -213 7207 0
-7208 84 0
-7208 162 0
-7208 214 0
-84 -162 -214 7208 0
-7209 85 0
-7209 163 0
-7209 215 0
-85 -163 -215 7209 0
-7210 86 0
-7210 164 0
-7210 216 0
-86 -164 -216 7210 0
-7211 87 0
-7211 165 0
-7211 217 0
-87 -165 -217 7211 0
-7212 88 0
-7212 166 0
-7212 218 0
-88 -166 -218 7212 0
-7213 89 0
-7213 167 0
-7213 219 0
-89 -167 -219 7213 0
-7214 90 0
-7214 168 0
-7214 220 0
-90 -168 -220 7214 0
-7215 91 0
-7215 169 0
-7215 221 0
-91 -169 -221 7215 0
-7216 92 0
-7216 170 0
-7216 222 0
-92 -170 -222 7216 0
-7217 93 0
-7217 171 0
-7217 223 0
-93 -171 -223 7217 0
-7218 94 0
-7218 172 0
-7218 224 0
-94 -172 -224 7218 0
-7219 95 0
-7219 173 0
-7219 225 0
-95 -173 -225 7219 0
-7220 96 0
-7220 174 0
-7220 226 0
-96 -174 -226 7220 0
-7221 97 0
-7221 175 0
-7221 227 0
-97 -175 -227 7221 0
-7222 98 0
-7222 176 0
-7222 228 0
-98 -176 -228 7222 0
-7223 99 0
-7223 177 0
-7223 229 0
-99 -177 -229 7223 0
-7224 100 0
-7224 178 0
-7224 230 0
-100 -178 -230 7224 0
-7225 101 0
-7225 179 0
-7225 231 0
-101 -179 -231 7225 0
-7226 102 0
-7226 180 0
-7226 232 0
-102 -180 -232 7226 0
-7227 103 0
-7227 181 0
-7227 233 0
-103 -181 -233 7227 0
-7228 104 0
-7228 182 0
-7228 234 0
-104 -182 -234 7228 0
-7203 10089 0
-7204 10089 0
-7205 10089 0
-7206 10089 0
-7207 10089 0
-7208 10089 0
-7209 10089 0
-7210 10089 0
-7211 10089 0
-7212 10089 0
-7213 10089 0
-7214 10089 0
-7215 10089 0
-7216 10089 0
-7217 10089 0
-7218 10089 0
-7219 10089 0
-7220 10089 0
-7221 10089 0
-7222 10089 0
-7223 10089 0
-7224 10089 0
-7225 10089 0
-7226 10089 0
-7227 10089 0
-7228 10089 0
-10089 7203 7204 7205 7206 7207 7208 7209 7210 7211 7212 7213 7214 7215 7216 7217 7218 7219 7220 7221 7222 7223 7224 7225 7226 7227 7228 0
-7229 79 0
-7229 157 0
-7229 235 0
-79 -157 -235 7229 0
-7230 80 0
-7230 158 0
-7230 236 0
-80 -158 -236 7230 0
-7231 81 0
-7231 159 0
-7231 237 0
-81 -159 -237 7231 0
-7232 82 0
-7232 160 0
-7232 238 0
-82 -160 -238 7232 0
-7233 83 0
-7233 161 0
-7233 239 0
-83 -161 -239 7233 0
-7234 84 0
-7234 162 0
-7234 240 0
-84 -162 -240 7234 0
-7235 85 0
-7235 163 0
-7235 241 0
-85 -163 -241 7235 0
-7236 86 0
-7236 164 0
-7236 242 0
-86 -164 -242 7236 0
-7237 87 0
-7237 165 0
-7237 243 0
-87 -165 -243 7237 0
-7238 88 0
-7238 166 0
-7238 244 0
-88 -166 -244 7238 0
-7239 89 0
-7239 167 0
-7239 245 0
-89 -167 -245 7239 0
-7240 90 0
-7240 168 0
-7240 246 0
-90 -168 -246 7240 0
-7241 91 0
-7241 169 0
-7241 247 0
-91 -169 -247 7241 0
-7242 92 0
-7242 170 0
-7242 248 0
-92 -170 -248 7242 0
-7243 93 0
-7243 171 0
-7243 249 0
-93 -171 -249 7243 0
-7244 94 0
-7244 172 0
-7244 250 0
-94 -172 -250 7244 0
-7245 95 0
-7245 173 0
-7245 251 0
-95 -173 -251 7245 0
-7246 96 0
-7246 174 0
-7246 252 0
-96 -174 -252 7246 0
-7247 97 0
-7247 175 0
-7247 253 0
-97 -175 -253 7247 0
-7248 98 0
-7248 176 0
-7248 254 0
-98 -176 -254 7248 0
-7249 99 0
-7249 177 0
-7249 255 0
-99 -177 -255 7249 0
-7250 100 0
-7250 178 0
-7250 256 0
-100 -178 -256 7250 0
-7251 101 0
-7251 179 0
-7251 257 0
-101 -179 -257 7251 0
-7252 102 0
-7252 180 0
-7252 258 0
-102 -180 -258 7252 0
-7253 103 0
-7253 181 0
-7253 259 0
-103 -181 -259 7253 0
-7254 104 0
-7254 182 0
-7254 260 0
-104 -182 -260 7254 0
-7229 10090 0
-7230 10090 0
-7231 10090 0
-7232 10090 0
-7233 10090 0
-7234 10090 0
-7235 10090 0
-7236 10090 0
-7237 10090 0
-7238 10090 0
-7239 10090 0
-7240 10090 0
-7241 10090 0
-7242 10090 0
-7243 10090 0
-7244 10090 0
-7245 10090 0
-7246 10090 0
-7247 10090 0
-7248 10090 0
-7249 10090 0
-7250 10090 0
-7251 10090 0
-7252 10090 0
-7253 10090 0
-7254 10090 0
-10090 7229 7230 7231 7232 7233 7234 7235 7236 7237 7238 7239 7240 7241 7242 7243 7244 7245 7246 7247 7248 7249 7250 7251 7252 7253 7254 0
-7255 79 0
-7255 157 0
-7255 261 0
-79 -157 -261 7255 0
-7256 80 0
-7256 158 0
-7256 262 0
-80 -158 -262 7256 0
-7257 81 0
-7257 159 0
-7257 263 0
-81 -159 -263 7257 0
-7258 82 0
-7258 160 0
-7258 264 0
-82 -160 -264 7258 0
-7259 83 0
-7259 161 0
-7259 265 0
-83 -161 -265 7259 0
-7260 84 0
-7260 162 0
-7260 266 0
-84 -162 -266 7260 0
-7261 85 0
-7261 163 0
-7261 267 0
-85 -163 -267 7261 0
-7262 86 0
-7262 164 0
-7262 268 0
-86 -164 -268 7262 0
-7263 87 0
-7263 165 0
-7263 269 0
-87 -165 -269 7263 0
-7264 88 0
-7264 166 0
-7264 270 0
-88 -166 -270 7264 0
-7265 89 0
-7265 167 0
-7265 271 0
-89 -167 -271 7265 0
-7266 90 0
-7266 168 0
-7266 272 0
-90 -168 -272 7266 0
-7267 91 0
-7267 169 0
-7267 273 0
-91 -169 -273 7267 0
-7268 92 0
-7268 170 0
-7268 274 0
-92 -170 -274 7268 0
-7269 93 0
-7269 171 0
-7269 275 0
-93 -171 -275 7269 0
-7270 94 0
-7270 172 0
-7270 276 0
-94 -172 -276 7270 0
-7271 95 0
-7271 173 0
-7271 277 0
-95 -173 -277 7271 0
-7272 96 0
-7272 174 0
-7272 278 0
-96 -174 -278 7272 0
-7273 97 0
-7273 175 0
-7273 279 0
-97 -175 -279 7273 0
-7274 98 0
-7274 176 0
-7274 280 0
-98 -176 -280 7274 0
-7275 99 0
-7275 177 0
-7275 281 0
-99 -177 -281 7275 0
-7276 100 0
-7276 178 0
-7276 282 0
-100 -178 -282 7276 0
-7277 101 0
-7277 179 0
-7277 283 0
-101 -179 -283 7277 0
-7278 102 0
-7278 180 0
-7278 284 0
-102 -180 -284 7278 0
-7279 103 0
-7279 181 0
-7279 285 0
-103 -181 -285 7279 0
-7280 104 0
-7280 182 0
-7280 286 0
-104 -182 -286 7280 0
-7255 10091 0
-7256 10091 0
-7257 10091 0
-7258 10091 0
-7259 10091 0
-7260 10091 0
-7261 10091 0
-7262 10091 0
-7263 10091 0
-7264 10091 0
-7265 10091 0
-7266 10091 0
-7267 10091 0
-7268 10091 0
-7269 10091 0
-7270 10091 0
-7271 10091 0
-7272 10091 0
-7273 10091 0
-7274 10091 0
-7275 10091 0
-7276 10091 0
-7277 10091 0
-7278 10091 0
-7279 10091 0
-7280 10091 0
-10091 7255 7256 7257 7258 7259 7260 7261 7262 7263 7264 7265 7266 7267 7268 7269 7270 7271 7272 7273 7274 7275 7276 7277 7278 7279 7280 0
-7281 79 0
-7281 157 0
-7281 287 0
-79 -157 -287 7281 0
-7282 80 0
-7282 158 0
-7282 288 0
-80 -158 -288 7282 0
-7283 81 0
-7283 159 0
-7283 289 0
-81 -159 -289 7283 0
-7284 82 0
-7284 160 0
-7284 290 0
-82 -160 -290 7284 0
-7285 83 0
-7285 161 0
-7285 291 0
-83 -161 -291 7285 0
-7286 84 0
-7286 162 0
-7286 292 0
-84 -162 -292 7286 0
-7287 85 0
-7287 163 0
-7287 293 0
-85 -163 -293 7287 0
-7288 86 0
-7288 164 0
-7288 294 0
-86 -164 -294 7288 0
-7289 87 0
-7289 165 0
-7289 295 0
-87 -165 -295 7289 0
-7290 88 0
-7290 166 0
-7290 296 0
-88 -166 -296 7290 0
-7291 89 0
-7291 167 0
-7291 297 0
-89 -167 -297 7291 0
-7292 90 0
-7292 168 0
-7292 298 0
-90 -168 -298 7292 0
-7293 91 0
-7293 169 0
-7293 299 0
-91 -169 -299 7293 0
-7294 92 0
-7294 170 0
-7294 300 0
-92 -170 -300 7294 0
-7295 93 0
-7295 171 0
-7295 301 0
-93 -171 -301 7295 0
-7296 94 0
-7296 172 0
-7296 302 0
-94 -172 -302 7296 0
-7297 95 0
-7297 173 0
-7297 303 0
-95 -173 -303 7297 0
-7298 96 0
-7298 174 0
-7298 304 0
-96 -174 -304 7298 0
-7299 97 0
-7299 175 0
-7299 305 0
-97 -175 -305 7299 0
-7300 98 0
-7300 176 0
-7300 306 0
-98 -176 -306 7300 0
-7301 99 0
-7301 177 0
-7301 307 0
-99 -177 -307 7301 0
-7302 100 0
-7302 178 0
-7302 308 0
-100 -178 -308 7302 0
-7303 101 0
-7303 179 0
-7303 309 0
-101 -179 -309 7303 0
-7304 102 0
-7304 180 0
-7304 310 0
-102 -180 -310 7304 0
-7305 103 0
-7305 181 0
-7305 311 0
-103 -181 -311 7305 0
-7306 104 0
-7306 182 0
-7306 312 0
-104 -182 -312 7306 0
-7281 10092 0
-7282 10092 0
-7283 10092 0
-7284 10092 0
-7285 10092 0
-7286 10092 0
-7287 10092 0
-7288 10092 0
-7289 10092 0
-7290 10092 0
-7291 10092 0
-7292 10092 0
-7293 10092 0
-7294 10092 0
-7295 10092 0
-7296 10092 0
-7297 10092 0
-7298 10092 0
-7299 10092 0
-7300 10092 0
-7301 10092 0
-7302 10092 0
-7303 10092 0
-7304 10092 0
-7305 10092 0
-7306 10092 0
-10092 7281 7282 7283 7284 7285 7286 7287 7288 7289 7290 7291 7292 7293 7294 7295 7296 7297 7298 7299 7300 7301 7302 7303 7304 7305 7306 0
-7307 79 0
-7307 157 0
-7307 313 0
-79 -157 -313 7307 0
-7308 80 0
-7308 158 0
-7308 314 0
-80 -158 -314 7308 0
-7309 81 0
-7309 159 0
-7309 315 0
-81 -159 -315 7309 0
-7310 82 0
-7310 160 0
-7310 316 0
-82 -160 -316 7310 0
-7311 83 0
-7311 161 0
-7311 317 0
-83 -161 -317 7311 0
-7312 84 0
-7312 162 0
-7312 318 0
-84 -162 -318 7312 0
-7313 85 0
-7313 163 0
-7313 319 0
-85 -163 -319 7313 0
-7314 86 0
-7314 164 0
-7314 320 0
-86 -164 -320 7314 0
-7315 87 0
-7315 165 0
-7315 321 0
-87 -165 -321 7315 0
-7316 88 0
-7316 166 0
-7316 322 0
-88 -166 -322 7316 0
-7317 89 0
-7317 167 0
-7317 323 0
-89 -167 -323 7317 0
-7318 90 0
-7318 168 0
-7318 324 0
-90 -168 -324 7318 0
-7319 91 0
-7319 169 0
-7319 325 0
-91 -169 -325 7319 0
-7320 92 0
-7320 170 0
-7320 326 0
-92 -170 -326 7320 0
-7321 93 0
-7321 171 0
-7321 327 0
-93 -171 -327 7321 0
-7322 94 0
-7322 172 0
-7322 328 0
-94 -172 -328 7322 0
-7323 95 0
-7323 173 0
-7323 329 0
-95 -173 -329 7323 0
-7324 96 0
-7324 174 0
-7324 330 0
-96 -174 -330 7324 0
-7325 97 0
-7325 175 0
-7325 331 0
-97 -175 -331 7325 0
-7326 98 0
-7326 176 0
-7326 332 0
-98 -176 -332 7326 0
-7327 99 0
-7327 177 0
-7327 333 0
-99 -177 -333 7327 0
-7328 100 0
-7328 178 0
-7328 334 0
-100 -178 -334 7328 0
-7329 101 0
-7329 179 0
-7329 335 0
-101 -179 -335 7329 0
-7330 102 0
-7330 180 0
-7330 336 0
-102 -180 -336 7330 0
-7331 103 0
-7331 181 0
-7331 337 0
-103 -181 -337 7331 0
-7332 104 0
-7332 182 0
-7332 338 0
-104 -182 -338 7332 0
-7307 10093 0
-7308 10093 0
-7309 10093 0
-7310 10093 0
-7311 10093 0
-7312 10093 0
-7313 10093 0
-7314 10093 0
-7315 10093 0
-7316 10093 0
-7317 10093 0
-7318 10093 0
-7319 10093 0
-7320 10093 0
-7321 10093 0
-7322 10093 0
-7323 10093 0
-7324 10093 0
-7325 10093 0
-7326 10093 0
-7327 10093 0
-7328 10093 0
-7329 10093 0
-7330 10093 0
-7331 10093 0
-7332 10093 0
-10093 7307 7308 7309 7310 7311 7312 7313 7314 7315 7316 7317 7318 7319 7320 7321 7322 7323 7324 7325 7326 7327 7328 7329 7330 7331 7332 0
-7333 79 0
-7333 183 0
-7333 209 0
-79 -183 -209 7333 0
-7334 80 0
-7334 184 0
-7334 210 0
-80 -184 -210 7334 0
-7335 81 0
-7335 185 0
-7335 211 0
-81 -185 -211 7335 0
-7336 82 0
-7336 186 0
-7336 212 0
-82 -186 -212 7336 0
-7337 83 0
-7337 187 0
-7337 213 0
-83 -187 -213 7337 0
-7338 84 0
-7338 188 0
-7338 214 0
-84 -188 -214 7338 0
-7339 85 0
-7339 189 0
-7339 215 0
-85 -189 -215 7339 0
-7340 86 0
-7340 190 0
-7340 216 0
-86 -190 -216 7340 0
-7341 87 0
-7341 191 0
-7341 217 0
-87 -191 -217 7341 0
-7342 88 0
-7342 192 0
-7342 218 0
-88 -192 -218 7342 0
-7343 89 0
-7343 193 0
-7343 219 0
-89 -193 -219 7343 0
-7344 90 0
-7344 194 0
-7344 220 0
-90 -194 -220 7344 0
-7345 91 0
-7345 195 0
-7345 221 0
-91 -195 -221 7345 0
-7346 92 0
-7346 196 0
-7346 222 0
-92 -196 -222 7346 0
-7347 93 0
-7347 197 0
-7347 223 0
-93 -197 -223 7347 0
-7348 94 0
-7348 198 0
-7348 224 0
-94 -198 -224 7348 0
-7349 95 0
-7349 199 0
-7349 225 0
-95 -199 -225 7349 0
-7350 96 0
-7350 200 0
-7350 226 0
-96 -200 -226 7350 0
-7351 97 0
-7351 201 0
-7351 227 0
-97 -201 -227 7351 0
-7352 98 0
-7352 202 0
-7352 228 0
-98 -202 -228 7352 0
-7353 99 0
-7353 203 0
-7353 229 0
-99 -203 -229 7353 0
-7354 100 0
-7354 204 0
-7354 230 0
-100 -204 -230 7354 0
-7355 101 0
-7355 205 0
-7355 231 0
-101 -205 -231 7355 0
-7356 102 0
-7356 206 0
-7356 232 0
-102 -206 -232 7356 0
-7357 103 0
-7357 207 0
-7357 233 0
-103 -207 -233 7357 0
-7358 104 0
-7358 208 0
-7358 234 0
-104 -208 -234 7358 0
-7333 10094 0
-7334 10094 0
-7335 10094 0
-7336 10094 0
-7337 10094 0
-7338 10094 0
-7339 10094 0
-7340 10094 0
-7341 10094 0
-7342 10094 0
-7343 10094 0
-7344 10094 0
-7345 10094 0
-7346 10094 0
-7347 10094 0
-7348 10094 0
-7349 10094 0
-7350 10094 0
-7351 10094 0
-7352 10094 0
-7353 10094 0
-7354 10094 0
-7355 10094 0
-7356 10094 0
-7357 10094 0
-7358 10094 0
-10094 7333 7334 7335 7336 7337 7338 7339 7340 7341 7342 7343 7344 7345 7346 7347 7348 7349 7350 7351 7352 7353 7354 7355 7356 7357 7358 0
-7359 79 0
-7359 183 0
-7359 235 0
-79 -183 -235 7359 0
-7360 80 0
-7360 184 0
-7360 236 0
-80 -184 -236 7360 0
-7361 81 0
-7361 185 0
-7361 237 0
-81 -185 -237 7361 0
-7362 82 0
-7362 186 0
-7362 238 0
-82 -186 -238 7362 0
-7363 83 0
-7363 187 0
-7363 239 0
-83 -187 -239 7363 0
-7364 84 0
-7364 188 0
-7364 240 0
-84 -188 -240 7364 0
-7365 85 0
-7365 189 0
-7365 241 0
-85 -189 -241 7365 0
-7366 86 0
-7366 190 0
-7366 242 0
-86 -190 -242 7366 0
-7367 87 0
-7367 191 0
-7367 243 0
-87 -191 -243 7367 0
-7368 88 0
-7368 192 0
-7368 244 0
-88 -192 -244 7368 0
-7369 89 0
-7369 193 0
-7369 245 0
-89 -193 -245 7369 0
-7370 90 0
-7370 194 0
-7370 246 0
-90 -194 -246 7370 0
-7371 91 0
-7371 195 0
-7371 247 0
-91 -195 -247 7371 0
-7372 92 0
-7372 196 0
-7372 248 0
-92 -196 -248 7372 0
-7373 93 0
-7373 197 0
-7373 249 0
-93 -197 -249 7373 0
-7374 94 0
-7374 198 0
-7374 250 0
-94 -198 -250 7374 0
-7375 95 0
-7375 199 0
-7375 251 0
-95 -199 -251 7375 0
-7376 96 0
-7376 200 0
-7376 252 0
-96 -200 -252 7376 0
-7377 97 0
-7377 201 0
-7377 253 0
-97 -201 -253 7377 0
-7378 98 0
-7378 202 0
-7378 254 0
-98 -202 -254 7378 0
-7379 99 0
-7379 203 0
-7379 255 0
-99 -203 -255 7379 0
-7380 100 0
-7380 204 0
-7380 256 0
-100 -204 -256 7380 0
-7381 101 0
-7381 205 0
-7381 257 0
-101 -205 -257 7381 0
-7382 102 0
-7382 206 0
-7382 258 0
-102 -206 -258 7382 0
-7383 103 0
-7383 207 0
-7383 259 0
-103 -207 -259 7383 0
-7384 104 0
-7384 208 0
-7384 260 0
-104 -208 -260 7384 0
-7359 10095 0
-7360 10095 0
-7361 10095 0
-7362 10095 0
-7363 10095 0
-7364 10095 0
-7365 10095 0
-7366 10095 0
-7367 10095 0
-7368 10095 0
-7369 10095 0
-7370 10095 0
-7371 10095 0
-7372 10095 0
-7373 10095 0
-7374 10095 0
-7375 10095 0
-7376 10095 0
-7377 10095 0
-7378 10095 0
-7379 10095 0
-7380 10095 0
-7381 10095 0
-7382 10095 0
-7383 10095 0
-7384 10095 0
-10095 7359 7360 7361 7362 7363 7364 7365 7366 7367 7368 7369 7370 7371 7372 7373 7374 7375 7376 7377 7378 7379 7380 7381 7382 7383 7384 0
-7385 79 0
-7385 183 0
-7385 261 0
-79 -183 -261 7385 0
-7386 80 0
-7386 184 0
-7386 262 0
-80 -184 -262 7386 0
-7387 81 0
-7387 185 0
-7387 263 0
-81 -185 -263 7387 0
-7388 82 0
-7388 186 0
-7388 264 0
-82 -186 -264 7388 0
-7389 83 0
-7389 187 0
-7389 265 0
-83 -187 -265 7389 0
-7390 84 0
-7390 188 0
-7390 266 0
-84 -188 -266 7390 0
-7391 85 0
-7391 189 0
-7391 267 0
-85 -189 -267 7391 0
-7392 86 0
-7392 190 0
-7392 268 0
-86 -190 -268 7392 0
-7393 87 0
-7393 191 0
-7393 269 0
-87 -191 -269 7393 0
-7394 88 0
-7394 192 0
-7394 270 0
-88 -192 -270 7394 0
-7395 89 0
-7395 193 0
-7395 271 0
-89 -193 -271 7395 0
-7396 90 0
-7396 194 0
-7396 272 0
-90 -194 -272 7396 0
-7397 91 0
-7397 195 0
-7397 273 0
-91 -195 -273 7397 0
-7398 92 0
-7398 196 0
-7398 274 0
-92 -196 -274 7398 0
-7399 93 0
-7399 197 0
-7399 275 0
-93 -197 -275 7399 0
-7400 94 0
-7400 198 0
-7400 276 0
-94 -198 -276 7400 0
-7401 95 0
-7401 199 0
-7401 277 0
-95 -199 -277 7401 0
-7402 96 0
-7402 200 0
-7402 278 0
-96 -200 -278 7402 0
-7403 97 0
-7403 201 0
-7403 279 0
-97 -201 -279 7403 0
-7404 98 0
-7404 202 0
-7404 280 0
-98 -202 -280 7404 0
-7405 99 0
-7405 203 0
-7405 281 0
-99 -203 -281 7405 0
-7406 100 0
-7406 204 0
-7406 282 0
-100 -204 -282 7406 0
-7407 101 0
-7407 205 0
-7407 283 0
-101 -205 -283 7407 0
-7408 102 0
-7408 206 0
-7408 284 0
-102 -206 -284 7408 0
-7409 103 0
-7409 207 0
-7409 285 0
-103 -207 -285 7409 0
-7410 104 0
-7410 208 0
-7410 286 0
-104 -208 -286 7410 0
-7385 10096 0
-7386 10096 0
-7387 10096 0
-7388 10096 0
-7389 10096 0
-7390 10096 0
-7391 10096 0
-7392 10096 0
-7393 10096 0
-7394 10096 0
-7395 10096 0
-7396 10096 0
-7397 10096 0
-7398 10096 0
-7399 10096 0
-7400 10096 0
-7401 10096 0
-7402 10096 0
-7403 10096 0
-7404 10096 0
-7405 10096 0
-7406 10096 0
-7407 10096 0
-7408 10096 0
-7409 10096 0
-7410 10096 0
-10096 7385 7386 7387 7388 7389 7390 7391 7392 7393 7394 7395 7396 7397 7398 7399 7400 7401 7402 7403 7404 7405 7406 7407 7408 7409 7410 0
-7411 79 0
-7411 183 0
-7411 287 0
-79 -183 -287 7411 0
-7412 80 0
-7412 184 0
-7412 288 0
-80 -184 -288 7412 0
-7413 81 0
-7413 185 0
-7413 289 0
-81 -185 -289 7413 0
-7414 82 0
-7414 186 0
-7414 290 0
-82 -186 -290 7414 0
-7415 83 0
-7415 187 0
-7415 291 0
-83 -187 -291 7415 0
-7416 84 0
-7416 188 0
-7416 292 0
-84 -188 -292 7416 0
-7417 85 0
-7417 189 0
-7417 293 0
-85 -189 -293 7417 0
-7418 86 0
-7418 190 0
-7418 294 0
-86 -190 -294 7418 0
-7419 87 0
-7419 191 0
-7419 295 0
-87 -191 -295 7419 0
-7420 88 0
-7420 192 0
-7420 296 0
-88 -192 -296 7420 0
-7421 89 0
-7421 193 0
-7421 297 0
-89 -193 -297 7421 0
-7422 90 0
-7422 194 0
-7422 298 0
-90 -194 -298 7422 0
-7423 91 0
-7423 195 0
-7423 299 0
-91 -195 -299 7423 0
-7424 92 0
-7424 196 0
-7424 300 0
-92 -196 -300 7424 0
-7425 93 0
-7425 197 0
-7425 301 0
-93 -197 -301 7425 0
-7426 94 0
-7426 198 0
-7426 302 0
-94 -198 -302 7426 0
-7427 95 0
-7427 199 0
-7427 303 0
-95 -199 -303 7427 0
-7428 96 0
-7428 200 0
-7428 304 0
-96 -200 -304 7428 0
-7429 97 0
-7429 201 0
-7429 305 0
-97 -201 -305 7429 0
-7430 98 0
-7430 202 0
-7430 306 0
-98 -202 -306 7430 0
-7431 99 0
-7431 203 0
-7431 307 0
-99 -203 -307 7431 0
-7432 100 0
-7432 204 0
-7432 308 0
-100 -204 -308 7432 0
-7433 101 0
-7433 205 0
-7433 309 0
-101 -205 -309 7433 0
-7434 102 0
-7434 206 0
-7434 310 0
-102 -206 -310 7434 0
-7435 103 0
-7435 207 0
-7435 311 0
-103 -207 -311 7435 0
-7436 104 0
-7436 208 0
-7436 312 0
-104 -208 -312 7436 0
-7411 10097 0
-7412 10097 0
-7413 10097 0
-7414 10097 0
-7415 10097 0
-7416 10097 0
-7417 10097 0
-7418 10097 0
-7419 10097 0
-7420 10097 0
-7421 10097 0
-7422 10097 0
-7423 10097 0
-7424 10097 0
-7425 10097 0
-7426 10097 0
-7427 10097 0
-7428 10097 0
-7429 10097 0
-7430 10097 0
-7431 10097 0
-7432 10097 0
-7433 10097 0
-7434 10097 0
-7435 10097 0
-7436 10097 0
-10097 7411 7412 7413 7414 7415 7416 7417 7418 7419 7420 7421 7422 7423 7424 7425 7426 7427 7428 7429 7430 7431 7432 7433 7434 7435 7436 0
-7437 79 0
-7437 183 0
-7437 313 0
-79 -183 -313 7437 0
-7438 80 0
-7438 184 0
-7438 314 0
-80 -184 -314 7438 0
-7439 81 0
-7439 185 0
-7439 315 0
-81 -185 -315 7439 0
-7440 82 0
-7440 186 0
-7440 316 0
-82 -186 -316 7440 0
-7441 83 0
-7441 187 0
-7441 317 0
-83 -187 -317 7441 0
-7442 84 0
-7442 188 0
-7442 318 0
-84 -188 -318 7442 0
-7443 85 0
-7443 189 0
-7443 319 0
-85 -189 -319 7443 0
-7444 86 0
-7444 190 0
-7444 320 0
-86 -190 -320 7444 0
-7445 87 0
-7445 191 0
-7445 321 0
-87 -191 -321 7445 0
-7446 88 0
-7446 192 0
-7446 322 0
-88 -192 -322 7446 0
-7447 89 0
-7447 193 0
-7447 323 0
-89 -193 -323 7447 0
-7448 90 0
-7448 194 0
-7448 324 0
-90 -194 -324 7448 0
-7449 91 0
-7449 195 0
-7449 325 0
-91 -195 -325 7449 0
-7450 92 0
-7450 196 0
-7450 326 0
-92 -196 -326 7450 0
-7451 93 0
-7451 197 0
-7451 327 0
-93 -197 -327 7451 0
-7452 94 0
-7452 198 0
-7452 328 0
-94 -198 -328 7452 0
-7453 95 0
-7453 199 0
-7453 329 0
-95 -199 -329 7453 0
-7454 96 0
-7454 200 0
-7454 330 0
-96 -200 -330 7454 0
-7455 97 0
-7455 201 0
-7455 331 0
-97 -201 -331 7455 0
-7456 98 0
-7456 202 0
-7456 332 0
-98 -202 -332 7456 0
-7457 99 0
-7457 203 0
-7457 333 0
-99 -203 -333 7457 0
-7458 100 0
-7458 204 0
-7458 334 0
-100 -204 -334 7458 0
-7459 101 0
-7459 205 0
-7459 335 0
-101 -205 -335 7459 0
-7460 102 0
-7460 206 0
-7460 336 0
-102 -206 -336 7460 0
-7461 103 0
-7461 207 0
-7461 337 0
-103 -207 -337 7461 0
-7462 104 0
-7462 208 0
-7462 338 0
-104 -208 -338 7462 0
-7437 10098 0
-7438 10098 0
-7439 10098 0
-7440 10098 0
-7441 10098 0
-7442 10098 0
-7443 10098 0
-7444 10098 0
-7445 10098 0
-7446 10098 0
-7447 10098 0
-7448 10098 0
-7449 10098 0
-7450 10098 0
-7451 10098 0
-7452 10098 0
-7453 10098 0
-7454 10098 0
-7455 10098 0
-7456 10098 0
-7457 10098 0
-7458 10098 0
-7459 10098 0
-7460 10098 0
-7461 10098 0
-7462 10098 0
-10098 7437 7438 7439 7440 7441 7442 7443 7444 7445 7446 7447 7448 7449 7450 7451 7452 7453 7454 7455 7456 7457 7458 7459 7460 7461 7462 0
-7463 79 0
-7463 209 0
-7463 235 0
-79 -209 -235 7463 0
-7464 80 0
-7464 210 0
-7464 236 0
-80 -210 -236 7464 0
-7465 81 0
-7465 211 0
-7465 237 0
-81 -211 -237 7465 0
-7466 82 0
-7466 212 0
-7466 238 0
-82 -212 -238 7466 0
-7467 83 0
-7467 213 0
-7467 239 0
-83 -213 -239 7467 0
-7468 84 0
-7468 214 0
-7468 240 0
-84 -214 -240 7468 0
-7469 85 0
-7469 215 0
-7469 241 0
-85 -215 -241 7469 0
-7470 86 0
-7470 216 0
-7470 242 0
-86 -216 -242 7470 0
-7471 87 0
-7471 217 0
-7471 243 0
-87 -217 -243 7471 0
-7472 88 0
-7472 218 0
-7472 244 0
-88 -218 -244 7472 0
-7473 89 0
-7473 219 0
-7473 245 0
-89 -219 -245 7473 0
-7474 90 0
-7474 220 0
-7474 246 0
-90 -220 -246 7474 0
-7475 91 0
-7475 221 0
-7475 247 0
-91 -221 -247 7475 0
-7476 92 0
-7476 222 0
-7476 248 0
-92 -222 -248 7476 0
-7477 93 0
-7477 223 0
-7477 249 0
-93 -223 -249 7477 0
-7478 94 0
-7478 224 0
-7478 250 0
-94 -224 -250 7478 0
-7479 95 0
-7479 225 0
-7479 251 0
-95 -225 -251 7479 0
-7480 96 0
-7480 226 0
-7480 252 0
-96 -226 -252 7480 0
-7481 97 0
-7481 227 0
-7481 253 0
-97 -227 -253 7481 0
-7482 98 0
-7482 228 0
-7482 254 0
-98 -228 -254 7482 0
-7483 99 0
-7483 229 0
-7483 255 0
-99 -229 -255 7483 0
-7484 100 0
-7484 230 0
-7484 256 0
-100 -230 -256 7484 0
-7485 101 0
-7485 231 0
-7485 257 0
-101 -231 -257 7485 0
-7486 102 0
-7486 232 0
-7486 258 0
-102 -232 -258 7486 0
-7487 103 0
-7487 233 0
-7487 259 0
-103 -233 -259 7487 0
-7488 104 0
-7488 234 0
-7488 260 0
-104 -234 -260 7488 0
-7463 10099 0
-7464 10099 0
-7465 10099 0
-7466 10099 0
-7467 10099 0
-7468 10099 0
-7469 10099 0
-7470 10099 0
-7471 10099 0
-7472 10099 0
-7473 10099 0
-7474 10099 0
-7475 10099 0
-7476 10099 0
-7477 10099 0
-7478 10099 0
-7479 10099 0
-7480 10099 0
-7481 10099 0
-7482 10099 0
-7483 10099 0
-7484 10099 0
-7485 10099 0
-7486 10099 0
-7487 10099 0
-7488 10099 0
-10099 7463 7464 7465 7466 7467 7468 7469 7470 7471 7472 7473 7474 7475 7476 7477 7478 7479 7480 7481 7482 7483 7484 7485 7486 7487 7488 0
-7489 79 0
-7489 209 0
-7489 261 0
-79 -209 -261 7489 0
-7490 80 0
-7490 210 0
-7490 262 0
-80 -210 -262 7490 0
-7491 81 0
-7491 211 0
-7491 263 0
-81 -211 -263 7491 0
-7492 82 0
-7492 212 0
-7492 264 0
-82 -212 -264 7492 0
-7493 83 0
-7493 213 0
-7493 265 0
-83 -213 -265 7493 0
-7494 84 0
-7494 214 0
-7494 266 0
-84 -214 -266 7494 0
-7495 85 0
-7495 215 0
-7495 267 0
-85 -215 -267 7495 0
-7496 86 0
-7496 216 0
-7496 268 0
-86 -216 -268 7496 0
-7497 87 0
-7497 217 0
-7497 269 0
-87 -217 -269 7497 0
-7498 88 0
-7498 218 0
-7498 270 0
-88 -218 -270 7498 0
-7499 89 0
-7499 219 0
-7499 271 0
-89 -219 -271 7499 0
-7500 90 0
-7500 220 0
-7500 272 0
-90 -220 -272 7500 0
-7501 91 0
-7501 221 0
-7501 273 0
-91 -221 -273 7501 0
-7502 92 0
-7502 222 0
-7502 274 0
-92 -222 -274 7502 0
-7503 93 0
-7503 223 0
-7503 275 0
-93 -223 -275 7503 0
-7504 94 0
-7504 224 0
-7504 276 0
-94 -224 -276 7504 0
-7505 95 0
-7505 225 0
-7505 277 0
-95 -225 -277 7505 0
-7506 96 0
-7506 226 0
-7506 278 0
-96 -226 -278 7506 0
-7507 97 0
-7507 227 0
-7507 279 0
-97 -227 -279 7507 0
-7508 98 0
-7508 228 0
-7508 280 0
-98 -228 -280 7508 0
-7509 99 0
-7509 229 0
-7509 281 0
-99 -229 -281 7509 0
-7510 100 0
-7510 230 0
-7510 282 0
-100 -230 -282 7510 0
-7511 101 0
-7511 231 0
-7511 283 0
-101 -231 -283 7511 0
-7512 102 0
-7512 232 0
-7512 284 0
-102 -232 -284 7512 0
-7513 103 0
-7513 233 0
-7513 285 0
-103 -233 -285 7513 0
-7514 104 0
-7514 234 0
-7514 286 0
-104 -234 -286 7514 0
-7489 10100 0
-7490 10100 0
-7491 10100 0
-7492 10100 0
-7493 10100 0
-7494 10100 0
-7495 10100 0
-7496 10100 0
-7497 10100 0
-7498 10100 0
-7499 10100 0
-7500 10100 0
-7501 10100 0
-7502 10100 0
-7503 10100 0
-7504 10100 0
-7505 10100 0
-7506 10100 0
-7507 10100 0
-7508 10100 0
-7509 10100 0
-7510 10100 0
-7511 10100 0
-7512 10100 0
-7513 10100 0
-7514 10100 0
-10100 7489 7490 7491 7492 7493 7494 7495 7496 7497 7498 7499 7500 7501 7502 7503 7504 7505 7506 7507 7508 7509 7510 7511 7512 7513 7514 0
-7515 79 0
-7515 209 0
-7515 287 0
-79 -209 -287 7515 0
-7516 80 0
-7516 210 0
-7516 288 0
-80 -210 -288 7516 0
-7517 81 0
-7517 211 0
-7517 289 0
-81 -211 -289 7517 0
-7518 82 0
-7518 212 0
-7518 290 0
-82 -212 -290 7518 0
-7519 83 0
-7519 213 0
-7519 291 0
-83 -213 -291 7519 0
-7520 84 0
-7520 214 0
-7520 292 0
-84 -214 -292 7520 0
-7521 85 0
-7521 215 0
-7521 293 0
-85 -215 -293 7521 0
-7522 86 0
-7522 216 0
-7522 294 0
-86 -216 -294 7522 0
-7523 87 0
-7523 217 0
-7523 295 0
-87 -217 -295 7523 0
-7524 88 0
-7524 218 0
-7524 296 0
-88 -218 -296 7524 0
-7525 89 0
-7525 219 0
-7525 297 0
-89 -219 -297 7525 0
-7526 90 0
-7526 220 0
-7526 298 0
-90 -220 -298 7526 0
-7527 91 0
-7527 221 0
-7527 299 0
-91 -221 -299 7527 0
-7528 92 0
-7528 222 0
-7528 300 0
-92 -222 -300 7528 0
-7529 93 0
-7529 223 0
-7529 301 0
-93 -223 -301 7529 0
-7530 94 0
-7530 224 0
-7530 302 0
-94 -224 -302 7530 0
-7531 95 0
-7531 225 0
-7531 303 0
-95 -225 -303 7531 0
-7532 96 0
-7532 226 0
-7532 304 0
-96 -226 -304 7532 0
-7533 97 0
-7533 227 0
-7533 305 0
-97 -227 -305 7533 0
-7534 98 0
-7534 228 0
-7534 306 0
-98 -228 -306 7534 0
-7535 99 0
-7535 229 0
-7535 307 0
-99 -229 -307 7535 0
-7536 100 0
-7536 230 0
-7536 308 0
-100 -230 -308 7536 0
-7537 101 0
-7537 231 0
-7537 309 0
-101 -231 -309 7537 0
-7538 102 0
-7538 232 0
-7538 310 0
-102 -232 -310 7538 0
-7539 103 0
-7539 233 0
-7539 311 0
-103 -233 -311 7539 0
-7540 104 0
-7540 234 0
-7540 312 0
-104 -234 -312 7540 0
-7515 10101 0
-7516 10101 0
-7517 10101 0
-7518 10101 0
-7519 10101 0
-7520 10101 0
-7521 10101 0
-7522 10101 0
-7523 10101 0
-7524 10101 0
-7525 10101 0
-7526 10101 0
-7527 10101 0
-7528 10101 0
-7529 10101 0
-7530 10101 0
-7531 10101 0
-7532 10101 0
-7533 10101 0
-7534 10101 0
-7535 10101 0
-7536 10101 0
-7537 10101 0
-7538 10101 0
-7539 10101 0
-7540 10101 0
-10101 7515 7516 7517 7518 7519 7520 7521 7522 7523 7524 7525 7526 7527 7528 7529 7530 7531 7532 7533 7534 7535 7536 7537 7538 7539 7540 0
-7541 79 0
-7541 209 0
-7541 313 0
-79 -209 -313 7541 0
-7542 80 0
-7542 210 0
-7542 314 0
-80 -210 -314 7542 0
-7543 81 0
-7543 211 0
-7543 315 0
-81 -211 -315 7543 0
-7544 82 0
-7544 212 0
-7544 316 0
-82 -212 -316 7544 0
-7545 83 0
-7545 213 0
-7545 317 0
-83 -213 -317 7545 0
-7546 84 0
-7546 214 0
-7546 318 0
-84 -214 -318 7546 0
-7547 85 0
-7547 215 0
-7547 319 0
-85 -215 -319 7547 0
-7548 86 0
-7548 216 0
-7548 320 0
-86 -216 -320 7548 0
-7549 87 0
-7549 217 0
-7549 321 0
-87 -217 -321 7549 0
-7550 88 0
-7550 218 0
-7550 322 0
-88 -218 -322 7550 0
-7551 89 0
-7551 219 0
-7551 323 0
-89 -219 -323 7551 0
-7552 90 0
-7552 220 0
-7552 324 0
-90 -220 -324 7552 0
-7553 91 0
-7553 221 0
-7553 325 0
-91 -221 -325 7553 0
-7554 92 0
-7554 222 0
-7554 326 0
-92 -222 -326 7554 0
-7555 93 0
-7555 223 0
-7555 327 0
-93 -223 -327 7555 0
-7556 94 0
-7556 224 0
-7556 328 0
-94 -224 -328 7556 0
-7557 95 0
-7557 225 0
-7557 329 0
-95 -225 -329 7557 0
-7558 96 0
-7558 226 0
-7558 330 0
-96 -226 -330 7558 0
-7559 97 0
-7559 227 0
-7559 331 0
-97 -227 -331 7559 0
-7560 98 0
-7560 228 0
-7560 332 0
-98 -228 -332 7560 0
-7561 99 0
-7561 229 0
-7561 333 0
-99 -229 -333 7561 0
-7562 100 0
-7562 230 0
-7562 334 0
-100 -230 -334 7562 0
-7563 101 0
-7563 231 0
-7563 335 0
-101 -231 -335 7563 0
-7564 102 0
-7564 232 0
-7564 336 0
-102 -232 -336 7564 0
-7565 103 0
-7565 233 0
-7565 337 0
-103 -233 -337 7565 0
-7566 104 0
-7566 234 0
-7566 338 0
-104 -234 -338 7566 0
-7541 10102 0
-7542 10102 0
-7543 10102 0
-7544 10102 0
-7545 10102 0
-7546 10102 0
-7547 10102 0
-7548 10102 0
-7549 10102 0
-7550 10102 0
-7551 10102 0
-7552 10102 0
-7553 10102 0
-7554 10102 0
-7555 10102 0
-7556 10102 0
-7557 10102 0
-7558 10102 0
-7559 10102 0
-7560 10102 0
-7561 10102 0
-7562 10102 0
-7563 10102 0
-7564 10102 0
-7565 10102 0
-7566 10102 0
-10102 7541 7542 7543 7544 7545 7546 7547 7548 7549 7550 7551 7552 7553 7554 7555 7556 7557 7558 7559 7560 7561 7562 7563 7564 7565 7566 0
-7567 79 0
-7567 235 0
-7567 261 0
-79 -235 -261 7567 0
-7568 80 0
-7568 236 0
-7568 262 0
-80 -236 -262 7568 0
-7569 81 0
-7569 237 0
-7569 263 0
-81 -237 -263 7569 0
-7570 82 0
-7570 238 0
-7570 264 0
-82 -238 -264 7570 0
-7571 83 0
-7571 239 0
-7571 265 0
-83 -239 -265 7571 0
-7572 84 0
-7572 240 0
-7572 266 0
-84 -240 -266 7572 0
-7573 85 0
-7573 241 0
-7573 267 0
-85 -241 -267 7573 0
-7574 86 0
-7574 242 0
-7574 268 0
-86 -242 -268 7574 0
-7575 87 0
-7575 243 0
-7575 269 0
-87 -243 -269 7575 0
-7576 88 0
-7576 244 0
-7576 270 0
-88 -244 -270 7576 0
-7577 89 0
-7577 245 0
-7577 271 0
-89 -245 -271 7577 0
-7578 90 0
-7578 246 0
-7578 272 0
-90 -246 -272 7578 0
-7579 91 0
-7579 247 0
-7579 273 0
-91 -247 -273 7579 0
-7580 92 0
-7580 248 0
-7580 274 0
-92 -248 -274 7580 0
-7581 93 0
-7581 249 0
-7581 275 0
-93 -249 -275 7581 0
-7582 94 0
-7582 250 0
-7582 276 0
-94 -250 -276 7582 0
-7583 95 0
-7583 251 0
-7583 277 0
-95 -251 -277 7583 0
-7584 96 0
-7584 252 0
-7584 278 0
-96 -252 -278 7584 0
-7585 97 0
-7585 253 0
-7585 279 0
-97 -253 -279 7585 0
-7586 98 0
-7586 254 0
-7586 280 0
-98 -254 -280 7586 0
-7587 99 0
-7587 255 0
-7587 281 0
-99 -255 -281 7587 0
-7588 100 0
-7588 256 0
-7588 282 0
-100 -256 -282 7588 0
-7589 101 0
-7589 257 0
-7589 283 0
-101 -257 -283 7589 0
-7590 102 0
-7590 258 0
-7590 284 0
-102 -258 -284 7590 0
-7591 103 0
-7591 259 0
-7591 285 0
-103 -259 -285 7591 0
-7592 104 0
-7592 260 0
-7592 286 0
-104 -260 -286 7592 0
-7567 10103 0
-7568 10103 0
-7569 10103 0
-7570 10103 0
-7571 10103 0
-7572 10103 0
-7573 10103 0
-7574 10103 0
-7575 10103 0
-7576 10103 0
-7577 10103 0
-7578 10103 0
-7579 10103 0
-7580 10103 0
-7581 10103 0
-7582 10103 0
-7583 10103 0
-7584 10103 0
-7585 10103 0
-7586 10103 0
-7587 10103 0
-7588 10103 0
-7589 10103 0
-7590 10103 0
-7591 10103 0
-7592 10103 0
-10103 7567 7568 7569 7570 7571 7572 7573 7574 7575 7576 7577 7578 7579 7580 7581 7582 7583 7584 7585 7586 7587 7588 7589 7590 7591 7592 0
-7593 79 0
-7593 235 0
-7593 287 0
-79 -235 -287 7593 0
-7594 80 0
-7594 236 0
-7594 288 0
-80 -236 -288 7594 0
-7595 81 0
-7595 237 0
-7595 289 0
-81 -237 -289 7595 0
-7596 82 0
-7596 238 0
-7596 290 0
-82 -238 -290 7596 0
-7597 83 0
-7597 239 0
-7597 291 0
-83 -239 -291 7597 0
-7598 84 0
-7598 240 0
-7598 292 0
-84 -240 -292 7598 0
-7599 85 0
-7599 241 0
-7599 293 0
-85 -241 -293 7599 0
-7600 86 0
-7600 242 0
-7600 294 0
-86 -242 -294 7600 0
-7601 87 0
-7601 243 0
-7601 295 0
-87 -243 -295 7601 0
-7602 88 0
-7602 244 0
-7602 296 0
-88 -244 -296 7602 0
-7603 89 0
-7603 245 0
-7603 297 0
-89 -245 -297 7603 0
-7604 90 0
-7604 246 0
-7604 298 0
-90 -246 -298 7604 0
-7605 91 0
-7605 247 0
-7605 299 0
-91 -247 -299 7605 0
-7606 92 0
-7606 248 0
-7606 300 0
-92 -248 -300 7606 0
-7607 93 0
-7607 249 0
-7607 301 0
-93 -249 -301 7607 0
-7608 94 0
-7608 250 0
-7608 302 0
-94 -250 -302 7608 0
-7609 95 0
-7609 251 0
-7609 303 0
-95 -251 -303 7609 0
-7610 96 0
-7610 252 0
-7610 304 0
-96 -252 -304 7610 0
-7611 97 0
-7611 253 0
-7611 305 0
-97 -253 -305 7611 0
-7612 98 0
-7612 254 0
-7612 306 0
-98 -254 -306 7612 0
-7613 99 0
-7613 255 0
-7613 307 0
-99 -255 -307 7613 0
-7614 100 0
-7614 256 0
-7614 308 0
-100 -256 -308 7614 0
-7615 101 0
-7615 257 0
-7615 309 0
-101 -257 -309 7615 0
-7616 102 0
-7616 258 0
-7616 310 0
-102 -258 -310 7616 0
-7617 103 0
-7617 259 0
-7617 311 0
-103 -259 -311 7617 0
-7618 104 0
-7618 260 0
-7618 312 0
-104 -260 -312 7618 0
-7593 10104 0
-7594 10104 0
-7595 10104 0
-7596 10104 0
-7597 10104 0
-7598 10104 0
-7599 10104 0
-7600 10104 0
-7601 10104 0
-7602 10104 0
-7603 10104 0
-7604 10104 0
-7605 10104 0
-7606 10104 0
-7607 10104 0
-7608 10104 0
-7609 10104 0
-7610 10104 0
-7611 10104 0
-7612 10104 0
-7613 10104 0
-7614 10104 0
-7615 10104 0
-7616 10104 0
-7617 10104 0
-7618 10104 0
-10104 7593 7594 7595 7596 7597 7598 7599 7600 7601 7602 7603 7604 7605 7606 7607 7608 7609 7610 7611 7612 7613 7614 7615 7616 7617 7618 0
-7619 79 0
-7619 235 0
-7619 313 0
-79 -235 -313 7619 0
-7620 80 0
-7620 236 0
-7620 314 0
-80 -236 -314 7620 0
-7621 81 0
-7621 237 0
-7621 315 0
-81 -237 -315 7621 0
-7622 82 0
-7622 238 0
-7622 316 0
-82 -238 -316 7622 0
-7623 83 0
-7623 239 0
-7623 317 0
-83 -239 -317 7623 0
-7624 84 0
-7624 240 0
-7624 318 0
-84 -240 -318 7624 0
-7625 85 0
-7625 241 0
-7625 319 0
-85 -241 -319 7625 0
-7626 86 0
-7626 242 0
-7626 320 0
-86 -242 -320 7626 0
-7627 87 0
-7627 243 0
-7627 321 0
-87 -243 -321 7627 0
-7628 88 0
-7628 244 0
-7628 322 0
-88 -244 -322 7628 0
-7629 89 0
-7629 245 0
-7629 323 0
-89 -245 -323 7629 0
-7630 90 0
-7630 246 0
-7630 324 0
-90 -246 -324 7630 0
-7631 91 0
-7631 247 0
-7631 325 0
-91 -247 -325 7631 0
-7632 92 0
-7632 248 0
-7632 326 0
-92 -248 -326 7632 0
-7633 93 0
-7633 249 0
-7633 327 0
-93 -249 -327 7633 0
-7634 94 0
-7634 250 0
-7634 328 0
-94 -250 -328 7634 0
-7635 95 0
-7635 251 0
-7635 329 0
-95 -251 -329 7635 0
-7636 96 0
-7636 252 0
-7636 330 0
-96 -252 -330 7636 0
-7637 97 0
-7637 253 0
-7637 331 0
-97 -253 -331 7637 0
-7638 98 0
-7638 254 0
-7638 332 0
-98 -254 -332 7638 0
-7639 99 0
-7639 255 0
-7639 333 0
-99 -255 -333 7639 0
-7640 100 0
-7640 256 0
-7640 334 0
-100 -256 -334 7640 0
-7641 101 0
-7641 257 0
-7641 335 0
-101 -257 -335 7641 0
-7642 102 0
-7642 258 0
-7642 336 0
-102 -258 -336 7642 0
-7643 103 0
-7643 259 0
-7643 337 0
-103 -259 -337 7643 0
-7644 104 0
-7644 260 0
-7644 338 0
-104 -260 -338 7644 0
-7619 10105 0
-7620 10105 0
-7621 10105 0
-7622 10105 0
-7623 10105 0
-7624 10105 0
-7625 10105 0
-7626 10105 0
-7627 10105 0
-7628 10105 0
-7629 10105 0
-7630 10105 0
-7631 10105 0
-7632 10105 0
-7633 10105 0
-7634 10105 0
-7635 10105 0
-7636 10105 0
-7637 10105 0
-7638 10105 0
-7639 10105 0
-7640 10105 0
-7641 10105 0
-7642 10105 0
-7643 10105 0
-7644 10105 0
-10105 7619 7620 7621 7622 7623 7624 7625 7626 7627 7628 7629 7630 7631 7632 7633 7634 7635 7636 7637 7638 7639 7640 7641 7642 7643 7644 0
-7645 79 0
-7645 261 0
-7645 287 0
-79 -261 -287 7645 0
-7646 80 0
-7646 262 0
-7646 288 0
-80 -262 -288 7646 0
-7647 81 0
-7647 263 0
-7647 289 0
-81 -263 -289 7647 0
-7648 82 0
-7648 264 0
-7648 290 0
-82 -264 -290 7648 0
-7649 83 0
-7649 265 0
-7649 291 0
-83 -265 -291 7649 0
-7650 84 0
-7650 266 0
-7650 292 0
-84 -266 -292 7650 0
-7651 85 0
-7651 267 0
-7651 293 0
-85 -267 -293 7651 0
-7652 86 0
-7652 268 0
-7652 294 0
-86 -268 -294 7652 0
-7653 87 0
-7653 269 0
-7653 295 0
-87 -269 -295 7653 0
-7654 88 0
-7654 270 0
-7654 296 0
-88 -270 -296 7654 0
-7655 89 0
-7655 271 0
-7655 297 0
-89 -271 -297 7655 0
-7656 90 0
-7656 272 0
-7656 298 0
-90 -272 -298 7656 0
-7657 91 0
-7657 273 0
-7657 299 0
-91 -273 -299 7657 0
-7658 92 0
-7658 274 0
-7658 300 0
-92 -274 -300 7658 0
-7659 93 0
-7659 275 0
-7659 301 0
-93 -275 -301 7659 0
-7660 94 0
-7660 276 0
-7660 302 0
-94 -276 -302 7660 0
-7661 95 0
-7661 277 0
-7661 303 0
-95 -277 -303 7661 0
-7662 96 0
-7662 278 0
-7662 304 0
-96 -278 -304 7662 0
-7663 97 0
-7663 279 0
-7663 305 0
-97 -279 -305 7663 0
-7664 98 0
-7664 280 0
-7664 306 0
-98 -280 -306 7664 0
-7665 99 0
-7665 281 0
-7665 307 0
-99 -281 -307 7665 0
-7666 100 0
-7666 282 0
-7666 308 0
-100 -282 -308 7666 0
-7667 101 0
-7667 283 0
-7667 309 0
-101 -283 -309 7667 0
-7668 102 0
-7668 284 0
-7668 310 0
-102 -284 -310 7668 0
-7669 103 0
-7669 285 0
-7669 311 0
-103 -285 -311 7669 0
-7670 104 0
-7670 286 0
-7670 312 0
-104 -286 -312 7670 0
-7645 10106 0
-7646 10106 0
-7647 10106 0
-7648 10106 0
-7649 10106 0
-7650 10106 0
-7651 10106 0
-7652 10106 0
-7653 10106 0
-7654 10106 0
-7655 10106 0
-7656 10106 0
-7657 10106 0
-7658 10106 0
-7659 10106 0
-7660 10106 0
-7661 10106 0
-7662 10106 0
-7663 10106 0
-7664 10106 0
-7665 10106 0
-7666 10106 0
-7667 10106 0
-7668 10106 0
-7669 10106 0
-7670 10106 0
-10106 7645 7646 7647 7648 7649 7650 7651 7652 7653 7654 7655 7656 7657 7658 7659 7660 7661 7662 7663 7664 7665 7666 7667 7668 7669 7670 0
-7671 79 0
-7671 261 0
-7671 313 0
-79 -261 -313 7671 0
-7672 80 0
-7672 262 0
-7672 314 0
-80 -262 -314 7672 0
-7673 81 0
-7673 263 0
-7673 315 0
-81 -263 -315 7673 0
-7674 82 0
-7674 264 0
-7674 316 0
-82 -264 -316 7674 0
-7675 83 0
-7675 265 0
-7675 317 0
-83 -265 -317 7675 0
-7676 84 0
-7676 266 0
-7676 318 0
-84 -266 -318 7676 0
-7677 85 0
-7677 267 0
-7677 319 0
-85 -267 -319 7677 0
-7678 86 0
-7678 268 0
-7678 320 0
-86 -268 -320 7678 0
-7679 87 0
-7679 269 0
-7679 321 0
-87 -269 -321 7679 0
-7680 88 0
-7680 270 0
-7680 322 0
-88 -270 -322 7680 0
-7681 89 0
-7681 271 0
-7681 323 0
-89 -271 -323 7681 0
-7682 90 0
-7682 272 0
-7682 324 0
-90 -272 -324 7682 0
-7683 91 0
-7683 273 0
-7683 325 0
-91 -273 -325 7683 0
-7684 92 0
-7684 274 0
-7684 326 0
-92 -274 -326 7684 0
-7685 93 0
-7685 275 0
-7685 327 0
-93 -275 -327 7685 0
-7686 94 0
-7686 276 0
-7686 328 0
-94 -276 -328 7686 0
-7687 95 0
-7687 277 0
-7687 329 0
-95 -277 -329 7687 0
-7688 96 0
-7688 278 0
-7688 330 0
-96 -278 -330 7688 0
-7689 97 0
-7689 279 0
-7689 331 0
-97 -279 -331 7689 0
-7690 98 0
-7690 280 0
-7690 332 0
-98 -280 -332 7690 0
-7691 99 0
-7691 281 0
-7691 333 0
-99 -281 -333 7691 0
-7692 100 0
-7692 282 0
-7692 334 0
-100 -282 -334 7692 0
-7693 101 0
-7693 283 0
-7693 335 0
-101 -283 -335 7693 0
-7694 102 0
-7694 284 0
-7694 336 0
-102 -284 -336 7694 0
-7695 103 0
-7695 285 0
-7695 337 0
-103 -285 -337 7695 0
-7696 104 0
-7696 286 0
-7696 338 0
-104 -286 -338 7696 0
-7671 10107 0
-7672 10107 0
-7673 10107 0
-7674 10107 0
-7675 10107 0
-7676 10107 0
-7677 10107 0
-7678 10107 0
-7679 10107 0
-7680 10107 0
-7681 10107 0
-7682 10107 0
-7683 10107 0
-7684 10107 0
-7685 10107 0
-7686 10107 0
-7687 10107 0
-7688 10107 0
-7689 10107 0
-7690 10107 0
-7691 10107 0
-7692 10107 0
-7693 10107 0
-7694 10107 0
-7695 10107 0
-7696 10107 0
-10107 7671 7672 7673 7674 7675 7676 7677 7678 7679 7680 7681 7682 7683 7684 7685 7686 7687 7688 7689 7690 7691 7692 7693 7694 7695 7696 0
-7697 79 0
-7697 287 0
-7697 313 0
-79 -287 -313 7697 0
-7698 80 0
-7698 288 0
-7698 314 0
-80 -288 -314 7698 0
-7699 81 0
-7699 289 0
-7699 315 0
-81 -289 -315 7699 0
-7700 82 0
-7700 290 0
-7700 316 0
-82 -290 -316 7700 0
-7701 83 0
-7701 291 0
-7701 317 0
-83 -291 -317 7701 0
-7702 84 0
-7702 292 0
-7702 318 0
-84 -292 -318 7702 0
-7703 85 0
-7703 293 0
-7703 319 0
-85 -293 -319 7703 0
-7704 86 0
-7704 294 0
-7704 320 0
-86 -294 -320 7704 0
-7705 87 0
-7705 295 0
-7705 321 0
-87 -295 -321 7705 0
-7706 88 0
-7706 296 0
-7706 322 0
-88 -296 -322 7706 0
-7707 89 0
-7707 297 0
-7707 323 0
-89 -297 -323 7707 0
-7708 90 0
-7708 298 0
-7708 324 0
-90 -298 -324 7708 0
-7709 91 0
-7709 299 0
-7709 325 0
-91 -299 -325 7709 0
-7710 92 0
-7710 300 0
-7710 326 0
-92 -300 -326 7710 0
-7711 93 0
-7711 301 0
-7711 327 0
-93 -301 -327 7711 0
-7712 94 0
-7712 302 0
-7712 328 0
-94 -302 -328 7712 0
-7713 95 0
-7713 303 0
-7713 329 0
-95 -303 -329 7713 0
-7714 96 0
-7714 304 0
-7714 330 0
-96 -304 -330 7714 0
-7715 97 0
-7715 305 0
-7715 331 0
-97 -305 -331 7715 0
-7716 98 0
-7716 306 0
-7716 332 0
-98 -306 -332 7716 0
-7717 99 0
-7717 307 0
-7717 333 0
-99 -307 -333 7717 0
-7718 100 0
-7718 308 0
-7718 334 0
-100 -308 -334 7718 0
-7719 101 0
-7719 309 0
-7719 335 0
-101 -309 -335 7719 0
-7720 102 0
-7720 310 0
-7720 336 0
-102 -310 -336 7720 0
-7721 103 0
-7721 311 0
-7721 337 0
-103 -311 -337 7721 0
-7722 104 0
-7722 312 0
-7722 338 0
-104 -312 -338 7722 0
-7697 10108 0
-7698 10108 0
-7699 10108 0
-7700 10108 0
-7701 10108 0
-7702 10108 0
-7703 10108 0
-7704 10108 0
-7705 10108 0
-7706 10108 0
-7707 10108 0
-7708 10108 0
-7709 10108 0
-7710 10108 0
-7711 10108 0
-7712 10108 0
-7713 10108 0
-7714 10108 0
-7715 10108 0
-7716 10108 0
-7717 10108 0
-7718 10108 0
-7719 10108 0
-7720 10108 0
-7721 10108 0
-7722 10108 0
-10108 7697 7698 7699 7700 7701 7702 7703 7704 7705 7706 7707 7708 7709 7710 7711 7712 7713 7714 7715 7716 7717 7718 7719 7720 7721 7722 0
-7723 105 0
-7723 131 0
-7723 157 0
-105 -131 -157 7723 0
-7724 106 0
-7724 132 0
-7724 158 0
-106 -132 -158 7724 0
-7725 107 0
-7725 133 0
-7725 159 0
-107 -133 -159 7725 0
-7726 108 0
-7726 134 0
-7726 160 0
-108 -134 -160 7726 0
-7727 109 0
-7727 135 0
-7727 161 0
-109 -135 -161 7727 0
-7728 110 0
-7728 136 0
-7728 162 0
-110 -136 -162 7728 0
-7729 111 0
-7729 137 0
-7729 163 0
-111 -137 -163 7729 0
-7730 112 0
-7730 138 0
-7730 164 0
-112 -138 -164 7730 0
-7731 113 0
-7731 139 0
-7731 165 0
-113 -139 -165 7731 0
-7732 114 0
-7732 140 0
-7732 166 0
-114 -140 -166 7732 0
-7733 115 0
-7733 141 0
-7733 167 0
-115 -141 -167 7733 0
-7734 116 0
-7734 142 0
-7734 168 0
-116 -142 -168 7734 0
-7735 117 0
-7735 143 0
-7735 169 0
-117 -143 -169 7735 0
-7736 118 0
-7736 144 0
-7736 170 0
-118 -144 -170 7736 0
-7737 119 0
-7737 145 0
-7737 171 0
-119 -145 -171 7737 0
-7738 120 0
-7738 146 0
-7738 172 0
-120 -146 -172 7738 0
-7739 121 0
-7739 147 0
-7739 173 0
-121 -147 -173 7739 0
-7740 122 0
-7740 148 0
-7740 174 0
-122 -148 -174 7740 0
-7741 123 0
-7741 149 0
-7741 175 0
-123 -149 -175 7741 0
-7742 124 0
-7742 150 0
-7742 176 0
-124 -150 -176 7742 0
-7743 125 0
-7743 151 0
-7743 177 0
-125 -151 -177 7743 0
-7744 126 0
-7744 152 0
-7744 178 0
-126 -152 -178 7744 0
-7745 127 0
-7745 153 0
-7745 179 0
-127 -153 -179 7745 0
-7746 128 0
-7746 154 0
-7746 180 0
-128 -154 -180 7746 0
-7747 129 0
-7747 155 0
-7747 181 0
-129 -155 -181 7747 0
-7748 130 0
-7748 156 0
-7748 182 0
-130 -156 -182 7748 0
-7723 10109 0
-7724 10109 0
-7725 10109 0
-7726 10109 0
-7727 10109 0
-7728 10109 0
-7729 10109 0
-7730 10109 0
-7731 10109 0
-7732 10109 0
-7733 10109 0
-7734 10109 0
-7735 10109 0
-7736 10109 0
-7737 10109 0
-7738 10109 0
-7739 10109 0
-7740 10109 0
-7741 10109 0
-7742 10109 0
-7743 10109 0
-7744 10109 0
-7745 10109 0
-7746 10109 0
-7747 10109 0
-7748 10109 0
-10109 7723 7724 7725 7726 7727 7728 7729 7730 7731 7732 7733 7734 7735 7736 7737 7738 7739 7740 7741 7742 7743 7744 7745 7746 7747 7748 0
-7749 105 0
-7749 131 0
-7749 183 0
-105 -131 -183 7749 0
-7750 106 0
-7750 132 0
-7750 184 0
-106 -132 -184 7750 0
-7751 107 0
-7751 133 0
-7751 185 0
-107 -133 -185 7751 0
-7752 108 0
-7752 134 0
-7752 186 0
-108 -134 -186 7752 0
-7753 109 0
-7753 135 0
-7753 187 0
-109 -135 -187 7753 0
-7754 110 0
-7754 136 0
-7754 188 0
-110 -136 -188 7754 0
-7755 111 0
-7755 137 0
-7755 189 0
-111 -137 -189 7755 0
-7756 112 0
-7756 138 0
-7756 190 0
-112 -138 -190 7756 0
-7757 113 0
-7757 139 0
-7757 191 0
-113 -139 -191 7757 0
-7758 114 0
-7758 140 0
-7758 192 0
-114 -140 -192 7758 0
-7759 115 0
-7759 141 0
-7759 193 0
-115 -141 -193 7759 0
-7760 116 0
-7760 142 0
-7760 194 0
-116 -142 -194 7760 0
-7761 117 0
-7761 143 0
-7761 195 0
-117 -143 -195 7761 0
-7762 118 0
-7762 144 0
-7762 196 0
-118 -144 -196 7762 0
-7763 119 0
-7763 145 0
-7763 197 0
-119 -145 -197 7763 0
-7764 120 0
-7764 146 0
-7764 198 0
-120 -146 -198 7764 0
-7765 121 0
-7765 147 0
-7765 199 0
-121 -147 -199 7765 0
-7766 122 0
-7766 148 0
-7766 200 0
-122 -148 -200 7766 0
-7767 123 0
-7767 149 0
-7767 201 0
-123 -149 -201 7767 0
-7768 124 0
-7768 150 0
-7768 202 0
-124 -150 -202 7768 0
-7769 125 0
-7769 151 0
-7769 203 0
-125 -151 -203 7769 0
-7770 126 0
-7770 152 0
-7770 204 0
-126 -152 -204 7770 0
-7771 127 0
-7771 153 0
-7771 205 0
-127 -153 -205 7771 0
-7772 128 0
-7772 154 0
-7772 206 0
-128 -154 -206 7772 0
-7773 129 0
-7773 155 0
-7773 207 0
-129 -155 -207 7773 0
-7774 130 0
-7774 156 0
-7774 208 0
-130 -156 -208 7774 0
-7749 10110 0
-7750 10110 0
-7751 10110 0
-7752 10110 0
-7753 10110 0
-7754 10110 0
-7755 10110 0
-7756 10110 0
-7757 10110 0
-7758 10110 0
-7759 10110 0
-7760 10110 0
-7761 10110 0
-7762 10110 0
-7763 10110 0
-7764 10110 0
-7765 10110 0
-7766 10110 0
-7767 10110 0
-7768 10110 0
-7769 10110 0
-7770 10110 0
-7771 10110 0
-7772 10110 0
-7773 10110 0
-7774 10110 0
-10110 7749 7750 7751 7752 7753 7754 7755 7756 7757 7758 7759 7760 7761 7762 7763 7764 7765 7766 7767 7768 7769 7770 7771 7772 7773 7774 0
-7775 105 0
-7775 131 0
-7775 209 0
-105 -131 -209 7775 0
-7776 106 0
-7776 132 0
-7776 210 0
-106 -132 -210 7776 0
-7777 107 0
-7777 133 0
-7777 211 0
-107 -133 -211 7777 0
-7778 108 0
-7778 134 0
-7778 212 0
-108 -134 -212 7778 0
-7779 109 0
-7779 135 0
-7779 213 0
-109 -135 -213 7779 0
-7780 110 0
-7780 136 0
-7780 214 0
-110 -136 -214 7780 0
-7781 111 0
-7781 137 0
-7781 215 0
-111 -137 -215 7781 0
-7782 112 0
-7782 138 0
-7782 216 0
-112 -138 -216 7782 0
-7783 113 0
-7783 139 0
-7783 217 0
-113 -139 -217 7783 0
-7784 114 0
-7784 140 0
-7784 218 0
-114 -140 -218 7784 0
-7785 115 0
-7785 141 0
-7785 219 0
-115 -141 -219 7785 0
-7786 116 0
-7786 142 0
-7786 220 0
-116 -142 -220 7786 0
-7787 117 0
-7787 143 0
-7787 221 0
-117 -143 -221 7787 0
-7788 118 0
-7788 144 0
-7788 222 0
-118 -144 -222 7788 0
-7789 119 0
-7789 145 0
-7789 223 0
-119 -145 -223 7789 0
-7790 120 0
-7790 146 0
-7790 224 0
-120 -146 -224 7790 0
-7791 121 0
-7791 147 0
-7791 225 0
-121 -147 -225 7791 0
-7792 122 0
-7792 148 0
-7792 226 0
-122 -148 -226 7792 0
-7793 123 0
-7793 149 0
-7793 227 0
-123 -149 -227 7793 0
-7794 124 0
-7794 150 0
-7794 228 0
-124 -150 -228 7794 0
-7795 125 0
-7795 151 0
-7795 229 0
-125 -151 -229 7795 0
-7796 126 0
-7796 152 0
-7796 230 0
-126 -152 -230 7796 0
-7797 127 0
-7797 153 0
-7797 231 0
-127 -153 -231 7797 0
-7798 128 0
-7798 154 0
-7798 232 0
-128 -154 -232 7798 0
-7799 129 0
-7799 155 0
-7799 233 0
-129 -155 -233 7799 0
-7800 130 0
-7800 156 0
-7800 234 0
-130 -156 -234 7800 0
-7775 10111 0
-7776 10111 0
-7777 10111 0
-7778 10111 0
-7779 10111 0
-7780 10111 0
-7781 10111 0
-7782 10111 0
-7783 10111 0
-7784 10111 0
-7785 10111 0
-7786 10111 0
-7787 10111 0
-7788 10111 0
-7789 10111 0
-7790 10111 0
-7791 10111 0
-7792 10111 0
-7793 10111 0
-7794 10111 0
-7795 10111 0
-7796 10111 0
-7797 10111 0
-7798 10111 0
-7799 10111 0
-7800 10111 0
-10111 7775 7776 7777 7778 7779 7780 7781 7782 7783 7784 7785 7786 7787 7788 7789 7790 7791 7792 7793 7794 7795 7796 7797 7798 7799 7800 0
-7801 105 0
-7801 131 0
-7801 235 0
-105 -131 -235 7801 0
-7802 106 0
-7802 132 0
-7802 236 0
-106 -132 -236 7802 0
-7803 107 0
-7803 133 0
-7803 237 0
-107 -133 -237 7803 0
-7804 108 0
-7804 134 0
-7804 238 0
-108 -134 -238 7804 0
-7805 109 0
-7805 135 0
-7805 239 0
-109 -135 -239 7805 0
-7806 110 0
-7806 136 0
-7806 240 0
-110 -136 -240 7806 0
-7807 111 0
-7807 137 0
-7807 241 0
-111 -137 -241 7807 0
-7808 112 0
-7808 138 0
-7808 242 0
-112 -138 -242 7808 0
-7809 113 0
-7809 139 0
-7809 243 0
-113 -139 -243 7809 0
-7810 114 0
-7810 140 0
-7810 244 0
-114 -140 -244 7810 0
-7811 115 0
-7811 141 0
-7811 245 0
-115 -141 -245 7811 0
-7812 116 0
-7812 142 0
-7812 246 0
-116 -142 -246 7812 0
-7813 117 0
-7813 143 0
-7813 247 0
-117 -143 -247 7813 0
-7814 118 0
-7814 144 0
-7814 248 0
-118 -144 -248 7814 0
-7815 119 0
-7815 145 0
-7815 249 0
-119 -145 -249 7815 0
-7816 120 0
-7816 146 0
-7816 250 0
-120 -146 -250 7816 0
-7817 121 0
-7817 147 0
-7817 251 0
-121 -147 -251 7817 0
-7818 122 0
-7818 148 0
-7818 252 0
-122 -148 -252 7818 0
-7819 123 0
-7819 149 0
-7819 253 0
-123 -149 -253 7819 0
-7820 124 0
-7820 150 0
-7820 254 0
-124 -150 -254 7820 0
-7821 125 0
-7821 151 0
-7821 255 0
-125 -151 -255 7821 0
-7822 126 0
-7822 152 0
-7822 256 0
-126 -152 -256 7822 0
-7823 127 0
-7823 153 0
-7823 257 0
-127 -153 -257 7823 0
-7824 128 0
-7824 154 0
-7824 258 0
-128 -154 -258 7824 0
-7825 129 0
-7825 155 0
-7825 259 0
-129 -155 -259 7825 0
-7826 130 0
-7826 156 0
-7826 260 0
-130 -156 -260 7826 0
-7801 10112 0
-7802 10112 0
-7803 10112 0
-7804 10112 0
-7805 10112 0
-7806 10112 0
-7807 10112 0
-7808 10112 0
-7809 10112 0
-7810 10112 0
-7811 10112 0
-7812 10112 0
-7813 10112 0
-7814 10112 0
-7815 10112 0
-7816 10112 0
-7817 10112 0
-7818 10112 0
-7819 10112 0
-7820 10112 0
-7821 10112 0
-7822 10112 0
-7823 10112 0
-7824 10112 0
-7825 10112 0
-7826 10112 0
-10112 7801 7802 7803 7804 7805 7806 7807 7808 7809 7810 7811 7812 7813 7814 7815 7816 7817 7818 7819 7820 7821 7822 7823 7824 7825 7826 0
-7827 105 0
-7827 131 0
-7827 261 0
-105 -131 -261 7827 0
-7828 106 0
-7828 132 0
-7828 262 0
-106 -132 -262 7828 0
-7829 107 0
-7829 133 0
-7829 263 0
-107 -133 -263 7829 0
-7830 108 0
-7830 134 0
-7830 264 0
-108 -134 -264 7830 0
-7831 109 0
-7831 135 0
-7831 265 0
-109 -135 -265 7831 0
-7832 110 0
-7832 136 0
-7832 266 0
-110 -136 -266 7832 0
-7833 111 0
-7833 137 0
-7833 267 0
-111 -137 -267 7833 0
-7834 112 0
-7834 138 0
-7834 268 0
-112 -138 -268 7834 0
-7835 113 0
-7835 139 0
-7835 269 0
-113 -139 -269 7835 0
-7836 114 0
-7836 140 0
-7836 270 0
-114 -140 -270 7836 0
-7837 115 0
-7837 141 0
-7837 271 0
-115 -141 -271 7837 0
-7838 116 0
-7838 142 0
-7838 272 0
-116 -142 -272 7838 0
-7839 117 0
-7839 143 0
-7839 273 0
-117 -143 -273 7839 0
-7840 118 0
-7840 144 0
-7840 274 0
-118 -144 -274 7840 0
-7841 119 0
-7841 145 0
-7841 275 0
-119 -145 -275 7841 0
-7842 120 0
-7842 146 0
-7842 276 0
-120 -146 -276 7842 0
-7843 121 0
-7843 147 0
-7843 277 0
-121 -147 -277 7843 0
-7844 122 0
-7844 148 0
-7844 278 0
-122 -148 -278 7844 0
-7845 123 0
-7845 149 0
-7845 279 0
-123 -149 -279 7845 0
-7846 124 0
-7846 150 0
-7846 280 0
-124 -150 -280 7846 0
-7847 125 0
-7847 151 0
-7847 281 0
-125 -151 -281 7847 0
-7848 126 0
-7848 152 0
-7848 282 0
-126 -152 -282 7848 0
-7849 127 0
-7849 153 0
-7849 283 0
-127 -153 -283 7849 0
-7850 128 0
-7850 154 0
-7850 284 0
-128 -154 -284 7850 0
-7851 129 0
-7851 155 0
-7851 285 0
-129 -155 -285 7851 0
-7852 130 0
-7852 156 0
-7852 286 0
-130 -156 -286 7852 0
-7827 10113 0
-7828 10113 0
-7829 10113 0
-7830 10113 0
-7831 10113 0
-7832 10113 0
-7833 10113 0
-7834 10113 0
-7835 10113 0
-7836 10113 0
-7837 10113 0
-7838 10113 0
-7839 10113 0
-7840 10113 0
-7841 10113 0
-7842 10113 0
-7843 10113 0
-7844 10113 0
-7845 10113 0
-7846 10113 0
-7847 10113 0
-7848 10113 0
-7849 10113 0
-7850 10113 0
-7851 10113 0
-7852 10113 0
-10113 7827 7828 7829 7830 7831 7832 7833 7834 7835 7836 7837 7838 7839 7840 7841 7842 7843 7844 7845 7846 7847 7848 7849 7850 7851 7852 0
-7853 105 0
-7853 131 0
-7853 287 0
-105 -131 -287 7853 0
-7854 106 0
-7854 132 0
-7854 288 0
-106 -132 -288 7854 0
-7855 107 0
-7855 133 0
-7855 289 0
-107 -133 -289 7855 0
-7856 108 0
-7856 134 0
-7856 290 0
-108 -134 -290 7856 0
-7857 109 0
-7857 135 0
-7857 291 0
-109 -135 -291 7857 0
-7858 110 0
-7858 136 0
-7858 292 0
-110 -136 -292 7858 0
-7859 111 0
-7859 137 0
-7859 293 0
-111 -137 -293 7859 0
-7860 112 0
-7860 138 0
-7860 294 0
-112 -138 -294 7860 0
-7861 113 0
-7861 139 0
-7861 295 0
-113 -139 -295 7861 0
-7862 114 0
-7862 140 0
-7862 296 0
-114 -140 -296 7862 0
-7863 115 0
-7863 141 0
-7863 297 0
-115 -141 -297 7863 0
-7864 116 0
-7864 142 0
-7864 298 0
-116 -142 -298 7864 0
-7865 117 0
-7865 143 0
-7865 299 0
-117 -143 -299 7865 0
-7866 118 0
-7866 144 0
-7866 300 0
-118 -144 -300 7866 0
-7867 119 0
-7867 145 0
-7867 301 0
-119 -145 -301 7867 0
-7868 120 0
-7868 146 0
-7868 302 0
-120 -146 -302 7868 0
-7869 121 0
-7869 147 0
-7869 303 0
-121 -147 -303 7869 0
-7870 122 0
-7870 148 0
-7870 304 0
-122 -148 -304 7870 0
-7871 123 0
-7871 149 0
-7871 305 0
-123 -149 -305 7871 0
-7872 124 0
-7872 150 0
-7872 306 0
-124 -150 -306 7872 0
-7873 125 0
-7873 151 0
-7873 307 0
-125 -151 -307 7873 0
-7874 126 0
-7874 152 0
-7874 308 0
-126 -152 -308 7874 0
-7875 127 0
-7875 153 0
-7875 309 0
-127 -153 -309 7875 0
-7876 128 0
-7876 154 0
-7876 310 0
-128 -154 -310 7876 0
-7877 129 0
-7877 155 0
-7877 311 0
-129 -155 -311 7877 0
-7878 130 0
-7878 156 0
-7878 312 0
-130 -156 -312 7878 0
-7853 10114 0
-7854 10114 0
-7855 10114 0
-7856 10114 0
-7857 10114 0
-7858 10114 0
-7859 10114 0
-7860 10114 0
-7861 10114 0
-7862 10114 0
-7863 10114 0
-7864 10114 0
-7865 10114 0
-7866 10114 0
-7867 10114 0
-7868 10114 0
-7869 10114 0
-7870 10114 0
-7871 10114 0
-7872 10114 0
-7873 10114 0
-7874 10114 0
-7875 10114 0
-7876 10114 0
-7877 10114 0
-7878 10114 0
-10114 7853 7854 7855 7856 7857 7858 7859 7860 7861 7862 7863 7864 7865 7866 7867 7868 7869 7870 7871 7872 7873 7874 7875 7876 7877 7878 0
-7879 105 0
-7879 131 0
-7879 313 0
-105 -131 -313 7879 0
-7880 106 0
-7880 132 0
-7880 314 0
-106 -132 -314 7880 0
-7881 107 0
-7881 133 0
-7881 315 0
-107 -133 -315 7881 0
-7882 108 0
-7882 134 0
-7882 316 0
-108 -134 -316 7882 0
-7883 109 0
-7883 135 0
-7883 317 0
-109 -135 -317 7883 0
-7884 110 0
-7884 136 0
-7884 318 0
-110 -136 -318 7884 0
-7885 111 0
-7885 137 0
-7885 319 0
-111 -137 -319 7885 0
-7886 112 0
-7886 138 0
-7886 320 0
-112 -138 -320 7886 0
-7887 113 0
-7887 139 0
-7887 321 0
-113 -139 -321 7887 0
-7888 114 0
-7888 140 0
-7888 322 0
-114 -140 -322 7888 0
-7889 115 0
-7889 141 0
-7889 323 0
-115 -141 -323 7889 0
-7890 116 0
-7890 142 0
-7890 324 0
-116 -142 -324 7890 0
-7891 117 0
-7891 143 0
-7891 325 0
-117 -143 -325 7891 0
-7892 118 0
-7892 144 0
-7892 326 0
-118 -144 -326 7892 0
-7893 119 0
-7893 145 0
-7893 327 0
-119 -145 -327 7893 0
-7894 120 0
-7894 146 0
-7894 328 0
-120 -146 -328 7894 0
-7895 121 0
-7895 147 0
-7895 329 0
-121 -147 -329 7895 0
-7896 122 0
-7896 148 0
-7896 330 0
-122 -148 -330 7896 0
-7897 123 0
-7897 149 0
-7897 331 0
-123 -149 -331 7897 0
-7898 124 0
-7898 150 0
-7898 332 0
-124 -150 -332 7898 0
-7899 125 0
-7899 151 0
-7899 333 0
-125 -151 -333 7899 0
-7900 126 0
-7900 152 0
-7900 334 0
-126 -152 -334 7900 0
-7901 127 0
-7901 153 0
-7901 335 0
-127 -153 -335 7901 0
-7902 128 0
-7902 154 0
-7902 336 0
-128 -154 -336 7902 0
-7903 129 0
-7903 155 0
-7903 337 0
-129 -155 -337 7903 0
-7904 130 0
-7904 156 0
-7904 338 0
-130 -156 -338 7904 0
-7879 10115 0
-7880 10115 0
-7881 10115 0
-7882 10115 0
-7883 10115 0
-7884 10115 0
-7885 10115 0
-7886 10115 0
-7887 10115 0
-7888 10115 0
-7889 10115 0
-7890 10115 0
-7891 10115 0
-7892 10115 0
-7893 10115 0
-7894 10115 0
-7895 10115 0
-7896 10115 0
-7897 10115 0
-7898 10115 0
-7899 10115 0
-7900 10115 0
-7901 10115 0
-7902 10115 0
-7903 10115 0
-7904 10115 0
-10115 7879 7880 7881 7882 7883 7884 7885 7886 7887 7888 7889 7890 7891 7892 7893 7894 7895 7896 7897 7898 7899 7900 7901 7902 7903 7904 0
-7905 105 0
-7905 157 0
-7905 183 0
-105 -157 -183 7905 0
-7906 106 0
-7906 158 0
-7906 184 0
-106 -158 -184 7906 0
-7907 107 0
-7907 159 0
-7907 185 0
-107 -159 -185 7907 0
-7908 108 0
-7908 160 0
-7908 186 0
-108 -160 -186 7908 0
-7909 109 0
-7909 161 0
-7909 187 0
-109 -161 -187 7909 0
-7910 110 0
-7910 162 0
-7910 188 0
-110 -162 -188 7910 0
-7911 111 0
-7911 163 0
-7911 189 0
-111 -163 -189 7911 0
-7912 112 0
-7912 164 0
-7912 190 0
-112 -164 -190 7912 0
-7913 113 0
-7913 165 0
-7913 191 0
-113 -165 -191 7913 0
-7914 114 0
-7914 166 0
-7914 192 0
-114 -166 -192 7914 0
-7915 115 0
-7915 167 0
-7915 193 0
-115 -167 -193 7915 0
-7916 116 0
-7916 168 0
-7916 194 0
-116 -168 -194 7916 0
-7917 117 0
-7917 169 0
-7917 195 0
-117 -169 -195 7917 0
-7918 118 0
-7918 170 0
-7918 196 0
-118 -170 -196 7918 0
-7919 119 0
-7919 171 0
-7919 197 0
-119 -171 -197 7919 0
-7920 120 0
-7920 172 0
-7920 198 0
-120 -172 -198 7920 0
-7921 121 0
-7921 173 0
-7921 199 0
-121 -173 -199 7921 0
-7922 122 0
-7922 174 0
-7922 200 0
-122 -174 -200 7922 0
-7923 123 0
-7923 175 0
-7923 201 0
-123 -175 -201 7923 0
-7924 124 0
-7924 176 0
-7924 202 0
-124 -176 -202 7924 0
-7925 125 0
-7925 177 0
-7925 203 0
-125 -177 -203 7925 0
-7926 126 0
-7926 178 0
-7926 204 0
-126 -178 -204 7926 0
-7927 127 0
-7927 179 0
-7927 205 0
-127 -179 -205 7927 0
-7928 128 0
-7928 180 0
-7928 206 0
-128 -180 -206 7928 0
-7929 129 0
-7929 181 0
-7929 207 0
-129 -181 -207 7929 0
-7930 130 0
-7930 182 0
-7930 208 0
-130 -182 -208 7930 0
-7905 10116 0
-7906 10116 0
-7907 10116 0
-7908 10116 0
-7909 10116 0
-7910 10116 0
-7911 10116 0
-7912 10116 0
-7913 10116 0
-7914 10116 0
-7915 10116 0
-7916 10116 0
-7917 10116 0
-7918 10116 0
-7919 10116 0
-7920 10116 0
-7921 10116 0
-7922 10116 0
-7923 10116 0
-7924 10116 0
-7925 10116 0
-7926 10116 0
-7927 10116 0
-7928 10116 0
-7929 10116 0
-7930 10116 0
-10116 7905 7906 7907 7908 7909 7910 7911 7912 7913 7914 7915 7916 7917 7918 7919 7920 7921 7922 7923 7924 7925 7926 7927 7928 7929 7930 0
-7931 105 0
-7931 157 0
-7931 209 0
-105 -157 -209 7931 0
-7932 106 0
-7932 158 0
-7932 210 0
-106 -158 -210 7932 0
-7933 107 0
-7933 159 0
-7933 211 0
-107 -159 -211 7933 0
-7934 108 0
-7934 160 0
-7934 212 0
-108 -160 -212 7934 0
-7935 109 0
-7935 161 0
-7935 213 0
-109 -161 -213 7935 0
-7936 110 0
-7936 162 0
-7936 214 0
-110 -162 -214 7936 0
-7937 111 0
-7937 163 0
-7937 215 0
-111 -163 -215 7937 0
-7938 112 0
-7938 164 0
-7938 216 0
-112 -164 -216 7938 0
-7939 113 0
-7939 165 0
-7939 217 0
-113 -165 -217 7939 0
-7940 114 0
-7940 166 0
-7940 218 0
-114 -166 -218 7940 0
-7941 115 0
-7941 167 0
-7941 219 0
-115 -167 -219 7941 0
-7942 116 0
-7942 168 0
-7942 220 0
-116 -168 -220 7942 0
-7943 117 0
-7943 169 0
-7943 221 0
-117 -169 -221 7943 0
-7944 118 0
-7944 170 0
-7944 222 0
-118 -170 -222 7944 0
-7945 119 0
-7945 171 0
-7945 223 0
-119 -171 -223 7945 0
-7946 120 0
-7946 172 0
-7946 224 0
-120 -172 -224 7946 0
-7947 121 0
-7947 173 0
-7947 225 0
-121 -173 -225 7947 0
-7948 122 0
-7948 174 0
-7948 226 0
-122 -174 -226 7948 0
-7949 123 0
-7949 175 0
-7949 227 0
-123 -175 -227 7949 0
-7950 124 0
-7950 176 0
-7950 228 0
-124 -176 -228 7950 0
-7951 125 0
-7951 177 0
-7951 229 0
-125 -177 -229 7951 0
-7952 126 0
-7952 178 0
-7952 230 0
-126 -178 -230 7952 0
-7953 127 0
-7953 179 0
-7953 231 0
-127 -179 -231 7953 0
-7954 128 0
-7954 180 0
-7954 232 0
-128 -180 -232 7954 0
-7955 129 0
-7955 181 0
-7955 233 0
-129 -181 -233 7955 0
-7956 130 0
-7956 182 0
-7956 234 0
-130 -182 -234 7956 0
-7931 10117 0
-7932 10117 0
-7933 10117 0
-7934 10117 0
-7935 10117 0
-7936 10117 0
-7937 10117 0
-7938 10117 0
-7939 10117 0
-7940 10117 0
-7941 10117 0
-7942 10117 0
-7943 10117 0
-7944 10117 0
-7945 10117 0
-7946 10117 0
-7947 10117 0
-7948 10117 0
-7949 10117 0
-7950 10117 0
-7951 10117 0
-7952 10117 0
-7953 10117 0
-7954 10117 0
-7955 10117 0
-7956 10117 0
-10117 7931 7932 7933 7934 7935 7936 7937 7938 7939 7940 7941 7942 7943 7944 7945 7946 7947 7948 7949 7950 7951 7952 7953 7954 7955 7956 0
-7957 105 0
-7957 157 0
-7957 235 0
-105 -157 -235 7957 0
-7958 106 0
-7958 158 0
-7958 236 0
-106 -158 -236 7958 0
-7959 107 0
-7959 159 0
-7959 237 0
-107 -159 -237 7959 0
-7960 108 0
-7960 160 0
-7960 238 0
-108 -160 -238 7960 0
-7961 109 0
-7961 161 0
-7961 239 0
-109 -161 -239 7961 0
-7962 110 0
-7962 162 0
-7962 240 0
-110 -162 -240 7962 0
-7963 111 0
-7963 163 0
-7963 241 0
-111 -163 -241 7963 0
-7964 112 0
-7964 164 0
-7964 242 0
-112 -164 -242 7964 0
-7965 113 0
-7965 165 0
-7965 243 0
-113 -165 -243 7965 0
-7966 114 0
-7966 166 0
-7966 244 0
-114 -166 -244 7966 0
-7967 115 0
-7967 167 0
-7967 245 0
-115 -167 -245 7967 0
-7968 116 0
-7968 168 0
-7968 246 0
-116 -168 -246 7968 0
-7969 117 0
-7969 169 0
-7969 247 0
-117 -169 -247 7969 0
-7970 118 0
-7970 170 0
-7970 248 0
-118 -170 -248 7970 0
-7971 119 0
-7971 171 0
-7971 249 0
-119 -171 -249 7971 0
-7972 120 0
-7972 172 0
-7972 250 0
-120 -172 -250 7972 0
-7973 121 0
-7973 173 0
-7973 251 0
-121 -173 -251 7973 0
-7974 122 0
-7974 174 0
-7974 252 0
-122 -174 -252 7974 0
-7975 123 0
-7975 175 0
-7975 253 0
-123 -175 -253 7975 0
-7976 124 0
-7976 176 0
-7976 254 0
-124 -176 -254 7976 0
-7977 125 0
-7977 177 0
-7977 255 0
-125 -177 -255 7977 0
-7978 126 0
-7978 178 0
-7978 256 0
-126 -178 -256 7978 0
-7979 127 0
-7979 179 0
-7979 257 0
-127 -179 -257 7979 0
-7980 128 0
-7980 180 0
-7980 258 0
-128 -180 -258 7980 0
-7981 129 0
-7981 181 0
-7981 259 0
-129 -181 -259 7981 0
-7982 130 0
-7982 182 0
-7982 260 0
-130 -182 -260 7982 0
-7957 10118 0
-7958 10118 0
-7959 10118 0
-7960 10118 0
-7961 10118 0
-7962 10118 0
-7963 10118 0
-7964 10118 0
-7965 10118 0
-7966 10118 0
-7967 10118 0
-7968 10118 0
-7969 10118 0
-7970 10118 0
-7971 10118 0
-7972 10118 0
-7973 10118 0
-7974 10118 0
-7975 10118 0
-7976 10118 0
-7977 10118 0
-7978 10118 0
-7979 10118 0
-7980 10118 0
-7981 10118 0
-7982 10118 0
-10118 7957 7958 7959 7960 7961 7962 7963 7964 7965 7966 7967 7968 7969 7970 7971 7972 7973 7974 7975 7976 7977 7978 7979 7980 7981 7982 0
-7983 105 0
-7983 157 0
-7983 261 0
-105 -157 -261 7983 0
-7984 106 0
-7984 158 0
-7984 262 0
-106 -158 -262 7984 0
-7985 107 0
-7985 159 0
-7985 263 0
-107 -159 -263 7985 0
-7986 108 0
-7986 160 0
-7986 264 0
-108 -160 -264 7986 0
-7987 109 0
-7987 161 0
-7987 265 0
-109 -161 -265 7987 0
-7988 110 0
-7988 162 0
-7988 266 0
-110 -162 -266 7988 0
-7989 111 0
-7989 163 0
-7989 267 0
-111 -163 -267 7989 0
-7990 112 0
-7990 164 0
-7990 268 0
-112 -164 -268 7990 0
-7991 113 0
-7991 165 0
-7991 269 0
-113 -165 -269 7991 0
-7992 114 0
-7992 166 0
-7992 270 0
-114 -166 -270 7992 0
-7993 115 0
-7993 167 0
-7993 271 0
-115 -167 -271 7993 0
-7994 116 0
-7994 168 0
-7994 272 0
-116 -168 -272 7994 0
-7995 117 0
-7995 169 0
-7995 273 0
-117 -169 -273 7995 0
-7996 118 0
-7996 170 0
-7996 274 0
-118 -170 -274 7996 0
-7997 119 0
-7997 171 0
-7997 275 0
-119 -171 -275 7997 0
-7998 120 0
-7998 172 0
-7998 276 0
-120 -172 -276 7998 0
-7999 121 0
-7999 173 0
-7999 277 0
-121 -173 -277 7999 0
-8000 122 0
-8000 174 0
-8000 278 0
-122 -174 -278 8000 0
-8001 123 0
-8001 175 0
-8001 279 0
-123 -175 -279 8001 0
-8002 124 0
-8002 176 0
-8002 280 0
-124 -176 -280 8002 0
-8003 125 0
-8003 177 0
-8003 281 0
-125 -177 -281 8003 0
-8004 126 0
-8004 178 0
-8004 282 0
-126 -178 -282 8004 0
-8005 127 0
-8005 179 0
-8005 283 0
-127 -179 -283 8005 0
-8006 128 0
-8006 180 0
-8006 284 0
-128 -180 -284 8006 0
-8007 129 0
-8007 181 0
-8007 285 0
-129 -181 -285 8007 0
-8008 130 0
-8008 182 0
-8008 286 0
-130 -182 -286 8008 0
-7983 10119 0
-7984 10119 0
-7985 10119 0
-7986 10119 0
-7987 10119 0
-7988 10119 0
-7989 10119 0
-7990 10119 0
-7991 10119 0
-7992 10119 0
-7993 10119 0
-7994 10119 0
-7995 10119 0
-7996 10119 0
-7997 10119 0
-7998 10119 0
-7999 10119 0
-8000 10119 0
-8001 10119 0
-8002 10119 0
-8003 10119 0
-8004 10119 0
-8005 10119 0
-8006 10119 0
-8007 10119 0
-8008 10119 0
-10119 7983 7984 7985 7986 7987 7988 7989 7990 7991 7992 7993 7994 7995 7996 7997 7998 7999 8000 8001 8002 8003 8004 8005 8006 8007 8008 0
-8009 105 0
-8009 157 0
-8009 287 0
-105 -157 -287 8009 0
-8010 106 0
-8010 158 0
-8010 288 0
-106 -158 -288 8010 0
-8011 107 0
-8011 159 0
-8011 289 0
-107 -159 -289 8011 0
-8012 108 0
-8012 160 0
-8012 290 0
-108 -160 -290 8012 0
-8013 109 0
-8013 161 0
-8013 291 0
-109 -161 -291 8013 0
-8014 110 0
-8014 162 0
-8014 292 0
-110 -162 -292 8014 0
-8015 111 0
-8015 163 0
-8015 293 0
-111 -163 -293 8015 0
-8016 112 0
-8016 164 0
-8016 294 0
-112 -164 -294 8016 0
-8017 113 0
-8017 165 0
-8017 295 0
-113 -165 -295 8017 0
-8018 114 0
-8018 166 0
-8018 296 0
-114 -166 -296 8018 0
-8019 115 0
-8019 167 0
-8019 297 0
-115 -167 -297 8019 0
-8020 116 0
-8020 168 0
-8020 298 0
-116 -168 -298 8020 0
-8021 117 0
-8021 169 0
-8021 299 0
-117 -169 -299 8021 0
-8022 118 0
-8022 170 0
-8022 300 0
-118 -170 -300 8022 0
-8023 119 0
-8023 171 0
-8023 301 0
-119 -171 -301 8023 0
-8024 120 0
-8024 172 0
-8024 302 0
-120 -172 -302 8024 0
-8025 121 0
-8025 173 0
-8025 303 0
-121 -173 -303 8025 0
-8026 122 0
-8026 174 0
-8026 304 0
-122 -174 -304 8026 0
-8027 123 0
-8027 175 0
-8027 305 0
-123 -175 -305 8027 0
-8028 124 0
-8028 176 0
-8028 306 0
-124 -176 -306 8028 0
-8029 125 0
-8029 177 0
-8029 307 0
-125 -177 -307 8029 0
-8030 126 0
-8030 178 0
-8030 308 0
-126 -178 -308 8030 0
-8031 127 0
-8031 179 0
-8031 309 0
-127 -179 -309 8031 0
-8032 128 0
-8032 180 0
-8032 310 0
-128 -180 -310 8032 0
-8033 129 0
-8033 181 0
-8033 311 0
-129 -181 -311 8033 0
-8034 130 0
-8034 182 0
-8034 312 0
-130 -182 -312 8034 0
-8009 10120 0
-8010 10120 0
-8011 10120 0
-8012 10120 0
-8013 10120 0
-8014 10120 0
-8015 10120 0
-8016 10120 0
-8017 10120 0
-8018 10120 0
-8019 10120 0
-8020 10120 0
-8021 10120 0
-8022 10120 0
-8023 10120 0
-8024 10120 0
-8025 10120 0
-8026 10120 0
-8027 10120 0
-8028 10120 0
-8029 10120 0
-8030 10120 0
-8031 10120 0
-8032 10120 0
-8033 10120 0
-8034 10120 0
-10120 8009 8010 8011 8012 8013 8014 8015 8016 8017 8018 8019 8020 8021 8022 8023 8024 8025 8026 8027 8028 8029 8030 8031 8032 8033 8034 0
-8035 105 0
-8035 157 0
-8035 313 0
-105 -157 -313 8035 0
-8036 106 0
-8036 158 0
-8036 314 0
-106 -158 -314 8036 0
-8037 107 0
-8037 159 0
-8037 315 0
-107 -159 -315 8037 0
-8038 108 0
-8038 160 0
-8038 316 0
-108 -160 -316 8038 0
-8039 109 0
-8039 161 0
-8039 317 0
-109 -161 -317 8039 0
-8040 110 0
-8040 162 0
-8040 318 0
-110 -162 -318 8040 0
-8041 111 0
-8041 163 0
-8041 319 0
-111 -163 -319 8041 0
-8042 112 0
-8042 164 0
-8042 320 0
-112 -164 -320 8042 0
-8043 113 0
-8043 165 0
-8043 321 0
-113 -165 -321 8043 0
-8044 114 0
-8044 166 0
-8044 322 0
-114 -166 -322 8044 0
-8045 115 0
-8045 167 0
-8045 323 0
-115 -167 -323 8045 0
-8046 116 0
-8046 168 0
-8046 324 0
-116 -168 -324 8046 0
-8047 117 0
-8047 169 0
-8047 325 0
-117 -169 -325 8047 0
-8048 118 0
-8048 170 0
-8048 326 0
-118 -170 -326 8048 0
-8049 119 0
-8049 171 0
-8049 327 0
-119 -171 -327 8049 0
-8050 120 0
-8050 172 0
-8050 328 0
-120 -172 -328 8050 0
-8051 121 0
-8051 173 0
-8051 329 0
-121 -173 -329 8051 0
-8052 122 0
-8052 174 0
-8052 330 0
-122 -174 -330 8052 0
-8053 123 0
-8053 175 0
-8053 331 0
-123 -175 -331 8053 0
-8054 124 0
-8054 176 0
-8054 332 0
-124 -176 -332 8054 0
-8055 125 0
-8055 177 0
-8055 333 0
-125 -177 -333 8055 0
-8056 126 0
-8056 178 0
-8056 334 0
-126 -178 -334 8056 0
-8057 127 0
-8057 179 0
-8057 335 0
-127 -179 -335 8057 0
-8058 128 0
-8058 180 0
-8058 336 0
-128 -180 -336 8058 0
-8059 129 0
-8059 181 0
-8059 337 0
-129 -181 -337 8059 0
-8060 130 0
-8060 182 0
-8060 338 0
-130 -182 -338 8060 0
-8035 10121 0
-8036 10121 0
-8037 10121 0
-8038 10121 0
-8039 10121 0
-8040 10121 0
-8041 10121 0
-8042 10121 0
-8043 10121 0
-8044 10121 0
-8045 10121 0
-8046 10121 0
-8047 10121 0
-8048 10121 0
-8049 10121 0
-8050 10121 0
-8051 10121 0
-8052 10121 0
-8053 10121 0
-8054 10121 0
-8055 10121 0
-8056 10121 0
-8057 10121 0
-8058 10121 0
-8059 10121 0
-8060 10121 0
-10121 8035 8036 8037 8038 8039 8040 8041 8042 8043 8044 8045 8046 8047 8048 8049 8050 8051 8052 8053 8054 8055 8056 8057 8058 8059 8060 0
-8061 105 0
-8061 183 0
-8061 209 0
-105 -183 -209 8061 0
-8062 106 0
-8062 184 0
-8062 210 0
-106 -184 -210 8062 0
-8063 107 0
-8063 185 0
-8063 211 0
-107 -185 -211 8063 0
-8064 108 0
-8064 186 0
-8064 212 0
-108 -186 -212 8064 0
-8065 109 0
-8065 187 0
-8065 213 0
-109 -187 -213 8065 0
-8066 110 0
-8066 188 0
-8066 214 0
-110 -188 -214 8066 0
-8067 111 0
-8067 189 0
-8067 215 0
-111 -189 -215 8067 0
-8068 112 0
-8068 190 0
-8068 216 0
-112 -190 -216 8068 0
-8069 113 0
-8069 191 0
-8069 217 0
-113 -191 -217 8069 0
-8070 114 0
-8070 192 0
-8070 218 0
-114 -192 -218 8070 0
-8071 115 0
-8071 193 0
-8071 219 0
-115 -193 -219 8071 0
-8072 116 0
-8072 194 0
-8072 220 0
-116 -194 -220 8072 0
-8073 117 0
-8073 195 0
-8073 221 0
-117 -195 -221 8073 0
-8074 118 0
-8074 196 0
-8074 222 0
-118 -196 -222 8074 0
-8075 119 0
-8075 197 0
-8075 223 0
-119 -197 -223 8075 0
-8076 120 0
-8076 198 0
-8076 224 0
-120 -198 -224 8076 0
-8077 121 0
-8077 199 0
-8077 225 0
-121 -199 -225 8077 0
-8078 122 0
-8078 200 0
-8078 226 0
-122 -200 -226 8078 0
-8079 123 0
-8079 201 0
-8079 227 0
-123 -201 -227 8079 0
-8080 124 0
-8080 202 0
-8080 228 0
-124 -202 -228 8080 0
-8081 125 0
-8081 203 0
-8081 229 0
-125 -203 -229 8081 0
-8082 126 0
-8082 204 0
-8082 230 0
-126 -204 -230 8082 0
-8083 127 0
-8083 205 0
-8083 231 0
-127 -205 -231 8083 0
-8084 128 0
-8084 206 0
-8084 232 0
-128 -206 -232 8084 0
-8085 129 0
-8085 207 0
-8085 233 0
-129 -207 -233 8085 0
-8086 130 0
-8086 208 0
-8086 234 0
-130 -208 -234 8086 0
-8061 10122 0
-8062 10122 0
-8063 10122 0
-8064 10122 0
-8065 10122 0
-8066 10122 0
-8067 10122 0
-8068 10122 0
-8069 10122 0
-8070 10122 0
-8071 10122 0
-8072 10122 0
-8073 10122 0
-8074 10122 0
-8075 10122 0
-8076 10122 0
-8077 10122 0
-8078 10122 0
-8079 10122 0
-8080 10122 0
-8081 10122 0
-8082 10122 0
-8083 10122 0
-8084 10122 0
-8085 10122 0
-8086 10122 0
-10122 8061 8062 8063 8064 8065 8066 8067 8068 8069 8070 8071 8072 8073 8074 8075 8076 8077 8078 8079 8080 8081 8082 8083 8084 8085 8086 0
-8087 105 0
-8087 183 0
-8087 235 0
-105 -183 -235 8087 0
-8088 106 0
-8088 184 0
-8088 236 0
-106 -184 -236 8088 0
-8089 107 0
-8089 185 0
-8089 237 0
-107 -185 -237 8089 0
-8090 108 0
-8090 186 0
-8090 238 0
-108 -186 -238 8090 0
-8091 109 0
-8091 187 0
-8091 239 0
-109 -187 -239 8091 0
-8092 110 0
-8092 188 0
-8092 240 0
-110 -188 -240 8092 0
-8093 111 0
-8093 189 0
-8093 241 0
-111 -189 -241 8093 0
-8094 112 0
-8094 190 0
-8094 242 0
-112 -190 -242 8094 0
-8095 113 0
-8095 191 0
-8095 243 0
-113 -191 -243 8095 0
-8096 114 0
-8096 192 0
-8096 244 0
-114 -192 -244 8096 0
-8097 115 0
-8097 193 0
-8097 245 0
-115 -193 -245 8097 0
-8098 116 0
-8098 194 0
-8098 246 0
-116 -194 -246 8098 0
-8099 117 0
-8099 195 0
-8099 247 0
-117 -195 -247 8099 0
-8100 118 0
-8100 196 0
-8100 248 0
-118 -196 -248 8100 0
-8101 119 0
-8101 197 0
-8101 249 0
-119 -197 -249 8101 0
-8102 120 0
-8102 198 0
-8102 250 0
-120 -198 -250 8102 0
-8103 121 0
-8103 199 0
-8103 251 0
-121 -199 -251 8103 0
-8104 122 0
-8104 200 0
-8104 252 0
-122 -200 -252 8104 0
-8105 123 0
-8105 201 0
-8105 253 0
-123 -201 -253 8105 0
-8106 124 0
-8106 202 0
-8106 254 0
-124 -202 -254 8106 0
-8107 125 0
-8107 203 0
-8107 255 0
-125 -203 -255 8107 0
-8108 126 0
-8108 204 0
-8108 256 0
-126 -204 -256 8108 0
-8109 127 0
-8109 205 0
-8109 257 0
-127 -205 -257 8109 0
-8110 128 0
-8110 206 0
-8110 258 0
-128 -206 -258 8110 0
-8111 129 0
-8111 207 0
-8111 259 0
-129 -207 -259 8111 0
-8112 130 0
-8112 208 0
-8112 260 0
-130 -208 -260 8112 0
-8087 10123 0
-8088 10123 0
-8089 10123 0
-8090 10123 0
-8091 10123 0
-8092 10123 0
-8093 10123 0
-8094 10123 0
-8095 10123 0
-8096 10123 0
-8097 10123 0
-8098 10123 0
-8099 10123 0
-8100 10123 0
-8101 10123 0
-8102 10123 0
-8103 10123 0
-8104 10123 0
-8105 10123 0
-8106 10123 0
-8107 10123 0
-8108 10123 0
-8109 10123 0
-8110 10123 0
-8111 10123 0
-8112 10123 0
-10123 8087 8088 8089 8090 8091 8092 8093 8094 8095 8096 8097 8098 8099 8100 8101 8102 8103 8104 8105 8106 8107 8108 8109 8110 8111 8112 0
-8113 105 0
-8113 183 0
-8113 261 0
-105 -183 -261 8113 0
-8114 106 0
-8114 184 0
-8114 262 0
-106 -184 -262 8114 0
-8115 107 0
-8115 185 0
-8115 263 0
-107 -185 -263 8115 0
-8116 108 0
-8116 186 0
-8116 264 0
-108 -186 -264 8116 0
-8117 109 0
-8117 187 0
-8117 265 0
-109 -187 -265 8117 0
-8118 110 0
-8118 188 0
-8118 266 0
-110 -188 -266 8118 0
-8119 111 0
-8119 189 0
-8119 267 0
-111 -189 -267 8119 0
-8120 112 0
-8120 190 0
-8120 268 0
-112 -190 -268 8120 0
-8121 113 0
-8121 191 0
-8121 269 0
-113 -191 -269 8121 0
-8122 114 0
-8122 192 0
-8122 270 0
-114 -192 -270 8122 0
-8123 115 0
-8123 193 0
-8123 271 0
-115 -193 -271 8123 0
-8124 116 0
-8124 194 0
-8124 272 0
-116 -194 -272 8124 0
-8125 117 0
-8125 195 0
-8125 273 0
-117 -195 -273 8125 0
-8126 118 0
-8126 196 0
-8126 274 0
-118 -196 -274 8126 0
-8127 119 0
-8127 197 0
-8127 275 0
-119 -197 -275 8127 0
-8128 120 0
-8128 198 0
-8128 276 0
-120 -198 -276 8128 0
-8129 121 0
-8129 199 0
-8129 277 0
-121 -199 -277 8129 0
-8130 122 0
-8130 200 0
-8130 278 0
-122 -200 -278 8130 0
-8131 123 0
-8131 201 0
-8131 279 0
-123 -201 -279 8131 0
-8132 124 0
-8132 202 0
-8132 280 0
-124 -202 -280 8132 0
-8133 125 0
-8133 203 0
-8133 281 0
-125 -203 -281 8133 0
-8134 126 0
-8134 204 0
-8134 282 0
-126 -204 -282 8134 0
-8135 127 0
-8135 205 0
-8135 283 0
-127 -205 -283 8135 0
-8136 128 0
-8136 206 0
-8136 284 0
-128 -206 -284 8136 0
-8137 129 0
-8137 207 0
-8137 285 0
-129 -207 -285 8137 0
-8138 130 0
-8138 208 0
-8138 286 0
-130 -208 -286 8138 0
-8113 10124 0
-8114 10124 0
-8115 10124 0
-8116 10124 0
-8117 10124 0
-8118 10124 0
-8119 10124 0
-8120 10124 0
-8121 10124 0
-8122 10124 0
-8123 10124 0
-8124 10124 0
-8125 10124 0
-8126 10124 0
-8127 10124 0
-8128 10124 0
-8129 10124 0
-8130 10124 0
-8131 10124 0
-8132 10124 0
-8133 10124 0
-8134 10124 0
-8135 10124 0
-8136 10124 0
-8137 10124 0
-8138 10124 0
-10124 8113 8114 8115 8116 8117 8118 8119 8120 8121 8122 8123 8124 8125 8126 8127 8128 8129 8130 8131 8132 8133 8134 8135 8136 8137 8138 0
-8139 105 0
-8139 183 0
-8139 287 0
-105 -183 -287 8139 0
-8140 106 0
-8140 184 0
-8140 288 0
-106 -184 -288 8140 0
-8141 107 0
-8141 185 0
-8141 289 0
-107 -185 -289 8141 0
-8142 108 0
-8142 186 0
-8142 290 0
-108 -186 -290 8142 0
-8143 109 0
-8143 187 0
-8143 291 0
-109 -187 -291 8143 0
-8144 110 0
-8144 188 0
-8144 292 0
-110 -188 -292 8144 0
-8145 111 0
-8145 189 0
-8145 293 0
-111 -189 -293 8145 0
-8146 112 0
-8146 190 0
-8146 294 0
-112 -190 -294 8146 0
-8147 113 0
-8147 191 0
-8147 295 0
-113 -191 -295 8147 0
-8148 114 0
-8148 192 0
-8148 296 0
-114 -192 -296 8148 0
-8149 115 0
-8149 193 0
-8149 297 0
-115 -193 -297 8149 0
-8150 116 0
-8150 194 0
-8150 298 0
-116 -194 -298 8150 0
-8151 117 0
-8151 195 0
-8151 299 0
-117 -195 -299 8151 0
-8152 118 0
-8152 196 0
-8152 300 0
-118 -196 -300 8152 0
-8153 119 0
-8153 197 0
-8153 301 0
-119 -197 -301 8153 0
-8154 120 0
-8154 198 0
-8154 302 0
-120 -198 -302 8154 0
-8155 121 0
-8155 199 0
-8155 303 0
-121 -199 -303 8155 0
-8156 122 0
-8156 200 0
-8156 304 0
-122 -200 -304 8156 0
-8157 123 0
-8157 201 0
-8157 305 0
-123 -201 -305 8157 0
-8158 124 0
-8158 202 0
-8158 306 0
-124 -202 -306 8158 0
-8159 125 0
-8159 203 0
-8159 307 0
-125 -203 -307 8159 0
-8160 126 0
-8160 204 0
-8160 308 0
-126 -204 -308 8160 0
-8161 127 0
-8161 205 0
-8161 309 0
-127 -205 -309 8161 0
-8162 128 0
-8162 206 0
-8162 310 0
-128 -206 -310 8162 0
-8163 129 0
-8163 207 0
-8163 311 0
-129 -207 -311 8163 0
-8164 130 0
-8164 208 0
-8164 312 0
-130 -208 -312 8164 0
-8139 10125 0
-8140 10125 0
-8141 10125 0
-8142 10125 0
-8143 10125 0
-8144 10125 0
-8145 10125 0
-8146 10125 0
-8147 10125 0
-8148 10125 0
-8149 10125 0
-8150 10125 0
-8151 10125 0
-8152 10125 0
-8153 10125 0
-8154 10125 0
-8155 10125 0
-8156 10125 0
-8157 10125 0
-8158 10125 0
-8159 10125 0
-8160 10125 0
-8161 10125 0
-8162 10125 0
-8163 10125 0
-8164 10125 0
-10125 8139 8140 8141 8142 8143 8144 8145 8146 8147 8148 8149 8150 8151 8152 8153 8154 8155 8156 8157 8158 8159 8160 8161 8162 8163 8164 0
-8165 105 0
-8165 183 0
-8165 313 0
-105 -183 -313 8165 0
-8166 106 0
-8166 184 0
-8166 314 0
-106 -184 -314 8166 0
-8167 107 0
-8167 185 0
-8167 315 0
-107 -185 -315 8167 0
-8168 108 0
-8168 186 0
-8168 316 0
-108 -186 -316 8168 0
-8169 109 0
-8169 187 0
-8169 317 0
-109 -187 -317 8169 0
-8170 110 0
-8170 188 0
-8170 318 0
-110 -188 -318 8170 0
-8171 111 0
-8171 189 0
-8171 319 0
-111 -189 -319 8171 0
-8172 112 0
-8172 190 0
-8172 320 0
-112 -190 -320 8172 0
-8173 113 0
-8173 191 0
-8173 321 0
-113 -191 -321 8173 0
-8174 114 0
-8174 192 0
-8174 322 0
-114 -192 -322 8174 0
-8175 115 0
-8175 193 0
-8175 323 0
-115 -193 -323 8175 0
-8176 116 0
-8176 194 0
-8176 324 0
-116 -194 -324 8176 0
-8177 117 0
-8177 195 0
-8177 325 0
-117 -195 -325 8177 0
-8178 118 0
-8178 196 0
-8178 326 0
-118 -196 -326 8178 0
-8179 119 0
-8179 197 0
-8179 327 0
-119 -197 -327 8179 0
-8180 120 0
-8180 198 0
-8180 328 0
-120 -198 -328 8180 0
-8181 121 0
-8181 199 0
-8181 329 0
-121 -199 -329 8181 0
-8182 122 0
-8182 200 0
-8182 330 0
-122 -200 -330 8182 0
-8183 123 0
-8183 201 0
-8183 331 0
-123 -201 -331 8183 0
-8184 124 0
-8184 202 0
-8184 332 0
-124 -202 -332 8184 0
-8185 125 0
-8185 203 0
-8185 333 0
-125 -203 -333 8185 0
-8186 126 0
-8186 204 0
-8186 334 0
-126 -204 -334 8186 0
-8187 127 0
-8187 205 0
-8187 335 0
-127 -205 -335 8187 0
-8188 128 0
-8188 206 0
-8188 336 0
-128 -206 -336 8188 0
-8189 129 0
-8189 207 0
-8189 337 0
-129 -207 -337 8189 0
-8190 130 0
-8190 208 0
-8190 338 0
-130 -208 -338 8190 0
-8165 10126 0
-8166 10126 0
-8167 10126 0
-8168 10126 0
-8169 10126 0
-8170 10126 0
-8171 10126 0
-8172 10126 0
-8173 10126 0
-8174 10126 0
-8175 10126 0
-8176 10126 0
-8177 10126 0
-8178 10126 0
-8179 10126 0
-8180 10126 0
-8181 10126 0
-8182 10126 0
-8183 10126 0
-8184 10126 0
-8185 10126 0
-8186 10126 0
-8187 10126 0
-8188 10126 0
-8189 10126 0
-8190 10126 0
-10126 8165 8166 8167 8168 8169 8170 8171 8172 8173 8174 8175 8176 8177 8178 8179 8180 8181 8182 8183 8184 8185 8186 8187 8188 8189 8190 0
-8191 105 0
-8191 209 0
-8191 235 0
-105 -209 -235 8191 0
-8192 106 0
-8192 210 0
-8192 236 0
-106 -210 -236 8192 0
-8193 107 0
-8193 211 0
-8193 237 0
-107 -211 -237 8193 0
-8194 108 0
-8194 212 0
-8194 238 0
-108 -212 -238 8194 0
-8195 109 0
-8195 213 0
-8195 239 0
-109 -213 -239 8195 0
-8196 110 0
-8196 214 0
-8196 240 0
-110 -214 -240 8196 0
-8197 111 0
-8197 215 0
-8197 241 0
-111 -215 -241 8197 0
-8198 112 0
-8198 216 0
-8198 242 0
-112 -216 -242 8198 0
-8199 113 0
-8199 217 0
-8199 243 0
-113 -217 -243 8199 0
-8200 114 0
-8200 218 0
-8200 244 0
-114 -218 -244 8200 0
-8201 115 0
-8201 219 0
-8201 245 0
-115 -219 -245 8201 0
-8202 116 0
-8202 220 0
-8202 246 0
-116 -220 -246 8202 0
-8203 117 0
-8203 221 0
-8203 247 0
-117 -221 -247 8203 0
-8204 118 0
-8204 222 0
-8204 248 0
-118 -222 -248 8204 0
-8205 119 0
-8205 223 0
-8205 249 0
-119 -223 -249 8205 0
-8206 120 0
-8206 224 0
-8206 250 0
-120 -224 -250 8206 0
-8207 121 0
-8207 225 0
-8207 251 0
-121 -225 -251 8207 0
-8208 122 0
-8208 226 0
-8208 252 0
-122 -226 -252 8208 0
-8209 123 0
-8209 227 0
-8209 253 0
-123 -227 -253 8209 0
-8210 124 0
-8210 228 0
-8210 254 0
-124 -228 -254 8210 0
-8211 125 0
-8211 229 0
-8211 255 0
-125 -229 -255 8211 0
-8212 126 0
-8212 230 0
-8212 256 0
-126 -230 -256 8212 0
-8213 127 0
-8213 231 0
-8213 257 0
-127 -231 -257 8213 0
-8214 128 0
-8214 232 0
-8214 258 0
-128 -232 -258 8214 0
-8215 129 0
-8215 233 0
-8215 259 0
-129 -233 -259 8215 0
-8216 130 0
-8216 234 0
-8216 260 0
-130 -234 -260 8216 0
-8191 10127 0
-8192 10127 0
-8193 10127 0
-8194 10127 0
-8195 10127 0
-8196 10127 0
-8197 10127 0
-8198 10127 0
-8199 10127 0
-8200 10127 0
-8201 10127 0
-8202 10127 0
-8203 10127 0
-8204 10127 0
-8205 10127 0
-8206 10127 0
-8207 10127 0
-8208 10127 0
-8209 10127 0
-8210 10127 0
-8211 10127 0
-8212 10127 0
-8213 10127 0
-8214 10127 0
-8215 10127 0
-8216 10127 0
-10127 8191 8192 8193 8194 8195 8196 8197 8198 8199 8200 8201 8202 8203 8204 8205 8206 8207 8208 8209 8210 8211 8212 8213 8214 8215 8216 0
-8217 105 0
-8217 209 0
-8217 261 0
-105 -209 -261 8217 0
-8218 106 0
-8218 210 0
-8218 262 0
-106 -210 -262 8218 0
-8219 107 0
-8219 211 0
-8219 263 0
-107 -211 -263 8219 0
-8220 108 0
-8220 212 0
-8220 264 0
-108 -212 -264 8220 0
-8221 109 0
-8221 213 0
-8221 265 0
-109 -213 -265 8221 0
-8222 110 0
-8222 214 0
-8222 266 0
-110 -214 -266 8222 0
-8223 111 0
-8223 215 0
-8223 267 0
-111 -215 -267 8223 0
-8224 112 0
-8224 216 0
-8224 268 0
-112 -216 -268 8224 0
-8225 113 0
-8225 217 0
-8225 269 0
-113 -217 -269 8225 0
-8226 114 0
-8226 218 0
-8226 270 0
-114 -218 -270 8226 0
-8227 115 0
-8227 219 0
-8227 271 0
-115 -219 -271 8227 0
-8228 116 0
-8228 220 0
-8228 272 0
-116 -220 -272 8228 0
-8229 117 0
-8229 221 0
-8229 273 0
-117 -221 -273 8229 0
-8230 118 0
-8230 222 0
-8230 274 0
-118 -222 -274 8230 0
-8231 119 0
-8231 223 0
-8231 275 0
-119 -223 -275 8231 0
-8232 120 0
-8232 224 0
-8232 276 0
-120 -224 -276 8232 0
-8233 121 0
-8233 225 0
-8233 277 0
-121 -225 -277 8233 0
-8234 122 0
-8234 226 0
-8234 278 0
-122 -226 -278 8234 0
-8235 123 0
-8235 227 0
-8235 279 0
-123 -227 -279 8235 0
-8236 124 0
-8236 228 0
-8236 280 0
-124 -228 -280 8236 0
-8237 125 0
-8237 229 0
-8237 281 0
-125 -229 -281 8237 0
-8238 126 0
-8238 230 0
-8238 282 0
-126 -230 -282 8238 0
-8239 127 0
-8239 231 0
-8239 283 0
-127 -231 -283 8239 0
-8240 128 0
-8240 232 0
-8240 284 0
-128 -232 -284 8240 0
-8241 129 0
-8241 233 0
-8241 285 0
-129 -233 -285 8241 0
-8242 130 0
-8242 234 0
-8242 286 0
-130 -234 -286 8242 0
-8217 10128 0
-8218 10128 0
-8219 10128 0
-8220 10128 0
-8221 10128 0
-8222 10128 0
-8223 10128 0
-8224 10128 0
-8225 10128 0
-8226 10128 0
-8227 10128 0
-8228 10128 0
-8229 10128 0
-8230 10128 0
-8231 10128 0
-8232 10128 0
-8233 10128 0
-8234 10128 0
-8235 10128 0
-8236 10128 0
-8237 10128 0
-8238 10128 0
-8239 10128 0
-8240 10128 0
-8241 10128 0
-8242 10128 0
-10128 8217 8218 8219 8220 8221 8222 8223 8224 8225 8226 8227 8228 8229 8230 8231 8232 8233 8234 8235 8236 8237 8238 8239 8240 8241 8242 0
-8243 105 0
-8243 209 0
-8243 287 0
-105 -209 -287 8243 0
-8244 106 0
-8244 210 0
-8244 288 0
-106 -210 -288 8244 0
-8245 107 0
-8245 211 0
-8245 289 0
-107 -211 -289 8245 0
-8246 108 0
-8246 212 0
-8246 290 0
-108 -212 -290 8246 0
-8247 109 0
-8247 213 0
-8247 291 0
-109 -213 -291 8247 0
-8248 110 0
-8248 214 0
-8248 292 0
-110 -214 -292 8248 0
-8249 111 0
-8249 215 0
-8249 293 0
-111 -215 -293 8249 0
-8250 112 0
-8250 216 0
-8250 294 0
-112 -216 -294 8250 0
-8251 113 0
-8251 217 0
-8251 295 0
-113 -217 -295 8251 0
-8252 114 0
-8252 218 0
-8252 296 0
-114 -218 -296 8252 0
-8253 115 0
-8253 219 0
-8253 297 0
-115 -219 -297 8253 0
-8254 116 0
-8254 220 0
-8254 298 0
-116 -220 -298 8254 0
-8255 117 0
-8255 221 0
-8255 299 0
-117 -221 -299 8255 0
-8256 118 0
-8256 222 0
-8256 300 0
-118 -222 -300 8256 0
-8257 119 0
-8257 223 0
-8257 301 0
-119 -223 -301 8257 0
-8258 120 0
-8258 224 0
-8258 302 0
-120 -224 -302 8258 0
-8259 121 0
-8259 225 0
-8259 303 0
-121 -225 -303 8259 0
-8260 122 0
-8260 226 0
-8260 304 0
-122 -226 -304 8260 0
-8261 123 0
-8261 227 0
-8261 305 0
-123 -227 -305 8261 0
-8262 124 0
-8262 228 0
-8262 306 0
-124 -228 -306 8262 0
-8263 125 0
-8263 229 0
-8263 307 0
-125 -229 -307 8263 0
-8264 126 0
-8264 230 0
-8264 308 0
-126 -230 -308 8264 0
-8265 127 0
-8265 231 0
-8265 309 0
-127 -231 -309 8265 0
-8266 128 0
-8266 232 0
-8266 310 0
-128 -232 -310 8266 0
-8267 129 0
-8267 233 0
-8267 311 0
-129 -233 -311 8267 0
-8268 130 0
-8268 234 0
-8268 312 0
-130 -234 -312 8268 0
-8243 10129 0
-8244 10129 0
-8245 10129 0
-8246 10129 0
-8247 10129 0
-8248 10129 0
-8249 10129 0
-8250 10129 0
-8251 10129 0
-8252 10129 0
-8253 10129 0
-8254 10129 0
-8255 10129 0
-8256 10129 0
-8257 10129 0
-8258 10129 0
-8259 10129 0
-8260 10129 0
-8261 10129 0
-8262 10129 0
-8263 10129 0
-8264 10129 0
-8265 10129 0
-8266 10129 0
-8267 10129 0
-8268 10129 0
-10129 8243 8244 8245 8246 8247 8248 8249 8250 8251 8252 8253 8254 8255 8256 8257 8258 8259 8260 8261 8262 8263 8264 8265 8266 8267 8268 0
-8269 105 0
-8269 209 0
-8269 313 0
-105 -209 -313 8269 0
-8270 106 0
-8270 210 0
-8270 314 0
-106 -210 -314 8270 0
-8271 107 0
-8271 211 0
-8271 315 0
-107 -211 -315 8271 0
-8272 108 0
-8272 212 0
-8272 316 0
-108 -212 -316 8272 0
-8273 109 0
-8273 213 0
-8273 317 0
-109 -213 -317 8273 0
-8274 110 0
-8274 214 0
-8274 318 0
-110 -214 -318 8274 0
-8275 111 0
-8275 215 0
-8275 319 0
-111 -215 -319 8275 0
-8276 112 0
-8276 216 0
-8276 320 0
-112 -216 -320 8276 0
-8277 113 0
-8277 217 0
-8277 321 0
-113 -217 -321 8277 0
-8278 114 0
-8278 218 0
-8278 322 0
-114 -218 -322 8278 0
-8279 115 0
-8279 219 0
-8279 323 0
-115 -219 -323 8279 0
-8280 116 0
-8280 220 0
-8280 324 0
-116 -220 -324 8280 0
-8281 117 0
-8281 221 0
-8281 325 0
-117 -221 -325 8281 0
-8282 118 0
-8282 222 0
-8282 326 0
-118 -222 -326 8282 0
-8283 119 0
-8283 223 0
-8283 327 0
-119 -223 -327 8283 0
-8284 120 0
-8284 224 0
-8284 328 0
-120 -224 -328 8284 0
-8285 121 0
-8285 225 0
-8285 329 0
-121 -225 -329 8285 0
-8286 122 0
-8286 226 0
-8286 330 0
-122 -226 -330 8286 0
-8287 123 0
-8287 227 0
-8287 331 0
-123 -227 -331 8287 0
-8288 124 0
-8288 228 0
-8288 332 0
-124 -228 -332 8288 0
-8289 125 0
-8289 229 0
-8289 333 0
-125 -229 -333 8289 0
-8290 126 0
-8290 230 0
-8290 334 0
-126 -230 -334 8290 0
-8291 127 0
-8291 231 0
-8291 335 0
-127 -231 -335 8291 0
-8292 128 0
-8292 232 0
-8292 336 0
-128 -232 -336 8292 0
-8293 129 0
-8293 233 0
-8293 337 0
-129 -233 -337 8293 0
-8294 130 0
-8294 234 0
-8294 338 0
-130 -234 -338 8294 0
-8269 10130 0
-8270 10130 0
-8271 10130 0
-8272 10130 0
-8273 10130 0
-8274 10130 0
-8275 10130 0
-8276 10130 0
-8277 10130 0
-8278 10130 0
-8279 10130 0
-8280 10130 0
-8281 10130 0
-8282 10130 0
-8283 10130 0
-8284 10130 0
-8285 10130 0
-8286 10130 0
-8287 10130 0
-8288 10130 0
-8289 10130 0
-8290 10130 0
-8291 10130 0
-8292 10130 0
-8293 10130 0
-8294 10130 0
-10130 8269 8270 8271 8272 8273 8274 8275 8276 8277 8278 8279 8280 8281 8282 8283 8284 8285 8286 8287 8288 8289 8290 8291 8292 8293 8294 0
-8295 105 0
-8295 235 0
-8295 261 0
-105 -235 -261 8295 0
-8296 106 0
-8296 236 0
-8296 262 0
-106 -236 -262 8296 0
-8297 107 0
-8297 237 0
-8297 263 0
-107 -237 -263 8297 0
-8298 108 0
-8298 238 0
-8298 264 0
-108 -238 -264 8298 0
-8299 109 0
-8299 239 0
-8299 265 0
-109 -239 -265 8299 0
-8300 110 0
-8300 240 0
-8300 266 0
-110 -240 -266 8300 0
-8301 111 0
-8301 241 0
-8301 267 0
-111 -241 -267 8301 0
-8302 112 0
-8302 242 0
-8302 268 0
-112 -242 -268 8302 0
-8303 113 0
-8303 243 0
-8303 269 0
-113 -243 -269 8303 0
-8304 114 0
-8304 244 0
-8304 270 0
-114 -244 -270 8304 0
-8305 115 0
-8305 245 0
-8305 271 0
-115 -245 -271 8305 0
-8306 116 0
-8306 246 0
-8306 272 0
-116 -246 -272 8306 0
-8307 117 0
-8307 247 0
-8307 273 0
-117 -247 -273 8307 0
-8308 118 0
-8308 248 0
-8308 274 0
-118 -248 -274 8308 0
-8309 119 0
-8309 249 0
-8309 275 0
-119 -249 -275 8309 0
-8310 120 0
-8310 250 0
-8310 276 0
-120 -250 -276 8310 0
-8311 121 0
-8311 251 0
-8311 277 0
-121 -251 -277 8311 0
-8312 122 0
-8312 252 0
-8312 278 0
-122 -252 -278 8312 0
-8313 123 0
-8313 253 0
-8313 279 0
-123 -253 -279 8313 0
-8314 124 0
-8314 254 0
-8314 280 0
-124 -254 -280 8314 0
-8315 125 0
-8315 255 0
-8315 281 0
-125 -255 -281 8315 0
-8316 126 0
-8316 256 0
-8316 282 0
-126 -256 -282 8316 0
-8317 127 0
-8317 257 0
-8317 283 0
-127 -257 -283 8317 0
-8318 128 0
-8318 258 0
-8318 284 0
-128 -258 -284 8318 0
-8319 129 0
-8319 259 0
-8319 285 0
-129 -259 -285 8319 0
-8320 130 0
-8320 260 0
-8320 286 0
-130 -260 -286 8320 0
-8295 10131 0
-8296 10131 0
-8297 10131 0
-8298 10131 0
-8299 10131 0
-8300 10131 0
-8301 10131 0
-8302 10131 0
-8303 10131 0
-8304 10131 0
-8305 10131 0
-8306 10131 0
-8307 10131 0
-8308 10131 0
-8309 10131 0
-8310 10131 0
-8311 10131 0
-8312 10131 0
-8313 10131 0
-8314 10131 0
-8315 10131 0
-8316 10131 0
-8317 10131 0
-8318 10131 0
-8319 10131 0
-8320 10131 0
-10131 8295 8296 8297 8298 8299 8300 8301 8302 8303 8304 8305 8306 8307 8308 8309 8310 8311 8312 8313 8314 8315 8316 8317 8318 8319 8320 0
-8321 105 0
-8321 235 0
-8321 287 0
-105 -235 -287 8321 0
-8322 106 0
-8322 236 0
-8322 288 0
-106 -236 -288 8322 0
-8323 107 0
-8323 237 0
-8323 289 0
-107 -237 -289 8323 0
-8324 108 0
-8324 238 0
-8324 290 0
-108 -238 -290 8324 0
-8325 109 0
-8325 239 0
-8325 291 0
-109 -239 -291 8325 0
-8326 110 0
-8326 240 0
-8326 292 0
-110 -240 -292 8326 0
-8327 111 0
-8327 241 0
-8327 293 0
-111 -241 -293 8327 0
-8328 112 0
-8328 242 0
-8328 294 0
-112 -242 -294 8328 0
-8329 113 0
-8329 243 0
-8329 295 0
-113 -243 -295 8329 0
-8330 114 0
-8330 244 0
-8330 296 0
-114 -244 -296 8330 0
-8331 115 0
-8331 245 0
-8331 297 0
-115 -245 -297 8331 0
-8332 116 0
-8332 246 0
-8332 298 0
-116 -246 -298 8332 0
-8333 117 0
-8333 247 0
-8333 299 0
-117 -247 -299 8333 0
-8334 118 0
-8334 248 0
-8334 300 0
-118 -248 -300 8334 0
-8335 119 0
-8335 249 0
-8335 301 0
-119 -249 -301 8335 0
-8336 120 0
-8336 250 0
-8336 302 0
-120 -250 -302 8336 0
-8337 121 0
-8337 251 0
-8337 303 0
-121 -251 -303 8337 0
-8338 122 0
-8338 252 0
-8338 304 0
-122 -252 -304 8338 0
-8339 123 0
-8339 253 0
-8339 305 0
-123 -253 -305 8339 0
-8340 124 0
-8340 254 0
-8340 306 0
-124 -254 -306 8340 0
-8341 125 0
-8341 255 0
-8341 307 0
-125 -255 -307 8341 0
-8342 126 0
-8342 256 0
-8342 308 0
-126 -256 -308 8342 0
-8343 127 0
-8343 257 0
-8343 309 0
-127 -257 -309 8343 0
-8344 128 0
-8344 258 0
-8344 310 0
-128 -258 -310 8344 0
-8345 129 0
-8345 259 0
-8345 311 0
-129 -259 -311 8345 0
-8346 130 0
-8346 260 0
-8346 312 0
-130 -260 -312 8346 0
-8321 10132 0
-8322 10132 0
-8323 10132 0
-8324 10132 0
-8325 10132 0
-8326 10132 0
-8327 10132 0
-8328 10132 0
-8329 10132 0
-8330 10132 0
-8331 10132 0
-8332 10132 0
-8333 10132 0
-8334 10132 0
-8335 10132 0
-8336 10132 0
-8337 10132 0
-8338 10132 0
-8339 10132 0
-8340 10132 0
-8341 10132 0
-8342 10132 0
-8343 10132 0
-8344 10132 0
-8345 10132 0
-8346 10132 0
-10132 8321 8322 8323 8324 8325 8326 8327 8328 8329 8330 8331 8332 8333 8334 8335 8336 8337 8338 8339 8340 8341 8342 8343 8344 8345 8346 0
-8347 105 0
-8347 235 0
-8347 313 0
-105 -235 -313 8347 0
-8348 106 0
-8348 236 0
-8348 314 0
-106 -236 -314 8348 0
-8349 107 0
-8349 237 0
-8349 315 0
-107 -237 -315 8349 0
-8350 108 0
-8350 238 0
-8350 316 0
-108 -238 -316 8350 0
-8351 109 0
-8351 239 0
-8351 317 0
-109 -239 -317 8351 0
-8352 110 0
-8352 240 0
-8352 318 0
-110 -240 -318 8352 0
-8353 111 0
-8353 241 0
-8353 319 0
-111 -241 -319 8353 0
-8354 112 0
-8354 242 0
-8354 320 0
-112 -242 -320 8354 0
-8355 113 0
-8355 243 0
-8355 321 0
-113 -243 -321 8355 0
-8356 114 0
-8356 244 0
-8356 322 0
-114 -244 -322 8356 0
-8357 115 0
-8357 245 0
-8357 323 0
-115 -245 -323 8357 0
-8358 116 0
-8358 246 0
-8358 324 0
-116 -246 -324 8358 0
-8359 117 0
-8359 247 0
-8359 325 0
-117 -247 -325 8359 0
-8360 118 0
-8360 248 0
-8360 326 0
-118 -248 -326 8360 0
-8361 119 0
-8361 249 0
-8361 327 0
-119 -249 -327 8361 0
-8362 120 0
-8362 250 0
-8362 328 0
-120 -250 -328 8362 0
-8363 121 0
-8363 251 0
-8363 329 0
-121 -251 -329 8363 0
-8364 122 0
-8364 252 0
-8364 330 0
-122 -252 -330 8364 0
-8365 123 0
-8365 253 0
-8365 331 0
-123 -253 -331 8365 0
-8366 124 0
-8366 254 0
-8366 332 0
-124 -254 -332 8366 0
-8367 125 0
-8367 255 0
-8367 333 0
-125 -255 -333 8367 0
-8368 126 0
-8368 256 0
-8368 334 0
-126 -256 -334 8368 0
-8369 127 0
-8369 257 0
-8369 335 0
-127 -257 -335 8369 0
-8370 128 0
-8370 258 0
-8370 336 0
-128 -258 -336 8370 0
-8371 129 0
-8371 259 0
-8371 337 0
-129 -259 -337 8371 0
-8372 130 0
-8372 260 0
-8372 338 0
-130 -260 -338 8372 0
-8347 10133 0
-8348 10133 0
-8349 10133 0
-8350 10133 0
-8351 10133 0
-8352 10133 0
-8353 10133 0
-8354 10133 0
-8355 10133 0
-8356 10133 0
-8357 10133 0
-8358 10133 0
-8359 10133 0
-8360 10133 0
-8361 10133 0
-8362 10133 0
-8363 10133 0
-8364 10133 0
-8365 10133 0
-8366 10133 0
-8367 10133 0
-8368 10133 0
-8369 10133 0
-8370 10133 0
-8371 10133 0
-8372 10133 0
-10133 8347 8348 8349 8350 8351 8352 8353 8354 8355 8356 8357 8358 8359 8360 8361 8362 8363 8364 8365 8366 8367 8368 8369 8370 8371 8372 0
-8373 105 0
-8373 261 0
-8373 287 0
-105 -261 -287 8373 0
-8374 106 0
-8374 262 0
-8374 288 0
-106 -262 -288 8374 0
-8375 107 0
-8375 263 0
-8375 289 0
-107 -263 -289 8375 0
-8376 108 0
-8376 264 0
-8376 290 0
-108 -264 -290 8376 0
-8377 109 0
-8377 265 0
-8377 291 0
-109 -265 -291 8377 0
-8378 110 0
-8378 266 0
-8378 292 0
-110 -266 -292 8378 0
-8379 111 0
-8379 267 0
-8379 293 0
-111 -267 -293 8379 0
-8380 112 0
-8380 268 0
-8380 294 0
-112 -268 -294 8380 0
-8381 113 0
-8381 269 0
-8381 295 0
-113 -269 -295 8381 0
-8382 114 0
-8382 270 0
-8382 296 0
-114 -270 -296 8382 0
-8383 115 0
-8383 271 0
-8383 297 0
-115 -271 -297 8383 0
-8384 116 0
-8384 272 0
-8384 298 0
-116 -272 -298 8384 0
-8385 117 0
-8385 273 0
-8385 299 0
-117 -273 -299 8385 0
-8386 118 0
-8386 274 0
-8386 300 0
-118 -274 -300 8386 0
-8387 119 0
-8387 275 0
-8387 301 0
-119 -275 -301 8387 0
-8388 120 0
-8388 276 0
-8388 302 0
-120 -276 -302 8388 0
-8389 121 0
-8389 277 0
-8389 303 0
-121 -277 -303 8389 0
-8390 122 0
-8390 278 0
-8390 304 0
-122 -278 -304 8390 0
-8391 123 0
-8391 279 0
-8391 305 0
-123 -279 -305 8391 0
-8392 124 0
-8392 280 0
-8392 306 0
-124 -280 -306 8392 0
-8393 125 0
-8393 281 0
-8393 307 0
-125 -281 -307 8393 0
-8394 126 0
-8394 282 0
-8394 308 0
-126 -282 -308 8394 0
-8395 127 0
-8395 283 0
-8395 309 0
-127 -283 -309 8395 0
-8396 128 0
-8396 284 0
-8396 310 0
-128 -284 -310 8396 0
-8397 129 0
-8397 285 0
-8397 311 0
-129 -285 -311 8397 0
-8398 130 0
-8398 286 0
-8398 312 0
-130 -286 -312 8398 0
-8373 10134 0
-8374 10134 0
-8375 10134 0
-8376 10134 0
-8377 10134 0
-8378 10134 0
-8379 10134 0
-8380 10134 0
-8381 10134 0
-8382 10134 0
-8383 10134 0
-8384 10134 0
-8385 10134 0
-8386 10134 0
-8387 10134 0
-8388 10134 0
-8389 10134 0
-8390 10134 0
-8391 10134 0
-8392 10134 0
-8393 10134 0
-8394 10134 0
-8395 10134 0
-8396 10134 0
-8397 10134 0
-8398 10134 0
-10134 8373 8374 8375 8376 8377 8378 8379 8380 8381 8382 8383 8384 8385 8386 8387 8388 8389 8390 8391 8392 8393 8394 8395 8396 8397 8398 0
-8399 105 0
-8399 261 0
-8399 313 0
-105 -261 -313 8399 0
-8400 106 0
-8400 262 0
-8400 314 0
-106 -262 -314 8400 0
-8401 107 0
-8401 263 0
-8401 315 0
-107 -263 -315 8401 0
-8402 108 0
-8402 264 0
-8402 316 0
-108 -264 -316 8402 0
-8403 109 0
-8403 265 0
-8403 317 0
-109 -265 -317 8403 0
-8404 110 0
-8404 266 0
-8404 318 0
-110 -266 -318 8404 0
-8405 111 0
-8405 267 0
-8405 319 0
-111 -267 -319 8405 0
-8406 112 0
-8406 268 0
-8406 320 0
-112 -268 -320 8406 0
-8407 113 0
-8407 269 0
-8407 321 0
-113 -269 -321 8407 0
-8408 114 0
-8408 270 0
-8408 322 0
-114 -270 -322 8408 0
-8409 115 0
-8409 271 0
-8409 323 0
-115 -271 -323 8409 0
-8410 116 0
-8410 272 0
-8410 324 0
-116 -272 -324 8410 0
-8411 117 0
-8411 273 0
-8411 325 0
-117 -273 -325 8411 0
-8412 118 0
-8412 274 0
-8412 326 0
-118 -274 -326 8412 0
-8413 119 0
-8413 275 0
-8413 327 0
-119 -275 -327 8413 0
-8414 120 0
-8414 276 0
-8414 328 0
-120 -276 -328 8414 0
-8415 121 0
-8415 277 0
-8415 329 0
-121 -277 -329 8415 0
-8416 122 0
-8416 278 0
-8416 330 0
-122 -278 -330 8416 0
-8417 123 0
-8417 279 0
-8417 331 0
-123 -279 -331 8417 0
-8418 124 0
-8418 280 0
-8418 332 0
-124 -280 -332 8418 0
-8419 125 0
-8419 281 0
-8419 333 0
-125 -281 -333 8419 0
-8420 126 0
-8420 282 0
-8420 334 0
-126 -282 -334 8420 0
-8421 127 0
-8421 283 0
-8421 335 0
-127 -283 -335 8421 0
-8422 128 0
-8422 284 0
-8422 336 0
-128 -284 -336 8422 0
-8423 129 0
-8423 285 0
-8423 337 0
-129 -285 -337 8423 0
-8424 130 0
-8424 286 0
-8424 338 0
-130 -286 -338 8424 0
-8399 10135 0
-8400 10135 0
-8401 10135 0
-8402 10135 0
-8403 10135 0
-8404 10135 0
-8405 10135 0
-8406 10135 0
-8407 10135 0
-8408 10135 0
-8409 10135 0
-8410 10135 0
-8411 10135 0
-8412 10135 0
-8413 10135 0
-8414 10135 0
-8415 10135 0
-8416 10135 0
-8417 10135 0
-8418 10135 0
-8419 10135 0
-8420 10135 0
-8421 10135 0
-8422 10135 0
-8423 10135 0
-8424 10135 0
-10135 8399 8400 8401 8402 8403 8404 8405 8406 8407 8408 8409 8410 8411 8412 8413 8414 8415 8416 8417 8418 8419 8420 8421 8422 8423 8424 0
-8425 105 0
-8425 287 0
-8425 313 0
-105 -287 -313 8425 0
-8426 106 0
-8426 288 0
-8426 314 0
-106 -288 -314 8426 0
-8427 107 0
-8427 289 0
-8427 315 0
-107 -289 -315 8427 0
-8428 108 0
-8428 290 0
-8428 316 0
-108 -290 -316 8428 0
-8429 109 0
-8429 291 0
-8429 317 0
-109 -291 -317 8429 0
-8430 110 0
-8430 292 0
-8430 318 0
-110 -292 -318 8430 0
-8431 111 0
-8431 293 0
-8431 319 0
-111 -293 -319 8431 0
-8432 112 0
-8432 294 0
-8432 320 0
-112 -294 -320 8432 0
-8433 113 0
-8433 295 0
-8433 321 0
-113 -295 -321 8433 0
-8434 114 0
-8434 296 0
-8434 322 0
-114 -296 -322 8434 0
-8435 115 0
-8435 297 0
-8435 323 0
-115 -297 -323 8435 0
-8436 116 0
-8436 298 0
-8436 324 0
-116 -298 -324 8436 0
-8437 117 0
-8437 299 0
-8437 325 0
-117 -299 -325 8437 0
-8438 118 0
-8438 300 0
-8438 326 0
-118 -300 -326 8438 0
-8439 119 0
-8439 301 0
-8439 327 0
-119 -301 -327 8439 0
-8440 120 0
-8440 302 0
-8440 328 0
-120 -302 -328 8440 0
-8441 121 0
-8441 303 0
-8441 329 0
-121 -303 -329 8441 0
-8442 122 0
-8442 304 0
-8442 330 0
-122 -304 -330 8442 0
-8443 123 0
-8443 305 0
-8443 331 0
-123 -305 -331 8443 0
-8444 124 0
-8444 306 0
-8444 332 0
-124 -306 -332 8444 0
-8445 125 0
-8445 307 0
-8445 333 0
-125 -307 -333 8445 0
-8446 126 0
-8446 308 0
-8446 334 0
-126 -308 -334 8446 0
-8447 127 0
-8447 309 0
-8447 335 0
-127 -309 -335 8447 0
-8448 128 0
-8448 310 0
-8448 336 0
-128 -310 -336 8448 0
-8449 129 0
-8449 311 0
-8449 337 0
-129 -311 -337 8449 0
-8450 130 0
-8450 312 0
-8450 338 0
-130 -312 -338 8450 0
-8425 10136 0
-8426 10136 0
-8427 10136 0
-8428 10136 0
-8429 10136 0
-8430 10136 0
-8431 10136 0
-8432 10136 0
-8433 10136 0
-8434 10136 0
-8435 10136 0
-8436 10136 0
-8437 10136 0
-8438 10136 0
-8439 10136 0
-8440 10136 0
-8441 10136 0
-8442 10136 0
-8443 10136 0
-8444 10136 0
-8445 10136 0
-8446 10136 0
-8447 10136 0
-8448 10136 0
-8449 10136 0
-8450 10136 0
-10136 8425 8426 8427 8428 8429 8430 8431 8432 8433 8434 8435 8436 8437 8438 8439 8440 8441 8442 8443 8444 8445 8446 8447 8448 8449 8450 0
-8451 131 0
-8451 157 0
-8451 183 0
-131 -157 -183 8451 0
-8452 132 0
-8452 158 0
-8452 184 0
-132 -158 -184 8452 0
-8453 133 0
-8453 159 0
-8453 185 0
-133 -159 -185 8453 0
-8454 134 0
-8454 160 0
-8454 186 0
-134 -160 -186 8454 0
-8455 135 0
-8455 161 0
-8455 187 0
-135 -161 -187 8455 0
-8456 136 0
-8456 162 0
-8456 188 0
-136 -162 -188 8456 0
-8457 137 0
-8457 163 0
-8457 189 0
-137 -163 -189 8457 0
-8458 138 0
-8458 164 0
-8458 190 0
-138 -164 -190 8458 0
-8459 139 0
-8459 165 0
-8459 191 0
-139 -165 -191 8459 0
-8460 140 0
-8460 166 0
-8460 192 0
-140 -166 -192 8460 0
-8461 141 0
-8461 167 0
-8461 193 0
-141 -167 -193 8461 0
-8462 142 0
-8462 168 0
-8462 194 0
-142 -168 -194 8462 0
-8463 143 0
-8463 169 0
-8463 195 0
-143 -169 -195 8463 0
-8464 144 0
-8464 170 0
-8464 196 0
-144 -170 -196 8464 0
-8465 145 0
-8465 171 0
-8465 197 0
-145 -171 -197 8465 0
-8466 146 0
-8466 172 0
-8466 198 0
-146 -172 -198 8466 0
-8467 147 0
-8467 173 0
-8467 199 0
-147 -173 -199 8467 0
-8468 148 0
-8468 174 0
-8468 200 0
-148 -174 -200 8468 0
-8469 149 0
-8469 175 0
-8469 201 0
-149 -175 -201 8469 0
-8470 150 0
-8470 176 0
-8470 202 0
-150 -176 -202 8470 0
-8471 151 0
-8471 177 0
-8471 203 0
-151 -177 -203 8471 0
-8472 152 0
-8472 178 0
-8472 204 0
-152 -178 -204 8472 0
-8473 153 0
-8473 179 0
-8473 205 0
-153 -179 -205 8473 0
-8474 154 0
-8474 180 0
-8474 206 0
-154 -180 -206 8474 0
-8475 155 0
-8475 181 0
-8475 207 0
-155 -181 -207 8475 0
-8476 156 0
-8476 182 0
-8476 208 0
-156 -182 -208 8476 0
-8451 10137 0
-8452 10137 0
-8453 10137 0
-8454 10137 0
-8455 10137 0
-8456 10137 0
-8457 10137 0
-8458 10137 0
-8459 10137 0
-8460 10137 0
-8461 10137 0
-8462 10137 0
-8463 10137 0
-8464 10137 0
-8465 10137 0
-8466 10137 0
-8467 10137 0
-8468 10137 0
-8469 10137 0
-8470 10137 0
-8471 10137 0
-8472 10137 0
-8473 10137 0
-8474 10137 0
-8475 10137 0
-8476 10137 0
-10137 8451 8452 8453 8454 8455 8456 8457 8458 8459 8460 8461 8462 8463 8464 8465 8466 8467 8468 8469 8470 8471 8472 8473 8474 8475 8476 0
-8477 131 0
-8477 157 0
-8477 209 0
-131 -157 -209 8477 0
-8478 132 0
-8478 158 0
-8478 210 0
-132 -158 -210 8478 0
-8479 133 0
-8479 159 0
-8479 211 0
-133 -159 -211 8479 0
-8480 134 0
-8480 160 0
-8480 212 0
-134 -160 -212 8480 0
-8481 135 0
-8481 161 0
-8481 213 0
-135 -161 -213 8481 0
-8482 136 0
-8482 162 0
-8482 214 0
-136 -162 -214 8482 0
-8483 137 0
-8483 163 0
-8483 215 0
-137 -163 -215 8483 0
-8484 138 0
-8484 164 0
-8484 216 0
-138 -164 -216 8484 0
-8485 139 0
-8485 165 0
-8485 217 0
-139 -165 -217 8485 0
-8486 140 0
-8486 166 0
-8486 218 0
-140 -166 -218 8486 0
-8487 141 0
-8487 167 0
-8487 219 0
-141 -167 -219 8487 0
-8488 142 0
-8488 168 0
-8488 220 0
-142 -168 -220 8488 0
-8489 143 0
-8489 169 0
-8489 221 0
-143 -169 -221 8489 0
-8490 144 0
-8490 170 0
-8490 222 0
-144 -170 -222 8490 0
-8491 145 0
-8491 171 0
-8491 223 0
-145 -171 -223 8491 0
-8492 146 0
-8492 172 0
-8492 224 0
-146 -172 -224 8492 0
-8493 147 0
-8493 173 0
-8493 225 0
-147 -173 -225 8493 0
-8494 148 0
-8494 174 0
-8494 226 0
-148 -174 -226 8494 0
-8495 149 0
-8495 175 0
-8495 227 0
-149 -175 -227 8495 0
-8496 150 0
-8496 176 0
-8496 228 0
-150 -176 -228 8496 0
-8497 151 0
-8497 177 0
-8497 229 0
-151 -177 -229 8497 0
-8498 152 0
-8498 178 0
-8498 230 0
-152 -178 -230 8498 0
-8499 153 0
-8499 179 0
-8499 231 0
-153 -179 -231 8499 0
-8500 154 0
-8500 180 0
-8500 232 0
-154 -180 -232 8500 0
-8501 155 0
-8501 181 0
-8501 233 0
-155 -181 -233 8501 0
-8502 156 0
-8502 182 0
-8502 234 0
-156 -182 -234 8502 0
-8477 10138 0
-8478 10138 0
-8479 10138 0
-8480 10138 0
-8481 10138 0
-8482 10138 0
-8483 10138 0
-8484 10138 0
-8485 10138 0
-8486 10138 0
-8487 10138 0
-8488 10138 0
-8489 10138 0
-8490 10138 0
-8491 10138 0
-8492 10138 0
-8493 10138 0
-8494 10138 0
-8495 10138 0
-8496 10138 0
-8497 10138 0
-8498 10138 0
-8499 10138 0
-8500 10138 0
-8501 10138 0
-8502 10138 0
-10138 8477 8478 8479 8480 8481 8482 8483 8484 8485 8486 8487 8488 8489 8490 8491 8492 8493 8494 8495 8496 8497 8498 8499 8500 8501 8502 0
-8503 131 0
-8503 157 0
-8503 235 0
-131 -157 -235 8503 0
-8504 132 0
-8504 158 0
-8504 236 0
-132 -158 -236 8504 0
-8505 133 0
-8505 159 0
-8505 237 0
-133 -159 -237 8505 0
-8506 134 0
-8506 160 0
-8506 238 0
-134 -160 -238 8506 0
-8507 135 0
-8507 161 0
-8507 239 0
-135 -161 -239 8507 0
-8508 136 0
-8508 162 0
-8508 240 0
-136 -162 -240 8508 0
-8509 137 0
-8509 163 0
-8509 241 0
-137 -163 -241 8509 0
-8510 138 0
-8510 164 0
-8510 242 0
-138 -164 -242 8510 0
-8511 139 0
-8511 165 0
-8511 243 0
-139 -165 -243 8511 0
-8512 140 0
-8512 166 0
-8512 244 0
-140 -166 -244 8512 0
-8513 141 0
-8513 167 0
-8513 245 0
-141 -167 -245 8513 0
-8514 142 0
-8514 168 0
-8514 246 0
-142 -168 -246 8514 0
-8515 143 0
-8515 169 0
-8515 247 0
-143 -169 -247 8515 0
-8516 144 0
-8516 170 0
-8516 248 0
-144 -170 -248 8516 0
-8517 145 0
-8517 171 0
-8517 249 0
-145 -171 -249 8517 0
-8518 146 0
-8518 172 0
-8518 250 0
-146 -172 -250 8518 0
-8519 147 0
-8519 173 0
-8519 251 0
-147 -173 -251 8519 0
-8520 148 0
-8520 174 0
-8520 252 0
-148 -174 -252 8520 0
-8521 149 0
-8521 175 0
-8521 253 0
-149 -175 -253 8521 0
-8522 150 0
-8522 176 0
-8522 254 0
-150 -176 -254 8522 0
-8523 151 0
-8523 177 0
-8523 255 0
-151 -177 -255 8523 0
-8524 152 0
-8524 178 0
-8524 256 0
-152 -178 -256 8524 0
-8525 153 0
-8525 179 0
-8525 257 0
-153 -179 -257 8525 0
-8526 154 0
-8526 180 0
-8526 258 0
-154 -180 -258 8526 0
-8527 155 0
-8527 181 0
-8527 259 0
-155 -181 -259 8527 0
-8528 156 0
-8528 182 0
-8528 260 0
-156 -182 -260 8528 0
-8503 10139 0
-8504 10139 0
-8505 10139 0
-8506 10139 0
-8507 10139 0
-8508 10139 0
-8509 10139 0
-8510 10139 0
-8511 10139 0
-8512 10139 0
-8513 10139 0
-8514 10139 0
-8515 10139 0
-8516 10139 0
-8517 10139 0
-8518 10139 0
-8519 10139 0
-8520 10139 0
-8521 10139 0
-8522 10139 0
-8523 10139 0
-8524 10139 0
-8525 10139 0
-8526 10139 0
-8527 10139 0
-8528 10139 0
-10139 8503 8504 8505 8506 8507 8508 8509 8510 8511 8512 8513 8514 8515 8516 8517 8518 8519 8520 8521 8522 8523 8524 8525 8526 8527 8528 0
-8529 131 0
-8529 157 0
-8529 261 0
-131 -157 -261 8529 0
-8530 132 0
-8530 158 0
-8530 262 0
-132 -158 -262 8530 0
-8531 133 0
-8531 159 0
-8531 263 0
-133 -159 -263 8531 0
-8532 134 0
-8532 160 0
-8532 264 0
-134 -160 -264 8532 0
-8533 135 0
-8533 161 0
-8533 265 0
-135 -161 -265 8533 0
-8534 136 0
-8534 162 0
-8534 266 0
-136 -162 -266 8534 0
-8535 137 0
-8535 163 0
-8535 267 0
-137 -163 -267 8535 0
-8536 138 0
-8536 164 0
-8536 268 0
-138 -164 -268 8536 0
-8537 139 0
-8537 165 0
-8537 269 0
-139 -165 -269 8537 0
-8538 140 0
-8538 166 0
-8538 270 0
-140 -166 -270 8538 0
-8539 141 0
-8539 167 0
-8539 271 0
-141 -167 -271 8539 0
-8540 142 0
-8540 168 0
-8540 272 0
-142 -168 -272 8540 0
-8541 143 0
-8541 169 0
-8541 273 0
-143 -169 -273 8541 0
-8542 144 0
-8542 170 0
-8542 274 0
-144 -170 -274 8542 0
-8543 145 0
-8543 171 0
-8543 275 0
-145 -171 -275 8543 0
-8544 146 0
-8544 172 0
-8544 276 0
-146 -172 -276 8544 0
-8545 147 0
-8545 173 0
-8545 277 0
-147 -173 -277 8545 0
-8546 148 0
-8546 174 0
-8546 278 0
-148 -174 -278 8546 0
-8547 149 0
-8547 175 0
-8547 279 0
-149 -175 -279 8547 0
-8548 150 0
-8548 176 0
-8548 280 0
-150 -176 -280 8548 0
-8549 151 0
-8549 177 0
-8549 281 0
-151 -177 -281 8549 0
-8550 152 0
-8550 178 0
-8550 282 0
-152 -178 -282 8550 0
-8551 153 0
-8551 179 0
-8551 283 0
-153 -179 -283 8551 0
-8552 154 0
-8552 180 0
-8552 284 0
-154 -180 -284 8552 0
-8553 155 0
-8553 181 0
-8553 285 0
-155 -181 -285 8553 0
-8554 156 0
-8554 182 0
-8554 286 0
-156 -182 -286 8554 0
-8529 10140 0
-8530 10140 0
-8531 10140 0
-8532 10140 0
-8533 10140 0
-8534 10140 0
-8535 10140 0
-8536 10140 0
-8537 10140 0
-8538 10140 0
-8539 10140 0
-8540 10140 0
-8541 10140 0
-8542 10140 0
-8543 10140 0
-8544 10140 0
-8545 10140 0
-8546 10140 0
-8547 10140 0
-8548 10140 0
-8549 10140 0
-8550 10140 0
-8551 10140 0
-8552 10140 0
-8553 10140 0
-8554 10140 0
-10140 8529 8530 8531 8532 8533 8534 8535 8536 8537 8538 8539 8540 8541 8542 8543 8544 8545 8546 8547 8548 8549 8550 8551 8552 8553 8554 0
-8555 131 0
-8555 157 0
-8555 287 0
-131 -157 -287 8555 0
-8556 132 0
-8556 158 0
-8556 288 0
-132 -158 -288 8556 0
-8557 133 0
-8557 159 0
-8557 289 0
-133 -159 -289 8557 0
-8558 134 0
-8558 160 0
-8558 290 0
-134 -160 -290 8558 0
-8559 135 0
-8559 161 0
-8559 291 0
-135 -161 -291 8559 0
-8560 136 0
-8560 162 0
-8560 292 0
-136 -162 -292 8560 0
-8561 137 0
-8561 163 0
-8561 293 0
-137 -163 -293 8561 0
-8562 138 0
-8562 164 0
-8562 294 0
-138 -164 -294 8562 0
-8563 139 0
-8563 165 0
-8563 295 0
-139 -165 -295 8563 0
-8564 140 0
-8564 166 0
-8564 296 0
-140 -166 -296 8564 0
-8565 141 0
-8565 167 0
-8565 297 0
-141 -167 -297 8565 0
-8566 142 0
-8566 168 0
-8566 298 0
-142 -168 -298 8566 0
-8567 143 0
-8567 169 0
-8567 299 0
-143 -169 -299 8567 0
-8568 144 0
-8568 170 0
-8568 300 0
-144 -170 -300 8568 0
-8569 145 0
-8569 171 0
-8569 301 0
-145 -171 -301 8569 0
-8570 146 0
-8570 172 0
-8570 302 0
-146 -172 -302 8570 0
-8571 147 0
-8571 173 0
-8571 303 0
-147 -173 -303 8571 0
-8572 148 0
-8572 174 0
-8572 304 0
-148 -174 -304 8572 0
-8573 149 0
-8573 175 0
-8573 305 0
-149 -175 -305 8573 0
-8574 150 0
-8574 176 0
-8574 306 0
-150 -176 -306 8574 0
-8575 151 0
-8575 177 0
-8575 307 0
-151 -177 -307 8575 0
-8576 152 0
-8576 178 0
-8576 308 0
-152 -178 -308 8576 0
-8577 153 0
-8577 179 0
-8577 309 0
-153 -179 -309 8577 0
-8578 154 0
-8578 180 0
-8578 310 0
-154 -180 -310 8578 0
-8579 155 0
-8579 181 0
-8579 311 0
-155 -181 -311 8579 0
-8580 156 0
-8580 182 0
-8580 312 0
-156 -182 -312 8580 0
-8555 10141 0
-8556 10141 0
-8557 10141 0
-8558 10141 0
-8559 10141 0
-8560 10141 0
-8561 10141 0
-8562 10141 0
-8563 10141 0
-8564 10141 0
-8565 10141 0
-8566 10141 0
-8567 10141 0
-8568 10141 0
-8569 10141 0
-8570 10141 0
-8571 10141 0
-8572 10141 0
-8573 10141 0
-8574 10141 0
-8575 10141 0
-8576 10141 0
-8577 10141 0
-8578 10141 0
-8579 10141 0
-8580 10141 0
-10141 8555 8556 8557 8558 8559 8560 8561 8562 8563 8564 8565 8566 8567 8568 8569 8570 8571 8572 8573 8574 8575 8576 8577 8578 8579 8580 0
-8581 131 0
-8581 157 0
-8581 313 0
-131 -157 -313 8581 0
-8582 132 0
-8582 158 0
-8582 314 0
-132 -158 -314 8582 0
-8583 133 0
-8583 159 0
-8583 315 0
-133 -159 -315 8583 0
-8584 134 0
-8584 160 0
-8584 316 0
-134 -160 -316 8584 0
-8585 135 0
-8585 161 0
-8585 317 0
-135 -161 -317 8585 0
-8586 136 0
-8586 162 0
-8586 318 0
-136 -162 -318 8586 0
-8587 137 0
-8587 163 0
-8587 319 0
-137 -163 -319 8587 0
-8588 138 0
-8588 164 0
-8588 320 0
-138 -164 -320 8588 0
-8589 139 0
-8589 165 0
-8589 321 0
-139 -165 -321 8589 0
-8590 140 0
-8590 166 0
-8590 322 0
-140 -166 -322 8590 0
-8591 141 0
-8591 167 0
-8591 323 0
-141 -167 -323 8591 0
-8592 142 0
-8592 168 0
-8592 324 0
-142 -168 -324 8592 0
-8593 143 0
-8593 169 0
-8593 325 0
-143 -169 -325 8593 0
-8594 144 0
-8594 170 0
-8594 326 0
-144 -170 -326 8594 0
-8595 145 0
-8595 171 0
-8595 327 0
-145 -171 -327 8595 0
-8596 146 0
-8596 172 0
-8596 328 0
-146 -172 -328 8596 0
-8597 147 0
-8597 173 0
-8597 329 0
-147 -173 -329 8597 0
-8598 148 0
-8598 174 0
-8598 330 0
-148 -174 -330 8598 0
-8599 149 0
-8599 175 0
-8599 331 0
-149 -175 -331 8599 0
-8600 150 0
-8600 176 0
-8600 332 0
-150 -176 -332 8600 0
-8601 151 0
-8601 177 0
-8601 333 0
-151 -177 -333 8601 0
-8602 152 0
-8602 178 0
-8602 334 0
-152 -178 -334 8602 0
-8603 153 0
-8603 179 0
-8603 335 0
-153 -179 -335 8603 0
-8604 154 0
-8604 180 0
-8604 336 0
-154 -180 -336 8604 0
-8605 155 0
-8605 181 0
-8605 337 0
-155 -181 -337 8605 0
-8606 156 0
-8606 182 0
-8606 338 0
-156 -182 -338 8606 0
-8581 10142 0
-8582 10142 0
-8583 10142 0
-8584 10142 0
-8585 10142 0
-8586 10142 0
-8587 10142 0
-8588 10142 0
-8589 10142 0
-8590 10142 0
-8591 10142 0
-8592 10142 0
-8593 10142 0
-8594 10142 0
-8595 10142 0
-8596 10142 0
-8597 10142 0
-8598 10142 0
-8599 10142 0
-8600 10142 0
-8601 10142 0
-8602 10142 0
-8603 10142 0
-8604 10142 0
-8605 10142 0
-8606 10142 0
-10142 8581 8582 8583 8584 8585 8586 8587 8588 8589 8590 8591 8592 8593 8594 8595 8596 8597 8598 8599 8600 8601 8602 8603 8604 8605 8606 0
-8607 131 0
-8607 183 0
-8607 209 0
-131 -183 -209 8607 0
-8608 132 0
-8608 184 0
-8608 210 0
-132 -184 -210 8608 0
-8609 133 0
-8609 185 0
-8609 211 0
-133 -185 -211 8609 0
-8610 134 0
-8610 186 0
-8610 212 0
-134 -186 -212 8610 0
-8611 135 0
-8611 187 0
-8611 213 0
-135 -187 -213 8611 0
-8612 136 0
-8612 188 0
-8612 214 0
-136 -188 -214 8612 0
-8613 137 0
-8613 189 0
-8613 215 0
-137 -189 -215 8613 0
-8614 138 0
-8614 190 0
-8614 216 0
-138 -190 -216 8614 0
-8615 139 0
-8615 191 0
-8615 217 0
-139 -191 -217 8615 0
-8616 140 0
-8616 192 0
-8616 218 0
-140 -192 -218 8616 0
-8617 141 0
-8617 193 0
-8617 219 0
-141 -193 -219 8617 0
-8618 142 0
-8618 194 0
-8618 220 0
-142 -194 -220 8618 0
-8619 143 0
-8619 195 0
-8619 221 0
-143 -195 -221 8619 0
-8620 144 0
-8620 196 0
-8620 222 0
-144 -196 -222 8620 0
-8621 145 0
-8621 197 0
-8621 223 0
-145 -197 -223 8621 0
-8622 146 0
-8622 198 0
-8622 224 0
-146 -198 -224 8622 0
-8623 147 0
-8623 199 0
-8623 225 0
-147 -199 -225 8623 0
-8624 148 0
-8624 200 0
-8624 226 0
-148 -200 -226 8624 0
-8625 149 0
-8625 201 0
-8625 227 0
-149 -201 -227 8625 0
-8626 150 0
-8626 202 0
-8626 228 0
-150 -202 -228 8626 0
-8627 151 0
-8627 203 0
-8627 229 0
-151 -203 -229 8627 0
-8628 152 0
-8628 204 0
-8628 230 0
-152 -204 -230 8628 0
-8629 153 0
-8629 205 0
-8629 231 0
-153 -205 -231 8629 0
-8630 154 0
-8630 206 0
-8630 232 0
-154 -206 -232 8630 0
-8631 155 0
-8631 207 0
-8631 233 0
-155 -207 -233 8631 0
-8632 156 0
-8632 208 0
-8632 234 0
-156 -208 -234 8632 0
-8607 10143 0
-8608 10143 0
-8609 10143 0
-8610 10143 0
-8611 10143 0
-8612 10143 0
-8613 10143 0
-8614 10143 0
-8615 10143 0
-8616 10143 0
-8617 10143 0
-8618 10143 0
-8619 10143 0
-8620 10143 0
-8621 10143 0
-8622 10143 0
-8623 10143 0
-8624 10143 0
-8625 10143 0
-8626 10143 0
-8627 10143 0
-8628 10143 0
-8629 10143 0
-8630 10143 0
-8631 10143 0
-8632 10143 0
-10143 8607 8608 8609 8610 8611 8612 8613 8614 8615 8616 8617 8618 8619 8620 8621 8622 8623 8624 8625 8626 8627 8628 8629 8630 8631 8632 0
-8633 131 0
-8633 183 0
-8633 235 0
-131 -183 -235 8633 0
-8634 132 0
-8634 184 0
-8634 236 0
-132 -184 -236 8634 0
-8635 133 0
-8635 185 0
-8635 237 0
-133 -185 -237 8635 0
-8636 134 0
-8636 186 0
-8636 238 0
-134 -186 -238 8636 0
-8637 135 0
-8637 187 0
-8637 239 0
-135 -187 -239 8637 0
-8638 136 0
-8638 188 0
-8638 240 0
-136 -188 -240 8638 0
-8639 137 0
-8639 189 0
-8639 241 0
-137 -189 -241 8639 0
-8640 138 0
-8640 190 0
-8640 242 0
-138 -190 -242 8640 0
-8641 139 0
-8641 191 0
-8641 243 0
-139 -191 -243 8641 0
-8642 140 0
-8642 192 0
-8642 244 0
-140 -192 -244 8642 0
-8643 141 0
-8643 193 0
-8643 245 0
-141 -193 -245 8643 0
-8644 142 0
-8644 194 0
-8644 246 0
-142 -194 -246 8644 0
-8645 143 0
-8645 195 0
-8645 247 0
-143 -195 -247 8645 0
-8646 144 0
-8646 196 0
-8646 248 0
-144 -196 -248 8646 0
-8647 145 0
-8647 197 0
-8647 249 0
-145 -197 -249 8647 0
-8648 146 0
-8648 198 0
-8648 250 0
-146 -198 -250 8648 0
-8649 147 0
-8649 199 0
-8649 251 0
-147 -199 -251 8649 0
-8650 148 0
-8650 200 0
-8650 252 0
-148 -200 -252 8650 0
-8651 149 0
-8651 201 0
-8651 253 0
-149 -201 -253 8651 0
-8652 150 0
-8652 202 0
-8652 254 0
-150 -202 -254 8652 0
-8653 151 0
-8653 203 0
-8653 255 0
-151 -203 -255 8653 0
-8654 152 0
-8654 204 0
-8654 256 0
-152 -204 -256 8654 0
-8655 153 0
-8655 205 0
-8655 257 0
-153 -205 -257 8655 0
-8656 154 0
-8656 206 0
-8656 258 0
-154 -206 -258 8656 0
-8657 155 0
-8657 207 0
-8657 259 0
-155 -207 -259 8657 0
-8658 156 0
-8658 208 0
-8658 260 0
-156 -208 -260 8658 0
-8633 10144 0
-8634 10144 0
-8635 10144 0
-8636 10144 0
-8637 10144 0
-8638 10144 0
-8639 10144 0
-8640 10144 0
-8641 10144 0
-8642 10144 0
-8643 10144 0
-8644 10144 0
-8645 10144 0
-8646 10144 0
-8647 10144 0
-8648 10144 0
-8649 10144 0
-8650 10144 0
-8651 10144 0
-8652 10144 0
-8653 10144 0
-8654 10144 0
-8655 10144 0
-8656 10144 0
-8657 10144 0
-8658 10144 0
-10144 8633 8634 8635 8636 8637 8638 8639 8640 8641 8642 8643 8644 8645 8646 8647 8648 8649 8650 8651 8652 8653 8654 8655 8656 8657 8658 0
-8659 131 0
-8659 183 0
-8659 261 0
-131 -183 -261 8659 0
-8660 132 0
-8660 184 0
-8660 262 0
-132 -184 -262 8660 0
-8661 133 0
-8661 185 0
-8661 263 0
-133 -185 -263 8661 0
-8662 134 0
-8662 186 0
-8662 264 0
-134 -186 -264 8662 0
-8663 135 0
-8663 187 0
-8663 265 0
-135 -187 -265 8663 0
-8664 136 0
-8664 188 0
-8664 266 0
-136 -188 -266 8664 0
-8665 137 0
-8665 189 0
-8665 267 0
-137 -189 -267 8665 0
-8666 138 0
-8666 190 0
-8666 268 0
-138 -190 -268 8666 0
-8667 139 0
-8667 191 0
-8667 269 0
-139 -191 -269 8667 0
-8668 140 0
-8668 192 0
-8668 270 0
-140 -192 -270 8668 0
-8669 141 0
-8669 193 0
-8669 271 0
-141 -193 -271 8669 0
-8670 142 0
-8670 194 0
-8670 272 0
-142 -194 -272 8670 0
-8671 143 0
-8671 195 0
-8671 273 0
-143 -195 -273 8671 0
-8672 144 0
-8672 196 0
-8672 274 0
-144 -196 -274 8672 0
-8673 145 0
-8673 197 0
-8673 275 0
-145 -197 -275 8673 0
-8674 146 0
-8674 198 0
-8674 276 0
-146 -198 -276 8674 0
-8675 147 0
-8675 199 0
-8675 277 0
-147 -199 -277 8675 0
-8676 148 0
-8676 200 0
-8676 278 0
-148 -200 -278 8676 0
-8677 149 0
-8677 201 0
-8677 279 0
-149 -201 -279 8677 0
-8678 150 0
-8678 202 0
-8678 280 0
-150 -202 -280 8678 0
-8679 151 0
-8679 203 0
-8679 281 0
-151 -203 -281 8679 0
-8680 152 0
-8680 204 0
-8680 282 0
-152 -204 -282 8680 0
-8681 153 0
-8681 205 0
-8681 283 0
-153 -205 -283 8681 0
-8682 154 0
-8682 206 0
-8682 284 0
-154 -206 -284 8682 0
-8683 155 0
-8683 207 0
-8683 285 0
-155 -207 -285 8683 0
-8684 156 0
-8684 208 0
-8684 286 0
-156 -208 -286 8684 0
-8659 10145 0
-8660 10145 0
-8661 10145 0
-8662 10145 0
-8663 10145 0
-8664 10145 0
-8665 10145 0
-8666 10145 0
-8667 10145 0
-8668 10145 0
-8669 10145 0
-8670 10145 0
-8671 10145 0
-8672 10145 0
-8673 10145 0
-8674 10145 0
-8675 10145 0
-8676 10145 0
-8677 10145 0
-8678 10145 0
-8679 10145 0
-8680 10145 0
-8681 10145 0
-8682 10145 0
-8683 10145 0
-8684 10145 0
-10145 8659 8660 8661 8662 8663 8664 8665 8666 8667 8668 8669 8670 8671 8672 8673 8674 8675 8676 8677 8678 8679 8680 8681 8682 8683 8684 0
-8685 131 0
-8685 183 0
-8685 287 0
-131 -183 -287 8685 0
-8686 132 0
-8686 184 0
-8686 288 0
-132 -184 -288 8686 0
-8687 133 0
-8687 185 0
-8687 289 0
-133 -185 -289 8687 0
-8688 134 0
-8688 186 0
-8688 290 0
-134 -186 -290 8688 0
-8689 135 0
-8689 187 0
-8689 291 0
-135 -187 -291 8689 0
-8690 136 0
-8690 188 0
-8690 292 0
-136 -188 -292 8690 0
-8691 137 0
-8691 189 0
-8691 293 0
-137 -189 -293 8691 0
-8692 138 0
-8692 190 0
-8692 294 0
-138 -190 -294 8692 0
-8693 139 0
-8693 191 0
-8693 295 0
-139 -191 -295 8693 0
-8694 140 0
-8694 192 0
-8694 296 0
-140 -192 -296 8694 0
-8695 141 0
-8695 193 0
-8695 297 0
-141 -193 -297 8695 0
-8696 142 0
-8696 194 0
-8696 298 0
-142 -194 -298 8696 0
-8697 143 0
-8697 195 0
-8697 299 0
-143 -195 -299 8697 0
-8698 144 0
-8698 196 0
-8698 300 0
-144 -196 -300 8698 0
-8699 145 0
-8699 197 0
-8699 301 0
-145 -197 -301 8699 0
-8700 146 0
-8700 198 0
-8700 302 0
-146 -198 -302 8700 0
-8701 147 0
-8701 199 0
-8701 303 0
-147 -199 -303 8701 0
-8702 148 0
-8702 200 0
-8702 304 0
-148 -200 -304 8702 0
-8703 149 0
-8703 201 0
-8703 305 0
-149 -201 -305 8703 0
-8704 150 0
-8704 202 0
-8704 306 0
-150 -202 -306 8704 0
-8705 151 0
-8705 203 0
-8705 307 0
-151 -203 -307 8705 0
-8706 152 0
-8706 204 0
-8706 308 0
-152 -204 -308 8706 0
-8707 153 0
-8707 205 0
-8707 309 0
-153 -205 -309 8707 0
-8708 154 0
-8708 206 0
-8708 310 0
-154 -206 -310 8708 0
-8709 155 0
-8709 207 0
-8709 311 0
-155 -207 -311 8709 0
-8710 156 0
-8710 208 0
-8710 312 0
-156 -208 -312 8710 0
-8685 10146 0
-8686 10146 0
-8687 10146 0
-8688 10146 0
-8689 10146 0
-8690 10146 0
-8691 10146 0
-8692 10146 0
-8693 10146 0
-8694 10146 0
-8695 10146 0
-8696 10146 0
-8697 10146 0
-8698 10146 0
-8699 10146 0
-8700 10146 0
-8701 10146 0
-8702 10146 0
-8703 10146 0
-8704 10146 0
-8705 10146 0
-8706 10146 0
-8707 10146 0
-8708 10146 0
-8709 10146 0
-8710 10146 0
-10146 8685 8686 8687 8688 8689 8690 8691 8692 8693 8694 8695 8696 8697 8698 8699 8700 8701 8702 8703 8704 8705 8706 8707 8708 8709 8710 0
-8711 131 0
-8711 183 0
-8711 313 0
-131 -183 -313 8711 0
-8712 132 0
-8712 184 0
-8712 314 0
-132 -184 -314 8712 0
-8713 133 0
-8713 185 0
-8713 315 0
-133 -185 -315 8713 0
-8714 134 0
-8714 186 0
-8714 316 0
-134 -186 -316 8714 0
-8715 135 0
-8715 187 0
-8715 317 0
-135 -187 -317 8715 0
-8716 136 0
-8716 188 0
-8716 318 0
-136 -188 -318 8716 0
-8717 137 0
-8717 189 0
-8717 319 0
-137 -189 -319 8717 0
-8718 138 0
-8718 190 0
-8718 320 0
-138 -190 -320 8718 0
-8719 139 0
-8719 191 0
-8719 321 0
-139 -191 -321 8719 0
-8720 140 0
-8720 192 0
-8720 322 0
-140 -192 -322 8720 0
-8721 141 0
-8721 193 0
-8721 323 0
-141 -193 -323 8721 0
-8722 142 0
-8722 194 0
-8722 324 0
-142 -194 -324 8722 0
-8723 143 0
-8723 195 0
-8723 325 0
-143 -195 -325 8723 0
-8724 144 0
-8724 196 0
-8724 326 0
-144 -196 -326 8724 0
-8725 145 0
-8725 197 0
-8725 327 0
-145 -197 -327 8725 0
-8726 146 0
-8726 198 0
-8726 328 0
-146 -198 -328 8726 0
-8727 147 0
-8727 199 0
-8727 329 0
-147 -199 -329 8727 0
-8728 148 0
-8728 200 0
-8728 330 0
-148 -200 -330 8728 0
-8729 149 0
-8729 201 0
-8729 331 0
-149 -201 -331 8729 0
-8730 150 0
-8730 202 0
-8730 332 0
-150 -202 -332 8730 0
-8731 151 0
-8731 203 0
-8731 333 0
-151 -203 -333 8731 0
-8732 152 0
-8732 204 0
-8732 334 0
-152 -204 -334 8732 0
-8733 153 0
-8733 205 0
-8733 335 0
-153 -205 -335 8733 0
-8734 154 0
-8734 206 0
-8734 336 0
-154 -206 -336 8734 0
-8735 155 0
-8735 207 0
-8735 337 0
-155 -207 -337 8735 0
-8736 156 0
-8736 208 0
-8736 338 0
-156 -208 -338 8736 0
-8711 10147 0
-8712 10147 0
-8713 10147 0
-8714 10147 0
-8715 10147 0
-8716 10147 0
-8717 10147 0
-8718 10147 0
-8719 10147 0
-8720 10147 0
-8721 10147 0
-8722 10147 0
-8723 10147 0
-8724 10147 0
-8725 10147 0
-8726 10147 0
-8727 10147 0
-8728 10147 0
-8729 10147 0
-8730 10147 0
-8731 10147 0
-8732 10147 0
-8733 10147 0
-8734 10147 0
-8735 10147 0
-8736 10147 0
-10147 8711 8712 8713 8714 8715 8716 8717 8718 8719 8720 8721 8722 8723 8724 8725 8726 8727 8728 8729 8730 8731 8732 8733 8734 8735 8736 0
-8737 131 0
-8737 209 0
-8737 235 0
-131 -209 -235 8737 0
-8738 132 0
-8738 210 0
-8738 236 0
-132 -210 -236 8738 0
-8739 133 0
-8739 211 0
-8739 237 0
-133 -211 -237 8739 0
-8740 134 0
-8740 212 0
-8740 238 0
-134 -212 -238 8740 0
-8741 135 0
-8741 213 0
-8741 239 0
-135 -213 -239 8741 0
-8742 136 0
-8742 214 0
-8742 240 0
-136 -214 -240 8742 0
-8743 137 0
-8743 215 0
-8743 241 0
-137 -215 -241 8743 0
-8744 138 0
-8744 216 0
-8744 242 0
-138 -216 -242 8744 0
-8745 139 0
-8745 217 0
-8745 243 0
-139 -217 -243 8745 0
-8746 140 0
-8746 218 0
-8746 244 0
-140 -218 -244 8746 0
-8747 141 0
-8747 219 0
-8747 245 0
-141 -219 -245 8747 0
-8748 142 0
-8748 220 0
-8748 246 0
-142 -220 -246 8748 0
-8749 143 0
-8749 221 0
-8749 247 0
-143 -221 -247 8749 0
-8750 144 0
-8750 222 0
-8750 248 0
-144 -222 -248 8750 0
-8751 145 0
-8751 223 0
-8751 249 0
-145 -223 -249 8751 0
-8752 146 0
-8752 224 0
-8752 250 0
-146 -224 -250 8752 0
-8753 147 0
-8753 225 0
-8753 251 0
-147 -225 -251 8753 0
-8754 148 0
-8754 226 0
-8754 252 0
-148 -226 -252 8754 0
-8755 149 0
-8755 227 0
-8755 253 0
-149 -227 -253 8755 0
-8756 150 0
-8756 228 0
-8756 254 0
-150 -228 -254 8756 0
-8757 151 0
-8757 229 0
-8757 255 0
-151 -229 -255 8757 0
-8758 152 0
-8758 230 0
-8758 256 0
-152 -230 -256 8758 0
-8759 153 0
-8759 231 0
-8759 257 0
-153 -231 -257 8759 0
-8760 154 0
-8760 232 0
-8760 258 0
-154 -232 -258 8760 0
-8761 155 0
-8761 233 0
-8761 259 0
-155 -233 -259 8761 0
-8762 156 0
-8762 234 0
-8762 260 0
-156 -234 -260 8762 0
-8737 10148 0
-8738 10148 0
-8739 10148 0
-8740 10148 0
-8741 10148 0
-8742 10148 0
-8743 10148 0
-8744 10148 0
-8745 10148 0
-8746 10148 0
-8747 10148 0
-8748 10148 0
-8749 10148 0
-8750 10148 0
-8751 10148 0
-8752 10148 0
-8753 10148 0
-8754 10148 0
-8755 10148 0
-8756 10148 0
-8757 10148 0
-8758 10148 0
-8759 10148 0
-8760 10148 0
-8761 10148 0
-8762 10148 0
-10148 8737 8738 8739 8740 8741 8742 8743 8744 8745 8746 8747 8748 8749 8750 8751 8752 8753 8754 8755 8756 8757 8758 8759 8760 8761 8762 0
-8763 131 0
-8763 209 0
-8763 261 0
-131 -209 -261 8763 0
-8764 132 0
-8764 210 0
-8764 262 0
-132 -210 -262 8764 0
-8765 133 0
-8765 211 0
-8765 263 0
-133 -211 -263 8765 0
-8766 134 0
-8766 212 0
-8766 264 0
-134 -212 -264 8766 0
-8767 135 0
-8767 213 0
-8767 265 0
-135 -213 -265 8767 0
-8768 136 0
-8768 214 0
-8768 266 0
-136 -214 -266 8768 0
-8769 137 0
-8769 215 0
-8769 267 0
-137 -215 -267 8769 0
-8770 138 0
-8770 216 0
-8770 268 0
-138 -216 -268 8770 0
-8771 139 0
-8771 217 0
-8771 269 0
-139 -217 -269 8771 0
-8772 140 0
-8772 218 0
-8772 270 0
-140 -218 -270 8772 0
-8773 141 0
-8773 219 0
-8773 271 0
-141 -219 -271 8773 0
-8774 142 0
-8774 220 0
-8774 272 0
-142 -220 -272 8774 0
-8775 143 0
-8775 221 0
-8775 273 0
-143 -221 -273 8775 0
-8776 144 0
-8776 222 0
-8776 274 0
-144 -222 -274 8776 0
-8777 145 0
-8777 223 0
-8777 275 0
-145 -223 -275 8777 0
-8778 146 0
-8778 224 0
-8778 276 0
-146 -224 -276 8778 0
-8779 147 0
-8779 225 0
-8779 277 0
-147 -225 -277 8779 0
-8780 148 0
-8780 226 0
-8780 278 0
-148 -226 -278 8780 0
-8781 149 0
-8781 227 0
-8781 279 0
-149 -227 -279 8781 0
-8782 150 0
-8782 228 0
-8782 280 0
-150 -228 -280 8782 0
-8783 151 0
-8783 229 0
-8783 281 0
-151 -229 -281 8783 0
-8784 152 0
-8784 230 0
-8784 282 0
-152 -230 -282 8784 0
-8785 153 0
-8785 231 0
-8785 283 0
-153 -231 -283 8785 0
-8786 154 0
-8786 232 0
-8786 284 0
-154 -232 -284 8786 0
-8787 155 0
-8787 233 0
-8787 285 0
-155 -233 -285 8787 0
-8788 156 0
-8788 234 0
-8788 286 0
-156 -234 -286 8788 0
-8763 10149 0
-8764 10149 0
-8765 10149 0
-8766 10149 0
-8767 10149 0
-8768 10149 0
-8769 10149 0
-8770 10149 0
-8771 10149 0
-8772 10149 0
-8773 10149 0
-8774 10149 0
-8775 10149 0
-8776 10149 0
-8777 10149 0
-8778 10149 0
-8779 10149 0
-8780 10149 0
-8781 10149 0
-8782 10149 0
-8783 10149 0
-8784 10149 0
-8785 10149 0
-8786 10149 0
-8787 10149 0
-8788 10149 0
-10149 8763 8764 8765 8766 8767 8768 8769 8770 8771 8772 8773 8774 8775 8776 8777 8778 8779 8780 8781 8782 8783 8784 8785 8786 8787 8788 0
-8789 131 0
-8789 209 0
-8789 287 0
-131 -209 -287 8789 0
-8790 132 0
-8790 210 0
-8790 288 0
-132 -210 -288 8790 0
-8791 133 0
-8791 211 0
-8791 289 0
-133 -211 -289 8791 0
-8792 134 0
-8792 212 0
-8792 290 0
-134 -212 -290 8792 0
-8793 135 0
-8793 213 0
-8793 291 0
-135 -213 -291 8793 0
-8794 136 0
-8794 214 0
-8794 292 0
-136 -214 -292 8794 0
-8795 137 0
-8795 215 0
-8795 293 0
-137 -215 -293 8795 0
-8796 138 0
-8796 216 0
-8796 294 0
-138 -216 -294 8796 0
-8797 139 0
-8797 217 0
-8797 295 0
-139 -217 -295 8797 0
-8798 140 0
-8798 218 0
-8798 296 0
-140 -218 -296 8798 0
-8799 141 0
-8799 219 0
-8799 297 0
-141 -219 -297 8799 0
-8800 142 0
-8800 220 0
-8800 298 0
-142 -220 -298 8800 0
-8801 143 0
-8801 221 0
-8801 299 0
-143 -221 -299 8801 0
-8802 144 0
-8802 222 0
-8802 300 0
-144 -222 -300 8802 0
-8803 145 0
-8803 223 0
-8803 301 0
-145 -223 -301 8803 0
-8804 146 0
-8804 224 0
-8804 302 0
-146 -224 -302 8804 0
-8805 147 0
-8805 225 0
-8805 303 0
-147 -225 -303 8805 0
-8806 148 0
-8806 226 0
-8806 304 0
-148 -226 -304 8806 0
-8807 149 0
-8807 227 0
-8807 305 0
-149 -227 -305 8807 0
-8808 150 0
-8808 228 0
-8808 306 0
-150 -228 -306 8808 0
-8809 151 0
-8809 229 0
-8809 307 0
-151 -229 -307 8809 0
-8810 152 0
-8810 230 0
-8810 308 0
-152 -230 -308 8810 0
-8811 153 0
-8811 231 0
-8811 309 0
-153 -231 -309 8811 0
-8812 154 0
-8812 232 0
-8812 310 0
-154 -232 -310 8812 0
-8813 155 0
-8813 233 0
-8813 311 0
-155 -233 -311 8813 0
-8814 156 0
-8814 234 0
-8814 312 0
-156 -234 -312 8814 0
-8789 10150 0
-8790 10150 0
-8791 10150 0
-8792 10150 0
-8793 10150 0
-8794 10150 0
-8795 10150 0
-8796 10150 0
-8797 10150 0
-8798 10150 0
-8799 10150 0
-8800 10150 0
-8801 10150 0
-8802 10150 0
-8803 10150 0
-8804 10150 0
-8805 10150 0
-8806 10150 0
-8807 10150 0
-8808 10150 0
-8809 10150 0
-8810 10150 0
-8811 10150 0
-8812 10150 0
-8813 10150 0
-8814 10150 0
-10150 8789 8790 8791 8792 8793 8794 8795 8796 8797 8798 8799 8800 8801 8802 8803 8804 8805 8806 8807 8808 8809 8810 8811 8812 8813 8814 0
-8815 131 0
-8815 209 0
-8815 313 0
-131 -209 -313 8815 0
-8816 132 0
-8816 210 0
-8816 314 0
-132 -210 -314 8816 0
-8817 133 0
-8817 211 0
-8817 315 0
-133 -211 -315 8817 0
-8818 134 0
-8818 212 0
-8818 316 0
-134 -212 -316 8818 0
-8819 135 0
-8819 213 0
-8819 317 0
-135 -213 -317 8819 0
-8820 136 0
-8820 214 0
-8820 318 0
-136 -214 -318 8820 0
-8821 137 0
-8821 215 0
-8821 319 0
-137 -215 -319 8821 0
-8822 138 0
-8822 216 0
-8822 320 0
-138 -216 -320 8822 0
-8823 139 0
-8823 217 0
-8823 321 0
-139 -217 -321 8823 0
-8824 140 0
-8824 218 0
-8824 322 0
-140 -218 -322 8824 0
-8825 141 0
-8825 219 0
-8825 323 0
-141 -219 -323 8825 0
-8826 142 0
-8826 220 0
-8826 324 0
-142 -220 -324 8826 0
-8827 143 0
-8827 221 0
-8827 325 0
-143 -221 -325 8827 0
-8828 144 0
-8828 222 0
-8828 326 0
-144 -222 -326 8828 0
-8829 145 0
-8829 223 0
-8829 327 0
-145 -223 -327 8829 0
-8830 146 0
-8830 224 0
-8830 328 0
-146 -224 -328 8830 0
-8831 147 0
-8831 225 0
-8831 329 0
-147 -225 -329 8831 0
-8832 148 0
-8832 226 0
-8832 330 0
-148 -226 -330 8832 0
-8833 149 0
-8833 227 0
-8833 331 0
-149 -227 -331 8833 0
-8834 150 0
-8834 228 0
-8834 332 0
-150 -228 -332 8834 0
-8835 151 0
-8835 229 0
-8835 333 0
-151 -229 -333 8835 0
-8836 152 0
-8836 230 0
-8836 334 0
-152 -230 -334 8836 0
-8837 153 0
-8837 231 0
-8837 335 0
-153 -231 -335 8837 0
-8838 154 0
-8838 232 0
-8838 336 0
-154 -232 -336 8838 0
-8839 155 0
-8839 233 0
-8839 337 0
-155 -233 -337 8839 0
-8840 156 0
-8840 234 0
-8840 338 0
-156 -234 -338 8840 0
-8815 10151 0
-8816 10151 0
-8817 10151 0
-8818 10151 0
-8819 10151 0
-8820 10151 0
-8821 10151 0
-8822 10151 0
-8823 10151 0
-8824 10151 0
-8825 10151 0
-8826 10151 0
-8827 10151 0
-8828 10151 0
-8829 10151 0
-8830 10151 0
-8831 10151 0
-8832 10151 0
-8833 10151 0
-8834 10151 0
-8835 10151 0
-8836 10151 0
-8837 10151 0
-8838 10151 0
-8839 10151 0
-8840 10151 0
-10151 8815 8816 8817 8818 8819 8820 8821 8822 8823 8824 8825 8826 8827 8828 8829 8830 8831 8832 8833 8834 8835 8836 8837 8838 8839 8840 0
-8841 131 0
-8841 235 0
-8841 261 0
-131 -235 -261 8841 0
-8842 132 0
-8842 236 0
-8842 262 0
-132 -236 -262 8842 0
-8843 133 0
-8843 237 0
-8843 263 0
-133 -237 -263 8843 0
-8844 134 0
-8844 238 0
-8844 264 0
-134 -238 -264 8844 0
-8845 135 0
-8845 239 0
-8845 265 0
-135 -239 -265 8845 0
-8846 136 0
-8846 240 0
-8846 266 0
-136 -240 -266 8846 0
-8847 137 0
-8847 241 0
-8847 267 0
-137 -241 -267 8847 0
-8848 138 0
-8848 242 0
-8848 268 0
-138 -242 -268 8848 0
-8849 139 0
-8849 243 0
-8849 269 0
-139 -243 -269 8849 0
-8850 140 0
-8850 244 0
-8850 270 0
-140 -244 -270 8850 0
-8851 141 0
-8851 245 0
-8851 271 0
-141 -245 -271 8851 0
-8852 142 0
-8852 246 0
-8852 272 0
-142 -246 -272 8852 0
-8853 143 0
-8853 247 0
-8853 273 0
-143 -247 -273 8853 0
-8854 144 0
-8854 248 0
-8854 274 0
-144 -248 -274 8854 0
-8855 145 0
-8855 249 0
-8855 275 0
-145 -249 -275 8855 0
-8856 146 0
-8856 250 0
-8856 276 0
-146 -250 -276 8856 0
-8857 147 0
-8857 251 0
-8857 277 0
-147 -251 -277 8857 0
-8858 148 0
-8858 252 0
-8858 278 0
-148 -252 -278 8858 0
-8859 149 0
-8859 253 0
-8859 279 0
-149 -253 -279 8859 0
-8860 150 0
-8860 254 0
-8860 280 0
-150 -254 -280 8860 0
-8861 151 0
-8861 255 0
-8861 281 0
-151 -255 -281 8861 0
-8862 152 0
-8862 256 0
-8862 282 0
-152 -256 -282 8862 0
-8863 153 0
-8863 257 0
-8863 283 0
-153 -257 -283 8863 0
-8864 154 0
-8864 258 0
-8864 284 0
-154 -258 -284 8864 0
-8865 155 0
-8865 259 0
-8865 285 0
-155 -259 -285 8865 0
-8866 156 0
-8866 260 0
-8866 286 0
-156 -260 -286 8866 0
-8841 10152 0
-8842 10152 0
-8843 10152 0
-8844 10152 0
-8845 10152 0
-8846 10152 0
-8847 10152 0
-8848 10152 0
-8849 10152 0
-8850 10152 0
-8851 10152 0
-8852 10152 0
-8853 10152 0
-8854 10152 0
-8855 10152 0
-8856 10152 0
-8857 10152 0
-8858 10152 0
-8859 10152 0
-8860 10152 0
-8861 10152 0
-8862 10152 0
-8863 10152 0
-8864 10152 0
-8865 10152 0
-8866 10152 0
-10152 8841 8842 8843 8844 8845 8846 8847 8848 8849 8850 8851 8852 8853 8854 8855 8856 8857 8858 8859 8860 8861 8862 8863 8864 8865 8866 0
-8867 131 0
-8867 235 0
-8867 287 0
-131 -235 -287 8867 0
-8868 132 0
-8868 236 0
-8868 288 0
-132 -236 -288 8868 0
-8869 133 0
-8869 237 0
-8869 289 0
-133 -237 -289 8869 0
-8870 134 0
-8870 238 0
-8870 290 0
-134 -238 -290 8870 0
-8871 135 0
-8871 239 0
-8871 291 0
-135 -239 -291 8871 0
-8872 136 0
-8872 240 0
-8872 292 0
-136 -240 -292 8872 0
-8873 137 0
-8873 241 0
-8873 293 0
-137 -241 -293 8873 0
-8874 138 0
-8874 242 0
-8874 294 0
-138 -242 -294 8874 0
-8875 139 0
-8875 243 0
-8875 295 0
-139 -243 -295 8875 0
-8876 140 0
-8876 244 0
-8876 296 0
-140 -244 -296 8876 0
-8877 141 0
-8877 245 0
-8877 297 0
-141 -245 -297 8877 0
-8878 142 0
-8878 246 0
-8878 298 0
-142 -246 -298 8878 0
-8879 143 0
-8879 247 0
-8879 299 0
-143 -247 -299 8879 0
-8880 144 0
-8880 248 0
-8880 300 0
-144 -248 -300 8880 0
-8881 145 0
-8881 249 0
-8881 301 0
-145 -249 -301 8881 0
-8882 146 0
-8882 250 0
-8882 302 0
-146 -250 -302 8882 0
-8883 147 0
-8883 251 0
-8883 303 0
-147 -251 -303 8883 0
-8884 148 0
-8884 252 0
-8884 304 0
-148 -252 -304 8884 0
-8885 149 0
-8885 253 0
-8885 305 0
-149 -253 -305 8885 0
-8886 150 0
-8886 254 0
-8886 306 0
-150 -254 -306 8886 0
-8887 151 0
-8887 255 0
-8887 307 0
-151 -255 -307 8887 0
-8888 152 0
-8888 256 0
-8888 308 0
-152 -256 -308 8888 0
-8889 153 0
-8889 257 0
-8889 309 0
-153 -257 -309 8889 0
-8890 154 0
-8890 258 0
-8890 310 0
-154 -258 -310 8890 0
-8891 155 0
-8891 259 0
-8891 311 0
-155 -259 -311 8891 0
-8892 156 0
-8892 260 0
-8892 312 0
-156 -260 -312 8892 0
-8867 10153 0
-8868 10153 0
-8869 10153 0
-8870 10153 0
-8871 10153 0
-8872 10153 0
-8873 10153 0
-8874 10153 0
-8875 10153 0
-8876 10153 0
-8877 10153 0
-8878 10153 0
-8879 10153 0
-8880 10153 0
-8881 10153 0
-8882 10153 0
-8883 10153 0
-8884 10153 0
-8885 10153 0
-8886 10153 0
-8887 10153 0
-8888 10153 0
-8889 10153 0
-8890 10153 0
-8891 10153 0
-8892 10153 0
-10153 8867 8868 8869 8870 8871 8872 8873 8874 8875 8876 8877 8878 8879 8880 8881 8882 8883 8884 8885 8886 8887 8888 8889 8890 8891 8892 0
-8893 131 0
-8893 235 0
-8893 313 0
-131 -235 -313 8893 0
-8894 132 0
-8894 236 0
-8894 314 0
-132 -236 -314 8894 0
-8895 133 0
-8895 237 0
-8895 315 0
-133 -237 -315 8895 0
-8896 134 0
-8896 238 0
-8896 316 0
-134 -238 -316 8896 0
-8897 135 0
-8897 239 0
-8897 317 0
-135 -239 -317 8897 0
-8898 136 0
-8898 240 0
-8898 318 0
-136 -240 -318 8898 0
-8899 137 0
-8899 241 0
-8899 319 0
-137 -241 -319 8899 0
-8900 138 0
-8900 242 0
-8900 320 0
-138 -242 -320 8900 0
-8901 139 0
-8901 243 0
-8901 321 0
-139 -243 -321 8901 0
-8902 140 0
-8902 244 0
-8902 322 0
-140 -244 -322 8902 0
-8903 141 0
-8903 245 0
-8903 323 0
-141 -245 -323 8903 0
-8904 142 0
-8904 246 0
-8904 324 0
-142 -246 -324 8904 0
-8905 143 0
-8905 247 0
-8905 325 0
-143 -247 -325 8905 0
-8906 144 0
-8906 248 0
-8906 326 0
-144 -248 -326 8906 0
-8907 145 0
-8907 249 0
-8907 327 0
-145 -249 -327 8907 0
-8908 146 0
-8908 250 0
-8908 328 0
-146 -250 -328 8908 0
-8909 147 0
-8909 251 0
-8909 329 0
-147 -251 -329 8909 0
-8910 148 0
-8910 252 0
-8910 330 0
-148 -252 -330 8910 0
-8911 149 0
-8911 253 0
-8911 331 0
-149 -253 -331 8911 0
-8912 150 0
-8912 254 0
-8912 332 0
-150 -254 -332 8912 0
-8913 151 0
-8913 255 0
-8913 333 0
-151 -255 -333 8913 0
-8914 152 0
-8914 256 0
-8914 334 0
-152 -256 -334 8914 0
-8915 153 0
-8915 257 0
-8915 335 0
-153 -257 -335 8915 0
-8916 154 0
-8916 258 0
-8916 336 0
-154 -258 -336 8916 0
-8917 155 0
-8917 259 0
-8917 337 0
-155 -259 -337 8917 0
-8918 156 0
-8918 260 0
-8918 338 0
-156 -260 -338 8918 0
-8893 10154 0
-8894 10154 0
-8895 10154 0
-8896 10154 0
-8897 10154 0
-8898 10154 0
-8899 10154 0
-8900 10154 0
-8901 10154 0
-8902 10154 0
-8903 10154 0
-8904 10154 0
-8905 10154 0
-8906 10154 0
-8907 10154 0
-8908 10154 0
-8909 10154 0
-8910 10154 0
-8911 10154 0
-8912 10154 0
-8913 10154 0
-8914 10154 0
-8915 10154 0
-8916 10154 0
-8917 10154 0
-8918 10154 0
-10154 8893 8894 8895 8896 8897 8898 8899 8900 8901 8902 8903 8904 8905 8906 8907 8908 8909 8910 8911 8912 8913 8914 8915 8916 8917 8918 0
-8919 131 0
-8919 261 0
-8919 287 0
-131 -261 -287 8919 0
-8920 132 0
-8920 262 0
-8920 288 0
-132 -262 -288 8920 0
-8921 133 0
-8921 263 0
-8921 289 0
-133 -263 -289 8921 0
-8922 134 0
-8922 264 0
-8922 290 0
-134 -264 -290 8922 0
-8923 135 0
-8923 265 0
-8923 291 0
-135 -265 -291 8923 0
-8924 136 0
-8924 266 0
-8924 292 0
-136 -266 -292 8924 0
-8925 137 0
-8925 267 0
-8925 293 0
-137 -267 -293 8925 0
-8926 138 0
-8926 268 0
-8926 294 0
-138 -268 -294 8926 0
-8927 139 0
-8927 269 0
-8927 295 0
-139 -269 -295 8927 0
-8928 140 0
-8928 270 0
-8928 296 0
-140 -270 -296 8928 0
-8929 141 0
-8929 271 0
-8929 297 0
-141 -271 -297 8929 0
-8930 142 0
-8930 272 0
-8930 298 0
-142 -272 -298 8930 0
-8931 143 0
-8931 273 0
-8931 299 0
-143 -273 -299 8931 0
-8932 144 0
-8932 274 0
-8932 300 0
-144 -274 -300 8932 0
-8933 145 0
-8933 275 0
-8933 301 0
-145 -275 -301 8933 0
-8934 146 0
-8934 276 0
-8934 302 0
-146 -276 -302 8934 0
-8935 147 0
-8935 277 0
-8935 303 0
-147 -277 -303 8935 0
-8936 148 0
-8936 278 0
-8936 304 0
-148 -278 -304 8936 0
-8937 149 0
-8937 279 0
-8937 305 0
-149 -279 -305 8937 0
-8938 150 0
-8938 280 0
-8938 306 0
-150 -280 -306 8938 0
-8939 151 0
-8939 281 0
-8939 307 0
-151 -281 -307 8939 0
-8940 152 0
-8940 282 0
-8940 308 0
-152 -282 -308 8940 0
-8941 153 0
-8941 283 0
-8941 309 0
-153 -283 -309 8941 0
-8942 154 0
-8942 284 0
-8942 310 0
-154 -284 -310 8942 0
-8943 155 0
-8943 285 0
-8943 311 0
-155 -285 -311 8943 0
-8944 156 0
-8944 286 0
-8944 312 0
-156 -286 -312 8944 0
-8919 10155 0
-8920 10155 0
-8921 10155 0
-8922 10155 0
-8923 10155 0
-8924 10155 0
-8925 10155 0
-8926 10155 0
-8927 10155 0
-8928 10155 0
-8929 10155 0
-8930 10155 0
-8931 10155 0
-8932 10155 0
-8933 10155 0
-8934 10155 0
-8935 10155 0
-8936 10155 0
-8937 10155 0
-8938 10155 0
-8939 10155 0
-8940 10155 0
-8941 10155 0
-8942 10155 0
-8943 10155 0
-8944 10155 0
-10155 8919 8920 8921 8922 8923 8924 8925 8926 8927 8928 8929 8930 8931 8932 8933 8934 8935 8936 8937 8938 8939 8940 8941 8942 8943 8944 0
-8945 131 0
-8945 261 0
-8945 313 0
-131 -261 -313 8945 0
-8946 132 0
-8946 262 0
-8946 314 0
-132 -262 -314 8946 0
-8947 133 0
-8947 263 0
-8947 315 0
-133 -263 -315 8947 0
-8948 134 0
-8948 264 0
-8948 316 0
-134 -264 -316 8948 0
-8949 135 0
-8949 265 0
-8949 317 0
-135 -265 -317 8949 0
-8950 136 0
-8950 266 0
-8950 318 0
-136 -266 -318 8950 0
-8951 137 0
-8951 267 0
-8951 319 0
-137 -267 -319 8951 0
-8952 138 0
-8952 268 0
-8952 320 0
-138 -268 -320 8952 0
-8953 139 0
-8953 269 0
-8953 321 0
-139 -269 -321 8953 0
-8954 140 0
-8954 270 0
-8954 322 0
-140 -270 -322 8954 0
-8955 141 0
-8955 271 0
-8955 323 0
-141 -271 -323 8955 0
-8956 142 0
-8956 272 0
-8956 324 0
-142 -272 -324 8956 0
-8957 143 0
-8957 273 0
-8957 325 0
-143 -273 -325 8957 0
-8958 144 0
-8958 274 0
-8958 326 0
-144 -274 -326 8958 0
-8959 145 0
-8959 275 0
-8959 327 0
-145 -275 -327 8959 0
-8960 146 0
-8960 276 0
-8960 328 0
-146 -276 -328 8960 0
-8961 147 0
-8961 277 0
-8961 329 0
-147 -277 -329 8961 0
-8962 148 0
-8962 278 0
-8962 330 0
-148 -278 -330 8962 0
-8963 149 0
-8963 279 0
-8963 331 0
-149 -279 -331 8963 0
-8964 150 0
-8964 280 0
-8964 332 0
-150 -280 -332 8964 0
-8965 151 0
-8965 281 0
-8965 333 0
-151 -281 -333 8965 0
-8966 152 0
-8966 282 0
-8966 334 0
-152 -282 -334 8966 0
-8967 153 0
-8967 283 0
-8967 335 0
-153 -283 -335 8967 0
-8968 154 0
-8968 284 0
-8968 336 0
-154 -284 -336 8968 0
-8969 155 0
-8969 285 0
-8969 337 0
-155 -285 -337 8969 0
-8970 156 0
-8970 286 0
-8970 338 0
-156 -286 -338 8970 0
-8945 10156 0
-8946 10156 0
-8947 10156 0
-8948 10156 0
-8949 10156 0
-8950 10156 0
-8951 10156 0
-8952 10156 0
-8953 10156 0
-8954 10156 0
-8955 10156 0
-8956 10156 0
-8957 10156 0
-8958 10156 0
-8959 10156 0
-8960 10156 0
-8961 10156 0
-8962 10156 0
-8963 10156 0
-8964 10156 0
-8965 10156 0
-8966 10156 0
-8967 10156 0
-8968 10156 0
-8969 10156 0
-8970 10156 0
-10156 8945 8946 8947 8948 8949 8950 8951 8952 8953 8954 8955 8956 8957 8958 8959 8960 8961 8962 8963 8964 8965 8966 8967 8968 8969 8970 0
-8971 131 0
-8971 287 0
-8971 313 0
-131 -287 -313 8971 0
-8972 132 0
-8972 288 0
-8972 314 0
-132 -288 -314 8972 0
-8973 133 0
-8973 289 0
-8973 315 0
-133 -289 -315 8973 0
-8974 134 0
-8974 290 0
-8974 316 0
-134 -290 -316 8974 0
-8975 135 0
-8975 291 0
-8975 317 0
-135 -291 -317 8975 0
-8976 136 0
-8976 292 0
-8976 318 0
-136 -292 -318 8976 0
-8977 137 0
-8977 293 0
-8977 319 0
-137 -293 -319 8977 0
-8978 138 0
-8978 294 0
-8978 320 0
-138 -294 -320 8978 0
-8979 139 0
-8979 295 0
-8979 321 0
-139 -295 -321 8979 0
-8980 140 0
-8980 296 0
-8980 322 0
-140 -296 -322 8980 0
-8981 141 0
-8981 297 0
-8981 323 0
-141 -297 -323 8981 0
-8982 142 0
-8982 298 0
-8982 324 0
-142 -298 -324 8982 0
-8983 143 0
-8983 299 0
-8983 325 0
-143 -299 -325 8983 0
-8984 144 0
-8984 300 0
-8984 326 0
-144 -300 -326 8984 0
-8985 145 0
-8985 301 0
-8985 327 0
-145 -301 -327 8985 0
-8986 146 0
-8986 302 0
-8986 328 0
-146 -302 -328 8986 0
-8987 147 0
-8987 303 0
-8987 329 0
-147 -303 -329 8987 0
-8988 148 0
-8988 304 0
-8988 330 0
-148 -304 -330 8988 0
-8989 149 0
-8989 305 0
-8989 331 0
-149 -305 -331 8989 0
-8990 150 0
-8990 306 0
-8990 332 0
-150 -306 -332 8990 0
-8991 151 0
-8991 307 0
-8991 333 0
-151 -307 -333 8991 0
-8992 152 0
-8992 308 0
-8992 334 0
-152 -308 -334 8992 0
-8993 153 0
-8993 309 0
-8993 335 0
-153 -309 -335 8993 0
-8994 154 0
-8994 310 0
-8994 336 0
-154 -310 -336 8994 0
-8995 155 0
-8995 311 0
-8995 337 0
-155 -311 -337 8995 0
-8996 156 0
-8996 312 0
-8996 338 0
-156 -312 -338 8996 0
-8971 10157 0
-8972 10157 0
-8973 10157 0
-8974 10157 0
-8975 10157 0
-8976 10157 0
-8977 10157 0
-8978 10157 0
-8979 10157 0
-8980 10157 0
-8981 10157 0
-8982 10157 0
-8983 10157 0
-8984 10157 0
-8985 10157 0
-8986 10157 0
-8987 10157 0
-8988 10157 0
-8989 10157 0
-8990 10157 0
-8991 10157 0
-8992 10157 0
-8993 10157 0
-8994 10157 0
-8995 10157 0
-8996 10157 0
-10157 8971 8972 8973 8974 8975 8976 8977 8978 8979 8980 8981 8982 8983 8984 8985 8986 8987 8988 8989 8990 8991 8992 8993 8994 8995 8996 0
-8997 157 0
-8997 183 0
-8997 209 0
-157 -183 -209 8997 0
-8998 158 0
-8998 184 0
-8998 210 0
-158 -184 -210 8998 0
-8999 159 0
-8999 185 0
-8999 211 0
-159 -185 -211 8999 0
-9000 160 0
-9000 186 0
-9000 212 0
-160 -186 -212 9000 0
-9001 161 0
-9001 187 0
-9001 213 0
-161 -187 -213 9001 0
-9002 162 0
-9002 188 0
-9002 214 0
-162 -188 -214 9002 0
-9003 163 0
-9003 189 0
-9003 215 0
-163 -189 -215 9003 0
-9004 164 0
-9004 190 0
-9004 216 0
-164 -190 -216 9004 0
-9005 165 0
-9005 191 0
-9005 217 0
-165 -191 -217 9005 0
-9006 166 0
-9006 192 0
-9006 218 0
-166 -192 -218 9006 0
-9007 167 0
-9007 193 0
-9007 219 0
-167 -193 -219 9007 0
-9008 168 0
-9008 194 0
-9008 220 0
-168 -194 -220 9008 0
-9009 169 0
-9009 195 0
-9009 221 0
-169 -195 -221 9009 0
-9010 170 0
-9010 196 0
-9010 222 0
-170 -196 -222 9010 0
-9011 171 0
-9011 197 0
-9011 223 0
-171 -197 -223 9011 0
-9012 172 0
-9012 198 0
-9012 224 0
-172 -198 -224 9012 0
-9013 173 0
-9013 199 0
-9013 225 0
-173 -199 -225 9013 0
-9014 174 0
-9014 200 0
-9014 226 0
-174 -200 -226 9014 0
-9015 175 0
-9015 201 0
-9015 227 0
-175 -201 -227 9015 0
-9016 176 0
-9016 202 0
-9016 228 0
-176 -202 -228 9016 0
-9017 177 0
-9017 203 0
-9017 229 0
-177 -203 -229 9017 0
-9018 178 0
-9018 204 0
-9018 230 0
-178 -204 -230 9018 0
-9019 179 0
-9019 205 0
-9019 231 0
-179 -205 -231 9019 0
-9020 180 0
-9020 206 0
-9020 232 0
-180 -206 -232 9020 0
-9021 181 0
-9021 207 0
-9021 233 0
-181 -207 -233 9021 0
-9022 182 0
-9022 208 0
-9022 234 0
-182 -208 -234 9022 0
-8997 10158 0
-8998 10158 0
-8999 10158 0
-9000 10158 0
-9001 10158 0
-9002 10158 0
-9003 10158 0
-9004 10158 0
-9005 10158 0
-9006 10158 0
-9007 10158 0
-9008 10158 0
-9009 10158 0
-9010 10158 0
-9011 10158 0
-9012 10158 0
-9013 10158 0
-9014 10158 0
-9015 10158 0
-9016 10158 0
-9017 10158 0
-9018 10158 0
-9019 10158 0
-9020 10158 0
-9021 10158 0
-9022 10158 0
-10158 8997 8998 8999 9000 9001 9002 9003 9004 9005 9006 9007 9008 9009 9010 9011 9012 9013 9014 9015 9016 9017 9018 9019 9020 9021 9022 0
-9023 157 0
-9023 183 0
-9023 235 0
-157 -183 -235 9023 0
-9024 158 0
-9024 184 0
-9024 236 0
-158 -184 -236 9024 0
-9025 159 0
-9025 185 0
-9025 237 0
-159 -185 -237 9025 0
-9026 160 0
-9026 186 0
-9026 238 0
-160 -186 -238 9026 0
-9027 161 0
-9027 187 0
-9027 239 0
-161 -187 -239 9027 0
-9028 162 0
-9028 188 0
-9028 240 0
-162 -188 -240 9028 0
-9029 163 0
-9029 189 0
-9029 241 0
-163 -189 -241 9029 0
-9030 164 0
-9030 190 0
-9030 242 0
-164 -190 -242 9030 0
-9031 165 0
-9031 191 0
-9031 243 0
-165 -191 -243 9031 0
-9032 166 0
-9032 192 0
-9032 244 0
-166 -192 -244 9032 0
-9033 167 0
-9033 193 0
-9033 245 0
-167 -193 -245 9033 0
-9034 168 0
-9034 194 0
-9034 246 0
-168 -194 -246 9034 0
-9035 169 0
-9035 195 0
-9035 247 0
-169 -195 -247 9035 0
-9036 170 0
-9036 196 0
-9036 248 0
-170 -196 -248 9036 0
-9037 171 0
-9037 197 0
-9037 249 0
-171 -197 -249 9037 0
-9038 172 0
-9038 198 0
-9038 250 0
-172 -198 -250 9038 0
-9039 173 0
-9039 199 0
-9039 251 0
-173 -199 -251 9039 0
-9040 174 0
-9040 200 0
-9040 252 0
-174 -200 -252 9040 0
-9041 175 0
-9041 201 0
-9041 253 0
-175 -201 -253 9041 0
-9042 176 0
-9042 202 0
-9042 254 0
-176 -202 -254 9042 0
-9043 177 0
-9043 203 0
-9043 255 0
-177 -203 -255 9043 0
-9044 178 0
-9044 204 0
-9044 256 0
-178 -204 -256 9044 0
-9045 179 0
-9045 205 0
-9045 257 0
-179 -205 -257 9045 0
-9046 180 0
-9046 206 0
-9046 258 0
-180 -206 -258 9046 0
-9047 181 0
-9047 207 0
-9047 259 0
-181 -207 -259 9047 0
-9048 182 0
-9048 208 0
-9048 260 0
-182 -208 -260 9048 0
-9023 10159 0
-9024 10159 0
-9025 10159 0
-9026 10159 0
-9027 10159 0
-9028 10159 0
-9029 10159 0
-9030 10159 0
-9031 10159 0
-9032 10159 0
-9033 10159 0
-9034 10159 0
-9035 10159 0
-9036 10159 0
-9037 10159 0
-9038 10159 0
-9039 10159 0
-9040 10159 0
-9041 10159 0
-9042 10159 0
-9043 10159 0
-9044 10159 0
-9045 10159 0
-9046 10159 0
-9047 10159 0
-9048 10159 0
-10159 9023 9024 9025 9026 9027 9028 9029 9030 9031 9032 9033 9034 9035 9036 9037 9038 9039 9040 9041 9042 9043 9044 9045 9046 9047 9048 0
-9049 157 0
-9049 183 0
-9049 261 0
-157 -183 -261 9049 0
-9050 158 0
-9050 184 0
-9050 262 0
-158 -184 -262 9050 0
-9051 159 0
-9051 185 0
-9051 263 0
-159 -185 -263 9051 0
-9052 160 0
-9052 186 0
-9052 264 0
-160 -186 -264 9052 0
-9053 161 0
-9053 187 0
-9053 265 0
-161 -187 -265 9053 0
-9054 162 0
-9054 188 0
-9054 266 0
-162 -188 -266 9054 0
-9055 163 0
-9055 189 0
-9055 267 0
-163 -189 -267 9055 0
-9056 164 0
-9056 190 0
-9056 268 0
-164 -190 -268 9056 0
-9057 165 0
-9057 191 0
-9057 269 0
-165 -191 -269 9057 0
-9058 166 0
-9058 192 0
-9058 270 0
-166 -192 -270 9058 0
-9059 167 0
-9059 193 0
-9059 271 0
-167 -193 -271 9059 0
-9060 168 0
-9060 194 0
-9060 272 0
-168 -194 -272 9060 0
-9061 169 0
-9061 195 0
-9061 273 0
-169 -195 -273 9061 0
-9062 170 0
-9062 196 0
-9062 274 0
-170 -196 -274 9062 0
-9063 171 0
-9063 197 0
-9063 275 0
-171 -197 -275 9063 0
-9064 172 0
-9064 198 0
-9064 276 0
-172 -198 -276 9064 0
-9065 173 0
-9065 199 0
-9065 277 0
-173 -199 -277 9065 0
-9066 174 0
-9066 200 0
-9066 278 0
-174 -200 -278 9066 0
-9067 175 0
-9067 201 0
-9067 279 0
-175 -201 -279 9067 0
-9068 176 0
-9068 202 0
-9068 280 0
-176 -202 -280 9068 0
-9069 177 0
-9069 203 0
-9069 281 0
-177 -203 -281 9069 0
-9070 178 0
-9070 204 0
-9070 282 0
-178 -204 -282 9070 0
-9071 179 0
-9071 205 0
-9071 283 0
-179 -205 -283 9071 0
-9072 180 0
-9072 206 0
-9072 284 0
-180 -206 -284 9072 0
-9073 181 0
-9073 207 0
-9073 285 0
-181 -207 -285 9073 0
-9074 182 0
-9074 208 0
-9074 286 0
-182 -208 -286 9074 0
-9049 10160 0
-9050 10160 0
-9051 10160 0
-9052 10160 0
-9053 10160 0
-9054 10160 0
-9055 10160 0
-9056 10160 0
-9057 10160 0
-9058 10160 0
-9059 10160 0
-9060 10160 0
-9061 10160 0
-9062 10160 0
-9063 10160 0
-9064 10160 0
-9065 10160 0
-9066 10160 0
-9067 10160 0
-9068 10160 0
-9069 10160 0
-9070 10160 0
-9071 10160 0
-9072 10160 0
-9073 10160 0
-9074 10160 0
-10160 9049 9050 9051 9052 9053 9054 9055 9056 9057 9058 9059 9060 9061 9062 9063 9064 9065 9066 9067 9068 9069 9070 9071 9072 9073 9074 0
-9075 157 0
-9075 183 0
-9075 287 0
-157 -183 -287 9075 0
-9076 158 0
-9076 184 0
-9076 288 0
-158 -184 -288 9076 0
-9077 159 0
-9077 185 0
-9077 289 0
-159 -185 -289 9077 0
-9078 160 0
-9078 186 0
-9078 290 0
-160 -186 -290 9078 0
-9079 161 0
-9079 187 0
-9079 291 0
-161 -187 -291 9079 0
-9080 162 0
-9080 188 0
-9080 292 0
-162 -188 -292 9080 0
-9081 163 0
-9081 189 0
-9081 293 0
-163 -189 -293 9081 0
-9082 164 0
-9082 190 0
-9082 294 0
-164 -190 -294 9082 0
-9083 165 0
-9083 191 0
-9083 295 0
-165 -191 -295 9083 0
-9084 166 0
-9084 192 0
-9084 296 0
-166 -192 -296 9084 0
-9085 167 0
-9085 193 0
-9085 297 0
-167 -193 -297 9085 0
-9086 168 0
-9086 194 0
-9086 298 0
-168 -194 -298 9086 0
-9087 169 0
-9087 195 0
-9087 299 0
-169 -195 -299 9087 0
-9088 170 0
-9088 196 0
-9088 300 0
-170 -196 -300 9088 0
-9089 171 0
-9089 197 0
-9089 301 0
-171 -197 -301 9089 0
-9090 172 0
-9090 198 0
-9090 302 0
-172 -198 -302 9090 0
-9091 173 0
-9091 199 0
-9091 303 0
-173 -199 -303 9091 0
-9092 174 0
-9092 200 0
-9092 304 0
-174 -200 -304 9092 0
-9093 175 0
-9093 201 0
-9093 305 0
-175 -201 -305 9093 0
-9094 176 0
-9094 202 0
-9094 306 0
-176 -202 -306 9094 0
-9095 177 0
-9095 203 0
-9095 307 0
-177 -203 -307 9095 0
-9096 178 0
-9096 204 0
-9096 308 0
-178 -204 -308 9096 0
-9097 179 0
-9097 205 0
-9097 309 0
-179 -205 -309 9097 0
-9098 180 0
-9098 206 0
-9098 310 0
-180 -206 -310 9098 0
-9099 181 0
-9099 207 0
-9099 311 0
-181 -207 -311 9099 0
-9100 182 0
-9100 208 0
-9100 312 0
-182 -208 -312 9100 0
-9075 10161 0
-9076 10161 0
-9077 10161 0
-9078 10161 0
-9079 10161 0
-9080 10161 0
-9081 10161 0
-9082 10161 0
-9083 10161 0
-9084 10161 0
-9085 10161 0
-9086 10161 0
-9087 10161 0
-9088 10161 0
-9089 10161 0
-9090 10161 0
-9091 10161 0
-9092 10161 0
-9093 10161 0
-9094 10161 0
-9095 10161 0
-9096 10161 0
-9097 10161 0
-9098 10161 0
-9099 10161 0
-9100 10161 0
-10161 9075 9076 9077 9078 9079 9080 9081 9082 9083 9084 9085 9086 9087 9088 9089 9090 9091 9092 9093 9094 9095 9096 9097 9098 9099 9100 0
-9101 157 0
-9101 183 0
-9101 313 0
-157 -183 -313 9101 0
-9102 158 0
-9102 184 0
-9102 314 0
-158 -184 -314 9102 0
-9103 159 0
-9103 185 0
-9103 315 0
-159 -185 -315 9103 0
-9104 160 0
-9104 186 0
-9104 316 0
-160 -186 -316 9104 0
-9105 161 0
-9105 187 0
-9105 317 0
-161 -187 -317 9105 0
-9106 162 0
-9106 188 0
-9106 318 0
-162 -188 -318 9106 0
-9107 163 0
-9107 189 0
-9107 319 0
-163 -189 -319 9107 0
-9108 164 0
-9108 190 0
-9108 320 0
-164 -190 -320 9108 0
-9109 165 0
-9109 191 0
-9109 321 0
-165 -191 -321 9109 0
-9110 166 0
-9110 192 0
-9110 322 0
-166 -192 -322 9110 0
-9111 167 0
-9111 193 0
-9111 323 0
-167 -193 -323 9111 0
-9112 168 0
-9112 194 0
-9112 324 0
-168 -194 -324 9112 0
-9113 169 0
-9113 195 0
-9113 325 0
-169 -195 -325 9113 0
-9114 170 0
-9114 196 0
-9114 326 0
-170 -196 -326 9114 0
-9115 171 0
-9115 197 0
-9115 327 0
-171 -197 -327 9115 0
-9116 172 0
-9116 198 0
-9116 328 0
-172 -198 -328 9116 0
-9117 173 0
-9117 199 0
-9117 329 0
-173 -199 -329 9117 0
-9118 174 0
-9118 200 0
-9118 330 0
-174 -200 -330 9118 0
-9119 175 0
-9119 201 0
-9119 331 0
-175 -201 -331 9119 0
-9120 176 0
-9120 202 0
-9120 332 0
-176 -202 -332 9120 0
-9121 177 0
-9121 203 0
-9121 333 0
-177 -203 -333 9121 0
-9122 178 0
-9122 204 0
-9122 334 0
-178 -204 -334 9122 0
-9123 179 0
-9123 205 0
-9123 335 0
-179 -205 -335 9123 0
-9124 180 0
-9124 206 0
-9124 336 0
-180 -206 -336 9124 0
-9125 181 0
-9125 207 0
-9125 337 0
-181 -207 -337 9125 0
-9126 182 0
-9126 208 0
-9126 338 0
-182 -208 -338 9126 0
-9101 10162 0
-9102 10162 0
-9103 10162 0
-9104 10162 0
-9105 10162 0
-9106 10162 0
-9107 10162 0
-9108 10162 0
-9109 10162 0
-9110 10162 0
-9111 10162 0
-9112 10162 0
-9113 10162 0
-9114 10162 0
-9115 10162 0
-9116 10162 0
-9117 10162 0
-9118 10162 0
-9119 10162 0
-9120 10162 0
-9121 10162 0
-9122 10162 0
-9123 10162 0
-9124 10162 0
-9125 10162 0
-9126 10162 0
-10162 9101 9102 9103 9104 9105 9106 9107 9108 9109 9110 9111 9112 9113 9114 9115 9116 9117 9118 9119 9120 9121 9122 9123 9124 9125 9126 0
-9127 157 0
-9127 209 0
-9127 235 0
-157 -209 -235 9127 0
-9128 158 0
-9128 210 0
-9128 236 0
-158 -210 -236 9128 0
-9129 159 0
-9129 211 0
-9129 237 0
-159 -211 -237 9129 0
-9130 160 0
-9130 212 0
-9130 238 0
-160 -212 -238 9130 0
-9131 161 0
-9131 213 0
-9131 239 0
-161 -213 -239 9131 0
-9132 162 0
-9132 214 0
-9132 240 0
-162 -214 -240 9132 0
-9133 163 0
-9133 215 0
-9133 241 0
-163 -215 -241 9133 0
-9134 164 0
-9134 216 0
-9134 242 0
-164 -216 -242 9134 0
-9135 165 0
-9135 217 0
-9135 243 0
-165 -217 -243 9135 0
-9136 166 0
-9136 218 0
-9136 244 0
-166 -218 -244 9136 0
-9137 167 0
-9137 219 0
-9137 245 0
-167 -219 -245 9137 0
-9138 168 0
-9138 220 0
-9138 246 0
-168 -220 -246 9138 0
-9139 169 0
-9139 221 0
-9139 247 0
-169 -221 -247 9139 0
-9140 170 0
-9140 222 0
-9140 248 0
-170 -222 -248 9140 0
-9141 171 0
-9141 223 0
-9141 249 0
-171 -223 -249 9141 0
-9142 172 0
-9142 224 0
-9142 250 0
-172 -224 -250 9142 0
-9143 173 0
-9143 225 0
-9143 251 0
-173 -225 -251 9143 0
-9144 174 0
-9144 226 0
-9144 252 0
-174 -226 -252 9144 0
-9145 175 0
-9145 227 0
-9145 253 0
-175 -227 -253 9145 0
-9146 176 0
-9146 228 0
-9146 254 0
-176 -228 -254 9146 0
-9147 177 0
-9147 229 0
-9147 255 0
-177 -229 -255 9147 0
-9148 178 0
-9148 230 0
-9148 256 0
-178 -230 -256 9148 0
-9149 179 0
-9149 231 0
-9149 257 0
-179 -231 -257 9149 0
-9150 180 0
-9150 232 0
-9150 258 0
-180 -232 -258 9150 0
-9151 181 0
-9151 233 0
-9151 259 0
-181 -233 -259 9151 0
-9152 182 0
-9152 234 0
-9152 260 0
-182 -234 -260 9152 0
-9127 10163 0
-9128 10163 0
-9129 10163 0
-9130 10163 0
-9131 10163 0
-9132 10163 0
-9133 10163 0
-9134 10163 0
-9135 10163 0
-9136 10163 0
-9137 10163 0
-9138 10163 0
-9139 10163 0
-9140 10163 0
-9141 10163 0
-9142 10163 0
-9143 10163 0
-9144 10163 0
-9145 10163 0
-9146 10163 0
-9147 10163 0
-9148 10163 0
-9149 10163 0
-9150 10163 0
-9151 10163 0
-9152 10163 0
-10163 9127 9128 9129 9130 9131 9132 9133 9134 9135 9136 9137 9138 9139 9140 9141 9142 9143 9144 9145 9146 9147 9148 9149 9150 9151 9152 0
-9153 157 0
-9153 209 0
-9153 261 0
-157 -209 -261 9153 0
-9154 158 0
-9154 210 0
-9154 262 0
-158 -210 -262 9154 0
-9155 159 0
-9155 211 0
-9155 263 0
-159 -211 -263 9155 0
-9156 160 0
-9156 212 0
-9156 264 0
-160 -212 -264 9156 0
-9157 161 0
-9157 213 0
-9157 265 0
-161 -213 -265 9157 0
-9158 162 0
-9158 214 0
-9158 266 0
-162 -214 -266 9158 0
-9159 163 0
-9159 215 0
-9159 267 0
-163 -215 -267 9159 0
-9160 164 0
-9160 216 0
-9160 268 0
-164 -216 -268 9160 0
-9161 165 0
-9161 217 0
-9161 269 0
-165 -217 -269 9161 0
-9162 166 0
-9162 218 0
-9162 270 0
-166 -218 -270 9162 0
-9163 167 0
-9163 219 0
-9163 271 0
-167 -219 -271 9163 0
-9164 168 0
-9164 220 0
-9164 272 0
-168 -220 -272 9164 0
-9165 169 0
-9165 221 0
-9165 273 0
-169 -221 -273 9165 0
-9166 170 0
-9166 222 0
-9166 274 0
-170 -222 -274 9166 0
-9167 171 0
-9167 223 0
-9167 275 0
-171 -223 -275 9167 0
-9168 172 0
-9168 224 0
-9168 276 0
-172 -224 -276 9168 0
-9169 173 0
-9169 225 0
-9169 277 0
-173 -225 -277 9169 0
-9170 174 0
-9170 226 0
-9170 278 0
-174 -226 -278 9170 0
-9171 175 0
-9171 227 0
-9171 279 0
-175 -227 -279 9171 0
-9172 176 0
-9172 228 0
-9172 280 0
-176 -228 -280 9172 0
-9173 177 0
-9173 229 0
-9173 281 0
-177 -229 -281 9173 0
-9174 178 0
-9174 230 0
-9174 282 0
-178 -230 -282 9174 0
-9175 179 0
-9175 231 0
-9175 283 0
-179 -231 -283 9175 0
-9176 180 0
-9176 232 0
-9176 284 0
-180 -232 -284 9176 0
-9177 181 0
-9177 233 0
-9177 285 0
-181 -233 -285 9177 0
-9178 182 0
-9178 234 0
-9178 286 0
-182 -234 -286 9178 0
-9153 10164 0
-9154 10164 0
-9155 10164 0
-9156 10164 0
-9157 10164 0
-9158 10164 0
-9159 10164 0
-9160 10164 0
-9161 10164 0
-9162 10164 0
-9163 10164 0
-9164 10164 0
-9165 10164 0
-9166 10164 0
-9167 10164 0
-9168 10164 0
-9169 10164 0
-9170 10164 0
-9171 10164 0
-9172 10164 0
-9173 10164 0
-9174 10164 0
-9175 10164 0
-9176 10164 0
-9177 10164 0
-9178 10164 0
-10164 9153 9154 9155 9156 9157 9158 9159 9160 9161 9162 9163 9164 9165 9166 9167 9168 9169 9170 9171 9172 9173 9174 9175 9176 9177 9178 0
-9179 157 0
-9179 209 0
-9179 287 0
-157 -209 -287 9179 0
-9180 158 0
-9180 210 0
-9180 288 0
-158 -210 -288 9180 0
-9181 159 0
-9181 211 0
-9181 289 0
-159 -211 -289 9181 0
-9182 160 0
-9182 212 0
-9182 290 0
-160 -212 -290 9182 0
-9183 161 0
-9183 213 0
-9183 291 0
-161 -213 -291 9183 0
-9184 162 0
-9184 214 0
-9184 292 0
-162 -214 -292 9184 0
-9185 163 0
-9185 215 0
-9185 293 0
-163 -215 -293 9185 0
-9186 164 0
-9186 216 0
-9186 294 0
-164 -216 -294 9186 0
-9187 165 0
-9187 217 0
-9187 295 0
-165 -217 -295 9187 0
-9188 166 0
-9188 218 0
-9188 296 0
-166 -218 -296 9188 0
-9189 167 0
-9189 219 0
-9189 297 0
-167 -219 -297 9189 0
-9190 168 0
-9190 220 0
-9190 298 0
-168 -220 -298 9190 0
-9191 169 0
-9191 221 0
-9191 299 0
-169 -221 -299 9191 0
-9192 170 0
-9192 222 0
-9192 300 0
-170 -222 -300 9192 0
-9193 171 0
-9193 223 0
-9193 301 0
-171 -223 -301 9193 0
-9194 172 0
-9194 224 0
-9194 302 0
-172 -224 -302 9194 0
-9195 173 0
-9195 225 0
-9195 303 0
-173 -225 -303 9195 0
-9196 174 0
-9196 226 0
-9196 304 0
-174 -226 -304 9196 0
-9197 175 0
-9197 227 0
-9197 305 0
-175 -227 -305 9197 0
-9198 176 0
-9198 228 0
-9198 306 0
-176 -228 -306 9198 0
-9199 177 0
-9199 229 0
-9199 307 0
-177 -229 -307 9199 0
-9200 178 0
-9200 230 0
-9200 308 0
-178 -230 -308 9200 0
-9201 179 0
-9201 231 0
-9201 309 0
-179 -231 -309 9201 0
-9202 180 0
-9202 232 0
-9202 310 0
-180 -232 -310 9202 0
-9203 181 0
-9203 233 0
-9203 311 0
-181 -233 -311 9203 0
-9204 182 0
-9204 234 0
-9204 312 0
-182 -234 -312 9204 0
-9179 10165 0
-9180 10165 0
-9181 10165 0
-9182 10165 0
-9183 10165 0
-9184 10165 0
-9185 10165 0
-9186 10165 0
-9187 10165 0
-9188 10165 0
-9189 10165 0
-9190 10165 0
-9191 10165 0
-9192 10165 0
-9193 10165 0
-9194 10165 0
-9195 10165 0
-9196 10165 0
-9197 10165 0
-9198 10165 0
-9199 10165 0
-9200 10165 0
-9201 10165 0
-9202 10165 0
-9203 10165 0
-9204 10165 0
-10165 9179 9180 9181 9182 9183 9184 9185 9186 9187 9188 9189 9190 9191 9192 9193 9194 9195 9196 9197 9198 9199 9200 9201 9202 9203 9204 0
-9205 157 0
-9205 209 0
-9205 313 0
-157 -209 -313 9205 0
-9206 158 0
-9206 210 0
-9206 314 0
-158 -210 -314 9206 0
-9207 159 0
-9207 211 0
-9207 315 0
-159 -211 -315 9207 0
-9208 160 0
-9208 212 0
-9208 316 0
-160 -212 -316 9208 0
-9209 161 0
-9209 213 0
-9209 317 0
-161 -213 -317 9209 0
-9210 162 0
-9210 214 0
-9210 318 0
-162 -214 -318 9210 0
-9211 163 0
-9211 215 0
-9211 319 0
-163 -215 -319 9211 0
-9212 164 0
-9212 216 0
-9212 320 0
-164 -216 -320 9212 0
-9213 165 0
-9213 217 0
-9213 321 0
-165 -217 -321 9213 0
-9214 166 0
-9214 218 0
-9214 322 0
-166 -218 -322 9214 0
-9215 167 0
-9215 219 0
-9215 323 0
-167 -219 -323 9215 0
-9216 168 0
-9216 220 0
-9216 324 0
-168 -220 -324 9216 0
-9217 169 0
-9217 221 0
-9217 325 0
-169 -221 -325 9217 0
-9218 170 0
-9218 222 0
-9218 326 0
-170 -222 -326 9218 0
-9219 171 0
-9219 223 0
-9219 327 0
-171 -223 -327 9219 0
-9220 172 0
-9220 224 0
-9220 328 0
-172 -224 -328 9220 0
-9221 173 0
-9221 225 0
-9221 329 0
-173 -225 -329 9221 0
-9222 174 0
-9222 226 0
-9222 330 0
-174 -226 -330 9222 0
-9223 175 0
-9223 227 0
-9223 331 0
-175 -227 -331 9223 0
-9224 176 0
-9224 228 0
-9224 332 0
-176 -228 -332 9224 0
-9225 177 0
-9225 229 0
-9225 333 0
-177 -229 -333 9225 0
-9226 178 0
-9226 230 0
-9226 334 0
-178 -230 -334 9226 0
-9227 179 0
-9227 231 0
-9227 335 0
-179 -231 -335 9227 0
-9228 180 0
-9228 232 0
-9228 336 0
-180 -232 -336 9228 0
-9229 181 0
-9229 233 0
-9229 337 0
-181 -233 -337 9229 0
-9230 182 0
-9230 234 0
-9230 338 0
-182 -234 -338 9230 0
-9205 10166 0
-9206 10166 0
-9207 10166 0
-9208 10166 0
-9209 10166 0
-9210 10166 0
-9211 10166 0
-9212 10166 0
-9213 10166 0
-9214 10166 0
-9215 10166 0
-9216 10166 0
-9217 10166 0
-9218 10166 0
-9219 10166 0
-9220 10166 0
-9221 10166 0
-9222 10166 0
-9223 10166 0
-9224 10166 0
-9225 10166 0
-9226 10166 0
-9227 10166 0
-9228 10166 0
-9229 10166 0
-9230 10166 0
-10166 9205 9206 9207 9208 9209 9210 9211 9212 9213 9214 9215 9216 9217 9218 9219 9220 9221 9222 9223 9224 9225 9226 9227 9228 9229 9230 0
-9231 157 0
-9231 235 0
-9231 261 0
-157 -235 -261 9231 0
-9232 158 0
-9232 236 0
-9232 262 0
-158 -236 -262 9232 0
-9233 159 0
-9233 237 0
-9233 263 0
-159 -237 -263 9233 0
-9234 160 0
-9234 238 0
-9234 264 0
-160 -238 -264 9234 0
-9235 161 0
-9235 239 0
-9235 265 0
-161 -239 -265 9235 0
-9236 162 0
-9236 240 0
-9236 266 0
-162 -240 -266 9236 0
-9237 163 0
-9237 241 0
-9237 267 0
-163 -241 -267 9237 0
-9238 164 0
-9238 242 0
-9238 268 0
-164 -242 -268 9238 0
-9239 165 0
-9239 243 0
-9239 269 0
-165 -243 -269 9239 0
-9240 166 0
-9240 244 0
-9240 270 0
-166 -244 -270 9240 0
-9241 167 0
-9241 245 0
-9241 271 0
-167 -245 -271 9241 0
-9242 168 0
-9242 246 0
-9242 272 0
-168 -246 -272 9242 0
-9243 169 0
-9243 247 0
-9243 273 0
-169 -247 -273 9243 0
-9244 170 0
-9244 248 0
-9244 274 0
-170 -248 -274 9244 0
-9245 171 0
-9245 249 0
-9245 275 0
-171 -249 -275 9245 0
-9246 172 0
-9246 250 0
-9246 276 0
-172 -250 -276 9246 0
-9247 173 0
-9247 251 0
-9247 277 0
-173 -251 -277 9247 0
-9248 174 0
-9248 252 0
-9248 278 0
-174 -252 -278 9248 0
-9249 175 0
-9249 253 0
-9249 279 0
-175 -253 -279 9249 0
-9250 176 0
-9250 254 0
-9250 280 0
-176 -254 -280 9250 0
-9251 177 0
-9251 255 0
-9251 281 0
-177 -255 -281 9251 0
-9252 178 0
-9252 256 0
-9252 282 0
-178 -256 -282 9252 0
-9253 179 0
-9253 257 0
-9253 283 0
-179 -257 -283 9253 0
-9254 180 0
-9254 258 0
-9254 284 0
-180 -258 -284 9254 0
-9255 181 0
-9255 259 0
-9255 285 0
-181 -259 -285 9255 0
-9256 182 0
-9256 260 0
-9256 286 0
-182 -260 -286 9256 0
-9231 10167 0
-9232 10167 0
-9233 10167 0
-9234 10167 0
-9235 10167 0
-9236 10167 0
-9237 10167 0
-9238 10167 0
-9239 10167 0
-9240 10167 0
-9241 10167 0
-9242 10167 0
-9243 10167 0
-9244 10167 0
-9245 10167 0
-9246 10167 0
-9247 10167 0
-9248 10167 0
-9249 10167 0
-9250 10167 0
-9251 10167 0
-9252 10167 0
-9253 10167 0
-9254 10167 0
-9255 10167 0
-9256 10167 0
-10167 9231 9232 9233 9234 9235 9236 9237 9238 9239 9240 9241 9242 9243 9244 9245 9246 9247 9248 9249 9250 9251 9252 9253 9254 9255 9256 0
-9257 157 0
-9257 235 0
-9257 287 0
-157 -235 -287 9257 0
-9258 158 0
-9258 236 0
-9258 288 0
-158 -236 -288 9258 0
-9259 159 0
-9259 237 0
-9259 289 0
-159 -237 -289 9259 0
-9260 160 0
-9260 238 0
-9260 290 0
-160 -238 -290 9260 0
-9261 161 0
-9261 239 0
-9261 291 0
-161 -239 -291 9261 0
-9262 162 0
-9262 240 0
-9262 292 0
-162 -240 -292 9262 0
-9263 163 0
-9263 241 0
-9263 293 0
-163 -241 -293 9263 0
-9264 164 0
-9264 242 0
-9264 294 0
-164 -242 -294 9264 0
-9265 165 0
-9265 243 0
-9265 295 0
-165 -243 -295 9265 0
-9266 166 0
-9266 244 0
-9266 296 0
-166 -244 -296 9266 0
-9267 167 0
-9267 245 0
-9267 297 0
-167 -245 -297 9267 0
-9268 168 0
-9268 246 0
-9268 298 0
-168 -246 -298 9268 0
-9269 169 0
-9269 247 0
-9269 299 0
-169 -247 -299 9269 0
-9270 170 0
-9270 248 0
-9270 300 0
-170 -248 -300 9270 0
-9271 171 0
-9271 249 0
-9271 301 0
-171 -249 -301 9271 0
-9272 172 0
-9272 250 0
-9272 302 0
-172 -250 -302 9272 0
-9273 173 0
-9273 251 0
-9273 303 0
-173 -251 -303 9273 0
-9274 174 0
-9274 252 0
-9274 304 0
-174 -252 -304 9274 0
-9275 175 0
-9275 253 0
-9275 305 0
-175 -253 -305 9275 0
-9276 176 0
-9276 254 0
-9276 306 0
-176 -254 -306 9276 0
-9277 177 0
-9277 255 0
-9277 307 0
-177 -255 -307 9277 0
-9278 178 0
-9278 256 0
-9278 308 0
-178 -256 -308 9278 0
-9279 179 0
-9279 257 0
-9279 309 0
-179 -257 -309 9279 0
-9280 180 0
-9280 258 0
-9280 310 0
-180 -258 -310 9280 0
-9281 181 0
-9281 259 0
-9281 311 0
-181 -259 -311 9281 0
-9282 182 0
-9282 260 0
-9282 312 0
-182 -260 -312 9282 0
-9257 10168 0
-9258 10168 0
-9259 10168 0
-9260 10168 0
-9261 10168 0
-9262 10168 0
-9263 10168 0
-9264 10168 0
-9265 10168 0
-9266 10168 0
-9267 10168 0
-9268 10168 0
-9269 10168 0
-9270 10168 0
-9271 10168 0
-9272 10168 0
-9273 10168 0
-9274 10168 0
-9275 10168 0
-9276 10168 0
-9277 10168 0
-9278 10168 0
-9279 10168 0
-9280 10168 0
-9281 10168 0
-9282 10168 0
-10168 9257 9258 9259 9260 9261 9262 9263 9264 9265 9266 9267 9268 9269 9270 9271 9272 9273 9274 9275 9276 9277 9278 9279 9280 9281 9282 0
-9283 157 0
-9283 235 0
-9283 313 0
-157 -235 -313 9283 0
-9284 158 0
-9284 236 0
-9284 314 0
-158 -236 -314 9284 0
-9285 159 0
-9285 237 0
-9285 315 0
-159 -237 -315 9285 0
-9286 160 0
-9286 238 0
-9286 316 0
-160 -238 -316 9286 0
-9287 161 0
-9287 239 0
-9287 317 0
-161 -239 -317 9287 0
-9288 162 0
-9288 240 0
-9288 318 0
-162 -240 -318 9288 0
-9289 163 0
-9289 241 0
-9289 319 0
-163 -241 -319 9289 0
-9290 164 0
-9290 242 0
-9290 320 0
-164 -242 -320 9290 0
-9291 165 0
-9291 243 0
-9291 321 0
-165 -243 -321 9291 0
-9292 166 0
-9292 244 0
-9292 322 0
-166 -244 -322 9292 0
-9293 167 0
-9293 245 0
-9293 323 0
-167 -245 -323 9293 0
-9294 168 0
-9294 246 0
-9294 324 0
-168 -246 -324 9294 0
-9295 169 0
-9295 247 0
-9295 325 0
-169 -247 -325 9295 0
-9296 170 0
-9296 248 0
-9296 326 0
-170 -248 -326 9296 0
-9297 171 0
-9297 249 0
-9297 327 0
-171 -249 -327 9297 0
-9298 172 0
-9298 250 0
-9298 328 0
-172 -250 -328 9298 0
-9299 173 0
-9299 251 0
-9299 329 0
-173 -251 -329 9299 0
-9300 174 0
-9300 252 0
-9300 330 0
-174 -252 -330 9300 0
-9301 175 0
-9301 253 0
-9301 331 0
-175 -253 -331 9301 0
-9302 176 0
-9302 254 0
-9302 332 0
-176 -254 -332 9302 0
-9303 177 0
-9303 255 0
-9303 333 0
-177 -255 -333 9303 0
-9304 178 0
-9304 256 0
-9304 334 0
-178 -256 -334 9304 0
-9305 179 0
-9305 257 0
-9305 335 0
-179 -257 -335 9305 0
-9306 180 0
-9306 258 0
-9306 336 0
-180 -258 -336 9306 0
-9307 181 0
-9307 259 0
-9307 337 0
-181 -259 -337 9307 0
-9308 182 0
-9308 260 0
-9308 338 0
-182 -260 -338 9308 0
-9283 10169 0
-9284 10169 0
-9285 10169 0
-9286 10169 0
-9287 10169 0
-9288 10169 0
-9289 10169 0
-9290 10169 0
-9291 10169 0
-9292 10169 0
-9293 10169 0
-9294 10169 0
-9295 10169 0
-9296 10169 0
-9297 10169 0
-9298 10169 0
-9299 10169 0
-9300 10169 0
-9301 10169 0
-9302 10169 0
-9303 10169 0
-9304 10169 0
-9305 10169 0
-9306 10169 0
-9307 10169 0
-9308 10169 0
-10169 9283 9284 9285 9286 9287 9288 9289 9290 9291 9292 9293 9294 9295 9296 9297 9298 9299 9300 9301 9302 9303 9304 9305 9306 9307 9308 0
-9309 157 0
-9309 261 0
-9309 287 0
-157 -261 -287 9309 0
-9310 158 0
-9310 262 0
-9310 288 0
-158 -262 -288 9310 0
-9311 159 0
-9311 263 0
-9311 289 0
-159 -263 -289 9311 0
-9312 160 0
-9312 264 0
-9312 290 0
-160 -264 -290 9312 0
-9313 161 0
-9313 265 0
-9313 291 0
-161 -265 -291 9313 0
-9314 162 0
-9314 266 0
-9314 292 0
-162 -266 -292 9314 0
-9315 163 0
-9315 267 0
-9315 293 0
-163 -267 -293 9315 0
-9316 164 0
-9316 268 0
-9316 294 0
-164 -268 -294 9316 0
-9317 165 0
-9317 269 0
-9317 295 0
-165 -269 -295 9317 0
-9318 166 0
-9318 270 0
-9318 296 0
-166 -270 -296 9318 0
-9319 167 0
-9319 271 0
-9319 297 0
-167 -271 -297 9319 0
-9320 168 0
-9320 272 0
-9320 298 0
-168 -272 -298 9320 0
-9321 169 0
-9321 273 0
-9321 299 0
-169 -273 -299 9321 0
-9322 170 0
-9322 274 0
-9322 300 0
-170 -274 -300 9322 0
-9323 171 0
-9323 275 0
-9323 301 0
-171 -275 -301 9323 0
-9324 172 0
-9324 276 0
-9324 302 0
-172 -276 -302 9324 0
-9325 173 0
-9325 277 0
-9325 303 0
-173 -277 -303 9325 0
-9326 174 0
-9326 278 0
-9326 304 0
-174 -278 -304 9326 0
-9327 175 0
-9327 279 0
-9327 305 0
-175 -279 -305 9327 0
-9328 176 0
-9328 280 0
-9328 306 0
-176 -280 -306 9328 0
-9329 177 0
-9329 281 0
-9329 307 0
-177 -281 -307 9329 0
-9330 178 0
-9330 282 0
-9330 308 0
-178 -282 -308 9330 0
-9331 179 0
-9331 283 0
-9331 309 0
-179 -283 -309 9331 0
-9332 180 0
-9332 284 0
-9332 310 0
-180 -284 -310 9332 0
-9333 181 0
-9333 285 0
-9333 311 0
-181 -285 -311 9333 0
-9334 182 0
-9334 286 0
-9334 312 0
-182 -286 -312 9334 0
-9309 10170 0
-9310 10170 0
-9311 10170 0
-9312 10170 0
-9313 10170 0
-9314 10170 0
-9315 10170 0
-9316 10170 0
-9317 10170 0
-9318 10170 0
-9319 10170 0
-9320 10170 0
-9321 10170 0
-9322 10170 0
-9323 10170 0
-9324 10170 0
-9325 10170 0
-9326 10170 0
-9327 10170 0
-9328 10170 0
-9329 10170 0
-9330 10170 0
-9331 10170 0
-9332 10170 0
-9333 10170 0
-9334 10170 0
-10170 9309 9310 9311 9312 9313 9314 9315 9316 9317 9318 9319 9320 9321 9322 9323 9324 9325 9326 9327 9328 9329 9330 9331 9332 9333 9334 0
-9335 157 0
-9335 261 0
-9335 313 0
-157 -261 -313 9335 0
-9336 158 0
-9336 262 0
-9336 314 0
-158 -262 -314 9336 0
-9337 159 0
-9337 263 0
-9337 315 0
-159 -263 -315 9337 0
-9338 160 0
-9338 264 0
-9338 316 0
-160 -264 -316 9338 0
-9339 161 0
-9339 265 0
-9339 317 0
-161 -265 -317 9339 0
-9340 162 0
-9340 266 0
-9340 318 0
-162 -266 -318 9340 0
-9341 163 0
-9341 267 0
-9341 319 0
-163 -267 -319 9341 0
-9342 164 0
-9342 268 0
-9342 320 0
-164 -268 -320 9342 0
-9343 165 0
-9343 269 0
-9343 321 0
-165 -269 -321 9343 0
-9344 166 0
-9344 270 0
-9344 322 0
-166 -270 -322 9344 0
-9345 167 0
-9345 271 0
-9345 323 0
-167 -271 -323 9345 0
-9346 168 0
-9346 272 0
-9346 324 0
-168 -272 -324 9346 0
-9347 169 0
-9347 273 0
-9347 325 0
-169 -273 -325 9347 0
-9348 170 0
-9348 274 0
-9348 326 0
-170 -274 -326 9348 0
-9349 171 0
-9349 275 0
-9349 327 0
-171 -275 -327 9349 0
-9350 172 0
-9350 276 0
-9350 328 0
-172 -276 -328 9350 0
-9351 173 0
-9351 277 0
-9351 329 0
-173 -277 -329 9351 0
-9352 174 0
-9352 278 0
-9352 330 0
-174 -278 -330 9352 0
-9353 175 0
-9353 279 0
-9353 331 0
-175 -279 -331 9353 0
-9354 176 0
-9354 280 0
-9354 332 0
-176 -280 -332 9354 0
-9355 177 0
-9355 281 0
-9355 333 0
-177 -281 -333 9355 0
-9356 178 0
-9356 282 0
-9356 334 0
-178 -282 -334 9356 0
-9357 179 0
-9357 283 0
-9357 335 0
-179 -283 -335 9357 0
-9358 180 0
-9358 284 0
-9358 336 0
-180 -284 -336 9358 0
-9359 181 0
-9359 285 0
-9359 337 0
-181 -285 -337 9359 0
-9360 182 0
-9360 286 0
-9360 338 0
-182 -286 -338 9360 0
-9335 10171 0
-9336 10171 0
-9337 10171 0
-9338 10171 0
-9339 10171 0
-9340 10171 0
-9341 10171 0
-9342 10171 0
-9343 10171 0
-9344 10171 0
-9345 10171 0
-9346 10171 0
-9347 10171 0
-9348 10171 0
-9349 10171 0
-9350 10171 0
-9351 10171 0
-9352 10171 0
-9353 10171 0
-9354 10171 0
-9355 10171 0
-9356 10171 0
-9357 10171 0
-9358 10171 0
-9359 10171 0
-9360 10171 0
-10171 9335 9336 9337 9338 9339 9340 9341 9342 9343 9344 9345 9346 9347 9348 9349 9350 9351 9352 9353 9354 9355 9356 9357 9358 9359 9360 0
-9361 157 0
-9361 287 0
-9361 313 0
-157 -287 -313 9361 0
-9362 158 0
-9362 288 0
-9362 314 0
-158 -288 -314 9362 0
-9363 159 0
-9363 289 0
-9363 315 0
-159 -289 -315 9363 0
-9364 160 0
-9364 290 0
-9364 316 0
-160 -290 -316 9364 0
-9365 161 0
-9365 291 0
-9365 317 0
-161 -291 -317 9365 0
-9366 162 0
-9366 292 0
-9366 318 0
-162 -292 -318 9366 0
-9367 163 0
-9367 293 0
-9367 319 0
-163 -293 -319 9367 0
-9368 164 0
-9368 294 0
-9368 320 0
-164 -294 -320 9368 0
-9369 165 0
-9369 295 0
-9369 321 0
-165 -295 -321 9369 0
-9370 166 0
-9370 296 0
-9370 322 0
-166 -296 -322 9370 0
-9371 167 0
-9371 297 0
-9371 323 0
-167 -297 -323 9371 0
-9372 168 0
-9372 298 0
-9372 324 0
-168 -298 -324 9372 0
-9373 169 0
-9373 299 0
-9373 325 0
-169 -299 -325 9373 0
-9374 170 0
-9374 300 0
-9374 326 0
-170 -300 -326 9374 0
-9375 171 0
-9375 301 0
-9375 327 0
-171 -301 -327 9375 0
-9376 172 0
-9376 302 0
-9376 328 0
-172 -302 -328 9376 0
-9377 173 0
-9377 303 0
-9377 329 0
-173 -303 -329 9377 0
-9378 174 0
-9378 304 0
-9378 330 0
-174 -304 -330 9378 0
-9379 175 0
-9379 305 0
-9379 331 0
-175 -305 -331 9379 0
-9380 176 0
-9380 306 0
-9380 332 0
-176 -306 -332 9380 0
-9381 177 0
-9381 307 0
-9381 333 0
-177 -307 -333 9381 0
-9382 178 0
-9382 308 0
-9382 334 0
-178 -308 -334 9382 0
-9383 179 0
-9383 309 0
-9383 335 0
-179 -309 -335 9383 0
-9384 180 0
-9384 310 0
-9384 336 0
-180 -310 -336 9384 0
-9385 181 0
-9385 311 0
-9385 337 0
-181 -311 -337 9385 0
-9386 182 0
-9386 312 0
-9386 338 0
-182 -312 -338 9386 0
-9361 10172 0
-9362 10172 0
-9363 10172 0
-9364 10172 0
-9365 10172 0
-9366 10172 0
-9367 10172 0
-9368 10172 0
-9369 10172 0
-9370 10172 0
-9371 10172 0
-9372 10172 0
-9373 10172 0
-9374 10172 0
-9375 10172 0
-9376 10172 0
-9377 10172 0
-9378 10172 0
-9379 10172 0
-9380 10172 0
-9381 10172 0
-9382 10172 0
-9383 10172 0
-9384 10172 0
-9385 10172 0
-9386 10172 0
-10172 9361 9362 9363 9364 9365 9366 9367 9368 9369 9370 9371 9372 9373 9374 9375 9376 9377 9378 9379 9380 9381 9382 9383 9384 9385 9386 0
-9387 183 0
-9387 209 0
-9387 235 0
-183 -209 -235 9387 0
-9388 184 0
-9388 210 0
-9388 236 0
-184 -210 -236 9388 0
-9389 185 0
-9389 211 0
-9389 237 0
-185 -211 -237 9389 0
-9390 186 0
-9390 212 0
-9390 238 0
-186 -212 -238 9390 0
-9391 187 0
-9391 213 0
-9391 239 0
-187 -213 -239 9391 0
-9392 188 0
-9392 214 0
-9392 240 0
-188 -214 -240 9392 0
-9393 189 0
-9393 215 0
-9393 241 0
-189 -215 -241 9393 0
-9394 190 0
-9394 216 0
-9394 242 0
-190 -216 -242 9394 0
-9395 191 0
-9395 217 0
-9395 243 0
-191 -217 -243 9395 0
-9396 192 0
-9396 218 0
-9396 244 0
-192 -218 -244 9396 0
-9397 193 0
-9397 219 0
-9397 245 0
-193 -219 -245 9397 0
-9398 194 0
-9398 220 0
-9398 246 0
-194 -220 -246 9398 0
-9399 195 0
-9399 221 0
-9399 247 0
-195 -221 -247 9399 0
-9400 196 0
-9400 222 0
-9400 248 0
-196 -222 -248 9400 0
-9401 197 0
-9401 223 0
-9401 249 0
-197 -223 -249 9401 0
-9402 198 0
-9402 224 0
-9402 250 0
-198 -224 -250 9402 0
-9403 199 0
-9403 225 0
-9403 251 0
-199 -225 -251 9403 0
-9404 200 0
-9404 226 0
-9404 252 0
-200 -226 -252 9404 0
-9405 201 0
-9405 227 0
-9405 253 0
-201 -227 -253 9405 0
-9406 202 0
-9406 228 0
-9406 254 0
-202 -228 -254 9406 0
-9407 203 0
-9407 229 0
-9407 255 0
-203 -229 -255 9407 0
-9408 204 0
-9408 230 0
-9408 256 0
-204 -230 -256 9408 0
-9409 205 0
-9409 231 0
-9409 257 0
-205 -231 -257 9409 0
-9410 206 0
-9410 232 0
-9410 258 0
-206 -232 -258 9410 0
-9411 207 0
-9411 233 0
-9411 259 0
-207 -233 -259 9411 0
-9412 208 0
-9412 234 0
-9412 260 0
-208 -234 -260 9412 0
-9387 10173 0
-9388 10173 0
-9389 10173 0
-9390 10173 0
-9391 10173 0
-9392 10173 0
-9393 10173 0
-9394 10173 0
-9395 10173 0
-9396 10173 0
-9397 10173 0
-9398 10173 0
-9399 10173 0
-9400 10173 0
-9401 10173 0
-9402 10173 0
-9403 10173 0
-9404 10173 0
-9405 10173 0
-9406 10173 0
-9407 10173 0
-9408 10173 0
-9409 10173 0
-9410 10173 0
-9411 10173 0
-9412 10173 0
-10173 9387 9388 9389 9390 9391 9392 9393 9394 9395 9396 9397 9398 9399 9400 9401 9402 9403 9404 9405 9406 9407 9408 9409 9410 9411 9412 0
-9413 183 0
-9413 209 0
-9413 261 0
-183 -209 -261 9413 0
-9414 184 0
-9414 210 0
-9414 262 0
-184 -210 -262 9414 0
-9415 185 0
-9415 211 0
-9415 263 0
-185 -211 -263 9415 0
-9416 186 0
-9416 212 0
-9416 264 0
-186 -212 -264 9416 0
-9417 187 0
-9417 213 0
-9417 265 0
-187 -213 -265 9417 0
-9418 188 0
-9418 214 0
-9418 266 0
-188 -214 -266 9418 0
-9419 189 0
-9419 215 0
-9419 267 0
-189 -215 -267 9419 0
-9420 190 0
-9420 216 0
-9420 268 0
-190 -216 -268 9420 0
-9421 191 0
-9421 217 0
-9421 269 0
-191 -217 -269 9421 0
-9422 192 0
-9422 218 0
-9422 270 0
-192 -218 -270 9422 0
-9423 193 0
-9423 219 0
-9423 271 0
-193 -219 -271 9423 0
-9424 194 0
-9424 220 0
-9424 272 0
-194 -220 -272 9424 0
-9425 195 0
-9425 221 0
-9425 273 0
-195 -221 -273 9425 0
-9426 196 0
-9426 222 0
-9426 274 0
-196 -222 -274 9426 0
-9427 197 0
-9427 223 0
-9427 275 0
-197 -223 -275 9427 0
-9428 198 0
-9428 224 0
-9428 276 0
-198 -224 -276 9428 0
-9429 199 0
-9429 225 0
-9429 277 0
-199 -225 -277 9429 0
-9430 200 0
-9430 226 0
-9430 278 0
-200 -226 -278 9430 0
-9431 201 0
-9431 227 0
-9431 279 0
-201 -227 -279 9431 0
-9432 202 0
-9432 228 0
-9432 280 0
-202 -228 -280 9432 0
-9433 203 0
-9433 229 0
-9433 281 0
-203 -229 -281 9433 0
-9434 204 0
-9434 230 0
-9434 282 0
-204 -230 -282 9434 0
-9435 205 0
-9435 231 0
-9435 283 0
-205 -231 -283 9435 0
-9436 206 0
-9436 232 0
-9436 284 0
-206 -232 -284 9436 0
-9437 207 0
-9437 233 0
-9437 285 0
-207 -233 -285 9437 0
-9438 208 0
-9438 234 0
-9438 286 0
-208 -234 -286 9438 0
-9413 10174 0
-9414 10174 0
-9415 10174 0
-9416 10174 0
-9417 10174 0
-9418 10174 0
-9419 10174 0
-9420 10174 0
-9421 10174 0
-9422 10174 0
-9423 10174 0
-9424 10174 0
-9425 10174 0
-9426 10174 0
-9427 10174 0
-9428 10174 0
-9429 10174 0
-9430 10174 0
-9431 10174 0
-9432 10174 0
-9433 10174 0
-9434 10174 0
-9435 10174 0
-9436 10174 0
-9437 10174 0
-9438 10174 0
-10174 9413 9414 9415 9416 9417 9418 9419 9420 9421 9422 9423 9424 9425 9426 9427 9428 9429 9430 9431 9432 9433 9434 9435 9436 9437 9438 0
-9439 183 0
-9439 209 0
-9439 287 0
-183 -209 -287 9439 0
-9440 184 0
-9440 210 0
-9440 288 0
-184 -210 -288 9440 0
-9441 185 0
-9441 211 0
-9441 289 0
-185 -211 -289 9441 0
-9442 186 0
-9442 212 0
-9442 290 0
-186 -212 -290 9442 0
-9443 187 0
-9443 213 0
-9443 291 0
-187 -213 -291 9443 0
-9444 188 0
-9444 214 0
-9444 292 0
-188 -214 -292 9444 0
-9445 189 0
-9445 215 0
-9445 293 0
-189 -215 -293 9445 0
-9446 190 0
-9446 216 0
-9446 294 0
-190 -216 -294 9446 0
-9447 191 0
-9447 217 0
-9447 295 0
-191 -217 -295 9447 0
-9448 192 0
-9448 218 0
-9448 296 0
-192 -218 -296 9448 0
-9449 193 0
-9449 219 0
-9449 297 0
-193 -219 -297 9449 0
-9450 194 0
-9450 220 0
-9450 298 0
-194 -220 -298 9450 0
-9451 195 0
-9451 221 0
-9451 299 0
-195 -221 -299 9451 0
-9452 196 0
-9452 222 0
-9452 300 0
-196 -222 -300 9452 0
-9453 197 0
-9453 223 0
-9453 301 0
-197 -223 -301 9453 0
-9454 198 0
-9454 224 0
-9454 302 0
-198 -224 -302 9454 0
-9455 199 0
-9455 225 0
-9455 303 0
-199 -225 -303 9455 0
-9456 200 0
-9456 226 0
-9456 304 0
-200 -226 -304 9456 0
-9457 201 0
-9457 227 0
-9457 305 0
-201 -227 -305 9457 0
-9458 202 0
-9458 228 0
-9458 306 0
-202 -228 -306 9458 0
-9459 203 0
-9459 229 0
-9459 307 0
-203 -229 -307 9459 0
-9460 204 0
-9460 230 0
-9460 308 0
-204 -230 -308 9460 0
-9461 205 0
-9461 231 0
-9461 309 0
-205 -231 -309 9461 0
-9462 206 0
-9462 232 0
-9462 310 0
-206 -232 -310 9462 0
-9463 207 0
-9463 233 0
-9463 311 0
-207 -233 -311 9463 0
-9464 208 0
-9464 234 0
-9464 312 0
-208 -234 -312 9464 0
-9439 10175 0
-9440 10175 0
-9441 10175 0
-9442 10175 0
-9443 10175 0
-9444 10175 0
-9445 10175 0
-9446 10175 0
-9447 10175 0
-9448 10175 0
-9449 10175 0
-9450 10175 0
-9451 10175 0
-9452 10175 0
-9453 10175 0
-9454 10175 0
-9455 10175 0
-9456 10175 0
-9457 10175 0
-9458 10175 0
-9459 10175 0
-9460 10175 0
-9461 10175 0
-9462 10175 0
-9463 10175 0
-9464 10175 0
-10175 9439 9440 9441 9442 9443 9444 9445 9446 9447 9448 9449 9450 9451 9452 9453 9454 9455 9456 9457 9458 9459 9460 9461 9462 9463 9464 0
-9465 183 0
-9465 209 0
-9465 313 0
-183 -209 -313 9465 0
-9466 184 0
-9466 210 0
-9466 314 0
-184 -210 -314 9466 0
-9467 185 0
-9467 211 0
-9467 315 0
-185 -211 -315 9467 0
-9468 186 0
-9468 212 0
-9468 316 0
-186 -212 -316 9468 0
-9469 187 0
-9469 213 0
-9469 317 0
-187 -213 -317 9469 0
-9470 188 0
-9470 214 0
-9470 318 0
-188 -214 -318 9470 0
-9471 189 0
-9471 215 0
-9471 319 0
-189 -215 -319 9471 0
-9472 190 0
-9472 216 0
-9472 320 0
-190 -216 -320 9472 0
-9473 191 0
-9473 217 0
-9473 321 0
-191 -217 -321 9473 0
-9474 192 0
-9474 218 0
-9474 322 0
-192 -218 -322 9474 0
-9475 193 0
-9475 219 0
-9475 323 0
-193 -219 -323 9475 0
-9476 194 0
-9476 220 0
-9476 324 0
-194 -220 -324 9476 0
-9477 195 0
-9477 221 0
-9477 325 0
-195 -221 -325 9477 0
-9478 196 0
-9478 222 0
-9478 326 0
-196 -222 -326 9478 0
-9479 197 0
-9479 223 0
-9479 327 0
-197 -223 -327 9479 0
-9480 198 0
-9480 224 0
-9480 328 0
-198 -224 -328 9480 0
-9481 199 0
-9481 225 0
-9481 329 0
-199 -225 -329 9481 0
-9482 200 0
-9482 226 0
-9482 330 0
-200 -226 -330 9482 0
-9483 201 0
-9483 227 0
-9483 331 0
-201 -227 -331 9483 0
-9484 202 0
-9484 228 0
-9484 332 0
-202 -228 -332 9484 0
-9485 203 0
-9485 229 0
-9485 333 0
-203 -229 -333 9485 0
-9486 204 0
-9486 230 0
-9486 334 0
-204 -230 -334 9486 0
-9487 205 0
-9487 231 0
-9487 335 0
-205 -231 -335 9487 0
-9488 206 0
-9488 232 0
-9488 336 0
-206 -232 -336 9488 0
-9489 207 0
-9489 233 0
-9489 337 0
-207 -233 -337 9489 0
-9490 208 0
-9490 234 0
-9490 338 0
-208 -234 -338 9490 0
-9465 10176 0
-9466 10176 0
-9467 10176 0
-9468 10176 0
-9469 10176 0
-9470 10176 0
-9471 10176 0
-9472 10176 0
-9473 10176 0
-9474 10176 0
-9475 10176 0
-9476 10176 0
-9477 10176 0
-9478 10176 0
-9479 10176 0
-9480 10176 0
-9481 10176 0
-9482 10176 0
-9483 10176 0
-9484 10176 0
-9485 10176 0
-9486 10176 0
-9487 10176 0
-9488 10176 0
-9489 10176 0
-9490 10176 0
-10176 9465 9466 9467 9468 9469 9470 9471 9472 9473 9474 9475 9476 9477 9478 9479 9480 9481 9482 9483 9484 9485 9486 9487 9488 9489 9490 0
-9491 183 0
-9491 235 0
-9491 261 0
-183 -235 -261 9491 0
-9492 184 0
-9492 236 0
-9492 262 0
-184 -236 -262 9492 0
-9493 185 0
-9493 237 0
-9493 263 0
-185 -237 -263 9493 0
-9494 186 0
-9494 238 0
-9494 264 0
-186 -238 -264 9494 0
-9495 187 0
-9495 239 0
-9495 265 0
-187 -239 -265 9495 0
-9496 188 0
-9496 240 0
-9496 266 0
-188 -240 -266 9496 0
-9497 189 0
-9497 241 0
-9497 267 0
-189 -241 -267 9497 0
-9498 190 0
-9498 242 0
-9498 268 0
-190 -242 -268 9498 0
-9499 191 0
-9499 243 0
-9499 269 0
-191 -243 -269 9499 0
-9500 192 0
-9500 244 0
-9500 270 0
-192 -244 -270 9500 0
-9501 193 0
-9501 245 0
-9501 271 0
-193 -245 -271 9501 0
-9502 194 0
-9502 246 0
-9502 272 0
-194 -246 -272 9502 0
-9503 195 0
-9503 247 0
-9503 273 0
-195 -247 -273 9503 0
-9504 196 0
-9504 248 0
-9504 274 0
-196 -248 -274 9504 0
-9505 197 0
-9505 249 0
-9505 275 0
-197 -249 -275 9505 0
-9506 198 0
-9506 250 0
-9506 276 0
-198 -250 -276 9506 0
-9507 199 0
-9507 251 0
-9507 277 0
-199 -251 -277 9507 0
-9508 200 0
-9508 252 0
-9508 278 0
-200 -252 -278 9508 0
-9509 201 0
-9509 253 0
-9509 279 0
-201 -253 -279 9509 0
-9510 202 0
-9510 254 0
-9510 280 0
-202 -254 -280 9510 0
-9511 203 0
-9511 255 0
-9511 281 0
-203 -255 -281 9511 0
-9512 204 0
-9512 256 0
-9512 282 0
-204 -256 -282 9512 0
-9513 205 0
-9513 257 0
-9513 283 0
-205 -257 -283 9513 0
-9514 206 0
-9514 258 0
-9514 284 0
-206 -258 -284 9514 0
-9515 207 0
-9515 259 0
-9515 285 0
-207 -259 -285 9515 0
-9516 208 0
-9516 260 0
-9516 286 0
-208 -260 -286 9516 0
-9491 10177 0
-9492 10177 0
-9493 10177 0
-9494 10177 0
-9495 10177 0
-9496 10177 0
-9497 10177 0
-9498 10177 0
-9499 10177 0
-9500 10177 0
-9501 10177 0
-9502 10177 0
-9503 10177 0
-9504 10177 0
-9505 10177 0
-9506 10177 0
-9507 10177 0
-9508 10177 0
-9509 10177 0
-9510 10177 0
-9511 10177 0
-9512 10177 0
-9513 10177 0
-9514 10177 0
-9515 10177 0
-9516 10177 0
-10177 9491 9492 9493 9494 9495 9496 9497 9498 9499 9500 9501 9502 9503 9504 9505 9506 9507 9508 9509 9510 9511 9512 9513 9514 9515 9516 0
-9517 183 0
-9517 235 0
-9517 287 0
-183 -235 -287 9517 0
-9518 184 0
-9518 236 0
-9518 288 0
-184 -236 -288 9518 0
-9519 185 0
-9519 237 0
-9519 289 0
-185 -237 -289 9519 0
-9520 186 0
-9520 238 0
-9520 290 0
-186 -238 -290 9520 0
-9521 187 0
-9521 239 0
-9521 291 0
-187 -239 -291 9521 0
-9522 188 0
-9522 240 0
-9522 292 0
-188 -240 -292 9522 0
-9523 189 0
-9523 241 0
-9523 293 0
-189 -241 -293 9523 0
-9524 190 0
-9524 242 0
-9524 294 0
-190 -242 -294 9524 0
-9525 191 0
-9525 243 0
-9525 295 0
-191 -243 -295 9525 0
-9526 192 0
-9526 244 0
-9526 296 0
-192 -244 -296 9526 0
-9527 193 0
-9527 245 0
-9527 297 0
-193 -245 -297 9527 0
-9528 194 0
-9528 246 0
-9528 298 0
-194 -246 -298 9528 0
-9529 195 0
-9529 247 0
-9529 299 0
-195 -247 -299 9529 0
-9530 196 0
-9530 248 0
-9530 300 0
-196 -248 -300 9530 0
-9531 197 0
-9531 249 0
-9531 301 0
-197 -249 -301 9531 0
-9532 198 0
-9532 250 0
-9532 302 0
-198 -250 -302 9532 0
-9533 199 0
-9533 251 0
-9533 303 0
-199 -251 -303 9533 0
-9534 200 0
-9534 252 0
-9534 304 0
-200 -252 -304 9534 0
-9535 201 0
-9535 253 0
-9535 305 0
-201 -253 -305 9535 0
-9536 202 0
-9536 254 0
-9536 306 0
-202 -254 -306 9536 0
-9537 203 0
-9537 255 0
-9537 307 0
-203 -255 -307 9537 0
-9538 204 0
-9538 256 0
-9538 308 0
-204 -256 -308 9538 0
-9539 205 0
-9539 257 0
-9539 309 0
-205 -257 -309 9539 0
-9540 206 0
-9540 258 0
-9540 310 0
-206 -258 -310 9540 0
-9541 207 0
-9541 259 0
-9541 311 0
-207 -259 -311 9541 0
-9542 208 0
-9542 260 0
-9542 312 0
-208 -260 -312 9542 0
-9517 10178 0
-9518 10178 0
-9519 10178 0
-9520 10178 0
-9521 10178 0
-9522 10178 0
-9523 10178 0
-9524 10178 0
-9525 10178 0
-9526 10178 0
-9527 10178 0
-9528 10178 0
-9529 10178 0
-9530 10178 0
-9531 10178 0
-9532 10178 0
-9533 10178 0
-9534 10178 0
-9535 10178 0
-9536 10178 0
-9537 10178 0
-9538 10178 0
-9539 10178 0
-9540 10178 0
-9541 10178 0
-9542 10178 0
-10178 9517 9518 9519 9520 9521 9522 9523 9524 9525 9526 9527 9528 9529 9530 9531 9532 9533 9534 9535 9536 9537 9538 9539 9540 9541 9542 0
-9543 183 0
-9543 235 0
-9543 313 0
-183 -235 -313 9543 0
-9544 184 0
-9544 236 0
-9544 314 0
-184 -236 -314 9544 0
-9545 185 0
-9545 237 0
-9545 315 0
-185 -237 -315 9545 0
-9546 186 0
-9546 238 0
-9546 316 0
-186 -238 -316 9546 0
-9547 187 0
-9547 239 0
-9547 317 0
-187 -239 -317 9547 0
-9548 188 0
-9548 240 0
-9548 318 0
-188 -240 -318 9548 0
-9549 189 0
-9549 241 0
-9549 319 0
-189 -241 -319 9549 0
-9550 190 0
-9550 242 0
-9550 320 0
-190 -242 -320 9550 0
-9551 191 0
-9551 243 0
-9551 321 0
-191 -243 -321 9551 0
-9552 192 0
-9552 244 0
-9552 322 0
-192 -244 -322 9552 0
-9553 193 0
-9553 245 0
-9553 323 0
-193 -245 -323 9553 0
-9554 194 0
-9554 246 0
-9554 324 0
-194 -246 -324 9554 0
-9555 195 0
-9555 247 0
-9555 325 0
-195 -247 -325 9555 0
-9556 196 0
-9556 248 0
-9556 326 0
-196 -248 -326 9556 0
-9557 197 0
-9557 249 0
-9557 327 0
-197 -249 -327 9557 0
-9558 198 0
-9558 250 0
-9558 328 0
-198 -250 -328 9558 0
-9559 199 0
-9559 251 0
-9559 329 0
-199 -251 -329 9559 0
-9560 200 0
-9560 252 0
-9560 330 0
-200 -252 -330 9560 0
-9561 201 0
-9561 253 0
-9561 331 0
-201 -253 -331 9561 0
-9562 202 0
-9562 254 0
-9562 332 0
-202 -254 -332 9562 0
-9563 203 0
-9563 255 0
-9563 333 0
-203 -255 -333 9563 0
-9564 204 0
-9564 256 0
-9564 334 0
-204 -256 -334 9564 0
-9565 205 0
-9565 257 0
-9565 335 0
-205 -257 -335 9565 0
-9566 206 0
-9566 258 0
-9566 336 0
-206 -258 -336 9566 0
-9567 207 0
-9567 259 0
-9567 337 0
-207 -259 -337 9567 0
-9568 208 0
-9568 260 0
-9568 338 0
-208 -260 -338 9568 0
-9543 10179 0
-9544 10179 0
-9545 10179 0
-9546 10179 0
-9547 10179 0
-9548 10179 0
-9549 10179 0
-9550 10179 0
-9551 10179 0
-9552 10179 0
-9553 10179 0
-9554 10179 0
-9555 10179 0
-9556 10179 0
-9557 10179 0
-9558 10179 0
-9559 10179 0
-9560 10179 0
-9561 10179 0
-9562 10179 0
-9563 10179 0
-9564 10179 0
-9565 10179 0
-9566 10179 0
-9567 10179 0
-9568 10179 0
-10179 9543 9544 9545 9546 9547 9548 9549 9550 9551 9552 9553 9554 9555 9556 9557 9558 9559 9560 9561 9562 9563 9564 9565 9566 9567 9568 0
-9569 183 0
-9569 261 0
-9569 287 0
-183 -261 -287 9569 0
-9570 184 0
-9570 262 0
-9570 288 0
-184 -262 -288 9570 0
-9571 185 0
-9571 263 0
-9571 289 0
-185 -263 -289 9571 0
-9572 186 0
-9572 264 0
-9572 290 0
-186 -264 -290 9572 0
-9573 187 0
-9573 265 0
-9573 291 0
-187 -265 -291 9573 0
-9574 188 0
-9574 266 0
-9574 292 0
-188 -266 -292 9574 0
-9575 189 0
-9575 267 0
-9575 293 0
-189 -267 -293 9575 0
-9576 190 0
-9576 268 0
-9576 294 0
-190 -268 -294 9576 0
-9577 191 0
-9577 269 0
-9577 295 0
-191 -269 -295 9577 0
-9578 192 0
-9578 270 0
-9578 296 0
-192 -270 -296 9578 0
-9579 193 0
-9579 271 0
-9579 297 0
-193 -271 -297 9579 0
-9580 194 0
-9580 272 0
-9580 298 0
-194 -272 -298 9580 0
-9581 195 0
-9581 273 0
-9581 299 0
-195 -273 -299 9581 0
-9582 196 0
-9582 274 0
-9582 300 0
-196 -274 -300 9582 0
-9583 197 0
-9583 275 0
-9583 301 0
-197 -275 -301 9583 0
-9584 198 0
-9584 276 0
-9584 302 0
-198 -276 -302 9584 0
-9585 199 0
-9585 277 0
-9585 303 0
-199 -277 -303 9585 0
-9586 200 0
-9586 278 0
-9586 304 0
-200 -278 -304 9586 0
-9587 201 0
-9587 279 0
-9587 305 0
-201 -279 -305 9587 0
-9588 202 0
-9588 280 0
-9588 306 0
-202 -280 -306 9588 0
-9589 203 0
-9589 281 0
-9589 307 0
-203 -281 -307 9589 0
-9590 204 0
-9590 282 0
-9590 308 0
-204 -282 -308 9590 0
-9591 205 0
-9591 283 0
-9591 309 0
-205 -283 -309 9591 0
-9592 206 0
-9592 284 0
-9592 310 0
-206 -284 -310 9592 0
-9593 207 0
-9593 285 0
-9593 311 0
-207 -285 -311 9593 0
-9594 208 0
-9594 286 0
-9594 312 0
-208 -286 -312 9594 0
-9569 10180 0
-9570 10180 0
-9571 10180 0
-9572 10180 0
-9573 10180 0
-9574 10180 0
-9575 10180 0
-9576 10180 0
-9577 10180 0
-9578 10180 0
-9579 10180 0
-9580 10180 0
-9581 10180 0
-9582 10180 0
-9583 10180 0
-9584 10180 0
-9585 10180 0
-9586 10180 0
-9587 10180 0
-9588 10180 0
-9589 10180 0
-9590 10180 0
-9591 10180 0
-9592 10180 0
-9593 10180 0
-9594 10180 0
-10180 9569 9570 9571 9572 9573 9574 9575 9576 9577 9578 9579 9580 9581 9582 9583 9584 9585 9586 9587 9588 9589 9590 9591 9592 9593 9594 0
-9595 183 0
-9595 261 0
-9595 313 0
-183 -261 -313 9595 0
-9596 184 0
-9596 262 0
-9596 314 0
-184 -262 -314 9596 0
-9597 185 0
-9597 263 0
-9597 315 0
-185 -263 -315 9597 0
-9598 186 0
-9598 264 0
-9598 316 0
-186 -264 -316 9598 0
-9599 187 0
-9599 265 0
-9599 317 0
-187 -265 -317 9599 0
-9600 188 0
-9600 266 0
-9600 318 0
-188 -266 -318 9600 0
-9601 189 0
-9601 267 0
-9601 319 0
-189 -267 -319 9601 0
-9602 190 0
-9602 268 0
-9602 320 0
-190 -268 -320 9602 0
-9603 191 0
-9603 269 0
-9603 321 0
-191 -269 -321 9603 0
-9604 192 0
-9604 270 0
-9604 322 0
-192 -270 -322 9604 0
-9605 193 0
-9605 271 0
-9605 323 0
-193 -271 -323 9605 0
-9606 194 0
-9606 272 0
-9606 324 0
-194 -272 -324 9606 0
-9607 195 0
-9607 273 0
-9607 325 0
-195 -273 -325 9607 0
-9608 196 0
-9608 274 0
-9608 326 0
-196 -274 -326 9608 0
-9609 197 0
-9609 275 0
-9609 327 0
-197 -275 -327 9609 0
-9610 198 0
-9610 276 0
-9610 328 0
-198 -276 -328 9610 0
-9611 199 0
-9611 277 0
-9611 329 0
-199 -277 -329 9611 0
-9612 200 0
-9612 278 0
-9612 330 0
-200 -278 -330 9612 0
-9613 201 0
-9613 279 0
-9613 331 0
-201 -279 -331 9613 0
-9614 202 0
-9614 280 0
-9614 332 0
-202 -280 -332 9614 0
-9615 203 0
-9615 281 0
-9615 333 0
-203 -281 -333 9615 0
-9616 204 0
-9616 282 0
-9616 334 0
-204 -282 -334 9616 0
-9617 205 0
-9617 283 0
-9617 335 0
-205 -283 -335 9617 0
-9618 206 0
-9618 284 0
-9618 336 0
-206 -284 -336 9618 0
-9619 207 0
-9619 285 0
-9619 337 0
-207 -285 -337 9619 0
-9620 208 0
-9620 286 0
-9620 338 0
-208 -286 -338 9620 0
-9595 10181 0
-9596 10181 0
-9597 10181 0
-9598 10181 0
-9599 10181 0
-9600 10181 0
-9601 10181 0
-9602 10181 0
-9603 10181 0
-9604 10181 0
-9605 10181 0
-9606 10181 0
-9607 10181 0
-9608 10181 0
-9609 10181 0
-9610 10181 0
-9611 10181 0
-9612 10181 0
-9613 10181 0
-9614 10181 0
-9615 10181 0
-9616 10181 0
-9617 10181 0
-9618 10181 0
-9619 10181 0
-9620 10181 0
-10181 9595 9596 9597 9598 9599 9600 9601 9602 9603 9604 9605 9606 9607 9608 9609 9610 9611 9612 9613 9614 9615 9616 9617 9618 9619 9620 0
-9621 183 0
-9621 287 0
-9621 313 0
-183 -287 -313 9621 0
-9622 184 0
-9622 288 0
-9622 314 0
-184 -288 -314 9622 0
-9623 185 0
-9623 289 0
-9623 315 0
-185 -289 -315 9623 0
-9624 186 0
-9624 290 0
-9624 316 0
-186 -290 -316 9624 0
-9625 187 0
-9625 291 0
-9625 317 0
-187 -291 -317 9625 0
-9626 188 0
-9626 292 0
-9626 318 0
-188 -292 -318 9626 0
-9627 189 0
-9627 293 0
-9627 319 0
-189 -293 -319 9627 0
-9628 190 0
-9628 294 0
-9628 320 0
-190 -294 -320 9628 0
-9629 191 0
-9629 295 0
-9629 321 0
-191 -295 -321 9629 0
-9630 192 0
-9630 296 0
-9630 322 0
-192 -296 -322 9630 0
-9631 193 0
-9631 297 0
-9631 323 0
-193 -297 -323 9631 0
-9632 194 0
-9632 298 0
-9632 324 0
-194 -298 -324 9632 0
-9633 195 0
-9633 299 0
-9633 325 0
-195 -299 -325 9633 0
-9634 196 0
-9634 300 0
-9634 326 0
-196 -300 -326 9634 0
-9635 197 0
-9635 301 0
-9635 327 0
-197 -301 -327 9635 0
-9636 198 0
-9636 302 0
-9636 328 0
-198 -302 -328 9636 0
-9637 199 0
-9637 303 0
-9637 329 0
-199 -303 -329 9637 0
-9638 200 0
-9638 304 0
-9638 330 0
-200 -304 -330 9638 0
-9639 201 0
-9639 305 0
-9639 331 0
-201 -305 -331 9639 0
-9640 202 0
-9640 306 0
-9640 332 0
-202 -306 -332 9640 0
-9641 203 0
-9641 307 0
-9641 333 0
-203 -307 -333 9641 0
-9642 204 0
-9642 308 0
-9642 334 0
-204 -308 -334 9642 0
-9643 205 0
-9643 309 0
-9643 335 0
-205 -309 -335 9643 0
-9644 206 0
-9644 310 0
-9644 336 0
-206 -310 -336 9644 0
-9645 207 0
-9645 311 0
-9645 337 0
-207 -311 -337 9645 0
-9646 208 0
-9646 312 0
-9646 338 0
-208 -312 -338 9646 0
-9621 10182 0
-9622 10182 0
-9623 10182 0
-9624 10182 0
-9625 10182 0
-9626 10182 0
-9627 10182 0
-9628 10182 0
-9629 10182 0
-9630 10182 0
-9631 10182 0
-9632 10182 0
-9633 10182 0
-9634 10182 0
-9635 10182 0
-9636 10182 0
-9637 10182 0
-9638 10182 0
-9639 10182 0
-9640 10182 0
-9641 10182 0
-9642 10182 0
-9643 10182 0
-9644 10182 0
-9645 10182 0
-9646 10182 0
-10182 9621 9622 9623 9624 9625 9626 9627 9628 9629 9630 9631 9632 9633 9634 9635 9636 9637 9638 9639 9640 9641 9642 9643 9644 9645 9646 0
-9647 209 0
-9647 235 0
-9647 261 0
-209 -235 -261 9647 0
-9648 210 0
-9648 236 0
-9648 262 0
-210 -236 -262 9648 0
-9649 211 0
-9649 237 0
-9649 263 0
-211 -237 -263 9649 0
-9650 212 0
-9650 238 0
-9650 264 0
-212 -238 -264 9650 0
-9651 213 0
-9651 239 0
-9651 265 0
-213 -239 -265 9651 0
-9652 214 0
-9652 240 0
-9652 266 0
-214 -240 -266 9652 0
-9653 215 0
-9653 241 0
-9653 267 0
-215 -241 -267 9653 0
-9654 216 0
-9654 242 0
-9654 268 0
-216 -242 -268 9654 0
-9655 217 0
-9655 243 0
-9655 269 0
-217 -243 -269 9655 0
-9656 218 0
-9656 244 0
-9656 270 0
-218 -244 -270 9656 0
-9657 219 0
-9657 245 0
-9657 271 0
-219 -245 -271 9657 0
-9658 220 0
-9658 246 0
-9658 272 0
-220 -246 -272 9658 0
-9659 221 0
-9659 247 0
-9659 273 0
-221 -247 -273 9659 0
-9660 222 0
-9660 248 0
-9660 274 0
-222 -248 -274 9660 0
-9661 223 0
-9661 249 0
-9661 275 0
-223 -249 -275 9661 0
-9662 224 0
-9662 250 0
-9662 276 0
-224 -250 -276 9662 0
-9663 225 0
-9663 251 0
-9663 277 0
-225 -251 -277 9663 0
-9664 226 0
-9664 252 0
-9664 278 0
-226 -252 -278 9664 0
-9665 227 0
-9665 253 0
-9665 279 0
-227 -253 -279 9665 0
-9666 228 0
-9666 254 0
-9666 280 0
-228 -254 -280 9666 0
-9667 229 0
-9667 255 0
-9667 281 0
-229 -255 -281 9667 0
-9668 230 0
-9668 256 0
-9668 282 0
-230 -256 -282 9668 0
-9669 231 0
-9669 257 0
-9669 283 0
-231 -257 -283 9669 0
-9670 232 0
-9670 258 0
-9670 284 0
-232 -258 -284 9670 0
-9671 233 0
-9671 259 0
-9671 285 0
-233 -259 -285 9671 0
-9672 234 0
-9672 260 0
-9672 286 0
-234 -260 -286 9672 0
-9647 10183 0
-9648 10183 0
-9649 10183 0
-9650 10183 0
-9651 10183 0
-9652 10183 0
-9653 10183 0
-9654 10183 0
-9655 10183 0
-9656 10183 0
-9657 10183 0
-9658 10183 0
-9659 10183 0
-9660 10183 0
-9661 10183 0
-9662 10183 0
-9663 10183 0
-9664 10183 0
-9665 10183 0
-9666 10183 0
-9667 10183 0
-9668 10183 0
-9669 10183 0
-9670 10183 0
-9671 10183 0
-9672 10183 0
-10183 9647 9648 9649 9650 9651 9652 9653 9654 9655 9656 9657 9658 9659 9660 9661 9662 9663 9664 9665 9666 9667 9668 9669 9670 9671 9672 0
-9673 209 0
-9673 235 0
-9673 287 0
-209 -235 -287 9673 0
-9674 210 0
-9674 236 0
-9674 288 0
-210 -236 -288 9674 0
-9675 211 0
-9675 237 0
-9675 289 0
-211 -237 -289 9675 0
-9676 212 0
-9676 238 0
-9676 290 0
-212 -238 -290 9676 0
-9677 213 0
-9677 239 0
-9677 291 0
-213 -239 -291 9677 0
-9678 214 0
-9678 240 0
-9678 292 0
-214 -240 -292 9678 0
-9679 215 0
-9679 241 0
-9679 293 0
-215 -241 -293 9679 0
-9680 216 0
-9680 242 0
-9680 294 0
-216 -242 -294 9680 0
-9681 217 0
-9681 243 0
-9681 295 0
-217 -243 -295 9681 0
-9682 218 0
-9682 244 0
-9682 296 0
-218 -244 -296 9682 0
-9683 219 0
-9683 245 0
-9683 297 0
-219 -245 -297 9683 0
-9684 220 0
-9684 246 0
-9684 298 0
-220 -246 -298 9684 0
-9685 221 0
-9685 247 0
-9685 299 0
-221 -247 -299 9685 0
-9686 222 0
-9686 248 0
-9686 300 0
-222 -248 -300 9686 0
-9687 223 0
-9687 249 0
-9687 301 0
-223 -249 -301 9687 0
-9688 224 0
-9688 250 0
-9688 302 0
-224 -250 -302 9688 0
-9689 225 0
-9689 251 0
-9689 303 0
-225 -251 -303 9689 0
-9690 226 0
-9690 252 0
-9690 304 0
-226 -252 -304 9690 0
-9691 227 0
-9691 253 0
-9691 305 0
-227 -253 -305 9691 0
-9692 228 0
-9692 254 0
-9692 306 0
-228 -254 -306 9692 0
-9693 229 0
-9693 255 0
-9693 307 0
-229 -255 -307 9693 0
-9694 230 0
-9694 256 0
-9694 308 0
-230 -256 -308 9694 0
-9695 231 0
-9695 257 0
-9695 309 0
-231 -257 -309 9695 0
-9696 232 0
-9696 258 0
-9696 310 0
-232 -258 -310 9696 0
-9697 233 0
-9697 259 0
-9697 311 0
-233 -259 -311 9697 0
-9698 234 0
-9698 260 0
-9698 312 0
-234 -260 -312 9698 0
-9673 10184 0
-9674 10184 0
-9675 10184 0
-9676 10184 0
-9677 10184 0
-9678 10184 0
-9679 10184 0
-9680 10184 0
-9681 10184 0
-9682 10184 0
-9683 10184 0
-9684 10184 0
-9685 10184 0
-9686 10184 0
-9687 10184 0
-9688 10184 0
-9689 10184 0
-9690 10184 0
-9691 10184 0
-9692 10184 0
-9693 10184 0
-9694 10184 0
-9695 10184 0
-9696 10184 0
-9697 10184 0
-9698 10184 0
-10184 9673 9674 9675 9676 9677 9678 9679 9680 9681 9682 9683 9684 9685 9686 9687 9688 9689 9690 9691 9692 9693 9694 9695 9696 9697 9698 0
-9699 209 0
-9699 235 0
-9699 313 0
-209 -235 -313 9699 0
-9700 210 0
-9700 236 0
-9700 314 0
-210 -236 -314 9700 0
-9701 211 0
-9701 237 0
-9701 315 0
-211 -237 -315 9701 0
-9702 212 0
-9702 238 0
-9702 316 0
-212 -238 -316 9702 0
-9703 213 0
-9703 239 0
-9703 317 0
-213 -239 -317 9703 0
-9704 214 0
-9704 240 0
-9704 318 0
-214 -240 -318 9704 0
-9705 215 0
-9705 241 0
-9705 319 0
-215 -241 -319 9705 0
-9706 216 0
-9706 242 0
-9706 320 0
-216 -242 -320 9706 0
-9707 217 0
-9707 243 0
-9707 321 0
-217 -243 -321 9707 0
-9708 218 0
-9708 244 0
-9708 322 0
-218 -244 -322 9708 0
-9709 219 0
-9709 245 0
-9709 323 0
-219 -245 -323 9709 0
-9710 220 0
-9710 246 0
-9710 324 0
-220 -246 -324 9710 0
-9711 221 0
-9711 247 0
-9711 325 0
-221 -247 -325 9711 0
-9712 222 0
-9712 248 0
-9712 326 0
-222 -248 -326 9712 0
-9713 223 0
-9713 249 0
-9713 327 0
-223 -249 -327 9713 0
-9714 224 0
-9714 250 0
-9714 328 0
-224 -250 -328 9714 0
-9715 225 0
-9715 251 0
-9715 329 0
-225 -251 -329 9715 0
-9716 226 0
-9716 252 0
-9716 330 0
-226 -252 -330 9716 0
-9717 227 0
-9717 253 0
-9717 331 0
-227 -253 -331 9717 0
-9718 228 0
-9718 254 0
-9718 332 0
-228 -254 -332 9718 0
-9719 229 0
-9719 255 0
-9719 333 0
-229 -255 -333 9719 0
-9720 230 0
-9720 256 0
-9720 334 0
-230 -256 -334 9720 0
-9721 231 0
-9721 257 0
-9721 335 0
-231 -257 -335 9721 0
-9722 232 0
-9722 258 0
-9722 336 0
-232 -258 -336 9722 0
-9723 233 0
-9723 259 0
-9723 337 0
-233 -259 -337 9723 0
-9724 234 0
-9724 260 0
-9724 338 0
-234 -260 -338 9724 0
-9699 10185 0
-9700 10185 0
-9701 10185 0
-9702 10185 0
-9703 10185 0
-9704 10185 0
-9705 10185 0
-9706 10185 0
-9707 10185 0
-9708 10185 0
-9709 10185 0
-9710 10185 0
-9711 10185 0
-9712 10185 0
-9713 10185 0
-9714 10185 0
-9715 10185 0
-9716 10185 0
-9717 10185 0
-9718 10185 0
-9719 10185 0
-9720 10185 0
-9721 10185 0
-9722 10185 0
-9723 10185 0
-9724 10185 0
-10185 9699 9700 9701 9702 9703 9704 9705 9706 9707 9708 9709 9710 9711 9712 9713 9714 9715 9716 9717 9718 9719 9720 9721 9722 9723 9724 0
-9725 209 0
-9725 261 0
-9725 287 0
-209 -261 -287 9725 0
-9726 210 0
-9726 262 0
-9726 288 0
-210 -262 -288 9726 0
-9727 211 0
-9727 263 0
-9727 289 0
-211 -263 -289 9727 0
-9728 212 0
-9728 264 0
-9728 290 0
-212 -264 -290 9728 0
-9729 213 0
-9729 265 0
-9729 291 0
-213 -265 -291 9729 0
-9730 214 0
-9730 266 0
-9730 292 0
-214 -266 -292 9730 0
-9731 215 0
-9731 267 0
-9731 293 0
-215 -267 -293 9731 0
-9732 216 0
-9732 268 0
-9732 294 0
-216 -268 -294 9732 0
-9733 217 0
-9733 269 0
-9733 295 0
-217 -269 -295 9733 0
-9734 218 0
-9734 270 0
-9734 296 0
-218 -270 -296 9734 0
-9735 219 0
-9735 271 0
-9735 297 0
-219 -271 -297 9735 0
-9736 220 0
-9736 272 0
-9736 298 0
-220 -272 -298 9736 0
-9737 221 0
-9737 273 0
-9737 299 0
-221 -273 -299 9737 0
-9738 222 0
-9738 274 0
-9738 300 0
-222 -274 -300 9738 0
-9739 223 0
-9739 275 0
-9739 301 0
-223 -275 -301 9739 0
-9740 224 0
-9740 276 0
-9740 302 0
-224 -276 -302 9740 0
-9741 225 0
-9741 277 0
-9741 303 0
-225 -277 -303 9741 0
-9742 226 0
-9742 278 0
-9742 304 0
-226 -278 -304 9742 0
-9743 227 0
-9743 279 0
-9743 305 0
-227 -279 -305 9743 0
-9744 228 0
-9744 280 0
-9744 306 0
-228 -280 -306 9744 0
-9745 229 0
-9745 281 0
-9745 307 0
-229 -281 -307 9745 0
-9746 230 0
-9746 282 0
-9746 308 0
-230 -282 -308 9746 0
-9747 231 0
-9747 283 0
-9747 309 0
-231 -283 -309 9747 0
-9748 232 0
-9748 284 0
-9748 310 0
-232 -284 -310 9748 0
-9749 233 0
-9749 285 0
-9749 311 0
-233 -285 -311 9749 0
-9750 234 0
-9750 286 0
-9750 312 0
-234 -286 -312 9750 0
-9725 10186 0
-9726 10186 0
-9727 10186 0
-9728 10186 0
-9729 10186 0
-9730 10186 0
-9731 10186 0
-9732 10186 0
-9733 10186 0
-9734 10186 0
-9735 10186 0
-9736 10186 0
-9737 10186 0
-9738 10186 0
-9739 10186 0
-9740 10186 0
-9741 10186 0
-9742 10186 0
-9743 10186 0
-9744 10186 0
-9745 10186 0
-9746 10186 0
-9747 10186 0
-9748 10186 0
-9749 10186 0
-9750 10186 0
-10186 9725 9726 9727 9728 9729 9730 9731 9732 9733 9734 9735 9736 9737 9738 9739 9740 9741 9742 9743 9744 9745 9746 9747 9748 9749 9750 0
-9751 209 0
-9751 261 0
-9751 313 0
-209 -261 -313 9751 0
-9752 210 0
-9752 262 0
-9752 314 0
-210 -262 -314 9752 0
-9753 211 0
-9753 263 0
-9753 315 0
-211 -263 -315 9753 0
-9754 212 0
-9754 264 0
-9754 316 0
-212 -264 -316 9754 0
-9755 213 0
-9755 265 0
-9755 317 0
-213 -265 -317 9755 0
-9756 214 0
-9756 266 0
-9756 318 0
-214 -266 -318 9756 0
-9757 215 0
-9757 267 0
-9757 319 0
-215 -267 -319 9757 0
-9758 216 0
-9758 268 0
-9758 320 0
-216 -268 -320 9758 0
-9759 217 0
-9759 269 0
-9759 321 0
-217 -269 -321 9759 0
-9760 218 0
-9760 270 0
-9760 322 0
-218 -270 -322 9760 0
-9761 219 0
-9761 271 0
-9761 323 0
-219 -271 -323 9761 0
-9762 220 0
-9762 272 0
-9762 324 0
-220 -272 -324 9762 0
-9763 221 0
-9763 273 0
-9763 325 0
-221 -273 -325 9763 0
-9764 222 0
-9764 274 0
-9764 326 0
-222 -274 -326 9764 0
-9765 223 0
-9765 275 0
-9765 327 0
-223 -275 -327 9765 0
-9766 224 0
-9766 276 0
-9766 328 0
-224 -276 -328 9766 0
-9767 225 0
-9767 277 0
-9767 329 0
-225 -277 -329 9767 0
-9768 226 0
-9768 278 0
-9768 330 0
-226 -278 -330 9768 0
-9769 227 0
-9769 279 0
-9769 331 0
-227 -279 -331 9769 0
-9770 228 0
-9770 280 0
-9770 332 0
-228 -280 -332 9770 0
-9771 229 0
-9771 281 0
-9771 333 0
-229 -281 -333 9771 0
-9772 230 0
-9772 282 0
-9772 334 0
-230 -282 -334 9772 0
-9773 231 0
-9773 283 0
-9773 335 0
-231 -283 -335 9773 0
-9774 232 0
-9774 284 0
-9774 336 0
-232 -284 -336 9774 0
-9775 233 0
-9775 285 0
-9775 337 0
-233 -285 -337 9775 0
-9776 234 0
-9776 286 0
-9776 338 0
-234 -286 -338 9776 0
-9751 10187 0
-9752 10187 0
-9753 10187 0
-9754 10187 0
-9755 10187 0
-9756 10187 0
-9757 10187 0
-9758 10187 0
-9759 10187 0
-9760 10187 0
-9761 10187 0
-9762 10187 0
-9763 10187 0
-9764 10187 0
-9765 10187 0
-9766 10187 0
-9767 10187 0
-9768 10187 0
-9769 10187 0
-9770 10187 0
-9771 10187 0
-9772 10187 0
-9773 10187 0
-9774 10187 0
-9775 10187 0
-9776 10187 0
-10187 9751 9752 9753 9754 9755 9756 9757 9758 9759 9760 9761 9762 9763 9764 9765 9766 9767 9768 9769 9770 9771 9772 9773 9774 9775 9776 0
-9777 209 0
-9777 287 0
-9777 313 0
-209 -287 -313 9777 0
-9778 210 0
-9778 288 0
-9778 314 0
-210 -288 -314 9778 0
-9779 211 0
-9779 289 0
-9779 315 0
-211 -289 -315 9779 0
-9780 212 0
-9780 290 0
-9780 316 0
-212 -290 -316 9780 0
-9781 213 0
-9781 291 0
-9781 317 0
-213 -291 -317 9781 0
-9782 214 0
-9782 292 0
-9782 318 0
-214 -292 -318 9782 0
-9783 215 0
-9783 293 0
-9783 319 0
-215 -293 -319 9783 0
-9784 216 0
-9784 294 0
-9784 320 0
-216 -294 -320 9784 0
-9785 217 0
-9785 295 0
-9785 321 0
-217 -295 -321 9785 0
-9786 218 0
-9786 296 0
-9786 322 0
-218 -296 -322 9786 0
-9787 219 0
-9787 297 0
-9787 323 0
-219 -297 -323 9787 0
-9788 220 0
-9788 298 0
-9788 324 0
-220 -298 -324 9788 0
-9789 221 0
-9789 299 0
-9789 325 0
-221 -299 -325 9789 0
-9790 222 0
-9790 300 0
-9790 326 0
-222 -300 -326 9790 0
-9791 223 0
-9791 301 0
-9791 327 0
-223 -301 -327 9791 0
-9792 224 0
-9792 302 0
-9792 328 0
-224 -302 -328 9792 0
-9793 225 0
-9793 303 0
-9793 329 0
-225 -303 -329 9793 0
-9794 226 0
-9794 304 0
-9794 330 0
-226 -304 -330 9794 0
-9795 227 0
-9795 305 0
-9795 331 0
-227 -305 -331 9795 0
-9796 228 0
-9796 306 0
-9796 332 0
-228 -306 -332 9796 0
-9797 229 0
-9797 307 0
-9797 333 0
-229 -307 -333 9797 0
-9798 230 0
-9798 308 0
-9798 334 0
-230 -308 -334 9798 0
-9799 231 0
-9799 309 0
-9799 335 0
-231 -309 -335 9799 0
-9800 232 0
-9800 310 0
-9800 336 0
-232 -310 -336 9800 0
-9801 233 0
-9801 311 0
-9801 337 0
-233 -311 -337 9801 0
-9802 234 0
-9802 312 0
-9802 338 0
-234 -312 -338 9802 0
-9777 10188 0
-9778 10188 0
-9779 10188 0
-9780 10188 0
-9781 10188 0
-9782 10188 0
-9783 10188 0
-9784 10188 0
-9785 10188 0
-9786 10188 0
-9787 10188 0
-9788 10188 0
-9789 10188 0
-9790 10188 0
-9791 10188 0
-9792 10188 0
-9793 10188 0
-9794 10188 0
-9795 10188 0
-9796 10188 0
-9797 10188 0
-9798 10188 0
-9799 10188 0
-9800 10188 0
-9801 10188 0
-9802 10188 0
-10188 9777 9778 9779 9780 9781 9782 9783 9784 9785 9786 9787 9788 9789 9790 9791 9792 9793 9794 9795 9796 9797 9798 9799 9800 9801 9802 0
-9803 235 0
-9803 261 0
-9803 287 0
-235 -261 -287 9803 0
-9804 236 0
-9804 262 0
-9804 288 0
-236 -262 -288 9804 0
-9805 237 0
-9805 263 0
-9805 289 0
-237 -263 -289 9805 0
-9806 238 0
-9806 264 0
-9806 290 0
-238 -264 -290 9806 0
-9807 239 0
-9807 265 0
-9807 291 0
-239 -265 -291 9807 0
-9808 240 0
-9808 266 0
-9808 292 0
-240 -266 -292 9808 0
-9809 241 0
-9809 267 0
-9809 293 0
-241 -267 -293 9809 0
-9810 242 0
-9810 268 0
-9810 294 0
-242 -268 -294 9810 0
-9811 243 0
-9811 269 0
-9811 295 0
-243 -269 -295 9811 0
-9812 244 0
-9812 270 0
-9812 296 0
-244 -270 -296 9812 0
-9813 245 0
-9813 271 0
-9813 297 0
-245 -271 -297 9813 0
-9814 246 0
-9814 272 0
-9814 298 0
-246 -272 -298 9814 0
-9815 247 0
-9815 273 0
-9815 299 0
-247 -273 -299 9815 0
-9816 248 0
-9816 274 0
-9816 300 0
-248 -274 -300 9816 0
-9817 249 0
-9817 275 0
-9817 301 0
-249 -275 -301 9817 0
-9818 250 0
-9818 276 0
-9818 302 0
-250 -276 -302 9818 0
-9819 251 0
-9819 277 0
-9819 303 0
-251 -277 -303 9819 0
-9820 252 0
-9820 278 0
-9820 304 0
-252 -278 -304 9820 0
-9821 253 0
-9821 279 0
-9821 305 0
-253 -279 -305 9821 0
-9822 254 0
-9822 280 0
-9822 306 0
-254 -280 -306 9822 0
-9823 255 0
-9823 281 0
-9823 307 0
-255 -281 -307 9823 0
-9824 256 0
-9824 282 0
-9824 308 0
-256 -282 -308 9824 0
-9825 257 0
-9825 283 0
-9825 309 0
-257 -283 -309 9825 0
-9826 258 0
-9826 284 0
-9826 310 0
-258 -284 -310 9826 0
-9827 259 0
-9827 285 0
-9827 311 0
-259 -285 -311 9827 0
-9828 260 0
-9828 286 0
-9828 312 0
-260 -286 -312 9828 0
-9803 10189 0
-9804 10189 0
-9805 10189 0
-9806 10189 0
-9807 10189 0
-9808 10189 0
-9809 10189 0
-9810 10189 0
-9811 10189 0
-9812 10189 0
-9813 10189 0
-9814 10189 0
-9815 10189 0
-9816 10189 0
-9817 10189 0
-9818 10189 0
-9819 10189 0
-9820 10189 0
-9821 10189 0
-9822 10189 0
-9823 10189 0
-9824 10189 0
-9825 10189 0
-9826 10189 0
-9827 10189 0
-9828 10189 0
-10189 9803 9804 9805 9806 9807 9808 9809 9810 9811 9812 9813 9814 9815 9816 9817 9818 9819 9820 9821 9822 9823 9824 9825 9826 9827 9828 0
-9829 235 0
-9829 261 0
-9829 313 0
-235 -261 -313 9829 0
-9830 236 0
-9830 262 0
-9830 314 0
-236 -262 -314 9830 0
-9831 237 0
-9831 263 0
-9831 315 0
-237 -263 -315 9831 0
-9832 238 0
-9832 264 0
-9832 316 0
-238 -264 -316 9832 0
-9833 239 0
-9833 265 0
-9833 317 0
-239 -265 -317 9833 0
-9834 240 0
-9834 266 0
-9834 318 0
-240 -266 -318 9834 0
-9835 241 0
-9835 267 0
-9835 319 0
-241 -267 -319 9835 0
-9836 242 0
-9836 268 0
-9836 320 0
-242 -268 -320 9836 0
-9837 243 0
-9837 269 0
-9837 321 0
-243 -269 -321 9837 0
-9838 244 0
-9838 270 0
-9838 322 0
-244 -270 -322 9838 0
-9839 245 0
-9839 271 0
-9839 323 0
-245 -271 -323 9839 0
-9840 246 0
-9840 272 0
-9840 324 0
-246 -272 -324 9840 0
-9841 247 0
-9841 273 0
-9841 325 0
-247 -273 -325 9841 0
-9842 248 0
-9842 274 0
-9842 326 0
-248 -274 -326 9842 0
-9843 249 0
-9843 275 0
-9843 327 0
-249 -275 -327 9843 0
-9844 250 0
-9844 276 0
-9844 328 0
-250 -276 -328 9844 0
-9845 251 0
-9845 277 0
-9845 329 0
-251 -277 -329 9845 0
-9846 252 0
-9846 278 0
-9846 330 0
-252 -278 -330 9846 0
-9847 253 0
-9847 279 0
-9847 331 0
-253 -279 -331 9847 0
-9848 254 0
-9848 280 0
-9848 332 0
-254 -280 -332 9848 0
-9849 255 0
-9849 281 0
-9849 333 0
-255 -281 -333 9849 0
-9850 256 0
-9850 282 0
-9850 334 0
-256 -282 -334 9850 0
-9851 257 0
-9851 283 0
-9851 335 0
-257 -283 -335 9851 0
-9852 258 0
-9852 284 0
-9852 336 0
-258 -284 -336 9852 0
-9853 259 0
-9853 285 0
-9853 337 0
-259 -285 -337 9853 0
-9854 260 0
-9854 286 0
-9854 338 0
-260 -286 -338 9854 0
-9829 10190 0
-9830 10190 0
-9831 10190 0
-9832 10190 0
-9833 10190 0
-9834 10190 0
-9835 10190 0
-9836 10190 0
-9837 10190 0
-9838 10190 0
-9839 10190 0
-9840 10190 0
-9841 10190 0
-9842 10190 0
-9843 10190 0
-9844 10190 0
-9845 10190 0
-9846 10190 0
-9847 10190 0
-9848 10190 0
-9849 10190 0
-9850 10190 0
-9851 10190 0
-9852 10190 0
-9853 10190 0
-9854 10190 0
-10190 9829 9830 9831 9832 9833 9834 9835 9836 9837 9838 9839 9840 9841 9842 9843 9844 9845 9846 9847 9848 9849 9850 9851 9852 9853 9854 0
-9855 235 0
-9855 287 0
-9855 313 0
-235 -287 -313 9855 0
-9856 236 0
-9856 288 0
-9856 314 0
-236 -288 -314 9856 0
-9857 237 0
-9857 289 0
-9857 315 0
-237 -289 -315 9857 0
-9858 238 0
-9858 290 0
-9858 316 0
-238 -290 -316 9858 0
-9859 239 0
-9859 291 0
-9859 317 0
-239 -291 -317 9859 0
-9860 240 0
-9860 292 0
-9860 318 0
-240 -292 -318 9860 0
-9861 241 0
-9861 293 0
-9861 319 0
-241 -293 -319 9861 0
-9862 242 0
-9862 294 0
-9862 320 0
-242 -294 -320 9862 0
-9863 243 0
-9863 295 0
-9863 321 0
-243 -295 -321 9863 0
-9864 244 0
-9864 296 0
-9864 322 0
-244 -296 -322 9864 0
-9865 245 0
-9865 297 0
-9865 323 0
-245 -297 -323 9865 0
-9866 246 0
-9866 298 0
-9866 324 0
-246 -298 -324 9866 0
-9867 247 0
-9867 299 0
-9867 325 0
-247 -299 -325 9867 0
-9868 248 0
-9868 300 0
-9868 326 0
-248 -300 -326 9868 0
-9869 249 0
-9869 301 0
-9869 327 0
-249 -301 -327 9869 0
-9870 250 0
-9870 302 0
-9870 328 0
-250 -302 -328 9870 0
-9871 251 0
-9871 303 0
-9871 329 0
-251 -303 -329 9871 0
-9872 252 0
-9872 304 0
-9872 330 0
-252 -304 -330 9872 0
-9873 253 0
-9873 305 0
-9873 331 0
-253 -305 -331 9873 0
-9874 254 0
-9874 306 0
-9874 332 0
-254 -306 -332 9874 0
-9875 255 0
-9875 307 0
-9875 333 0
-255 -307 -333 9875 0
-9876 256 0
-9876 308 0
-9876 334 0
-256 -308 -334 9876 0
-9877 257 0
-9877 309 0
-9877 335 0
-257 -309 -335 9877 0
-9878 258 0
-9878 310 0
-9878 336 0
-258 -310 -336 9878 0
-9879 259 0
-9879 311 0
-9879 337 0
-259 -311 -337 9879 0
-9880 260 0
-9880 312 0
-9880 338 0
-260 -312 -338 9880 0
-9855 10191 0
-9856 10191 0
-9857 10191 0
-9858 10191 0
-9859 10191 0
-9860 10191 0
-9861 10191 0
-9862 10191 0
-9863 10191 0
-9864 10191 0
-9865 10191 0
-9866 10191 0
-9867 10191 0
-9868 10191 0
-9869 10191 0
-9870 10191 0
-9871 10191 0
-9872 10191 0
-9873 10191 0
-9874 10191 0
-9875 10191 0
-9876 10191 0
-9877 10191 0
-9878 10191 0
-9879 10191 0
-9880 10191 0
-10191 9855 9856 9857 9858 9859 9860 9861 9862 9863 9864 9865 9866 9867 9868 9869 9870 9871 9872 9873 9874 9875 9876 9877 9878 9879 9880 0
-9881 261 0
-9881 287 0
-9881 313 0
-261 -287 -313 9881 0
-9882 262 0
-9882 288 0
-9882 314 0
-262 -288 -314 9882 0
-9883 263 0
-9883 289 0
-9883 315 0
-263 -289 -315 9883 0
-9884 264 0
-9884 290 0
-9884 316 0
-264 -290 -316 9884 0
-9885 265 0
-9885 291 0
-9885 317 0
-265 -291 -317 9885 0
-9886 266 0
-9886 292 0
-9886 318 0
-266 -292 -318 9886 0
-9887 267 0
-9887 293 0
-9887 319 0
-267 -293 -319 9887 0
-9888 268 0
-9888 294 0
-9888 320 0
-268 -294 -320 9888 0
-9889 269 0
-9889 295 0
-9889 321 0
-269 -295 -321 9889 0
-9890 270 0
-9890 296 0
-9890 322 0
-270 -296 -322 9890 0
-9891 271 0
-9891 297 0
-9891 323 0
-271 -297 -323 9891 0
-9892 272 0
-9892 298 0
-9892 324 0
-272 -298 -324 9892 0
-9893 273 0
-9893 299 0
-9893 325 0
-273 -299 -325 9893 0
-9894 274 0
-9894 300 0
-9894 326 0
-274 -300 -326 9894 0
-9895 275 0
-9895 301 0
-9895 327 0
-275 -301 -327 9895 0
-9896 276 0
-9896 302 0
-9896 328 0
-276 -302 -328 9896 0
-9897 277 0
-9897 303 0
-9897 329 0
-277 -303 -329 9897 0
-9898 278 0
-9898 304 0
-9898 330 0
-278 -304 -330 9898 0
-9899 279 0
-9899 305 0
-9899 331 0
-279 -305 -331 9899 0
-9900 280 0
-9900 306 0
-9900 332 0
-280 -306 -332 9900 0
-9901 281 0
-9901 307 0
-9901 333 0
-281 -307 -333 9901 0
-9902 282 0
-9902 308 0
-9902 334 0
-282 -308 -334 9902 0
-9903 283 0
-9903 309 0
-9903 335 0
-283 -309 -335 9903 0
-9904 284 0
-9904 310 0
-9904 336 0
-284 -310 -336 9904 0
-9905 285 0
-9905 311 0
-9905 337 0
-285 -311 -337 9905 0
-9906 286 0
-9906 312 0
-9906 338 0
-286 -312 -338 9906 0
-9881 10192 0
-9882 10192 0
-9883 10192 0
-9884 10192 0
-9885 10192 0
-9886 10192 0
-9887 10192 0
-9888 10192 0
-9889 10192 0
-9890 10192 0
-9891 10192 0
-9892 10192 0
-9893 10192 0
-9894 10192 0
-9895 10192 0
-9896 10192 0
-9897 10192 0
-9898 10192 0
-9899 10192 0
-9900 10192 0
-9901 10192 0
-9902 10192 0
-9903 10192 0
-9904 10192 0
-9905 10192 0
-9906 10192 0
-10192 9881 9882 9883 9884 9885 9886 9887 9888 9889 9890 9891 9892 9893 9894 9895 9896 9897 9898 9899 9900 9901 9902 9903 9904 9905 9906 0
-2393 -2405 -2416 -2395 9907 9973 9918 9908 0
-2393 -2406 -2416 -2394 9908 9973 9918 9907 0
-2394 -2405 -2406 -2395 9907 9973 9908 9918 0
-2393 -2405 -2417 -2396 9907 9974 9919 9909 0
-2393 -2407 -2417 -2394 9909 9974 9919 9907 0
-2394 -2405 -2407 -2396 9907 9974 9909 9919 0
-2393 -2405 -2418 -2397 9907 9975 9920 9910 0
-2393 -2408 -2418 -2394 9910 9975 9920 9907 0
-2394 -2405 -2408 -2397 9907 9975 9910 9920 0
-2393 -2405 -2419 -2398 9907 9976 9921 9911 0
-2393 -2409 -2419 -2394 9911 9976 9921 9907 0
-2394 -2405 -2409 -2398 9907 9976 9911 9921 0
-2393 -2405 -2420 -2399 9907 9977 9922 9912 0
-2393 -2410 -2420 -2394 9912 9977 9922 9907 0
-2394 -2405 -2410 -2399 9907 9977 9912 9922 0
-2393 -2405 -2421 -2400 9907 9978 9923 9913 0
-2393 -2411 -2421 -2394 9913 9978 9923 9907 0
-2394 -2405 -2411 -2400 9907 9978 9913 9923 0
-2393 -2405 -2422 -2401 9907 9979 9924 9914 0
-2393 -2412 -2422 -2394 9914 9979 9924 9907 0
-2394 -2405 -2412 -2401 9907 9979 9914 9924 0
-2393 -2405 -2423 -2402 9907 9980 9925 9915 0
-2393 -2413 -2423 -2394 9915 9980 9925 9907 0
-2394 -2405 -2413 -2402 9907 9980 9915 9925 0
-2393 -2405 -2424 -2403 9907 9981 9926 9916 0
-2393 -2414 -2424 -2394 9916 9981 9926 9907 0
-2394 -2405 -2414 -2403 9907 9981 9916 9926 0
-2393 -2405 -2425 -2404 9907 9982 9927 9917 0
-2393 -2415 -2425 -2394 9917 9982 9927 9907 0
-2394 -2405 -2415 -2404 9907 9982 9917 9927 0
-2393 -2406 -2426 -2396 9908 9983 9928 9909 0
-2393 -2407 -2426 -2395 9909 9983 9928 9908 0
-2395 -2406 -2407 -2396 9908 9983 9909 9928 0
-2393 -2406 -2427 -2397 9908 9984 9929 9910 0
-2393 -2408 -2427 -2395 9910 9984 9929 9908 0
-2395 -2406 -2408 -2397 9908 9984 9910 9929 0
-2393 -2406 -2428 -2398 9908 9985 9930 9911 0
-2393 -2409 -2428 -2395 9911 9985 9930 9908 0
-2395 -2406 -2409 -2398 9908 9985 9911 9930 0
-2393 -2406 -2429 -2399 9908 9986 9931 9912 0
-2393 -2410 -2429 -2395 9912 9986 9931 9908 0
-2395 -2406 -2410 -2399 9908 9986 9912 9931 0
-2393 -2406 -2430 -2400 9908 9987 9932 9913 0
-2393 -2411 -2430 -2395 9913 9987 9932 9908 0
-2395 -2406 -2411 -2400 9908 9987 9913 9932 0
-2393 -2406 -2431 -2401 9908 9988 9933 9914 0
-2393 -2412 -2431 -2395 9914 9988 9933 9908 0
-2395 -2406 -2412 -2401 9908 9988 9914 9933 0
-2393 -2406 -2432 -2402 9908 9989 9934 9915 0
-2393 -2413 -2432 -2395 9915 9989 9934 9908 0
-2395 -2406 -2413 -2402 9908 9989 9915 9934 0
-2393 -2406 -2433 -2403 9908 9990 9935 9916 0
-2393 -2414 -2433 -2395 9916 9990 9935 9908 0
-2395 -2406 -2414 -2403 9908 9990 9916 9935 0
-2393 -2406 -2434 -2404 9908 9991 9936 9917 0
-2393 -2415 -2434 -2395 9917 9991 9936 9908 0
-2395 -2406 -2415 -2404 9908 9991 9917 9936 0
-2393 -2407 -2435 -2397 9909 9992 9937 9910 0
-2393 -2408 -2435 -2396 9910 9992 9937 9909 0
-2396 -2407 -2408 -2397 9909 9992 9910 9937 0
-2393 -2407 -2436 -2398 9909 9993 9938 9911 0
-2393 -2409 -2436 -2396 9911 9993 9938 9909 0
-2396 -2407 -2409 -2398 9909 9993 9911 9938 0
-2393 -2407 -2437 -2399 9909 9994 9939 9912 0
-2393 -2410 -2437 -2396 9912 9994 9939 9909 0
-2396 -2407 -2410 -2399 9909 9994 9912 9939 0
-2393 -2407 -2438 -2400 9909 9995 9940 9913 0
-2393 -2411 -2438 -2396 9913 9995 9940 9909 0
-2396 -2407 -2411 -2400 9909 9995 9913 9940 0
-2393 -2407 -2439 -2401 9909 9996 9941 9914 0
-2393 -2412 -2439 -2396 9914 9996 9941 9909 0
-2396 -2407 -2412 -2401 9909 9996 9914 9941 0
-2393 -2407 -2440 -2402 9909 9997 9942 9915 0
-2393 -2413 -2440 -2396 9915 9997 9942 9909 0
-2396 -2407 -2413 -2402 9909 9997 9915 9942 0
-2393 -2407 -2441 -2403 9909 9998 9943 9916 0
-2393 -2414 -2441 -2396 9916 9998 9943 9909 0
-2396 -2407 -2414 -2403 9909 9998 9916 9943 0
-2393 -2407 -2442 -2404 9909 9999 9944 9917 0
-2393 -2415 -2442 -2396 9917 9999 9944 9909 0
-2396 -2407 -2415 -2404 9909 9999 9917 9944 0
-2393 -2408 -2443 -2398 9910 10000 9945 9911 0
-2393 -2409 -2443 -2397 9911 10000 9945 9910 0
-2397 -2408 -2409 -2398 9910 10000 9911 9945 0
-2393 -2408 -2444 -2399 9910 10001 9946 9912 0
-2393 -2410 -2444 -2397 9912 10001 9946 9910 0
-2397 -2408 -2410 -2399 9910 10001 9912 9946 0
-2393 -2408 -2445 -2400 9910 10002 9947 9913 0
-2393 -2411 -2445 -2397 9913 10002 9947 9910 0
-2397 -2408 -2411 -2400 9910 10002 9913 9947 0
-2393 -2408 -2446 -2401 9910 10003 9948 9914 0
-2393 -2412 -2446 -2397 9914 10003 9948 9910 0
-2397 -2408 -2412 -2401 9910 10003 9914 9948 0
-2393 -2408 -2447 -2402 9910 10004 9949 9915 0
-2393 -2413 -2447 -2397 9915 10004 9949 9910 0
-2397 -2408 -2413 -2402 9910 10004 9915 9949 0
-2393 -2408 -2448 -2403 9910 10005 9950 9916 0
-2393 -2414 -2448 -2397 9916 10005 9950 9910 0
-2397 -2408 -2414 -2403 9910 10005 9916 9950 0
-2393 -2408 -2449 -2404 9910 10006 9951 9917 0
-2393 -2415 -2449 -2397 9917 10006 9951 9910 0
-2397 -2408 -2415 -2404 9910 10006 9917 9951 0
-2393 -2409 -2450 -2399 9911 10007 9952 9912 0
-2393 -2410 -2450 -2398 9912 10007 9952 9911 0
-2398 -2409 -2410 -2399 9911 10007 9912 9952 0
-2393 -2409 -2451 -2400 9911 10008 9953 9913 0
-2393 -2411 -2451 -2398 9913 10008 9953 9911 0
-2398 -2409 -2411 -2400 9911 10008 9913 9953 0
-2393 -2409 -2452 -2401 9911 10009 9954 9914 0
-2393 -2412 -2452 -2398 9914 10009 9954 9911 0
-2398 -2409 -2412 -2401 9911 10009 9914 9954 0
-2393 -2409 -2453 -2402 9911 10010 9955 9915 0
-2393 -2413 -2453 -2398 9915 10010 9955 9911 0
-2398 -2409 -2413 -2402 9911 10010 9915 9955 0
-2393 -2409 -2454 -2403 9911 10011 9956 9916 0
-2393 -2414 -2454 -2398 9916 10011 9956 9911 0
-2398 -2409 -2414 -2403 9911 10011 9916 9956 0
-2393 -2409 -2455 -2404 9911 10012 9957 9917 0
-2393 -2415 -2455 -2398 9917 10012 9957 9911 0
-2398 -2409 -2415 -2404 9911 10012 9917 9957 0
-2393 -2410 -2456 -2400 9912 10013 9958 9913 0
-2393 -2411 -2456 -2399 9913 10013 9958 9912 0
-2399 -2410 -2411 -2400 9912 10013 9913 9958 0
-2393 -2410 -2457 -2401 9912 10014 9959 9914 0
-2393 -2412 -2457 -2399 9914 10014 9959 9912 0
-2399 -2410 -2412 -2401 9912 10014 9914 9959 0
-2393 -2410 -2458 -2402 9912 10015 9960 9915 0
-2393 -2413 -2458 -2399 9915 10015 9960 9912 0
-2399 -2410 -2413 -2402 9912 10015 9915 9960 0
-2393 -2410 -2459 -2403 9912 10016 9961 9916 0
-2393 -2414 -2459 -2399 9916 10016 9961 9912 0
-2399 -2410 -2414 -2403 9912 10016 9916 9961 0
-2393 -2410 -2460 -2404 9912 10017 9962 9917 0
-2393 -2415 -2460 -2399 9917 10017 9962 9912 0
-2399 -2410 -2415 -2404 9912 10017 9917 9962 0
-2393 -2411 -2461 -2401 9913 10018 9963 9914 0
-2393 -2412 -2461 -2400 9914 10018 9963 9913 0
-2400 -2411 -2412 -2401 9913 10018 9914 9963 0
-2393 -2411 -2462 -2402 9913 10019 9964 9915 0
-2393 -2413 -2462 -2400 9915 10019 9964 9913 0
-2400 -2411 -2413 -2402 9913 10019 9915 9964 0
-2393 -2411 -2463 -2403 9913 10020 9965 9916 0
-2393 -2414 -2463 -2400 9916 10020 9965 9913 0
-2400 -2411 -2414 -2403 9913 10020 9916 9965 0
-2393 -2411 -2464 -2404 9913 10021 9966 9917 0
-2393 -2415 -2464 -2400 9917 10021 9966 9913 0
-2400 -2411 -2415 -2404 9913 10021 9917 9966 0
-2393 -2412 -2465 -2402 9914 10022 9967 9915 0
-2393 -2413 -2465 -2401 9915 10022 9967 9914 0
-2401 -2412 -2413 -2402 9914 10022 9915 9967 0
-2393 -2412 -2466 -2403 9914 10023 9968 9916 0
-2393 -2414 -2466 -2401 9916 10023 9968 9914 0
-2401 -2412 -2414 -2403 9914 10023 9916 9968 0
-2393 -2412 -2467 -2404 9914 10024 9969 9917 0
-2393 -2415 -2467 -2401 9917 10024 9969 9914 0
-2401 -2412 -2415 -2404 9914 10024 9917 9969 0
-2393 -2413 -2468 -2403 9915 10025 9970 9916 0
-2393 -2414 -2468 -2402 9916 10025 9970 9915 0
-2402 -2413 -2414 -2403 9915 10025 9916 9970 0
-2393 -2413 -2469 -2404 9915 10026 9971 9917 0
-2393 -2415 -2469 -2402 9917 10026 9971 9915 0
-2402 -2413 -2415 -2404 9915 10026 9917 9971 0
-2393 -2414 -2470 -2404 9916 10027 9972 9917 0
-2393 -2415 -2470 -2403 9917 10027 9972 9916 0
-2403 -2414 -2415 -2404 9916 10027 9917 9972 0
-2394 -2416 -2426 -2396 9918 10028 9928 9919 0
-2394 -2417 -2426 -2395 9919 10028 9928 9918 0
-2395 -2416 -2417 -2396 9918 10028 9919 9928 0
-2394 -2416 -2427 -2397 9918 10029 9929 9920 0
-2394 -2418 -2427 -2395 9920 10029 9929 9918 0
-2395 -2416 -2418 -2397 9918 10029 9920 9929 0
-2394 -2416 -2428 -2398 9918 10030 9930 9921 0
-2394 -2419 -2428 -2395 9921 10030 9930 9918 0
-2395 -2416 -2419 -2398 9918 10030 9921 9930 0
-2394 -2416 -2429 -2399 9918 10031 9931 9922 0
-2394 -2420 -2429 -2395 9922 10031 9931 9918 0
-2395 -2416 -2420 -2399 9918 10031 9922 9931 0
-2394 -2416 -2430 -2400 9918 10032 9932 9923 0
-2394 -2421 -2430 -2395 9923 10032 9932 9918 0
-2395 -2416 -2421 -2400 9918 10032 9923 9932 0
-2394 -2416 -2431 -2401 9918 10033 9933 9924 0
-2394 -2422 -2431 -2395 9924 10033 9933 9918 0
-2395 -2416 -2422 -2401 9918 10033 9924 9933 0
-2394 -2416 -2432 -2402 9918 10034 9934 9925 0
-2394 -2423 -2432 -2395 9925 10034 9934 9918 0
-2395 -2416 -2423 -2402 9918 10034 9925 9934 0
-2394 -2416 -2433 -2403 9918 10035 9935 9926 0
-2394 -2424 -2433 -2395 9926 10035 9935 9918 0
-2395 -2416 -2424 -2403 9918 10035 9926 9935 0
-2394 -2416 -2434 -2404 9918 10036 9936 9927 0
-2394 -2425 -2434 -2395 9927 10036 9936 9918 0
-2395 -2416 -2425 -2404 9918 10036 9927 9936 0
-2394 -2417 -2435 -2397 9919 10037 9937 9920 0
-2394 -2418 -2435 -2396 9920 10037 9937 9919 0
-2396 -2417 -2418 -2397 9919 10037 9920 9937 0
-2394 -2417 -2436 -2398 9919 10038 9938 9921 0
-2394 -2419 -2436 -2396 9921 10038 9938 9919 0
-2396 -2417 -2419 -2398 9919 10038 9921 9938 0
-2394 -2417 -2437 -2399 9919 10039 9939 9922 0
-2394 -2420 -2437 -2396 9922 10039 9939 9919 0
-2396 -2417 -2420 -2399 9919 10039 9922 9939 0
-2394 -2417 -2438 -2400 9919 10040 9940 9923 0
-2394 -2421 -2438 -2396 9923 10040 9940 9919 0
-2396 -2417 -2421 -2400 9919 10040 9923 9940 0
-2394 -2417 -2439 -2401 9919 10041 9941 9924 0
-2394 -2422 -2439 -2396 9924 10041 9941 9919 0
-2396 -2417 -2422 -2401 9919 10041 9924 9941 0
-2394 -2417 -2440 -2402 9919 10042 9942 9925 0
-2394 -2423 -2440 -2396 9925 10042 9942 9919 0
-2396 -2417 -2423 -2402 9919 10042 9925 9942 0
-2394 -2417 -2441 -2403 9919 10043 9943 9926 0
-2394 -2424 -2441 -2396 9926 10043 9943 9919 0
-2396 -2417 -2424 -2403 9919 10043 9926 9943 0
-2394 -2417 -2442 -2404 9919 10044 9944 9927 0
-2394 -2425 -2442 -2396 9927 10044 9944 9919 0
-2396 -2417 -2425 -2404 9919 10044 9927 9944 0
-2394 -2418 -2443 -2398 9920 10045 9945 9921 0
-2394 -2419 -2443 -2397 9921 10045 9945 9920 0
-2397 -2418 -2419 -2398 9920 10045 9921 9945 0
-2394 -2418 -2444 -2399 9920 10046 9946 9922 0
-2394 -2420 -2444 -2397 9922 10046 9946 9920 0
-2397 -2418 -2420 -2399 9920 10046 9922 9946 0
-2394 -2418 -2445 -2400 9920 10047 9947 9923 0
-2394 -2421 -2445 -2397 9923 10047 9947 9920 0
-2397 -2418 -2421 -2400 9920 10047 9923 9947 0
-2394 -2418 -2446 -2401 9920 10048 9948 9924 0
-2394 -2422 -2446 -2397 9924 10048 9948 9920 0
-2397 -2418 -2422 -2401 9920 10048 9924 9948 0
-2394 -2418 -2447 -2402 9920 10049 9949 9925 0
-2394 -2423 -2447 -2397 9925 10049 9949 9920 0
-2397 -2418 -2423 -2402 9920 10049 9925 9949 0
-2394 -2418 -2448 -2403 9920 10050 9950 9926 0
-2394 -2424 -2448 -2397 9926 10050 9950 9920 0
-2397 -2418 -2424 -2403 9920 10050 9926 9950 0
-2394 -2418 -2449 -2404 9920 10051 9951 9927 0
-2394 -2425 -2449 -2397 9927 10051 9951 9920 0
-2397 -2418 -2425 -2404 9920 10051 9927 9951 0
-2394 -2419 -2450 -2399 9921 10052 9952 9922 0
-2394 -2420 -2450 -2398 9922 10052 9952 9921 0
-2398 -2419 -2420 -2399 9921 10052 9922 9952 0
-2394 -2419 -2451 -2400 9921 10053 9953 9923 0
-2394 -2421 -2451 -2398 9923 10053 9953 9921 0
-2398 -2419 -2421 -2400 9921 10053 9923 9953 0
-2394 -2419 -2452 -2401 9921 10054 9954 9924 0
-2394 -2422 -2452 -2398 9924 10054 9954 9921 0
-2398 -2419 -2422 -2401 9921 10054 9924 9954 0
-2394 -2419 -2453 -2402 9921 10055 9955 9925 0
-2394 -2423 -2453 -2398 9925 10055 9955 9921 0
-2398 -2419 -2423 -2402 9921 10055 9925 9955 0
-2394 -2419 -2454 -2403 9921 10056 9956 9926 0
-2394 -2424 -2454 -2398 9926 10056 9956 9921 0
-2398 -2419 -2424 -2403 9921 10056 9926 9956 0
-2394 -2419 -2455 -2404 9921 10057 9957 9927 0
-2394 -2425 -2455 -2398 9927 10057 9957 9921 0
-2398 -2419 -2425 -2404 9921 10057 9927 9957 0
-2394 -2420 -2456 -2400 9922 10058 9958 9923 0
-2394 -2421 -2456 -2399 9923 10058 9958 9922 0
-2399 -2420 -2421 -2400 9922 10058 9923 9958 0
-2394 -2420 -2457 -2401 9922 10059 9959 9924 0
-2394 -2422 -2457 -2399 9924 10059 9959 9922 0
-2399 -2420 -2422 -2401 9922 10059 9924 9959 0
-2394 -2420 -2458 -2402 9922 10060 9960 9925 0
-2394 -2423 -2458 -2399 9925 10060 9960 9922 0
-2399 -2420 -2423 -2402 9922 10060 9925 9960 0
-2394 -2420 -2459 -2403 9922 10061 9961 9926 0
-2394 -2424 -2459 -2399 9926 10061 9961 9922 0
-2399 -2420 -2424 -2403 9922 10061 9926 9961 0
-2394 -2420 -2460 -2404 9922 10062 9962 9927 0
-2394 -2425 -2460 -2399 9927 10062 9962 9922 0
-2399 -2420 -2425 -2404 9922 10062 9927 9962 0
-2394 -2421 -2461 -2401 9923 10063 9963 9924 0
-2394 -2422 -2461 -2400 9924 10063 9963 9923 0
-2400 -2421 -2422 -2401 9923 10063 9924 9963 0
-2394 -2421 -2462 -2402 9923 10064 9964 9925 0
-2394 -2423 -2462 -2400 9925 10064 9964 9923 0
-2400 -2421 -2423 -2402 9923 10064 9925 9964 0
-2394 -2421 -2463 -2403 9923 10065 9965 9926 0
-2394 -2424 -2463 -2400 9926 10065 9965 9923 0
-2400 -2421 -2424 -2403 9923 10065 9926 9965 0
-2394 -2421 -2464 -2404 9923 10066 9966 9927 0
-2394 -2425 -2464 -2400 9927 10066 9966 9923 0
-2400 -2421 -2425 -2404 9923 10066 9927 9966 0
-2394 -2422 -2465 -2402 9924 10067 9967 9925 0
-2394 -2423 -2465 -2401 9925 10067 9967 9924 0
-2401 -2422 -2423 -2402 9924 10067 9925 9967 0
-2394 -2422 -2466 -2403 9924 10068 9968 9926 0
-2394 -2424 -2466 -2401 9926 10068 9968 9924 0
-2401 -2422 -2424 -2403 9924 10068 9926 9968 0
-2394 -2422 -2467 -2404 9924 10069 9969 9927 0
-2394 -2425 -2467 -2401 9927 10069 9969 9924 0
-2401 -2422 -2425 -2404 9924 10069 9927 9969 0
-2394 -2423 -2468 -2403 9925 10070 9970 9926 0
-2394 -2424 -2468 -2402 9926 10070 9970 9925 0
-2402 -2423 -2424 -2403 9925 10070 9926 9970 0
-2394 -2423 -2469 -2404 9925 10071 9971 9927 0
-2394 -2425 -2469 -2402 9927 10071 9971 9925 0
-2402 -2423 -2425 -2404 9925 10071 9927 9971 0
-2394 -2424 -2470 -2404 9926 10072 9972 9927 0
-2394 -2425 -2470 -2403 9927 10072 9972 9926 0
-2403 -2424 -2425 -2404 9926 10072 9927 9972 0
-2395 -2426 -2435 -2397 9928 10073 9937 9929 0
-2395 -2427 -2435 -2396 9929 10073 9937 9928 0
-2396 -2426 -2427 -2397 9928 10073 9929 9937 0
-2395 -2426 -2436 -2398 9928 10074 9938 9930 0
-2395 -2428 -2436 -2396 9930 10074 9938 9928 0
-2396 -2426 -2428 -2398 9928 10074 9930 9938 0
-2395 -2426 -2437 -2399 9928 10075 9939 9931 0
-2395 -2429 -2437 -2396 9931 10075 9939 9928 0
-2396 -2426 -2429 -2399 9928 10075 9931 9939 0
-2395 -2426 -2438 -2400 9928 10076 9940 9932 0
-2395 -2430 -2438 -2396 9932 10076 9940 9928 0
-2396 -2426 -2430 -2400 9928 10076 9932 9940 0
-2395 -2426 -2439 -2401 9928 10077 9941 9933 0
-2395 -2431 -2439 -2396 9933 10077 9941 9928 0
-2396 -2426 -2431 -2401 9928 10077 9933 9941 0
-2395 -2426 -2440 -2402 9928 10078 9942 9934 0
-2395 -2432 -2440 -2396 9934 10078 9942 9928 0
-2396 -2426 -2432 -2402 9928 10078 9934 9942 0
-2395 -2426 -2441 -2403 9928 10079 9943 9935 0
-2395 -2433 -2441 -2396 9935 10079 9943 9928 0
-2396 -2426 -2433 -2403 9928 10079 9935 9943 0
-2395 -2426 -2442 -2404 9928 10080 9944 9936 0
-2395 -2434 -2442 -2396 9936 10080 9944 9928 0
-2396 -2426 -2434 -2404 9928 10080 9936 9944 0
-2395 -2427 -2443 -2398 9929 10081 9945 9930 0
-2395 -2428 -2443 -2397 9930 10081 9945 9929 0
-2397 -2427 -2428 -2398 9929 10081 9930 9945 0
-2395 -2427 -2444 -2399 9929 10082 9946 9931 0
-2395 -2429 -2444 -2397 9931 10082 9946 9929 0
-2397 -2427 -2429 -2399 9929 10082 9931 9946 0
-2395 -2427 -2445 -2400 9929 10083 9947 9932 0
-2395 -2430 -2445 -2397 9932 10083 9947 9929 0
-2397 -2427 -2430 -2400 9929 10083 9932 9947 0
-2395 -2427 -2446 -2401 9929 10084 9948 9933 0
-2395 -2431 -2446 -2397 9933 10084 9948 9929 0
-2397 -2427 -2431 -2401 9929 10084 9933 9948 0
-2395 -2427 -2447 -2402 9929 10085 9949 9934 0
-2395 -2432 -2447 -2397 9934 10085 9949 9929 0
-2397 -2427 -2432 -2402 9929 10085 9934 9949 0
-2395 -2427 -2448 -2403 9929 10086 9950 9935 0
-2395 -2433 -2448 -2397 9935 10086 9950 9929 0
-2397 -2427 -2433 -2403 9929 10086 9935 9950 0
-2395 -2427 -2449 -2404 9929 10087 9951 9936 0
-2395 -2434 -2449 -2397 9936 10087 9951 9929 0
-2397 -2427 -2434 -2404 9929 10087 9936 9951 0
-2395 -2428 -2450 -2399 9930 10088 9952 9931 0
-2395 -2429 -2450 -2398 9931 10088 9952 9930 0
-2398 -2428 -2429 -2399 9930 10088 9931 9952 0
-2395 -2428 -2451 -2400 9930 10089 9953 9932 0
-2395 -2430 -2451 -2398 9932 10089 9953 9930 0
-2398 -2428 -2430 -2400 9930 10089 9932 9953 0
-2395 -2428 -2452 -2401 9930 10090 9954 9933 0
-2395 -2431 -2452 -2398 9933 10090 9954 9930 0
-2398 -2428 -2431 -2401 9930 10090 9933 9954 0
-2395 -2428 -2453 -2402 9930 10091 9955 9934 0
-2395 -2432 -2453 -2398 9934 10091 9955 9930 0
-2398 -2428 -2432 -2402 9930 10091 9934 9955 0
-2395 -2428 -2454 -2403 9930 10092 9956 9935 0
-2395 -2433 -2454 -2398 9935 10092 9956 9930 0
-2398 -2428 -2433 -2403 9930 10092 9935 9956 0
-2395 -2428 -2455 -2404 9930 10093 9957 9936 0
-2395 -2434 -2455 -2398 9936 10093 9957 9930 0
-2398 -2428 -2434 -2404 9930 10093 9936 9957 0
-2395 -2429 -2456 -2400 9931 10094 9958 9932 0
-2395 -2430 -2456 -2399 9932 10094 9958 9931 0
-2399 -2429 -2430 -2400 9931 10094 9932 9958 0
-2395 -2429 -2457 -2401 9931 10095 9959 9933 0
-2395 -2431 -2457 -2399 9933 10095 9959 9931 0
-2399 -2429 -2431 -2401 9931 10095 9933 9959 0
-2395 -2429 -2458 -2402 9931 10096 9960 9934 0
-2395 -2432 -2458 -2399 9934 10096 9960 9931 0
-2399 -2429 -2432 -2402 9931 10096 9934 9960 0
-2395 -2429 -2459 -2403 9931 10097 9961 9935 0
-2395 -2433 -2459 -2399 9935 10097 9961 9931 0
-2399 -2429 -2433 -2403 9931 10097 9935 9961 0
-2395 -2429 -2460 -2404 9931 10098 9962 9936 0
-2395 -2434 -2460 -2399 9936 10098 9962 9931 0
-2399 -2429 -2434 -2404 9931 10098 9936 9962 0
-2395 -2430 -2461 -2401 9932 10099 9963 9933 0
-2395 -2431 -2461 -2400 9933 10099 9963 9932 0
-2400 -2430 -2431 -2401 9932 10099 9933 9963 0
-2395 -2430 -2462 -2402 9932 10100 9964 9934 0
-2395 -2432 -2462 -2400 9934 10100 9964 9932 0
-2400 -2430 -2432 -2402 9932 10100 9934 9964 0
-2395 -2430 -2463 -2403 9932 10101 9965 9935 0
-2395 -2433 -2463 -2400 9935 10101 9965 9932 0
-2400 -2430 -2433 -2403 9932 10101 9935 9965 0
-2395 -2430 -2464 -2404 9932 10102 9966 9936 0
-2395 -2434 -2464 -2400 9936 10102 9966 9932 0
-2400 -2430 -2434 -2404 9932 10102 9936 9966 0
-2395 -2431 -2465 -2402 9933 10103 9967 9934 0
-2395 -2432 -2465 -2401 9934 10103 9967 9933 0
-2401 -2431 -2432 -2402 9933 10103 9934 9967 0
-2395 -2431 -2466 -2403 9933 10104 9968 9935 0
-2395 -2433 -2466 -2401 9935 10104 9968 9933 0
-2401 -2431 -2433 -2403 9933 10104 9935 9968 0
-2395 -2431 -2467 -2404 9933 10105 9969 9936 0
-2395 -2434 -2467 -2401 9936 10105 9969 9933 0
-2401 -2431 -2434 -2404 9933 10105 9936 9969 0
-2395 -2432 -2468 -2403 9934 10106 9970 9935 0
-2395 -2433 -2468 -2402 9935 10106 9970 9934 0
-2402 -2432 -2433 -2403 9934 10106 9935 9970 0
-2395 -2432 -2469 -2404 9934 10107 9971 9936 0
-2395 -2434 -2469 -2402 9936 10107 9971 9934 0
-2402 -2432 -2434 -2404 9934 10107 9936 9971 0
-2395 -2433 -2470 -2404 9935 10108 9972 9936 0
-2395 -2434 -2470 -2403 9936 10108 9972 9935 0
-2403 -2433 -2434 -2404 9935 10108 9936 9972 0
-2396 -2435 -2443 -2398 9937 10109 9945 9938 0
-2396 -2436 -2443 -2397 9938 10109 9945 9937 0
-2397 -2435 -2436 -2398 9937 10109 9938 9945 0
-2396 -2435 -2444 -2399 9937 10110 9946 9939 0
-2396 -2437 -2444 -2397 9939 10110 9946 9937 0
-2397 -2435 -2437 -2399 9937 10110 9939 9946 0
-2396 -2435 -2445 -2400 9937 10111 9947 9940 0
-2396 -2438 -2445 -2397 9940 10111 9947 9937 0
-2397 -2435 -2438 -2400 9937 10111 9940 9947 0
-2396 -2435 -2446 -2401 9937 10112 9948 9941 0
-2396 -2439 -2446 -2397 9941 10112 9948 9937 0
-2397 -2435 -2439 -2401 9937 10112 9941 9948 0
-2396 -2435 -2447 -2402 9937 10113 9949 9942 0
-2396 -2440 -2447 -2397 9942 10113 9949 9937 0
-2397 -2435 -2440 -2402 9937 10113 9942 9949 0
-2396 -2435 -2448 -2403 9937 10114 9950 9943 0
-2396 -2441 -2448 -2397 9943 10114 9950 9937 0
-2397 -2435 -2441 -2403 9937 10114 9943 9950 0
-2396 -2435 -2449 -2404 9937 10115 9951 9944 0
-2396 -2442 -2449 -2397 9944 10115 9951 9937 0
-2397 -2435 -2442 -2404 9937 10115 9944 9951 0
-2396 -2436 -2450 -2399 9938 10116 9952 9939 0
-2396 -2437 -2450 -2398 9939 10116 9952 9938 0
-2398 -2436 -2437 -2399 9938 10116 9939 9952 0
-2396 -2436 -2451 -2400 9938 10117 9953 9940 0
-2396 -2438 -2451 -2398 9940 10117 9953 9938 0
-2398 -2436 -2438 -2400 9938 10117 9940 9953 0
-2396 -2436 -2452 -2401 9938 10118 9954 9941 0
-2396 -2439 -2452 -2398 9941 10118 9954 9938 0
-2398 -2436 -2439 -2401 9938 10118 9941 9954 0
-2396 -2436 -2453 -2402 9938 10119 9955 9942 0
-2396 -2440 -2453 -2398 9942 10119 9955 9938 0
-2398 -2436 -2440 -2402 9938 10119 9942 9955 0
-2396 -2436 -2454 -2403 9938 10120 9956 9943 0
-2396 -2441 -2454 -2398 9943 10120 9956 9938 0
-2398 -2436 -2441 -2403 9938 10120 9943 9956 0
-2396 -2436 -2455 -2404 9938 10121 9957 9944 0
-2396 -2442 -2455 -2398 9944 10121 9957 9938 0
-2398 -2436 -2442 -2404 9938 10121 9944 9957 0
-2396 -2437 -2456 -2400 9939 10122 9958 9940 0
-2396 -2438 -2456 -2399 9940 10122 9958 9939 0
-2399 -2437 -2438 -2400 9939 10122 9940 9958 0
-2396 -2437 -2457 -2401 9939 10123 9959 9941 0
-2396 -2439 -2457 -2399 9941 10123 9959 9939 0
-2399 -2437 -2439 -2401 9939 10123 9941 9959 0
-2396 -2437 -2458 -2402 9939 10124 9960 9942 0
-2396 -2440 -2458 -2399 9942 10124 9960 9939 0
-2399 -2437 -2440 -2402 9939 10124 9942 9960 0
-2396 -2437 -2459 -2403 9939 10125 9961 9943 0
-2396 -2441 -2459 -2399 9943 10125 9961 9939 0
-2399 -2437 -2441 -2403 9939 10125 9943 9961 0
-2396 -2437 -2460 -2404 9939 10126 9962 9944 0
-2396 -2442 -2460 -2399 9944 10126 9962 9939 0
-2399 -2437 -2442 -2404 9939 10126 9944 9962 0
-2396 -2438 -2461 -2401 9940 10127 9963 9941 0
-2396 -2439 -2461 -2400 9941 10127 9963 9940 0
-2400 -2438 -2439 -2401 9940 10127 9941 9963 0
-2396 -2438 -2462 -2402 9940 10128 9964 9942 0
-2396 -2440 -2462 -2400 9942 10128 9964 9940 0
-2400 -2438 -2440 -2402 9940 10128 9942 9964 0
-2396 -2438 -2463 -2403 9940 10129 9965 9943 0
-2396 -2441 -2463 -2400 9943 10129 9965 9940 0
-2400 -2438 -2441 -2403 9940 10129 9943 9965 0
-2396 -2438 -2464 -2404 9940 10130 9966 9944 0
-2396 -2442 -2464 -2400 9944 10130 9966 9940 0
-2400 -2438 -2442 -2404 9940 10130 9944 9966 0
-2396 -2439 -2465 -2402 9941 10131 9967 9942 0
-2396 -2440 -2465 -2401 9942 10131 9967 9941 0
-2401 -2439 -2440 -2402 9941 10131 9942 9967 0
-2396 -2439 -2466 -2403 9941 10132 9968 9943 0
-2396 -2441 -2466 -2401 9943 10132 9968 9941 0
-2401 -2439 -2441 -2403 9941 10132 9943 9968 0
-2396 -2439 -2467 -2404 9941 10133 9969 9944 0
-2396 -2442 -2467 -2401 9944 10133 9969 9941 0
-2401 -2439 -2442 -2404 9941 10133 9944 9969 0
-2396 -2440 -2468 -2403 9942 10134 9970 9943 0
-2396 -2441 -2468 -2402 9943 10134 9970 9942 0
-2402 -2440 -2441 -2403 9942 10134 9943 9970 0
-2396 -2440 -2469 -2404 9942 10135 9971 9944 0
-2396 -2442 -2469 -2402 9944 10135 9971 9942 0
-2402 -2440 -2442 -2404 9942 10135 9944 9971 0
-2396 -2441 -2470 -2404 9943 10136 9972 9944 0
-2396 -2442 -2470 -2403 9944 10136 9972 9943 0
-2403 -2441 -2442 -2404 9943 10136 9944 9972 0
-2397 -2443 -2450 -2399 9945 10137 9952 9946 0
-2397 -2444 -2450 -2398 9946 10137 9952 9945 0
-2398 -2443 -2444 -2399 9945 10137 9946 9952 0
-2397 -2443 -2451 -2400 9945 10138 9953 9947 0
-2397 -2445 -2451 -2398 9947 10138 9953 9945 0
-2398 -2443 -2445 -2400 9945 10138 9947 9953 0
-2397 -2443 -2452 -2401 9945 10139 9954 9948 0
-2397 -2446 -2452 -2398 9948 10139 9954 9945 0
-2398 -2443 -2446 -2401 9945 10139 9948 9954 0
-2397 -2443 -2453 -2402 9945 10140 9955 9949 0
-2397 -2447 -2453 -2398 9949 10140 9955 9945 0
-2398 -2443 -2447 -2402 9945 10140 9949 9955 0
-2397 -2443 -2454 -2403 9945 10141 9956 9950 0
-2397 -2448 -2454 -2398 9950 10141 9956 9945 0
-2398 -2443 -2448 -2403 9945 10141 9950 9956 0
-2397 -2443 -2455 -2404 9945 10142 9957 9951 0
-2397 -2449 -2455 -2398 9951 10142 9957 9945 0
-2398 -2443 -2449 -2404 9945 10142 9951 9957 0
-2397 -2444 -2456 -2400 9946 10143 9958 9947 0
-2397 -2445 -2456 -2399 9947 10143 9958 9946 0
-2399 -2444 -2445 -2400 9946 10143 9947 9958 0
-2397 -2444 -2457 -2401 9946 10144 9959 9948 0
-2397 -2446 -2457 -2399 9948 10144 9959 9946 0
-2399 -2444 -2446 -2401 9946 10144 9948 9959 0
-2397 -2444 -2458 -2402 9946 10145 9960 9949 0
-2397 -2447 -2458 -2399 9949 10145 9960 9946 0
-2399 -2444 -2447 -2402 9946 10145 9949 9960 0
-2397 -2444 -2459 -2403 9946 10146 9961 9950 0
-2397 -2448 -2459 -2399 9950 10146 9961 9946 0
-2399 -2444 -2448 -2403 9946 10146 9950 9961 0
-2397 -2444 -2460 -2404 9946 10147 9962 9951 0
-2397 -2449 -2460 -2399 9951 10147 9962 9946 0
-2399 -2444 -2449 -2404 9946 10147 9951 9962 0
-2397 -2445 -2461 -2401 9947 10148 9963 9948 0
-2397 -2446 -2461 -2400 9948 10148 9963 9947 0
-2400 -2445 -2446 -2401 9947 10148 9948 9963 0
-2397 -2445 -2462 -2402 9947 10149 9964 9949 0
-2397 -2447 -2462 -2400 9949 10149 9964 9947 0
-2400 -2445 -2447 -2402 9947 10149 9949 9964 0
-2397 -2445 -2463 -2403 9947 10150 9965 9950 0
-2397 -2448 -2463 -2400 9950 10150 9965 9947 0
-2400 -2445 -2448 -2403 9947 10150 9950 9965 0
-2397 -2445 -2464 -2404 9947 10151 9966 9951 0
-2397 -2449 -2464 -2400 9951 10151 9966 9947 0
-2400 -2445 -2449 -2404 9947 10151 9951 9966 0
-2397 -2446 -2465 -2402 9948 10152 9967 9949 0
-2397 -2447 -2465 -2401 9949 10152 9967 9948 0
-2401 -2446 -2447 -2402 9948 10152 9949 9967 0
-2397 -2446 -2466 -2403 9948 10153 9968 9950 0
-2397 -2448 -2466 -2401 9950 10153 9968 9948 0
-2401 -2446 -2448 -2403 9948 10153 9950 9968 0
-2397 -2446 -2467 -2404 9948 10154 9969 9951 0
-2397 -2449 -2467 -2401 9951 10154 9969 9948 0
-2401 -2446 -2449 -2404 9948 10154 9951 9969 0
-2397 -2447 -2468 -2403 9949 10155 9970 9950 0
-2397 -2448 -2468 -2402 9950 10155 9970 9949 0
-2402 -2447 -2448 -2403 9949 10155 9950 9970 0
-2397 -2447 -2469 -2404 9949 10156 9971 9951 0
-2397 -2449 -2469 -2402 9951 10156 9971 9949 0
-2402 -2447 -2449 -2404 9949 10156 9951 9971 0
-2397 -2448 -2470 -2404 9950 10157 9972 9951 0
-2397 -2449 -2470 -2403 9951 10157 9972 9950 0
-2403 -2448 -2449 -2404 9950 10157 9951 9972 0
-2398 -2450 -2456 -2400 9952 10158 9958 9953 0
-2398 -2451 -2456 -2399 9953 10158 9958 9952 0
-2399 -2450 -2451 -2400 9952 10158 9953 9958 0
-2398 -2450 -2457 -2401 9952 10159 9959 9954 0
-2398 -2452 -2457 -2399 9954 10159 9959 9952 0
-2399 -2450 -2452 -2401 9952 10159 9954 9959 0
-2398 -2450 -2458 -2402 9952 10160 9960 9955 0
-2398 -2453 -2458 -2399 9955 10160 9960 9952 0
-2399 -2450 -2453 -2402 9952 10160 9955 9960 0
-2398 -2450 -2459 -2403 9952 10161 9961 9956 0
-2398 -2454 -2459 -2399 9956 10161 9961 9952 0
-2399 -2450 -2454 -2403 9952 10161 9956 9961 0
-2398 -2450 -2460 -2404 9952 10162 9962 9957 0
-2398 -2455 -2460 -2399 9957 10162 9962 9952 0
-2399 -2450 -2455 -2404 9952 10162 9957 9962 0
-2398 -2451 -2461 -2401 9953 10163 9963 9954 0
-2398 -2452 -2461 -2400 9954 10163 9963 9953 0
-2400 -2451 -2452 -2401 9953 10163 9954 9963 0
-2398 -2451 -2462 -2402 9953 10164 9964 9955 0
-2398 -2453 -2462 -2400 9955 10164 9964 9953 0
-2400 -2451 -2453 -2402 9953 10164 9955 9964 0
-2398 -2451 -2463 -2403 9953 10165 9965 9956 0
-2398 -2454 -2463 -2400 9956 10165 9965 9953 0
-2400 -2451 -2454 -2403 9953 10165 9956 9965 0
-2398 -2451 -2464 -2404 9953 10166 9966 9957 0
-2398 -2455 -2464 -2400 9957 10166 9966 9953 0
-2400 -2451 -2455 -2404 9953 10166 9957 9966 0
-2398 -2452 -2465 -2402 9954 10167 9967 9955 0
-2398 -2453 -2465 -2401 9955 10167 9967 9954 0
-2401 -2452 -2453 -2402 9954 10167 9955 9967 0
-2398 -2452 -2466 -2403 9954 10168 9968 9956 0
-2398 -2454 -2466 -2401 9956 10168 9968 9954 0
-2401 -2452 -2454 -2403 9954 10168 9956 9968 0
-2398 -2452 -2467 -2404 9954 10169 9969 9957 0
-2398 -2455 -2467 -2401 9957 10169 9969 9954 0
-2401 -2452 -2455 -2404 9954 10169 9957 9969 0
-2398 -2453 -2468 -2403 9955 10170 9970 9956 0
-2398 -2454 -2468 -2402 9956 10170 9970 9955 0
-2402 -2453 -2454 -2403 9955 10170 9956 9970 0
-2398 -2453 -2469 -2404 9955 10171 9971 9957 0
-2398 -2455 -2469 -2402 9957 10171 9971 9955 0
-2402 -2453 -2455 -2404 9955 10171 9957 9971 0
-2398 -2454 -2470 -2404 9956 10172 9972 9957 0
-2398 -2455 -2470 -2403 9957 10172 9972 9956 0
-2403 -2454 -2455 -2404 9956 10172 9957 9972 0
-2399 -2456 -2461 -2401 9958 10173 9963 9959 0
-2399 -2457 -2461 -2400 9959 10173 9963 9958 0
-2400 -2456 -2457 -2401 9958 10173 9959 9963 0
-2399 -2456 -2462 -2402 9958 10174 9964 9960 0
-2399 -2458 -2462 -2400 9960 10174 9964 9958 0
-2400 -2456 -2458 -2402 9958 10174 9960 9964 0
-2399 -2456 -2463 -2403 9958 10175 9965 9961 0
-2399 -2459 -2463 -2400 9961 10175 9965 9958 0
-2400 -2456 -2459 -2403 9958 10175 9961 9965 0
-2399 -2456 -2464 -2404 9958 10176 9966 9962 0
-2399 -2460 -2464 -2400 9962 10176 9966 9958 0
-2400 -2456 -2460 -2404 9958 10176 9962 9966 0
-2399 -2457 -2465 -2402 9959 10177 9967 9960 0
-2399 -2458 -2465 -2401 9960 10177 9967 9959 0
-2401 -2457 -2458 -2402 9959 10177 9960 9967 0
-2399 -2457 -2466 -2403 9959 10178 9968 9961 0
-2399 -2459 -2466 -2401 9961 10178 9968 9959 0
-2401 -2457 -2459 -2403 9959 10178 9961 9968 0
-2399 -2457 -2467 -2404 9959 10179 9969 9962 0
-2399 -2460 -2467 -2401 9962 10179 9969 9959 0
-2401 -2457 -2460 -2404 9959 10179 9962 9969 0
-2399 -2458 -2468 -2403 9960 10180 9970 9961 0
-2399 -2459 -2468 -2402 9961 10180 9970 9960 0
-2402 -2458 -2459 -2403 9960 10180 9961 9970 0
-2399 -2458 -2469 -2404 9960 10181 9971 9962 0
-2399 -2460 -2469 -2402 9962 10181 9971 9960 0
-2402 -2458 -2460 -2404 9960 10181 9962 9971 0
-2399 -2459 -2470 -2404 9961 10182 9972 9962 0
-2399 -2460 -2470 -2403 9962 10182 9972 9961 0
-2403 -2459 -2460 -2404 9961 10182 9962 9972 0
-2400 -2461 -2465 -2402 9963 10183 9967 9964 0
-2400 -2462 -2465 -2401 9964 10183 9967 9963 0
-2401 -2461 -2462 -2402 9963 10183 9964 9967 0
-2400 -2461 -2466 -2403 9963 10184 9968 9965 0
-2400 -2463 -2466 -2401 9965 10184 9968 9963 0
-2401 -2461 -2463 -2403 9963 10184 9965 9968 0
-2400 -2461 -2467 -2404 9963 10185 9969 9966 0
-2400 -2464 -2467 -2401 9966 10185 9969 9963 0
-2401 -2461 -2464 -2404 9963 10185 9966 9969 0
-2400 -2462 -2468 -2403 9964 10186 9970 9965 0
-2400 -2463 -2468 -2402 9965 10186 9970 9964 0
-2402 -2462 -2463 -2403 9964 10186 9965 9970 0
-2400 -2462 -2469 -2404 9964 10187 9971 9966 0
-2400 -2464 -2469 -2402 9966 10187 9971 9964 0
-2402 -2462 -2464 -2404 9964 10187 9966 9971 0
-2400 -2463 -2470 -2404 9965 10188 9972 9966 0
-2400 -2464 -2470 -2403 9966 10188 9972 9965 0
-2403 -2463 -2464 -2404 9965 10188 9966 9972 0
-2401 -2465 -2468 -2403 9967 10189 9970 9968 0
-2401 -2466 -2468 -2402 9968 10189 9970 9967 0
-2402 -2465 -2466 -2403 9967 10189 9968 9970 0
-2401 -2465 -2469 -2404 9967 10190 9971 9969 0
-2401 -2467 -2469 -2402 9969 10190 9971 9967 0
-2402 -2465 -2467 -2404 9967 10190 9969 9971 0
-2401 -2466 -2470 -2404 9968 10191 9972 9969 0
-2401 -2467 -2470 -2403 9969 10191 9972 9968 0
-2403 -2466 -2467 -2404 9968 10191 9969 9972 0
-2402 -2468 -2470 -2404 9970 10192 9972 9971 0
-2402 -2469 -2470 -2403 9971 10192 9972 9970 0
-2403 -2468 -2469 -2404 9970 10192 9971 9972 0
-2405 -2416 -2426 -2407 9973 10028 9983 9974 0
-2405 -2417 -2426 -2406 9974 10028 9983 9973 0
-2406 -2416 -2417 -2407 9973 10028 9974 9983 0
-2405 -2416 -2427 -2408 9973 10029 9984 9975 0
-2405 -2418 -2427 -2406 9975 10029 9984 9973 0
-2406 -2416 -2418 -2408 9973 10029 9975 9984 0
-2405 -2416 -2428 -2409 9973 10030 9985 9976 0
-2405 -2419 -2428 -2406 9976 10030 9985 9973 0
-2406 -2416 -2419 -2409 9973 10030 9976 9985 0
-2405 -2416 -2429 -2410 9973 10031 9986 9977 0
-2405 -2420 -2429 -2406 9977 10031 9986 9973 0
-2406 -2416 -2420 -2410 9973 10031 9977 9986 0
-2405 -2416 -2430 -2411 9973 10032 9987 9978 0
-2405 -2421 -2430 -2406 9978 10032 9987 9973 0
-2406 -2416 -2421 -2411 9973 10032 9978 9987 0
-2405 -2416 -2431 -2412 9973 10033 9988 9979 0
-2405 -2422 -2431 -2406 9979 10033 9988 9973 0
-2406 -2416 -2422 -2412 9973 10033 9979 9988 0
-2405 -2416 -2432 -2413 9973 10034 9989 9980 0
-2405 -2423 -2432 -2406 9980 10034 9989 9973 0
-2406 -2416 -2423 -2413 9973 10034 9980 9989 0
-2405 -2416 -2433 -2414 9973 10035 9990 9981 0
-2405 -2424 -2433 -2406 9981 10035 9990 9973 0
-2406 -2416 -2424 -2414 9973 10035 9981 9990 0
-2405 -2416 -2434 -2415 9973 10036 9991 9982 0
-2405 -2425 -2434 -2406 9982 10036 9991 9973 0
-2406 -2416 -2425 -2415 9973 10036 9982 9991 0
-2405 -2417 -2435 -2408 9974 10037 9992 9975 0
-2405 -2418 -2435 -2407 9975 10037 9992 9974 0
-2407 -2417 -2418 -2408 9974 10037 9975 9992 0
-2405 -2417 -2436 -2409 9974 10038 9993 9976 0
-2405 -2419 -2436 -2407 9976 10038 9993 9974 0
-2407 -2417 -2419 -2409 9974 10038 9976 9993 0
-2405 -2417 -2437 -2410 9974 10039 9994 9977 0
-2405 -2420 -2437 -2407 9977 10039 9994 9974 0
-2407 -2417 -2420 -2410 9974 10039 9977 9994 0
-2405 -2417 -2438 -2411 9974 10040 9995 9978 0
-2405 -2421 -2438 -2407 9978 10040 9995 9974 0
-2407 -2417 -2421 -2411 9974 10040 9978 9995 0
-2405 -2417 -2439 -2412 9974 10041 9996 9979 0
-2405 -2422 -2439 -2407 9979 10041 9996 9974 0
-2407 -2417 -2422 -2412 9974 10041 9979 9996 0
-2405 -2417 -2440 -2413 9974 10042 9997 9980 0
-2405 -2423 -2440 -2407 9980 10042 9997 9974 0
-2407 -2417 -2423 -2413 9974 10042 9980 9997 0
-2405 -2417 -2441 -2414 9974 10043 9998 9981 0
-2405 -2424 -2441 -2407 9981 10043 9998 9974 0
-2407 -2417 -2424 -2414 9974 10043 9981 9998 0
-2405 -2417 -2442 -2415 9974 10044 9999 9982 0
-2405 -2425 -2442 -2407 9982 10044 9999 9974 0
-2407 -2417 -2425 -2415 9974 10044 9982 9999 0
-2405 -2418 -2443 -2409 9975 10045 10000 9976 0
-2405 -2419 -2443 -2408 9976 10045 10000 9975 0
-2408 -2418 -2419 -2409 9975 10045 9976 10000 0
-2405 -2418 -2444 -2410 9975 10046 10001 9977 0
-2405 -2420 -2444 -2408 9977 10046 10001 9975 0
-2408 -2418 -2420 -2410 9975 10046 9977 10001 0
-2405 -2418 -2445 -2411 9975 10047 10002 9978 0
-2405 -2421 -2445 -2408 9978 10047 10002 9975 0
-2408 -2418 -2421 -2411 9975 10047 9978 10002 0
-2405 -2418 -2446 -2412 9975 10048 10003 9979 0
-2405 -2422 -2446 -2408 9979 10048 10003 9975 0
-2408 -2418 -2422 -2412 9975 10048 9979 10003 0
-2405 -2418 -2447 -2413 9975 10049 10004 9980 0
-2405 -2423 -2447 -2408 9980 10049 10004 9975 0
-2408 -2418 -2423 -2413 9975 10049 9980 10004 0
-2405 -2418 -2448 -2414 9975 10050 10005 9981 0
-2405 -2424 -2448 -2408 9981 10050 10005 9975 0
-2408 -2418 -2424 -2414 9975 10050 9981 10005 0
-2405 -2418 -2449 -2415 9975 10051 10006 9982 0
-2405 -2425 -2449 -2408 9982 10051 10006 9975 0
-2408 -2418 -2425 -2415 9975 10051 9982 10006 0
-2405 -2419 -2450 -2410 9976 10052 10007 9977 0
-2405 -2420 -2450 -2409 9977 10052 10007 9976 0
-2409 -2419 -2420 -2410 9976 10052 9977 10007 0
-2405 -2419 -2451 -2411 9976 10053 10008 9978 0
-2405 -2421 -2451 -2409 9978 10053 10008 9976 0
-2409 -2419 -2421 -2411 9976 10053 9978 10008 0
-2405 -2419 -2452 -2412 9976 10054 10009 9979 0
-2405 -2422 -2452 -2409 9979 10054 10009 9976 0
-2409 -2419 -2422 -2412 9976 10054 9979 10009 0
-2405 -2419 -2453 -2413 9976 10055 10010 9980 0
-2405 -2423 -2453 -2409 9980 10055 10010 9976 0
-2409 -2419 -2423 -2413 9976 10055 9980 10010 0
-2405 -2419 -2454 -2414 9976 10056 10011 9981 0
-2405 -2424 -2454 -2409 9981 10056 10011 9976 0
-2409 -2419 -2424 -2414 9976 10056 9981 10011 0
-2405 -2419 -2455 -2415 9976 10057 10012 9982 0
-2405 -2425 -2455 -2409 9982 10057 10012 9976 0
-2409 -2419 -2425 -2415 9976 10057 9982 10012 0
-2405 -2420 -2456 -2411 9977 10058 10013 9978 0
-2405 -2421 -2456 -2410 9978 10058 10013 9977 0
-2410 -2420 -2421 -2411 9977 10058 9978 10013 0
-2405 -2420 -2457 -2412 9977 10059 10014 9979 0
-2405 -2422 -2457 -2410 9979 10059 10014 9977 0
-2410 -2420 -2422 -2412 9977 10059 9979 10014 0
-2405 -2420 -2458 -2413 9977 10060 10015 9980 0
-2405 -2423 -2458 -2410 9980 10060 10015 9977 0
-2410 -2420 -2423 -2413 9977 10060 9980 10015 0
-2405 -2420 -2459 -2414 9977 10061 10016 9981 0
-2405 -2424 -2459 -2410 9981 10061 10016 9977 0
-2410 -2420 -2424 -2414 9977 10061 9981 10016 0
-2405 -2420 -2460 -2415 9977 10062 10017 9982 0
-2405 -2425 -2460 -2410 9982 10062 10017 9977 0
-2410 -2420 -2425 -2415 9977 10062 9982 10017 0
-2405 -2421 -2461 -2412 9978 10063 10018 9979 0
-2405 -2422 -2461 -2411 9979 10063 10018 9978 0
-2411 -2421 -2422 -2412 9978 10063 9979 10018 0
-2405 -2421 -2462 -2413 9978 10064 10019 9980 0
-2405 -2423 -2462 -2411 9980 10064 10019 9978 0
-2411 -2421 -2423 -2413 9978 10064 9980 10019 0
-2405 -2421 -2463 -2414 9978 10065 10020 9981 0
-2405 -2424 -2463 -2411 9981 10065 10020 9978 0
-2411 -2421 -2424 -2414 9978 10065 9981 10020 0
-2405 -2421 -2464 -2415 9978 10066 10021 9982 0
-2405 -2425 -2464 -2411 9982 10066 10021 9978 0
-2411 -2421 -2425 -2415 9978 10066 9982 10021 0
-2405 -2422 -2465 -2413 9979 10067 10022 9980 0
-2405 -2423 -2465 -2412 9980 10067 10022 9979 0
-2412 -2422 -2423 -2413 9979 10067 9980 10022 0
-2405 -2422 -2466 -2414 9979 10068 10023 9981 0
-2405 -2424 -2466 -2412 9981 10068 10023 9979 0
-2412 -2422 -2424 -2414 9979 10068 9981 10023 0
-2405 -2422 -2467 -2415 9979 10069 10024 9982 0
-2405 -2425 -2467 -2412 9982 10069 10024 9979 0
-2412 -2422 -2425 -2415 9979 10069 9982 10024 0
-2405 -2423 -2468 -2414 9980 10070 10025 9981 0
-2405 -2424 -2468 -2413 9981 10070 10025 9980 0
-2413 -2423 -2424 -2414 9980 10070 9981 10025 0
-2405 -2423 -2469 -2415 9980 10071 10026 9982 0
-2405 -2425 -2469 -2413 9982 10071 10026 9980 0
-2413 -2423 -2425 -2415 9980 10071 9982 10026 0
-2405 -2424 -2470 -2415 9981 10072 10027 9982 0
-2405 -2425 -2470 -2414 9982 10072 10027 9981 0
-2414 -2424 -2425 -2415 9981 10072 9982 10027 0
-2406 -2426 -2435 -2408 9983 10073 9992 9984 0
-2406 -2427 -2435 -2407 9984 10073 9992 9983 0
-2407 -2426 -2427 -2408 9983 10073 9984 9992 0
-2406 -2426 -2436 -2409 9983 10074 9993 9985 0
-2406 -2428 -2436 -2407 9985 10074 9993 9983 0
-2407 -2426 -2428 -2409 9983 10074 9985 9993 0
-2406 -2426 -2437 -2410 9983 10075 9994 9986 0
-2406 -2429 -2437 -2407 9986 10075 9994 9983 0
-2407 -2426 -2429 -2410 9983 10075 9986 9994 0
-2406 -2426 -2438 -2411 9983 10076 9995 9987 0
-2406 -2430 -2438 -2407 9987 10076 9995 9983 0
-2407 -2426 -2430 -2411 9983 10076 9987 9995 0
-2406 -2426 -2439 -2412 9983 10077 9996 9988 0
-2406 -2431 -2439 -2407 9988 10077 9996 9983 0
-2407 -2426 -2431 -2412 9983 10077 9988 9996 0
-2406 -2426 -2440 -2413 9983 10078 9997 9989 0
-2406 -2432 -2440 -2407 9989 10078 9997 9983 0
-2407 -2426 -2432 -2413 9983 10078 9989 9997 0
-2406 -2426 -2441 -2414 9983 10079 9998 9990 0
-2406 -2433 -2441 -2407 9990 10079 9998 9983 0
-2407 -2426 -2433 -2414 9983 10079 9990 9998 0
-2406 -2426 -2442 -2415 9983 10080 9999 9991 0
-2406 -2434 -2442 -2407 9991 10080 9999 9983 0
-2407 -2426 -2434 -2415 9983 10080 9991 9999 0
-2406 -2427 -2443 -2409 9984 10081 10000 9985 0
-2406 -2428 -2443 -2408 9985 10081 10000 9984 0
-2408 -2427 -2428 -2409 9984 10081 9985 10000 0
-2406 -2427 -2444 -2410 9984 10082 10001 9986 0
-2406 -2429 -2444 -2408 9986 10082 10001 9984 0
-2408 -2427 -2429 -2410 9984 10082 9986 10001 0
-2406 -2427 -2445 -2411 9984 10083 10002 9987 0
-2406 -2430 -2445 -2408 9987 10083 10002 9984 0
-2408 -2427 -2430 -2411 9984 10083 9987 10002 0
-2406 -2427 -2446 -2412 9984 10084 10003 9988 0
-2406 -2431 -2446 -2408 9988 10084 10003 9984 0
-2408 -2427 -2431 -2412 9984 10084 9988 10003 0
-2406 -2427 -2447 -2413 9984 10085 10004 9989 0
-2406 -2432 -2447 -2408 9989 10085 10004 9984 0
-2408 -2427 -2432 -2413 9984 10085 9989 10004 0
-2406 -2427 -2448 -2414 9984 10086 10005 9990 0
-2406 -2433 -2448 -2408 9990 10086 10005 9984 0
-2408 -2427 -2433 -2414 9984 10086 9990 10005 0
-2406 -2427 -2449 -2415 9984 10087 10006 9991 0
-2406 -2434 -2449 -2408 9991 10087 10006 9984 0
-2408 -2427 -2434 -2415 9984 10087 9991 10006 0
-2406 -2428 -2450 -2410 9985 10088 10007 9986 0
-2406 -2429 -2450 -2409 9986 10088 10007 9985 0
-2409 -2428 -2429 -2410 9985 10088 9986 10007 0
-2406 -2428 -2451 -2411 9985 10089 10008 9987 0
-2406 -2430 -2451 -2409 9987 10089 10008 9985 0
-2409 -2428 -2430 -2411 9985 10089 9987 10008 0
-2406 -2428 -2452 -2412 9985 10090 10009 9988 0
-2406 -2431 -2452 -2409 9988 10090 10009 9985 0
-2409 -2428 -2431 -2412 9985 10090 9988 10009 0
-2406 -2428 -2453 -2413 9985 10091 10010 9989 0
-2406 -2432 -2453 -2409 9989 10091 10010 9985 0
-2409 -2428 -2432 -2413 9985 10091 9989 10010 0
-2406 -2428 -2454 -2414 9985 10092 10011 9990 0
-2406 -2433 -2454 -2409 9990 10092 10011 9985 0
-2409 -2428 -2433 -2414 9985 10092 9990 10011 0
-2406 -2428 -2455 -2415 9985 10093 10012 9991 0
-2406 -2434 -2455 -2409 9991 10093 10012 9985 0
-2409 -2428 -2434 -2415 9985 10093 9991 10012 0
-2406 -2429 -2456 -2411 9986 10094 10013 9987 0
-2406 -2430 -2456 -2410 9987 10094 10013 9986 0
-2410 -2429 -2430 -2411 9986 10094 9987 10013 0
-2406 -2429 -2457 -2412 9986 10095 10014 9988 0
-2406 -2431 -2457 -2410 9988 10095 10014 9986 0
-2410 -2429 -2431 -2412 9986 10095 9988 10014 0
-2406 -2429 -2458 -2413 9986 10096 10015 9989 0
-2406 -2432 -2458 -2410 9989 10096 10015 9986 0
-2410 -2429 -2432 -2413 9986 10096 9989 10015 0
-2406 -2429 -2459 -2414 9986 10097 10016 9990 0
-2406 -2433 -2459 -2410 9990 10097 10016 9986 0
-2410 -2429 -2433 -2414 9986 10097 9990 10016 0
-2406 -2429 -2460 -2415 9986 10098 10017 9991 0
-2406 -2434 -2460 -2410 9991 10098 10017 9986 0
-2410 -2429 -2434 -2415 9986 10098 9991 10017 0
-2406 -2430 -2461 -2412 9987 10099 10018 9988 0
-2406 -2431 -2461 -2411 9988 10099 10018 9987 0
-2411 -2430 -2431 -2412 9987 10099 9988 10018 0
-2406 -2430 -2462 -2413 9987 10100 10019 9989 0
-2406 -2432 -2462 -2411 9989 10100 10019 9987 0
-2411 -2430 -2432 -2413 9987 10100 9989 10019 0
-2406 -2430 -2463 -2414 9987 10101 10020 9990 0
-2406 -2433 -2463 -2411 9990 10101 10020 9987 0
-2411 -2430 -2433 -2414 9987 10101 9990 10020 0
-2406 -2430 -2464 -2415 9987 10102 10021 9991 0
-2406 -2434 -2464 -2411 9991 10102 10021 9987 0
-2411 -2430 -2434 -2415 9987 10102 9991 10021 0
-2406 -2431 -2465 -2413 9988 10103 10022 9989 0
-2406 -2432 -2465 -2412 9989 10103 10022 9988 0
-2412 -2431 -2432 -2413 9988 10103 9989 10022 0
-2406 -2431 -2466 -2414 9988 10104 10023 9990 0
-2406 -2433 -2466 -2412 9990 10104 10023 9988 0
-2412 -2431 -2433 -2414 9988 10104 9990 10023 0
-2406 -2431 -2467 -2415 9988 10105 10024 9991 0
-2406 -2434 -2467 -2412 9991 10105 10024 9988 0
-2412 -2431 -2434 -2415 9988 10105 9991 10024 0
-2406 -2432 -2468 -2414 9989 10106 10025 9990 0
-2406 -2433 -2468 -2413 9990 10106 10025 9989 0
-2413 -2432 -2433 -2414 9989 10106 9990 10025 0
-2406 -2432 -2469 -2415 9989 10107 10026 9991 0
-2406 -2434 -2469 -2413 9991 10107 10026 9989 0
-2413 -2432 -2434 -2415 9989 10107 9991 10026 0
-2406 -2433 -2470 -2415 9990 10108 10027 9991 0
-2406 -2434 -2470 -2414 9991 10108 10027 9990 0
-2414 -2433 -2434 -2415 9990 10108 9991 10027 0
-2407 -2435 -2443 -2409 9992 10109 10000 9993 0
-2407 -2436 -2443 -2408 9993 10109 10000 9992 0
-2408 -2435 -2436 -2409 9992 10109 9993 10000 0
-2407 -2435 -2444 -2410 9992 10110 10001 9994 0
-2407 -2437 -2444 -2408 9994 10110 10001 9992 0
-2408 -2435 -2437 -2410 9992 10110 9994 10001 0
-2407 -2435 -2445 -2411 9992 10111 10002 9995 0
-2407 -2438 -2445 -2408 9995 10111 10002 9992 0
-2408 -2435 -2438 -2411 9992 10111 9995 10002 0
-2407 -2435 -2446 -2412 9992 10112 10003 9996 0
-2407 -2439 -2446 -2408 9996 10112 10003 9992 0
-2408 -2435 -2439 -2412 9992 10112 9996 10003 0
-2407 -2435 -2447 -2413 9992 10113 10004 9997 0
-2407 -2440 -2447 -2408 9997 10113 10004 9992 0
-2408 -2435 -2440 -2413 9992 10113 9997 10004 0
-2407 -2435 -2448 -2414 9992 10114 10005 9998 0
-2407 -2441 -2448 -2408 9998 10114 10005 9992 0
-2408 -2435 -2441 -2414 9992 10114 9998 10005 0
-2407 -2435 -2449 -2415 9992 10115 10006 9999 0
-2407 -2442 -2449 -2408 9999 10115 10006 9992 0
-2408 -2435 -2442 -2415 9992 10115 9999 10006 0
-2407 -2436 -2450 -2410 9993 10116 10007 9994 0
-2407 -2437 -2450 -2409 9994 10116 10007 9993 0
-2409 -2436 -2437 -2410 9993 10116 9994 10007 0
-2407 -2436 -2451 -2411 9993 10117 10008 9995 0
-2407 -2438 -2451 -2409 9995 10117 10008 9993 0
-2409 -2436 -2438 -2411 9993 10117 9995 10008 0
-2407 -2436 -2452 -2412 9993 10118 10009 9996 0
-2407 -2439 -2452 -2409 9996 10118 10009 9993 0
-2409 -2436 -2439 -2412 9993 10118 9996 10009 0
-2407 -2436 -2453 -2413 9993 10119 10010 9997 0
-2407 -2440 -2453 -2409 9997 10119 10010 9993 0
-2409 -2436 -2440 -2413 9993 10119 9997 10010 0
-2407 -2436 -2454 -2414 9993 10120 10011 9998 0
-2407 -2441 -2454 -2409 9998 10120 10011 9993 0
-2409 -2436 -2441 -2414 9993 10120 9998 10011 0
-2407 -2436 -2455 -2415 9993 10121 10012 9999 0
-2407 -2442 -2455 -2409 9999 10121 10012 9993 0
-2409 -2436 -2442 -2415 9993 10121 9999 10012 0
-2407 -2437 -2456 -2411 9994 10122 10013 9995 0
-2407 -2438 -2456 -2410 9995 10122 10013 9994 0
-2410 -2437 -2438 -2411 9994 10122 9995 10013 0
-2407 -2437 -2457 -2412 9994 10123 10014 9996 0
-2407 -2439 -2457 -2410 9996 10123 10014 9994 0
-2410 -2437 -2439 -2412 9994 10123 9996 10014 0
-2407 -2437 -2458 -2413 9994 10124 10015 9997 0
-2407 -2440 -2458 -2410 9997 10124 10015 9994 0
-2410 -2437 -2440 -2413 9994 10124 9997 10015 0
-2407 -2437 -2459 -2414 9994 10125 10016 9998 0
-2407 -2441 -2459 -2410 9998 10125 10016 9994 0
-2410 -2437 -2441 -2414 9994 10125 9998 10016 0
-2407 -2437 -2460 -2415 9994 10126 10017 9999 0
-2407 -2442 -2460 -2410 9999 10126 10017 9994 0
-2410 -2437 -2442 -2415 9994 10126 9999 10017 0
-2407 -2438 -2461 -2412 9995 10127 10018 9996 0
-2407 -2439 -2461 -2411 9996 10127 10018 9995 0
-2411 -2438 -2439 -2412 9995 10127 9996 10018 0
-2407 -2438 -2462 -2413 9995 10128 10019 9997 0
-2407 -2440 -2462 -2411 9997 10128 10019 9995 0
-2411 -2438 -2440 -2413 9995 10128 9997 10019 0
-2407 -2438 -2463 -2414 9995 10129 10020 9998 0
-2407 -2441 -2463 -2411 9998 10129 10020 9995 0
-2411 -2438 -2441 -2414 9995 10129 9998 10020 0
-2407 -2438 -2464 -2415 9995 10130 10021 9999 0
-2407 -2442 -2464 -2411 9999 10130 10021 9995 0
-2411 -2438 -2442 -2415 9995 10130 9999 10021 0
-2407 -2439 -2465 -2413 9996 10131 10022 9997 0
-2407 -2440 -2465 -2412 9997 10131 10022 9996 0
-2412 -2439 -2440 -2413 9996 10131 9997 10022 0
-2407 -2439 -2466 -2414 9996 10132 10023 9998 0
-2407 -2441 -2466 -2412 9998 10132 10023 9996 0
-2412 -2439 -2441 -2414 9996 10132 9998 10023 0
-2407 -2439 -2467 -2415 9996 10133 10024 9999 0
-2407 -2442 -2467 -2412 9999 10133 10024 9996 0
-2412 -2439 -2442 -2415 9996 10133 9999 10024 0
-2407 -2440 -2468 -2414 9997 10134 10025 9998 0
-2407 -2441 -2468 -2413 9998 10134 10025 9997 0
-2413 -2440 -2441 -2414 9997 10134 9998 10025 0
-2407 -2440 -2469 -2415 9997 10135 10026 9999 0
-2407 -2442 -2469 -2413 9999 10135 10026 9997 0
-2413 -2440 -2442 -2415 9997 10135 9999 10026 0
-2407 -2441 -2470 -2415 9998 10136 10027 9999 0
-2407 -2442 -2470 -2414 9999 10136 10027 9998 0
-2414 -2441 -2442 -2415 9998 10136 9999 10027 0
-2408 -2443 -2450 -2410 10000 10137 10007 10001 0
-2408 -2444 -2450 -2409 10001 10137 10007 10000 0
-2409 -2443 -2444 -2410 10000 10137 10001 10007 0
-2408 -2443 -2451 -2411 10000 10138 10008 10002 0
-2408 -2445 -2451 -2409 10002 10138 10008 10000 0
-2409 -2443 -2445 -2411 10000 10138 10002 10008 0
-2408 -2443 -2452 -2412 10000 10139 10009 10003 0
-2408 -2446 -2452 -2409 10003 10139 10009 10000 0
-2409 -2443 -2446 -2412 10000 10139 10003 10009 0
-2408 -2443 -2453 -2413 10000 10140 10010 10004 0
-2408 -2447 -2453 -2409 10004 10140 10010 10000 0
-2409 -2443 -2447 -2413 10000 10140 10004 10010 0
-2408 -2443 -2454 -2414 10000 10141 10011 10005 0
-2408 -2448 -2454 -2409 10005 10141 10011 10000 0
-2409 -2443 -2448 -2414 10000 10141 10005 10011 0
-2408 -2443 -2455 -2415 10000 10142 10012 10006 0
-2408 -2449 -2455 -2409 10006 10142 10012 10000 0
-2409 -2443 -2449 -2415 10000 10142 10006 10012 0
-2408 -2444 -2456 -2411 10001 10143 10013 10002 0
-2408 -2445 -2456 -2410 10002 10143 10013 10001 0
-2410 -2444 -2445 -2411 10001 10143 10002 10013 0
-2408 -2444 -2457 -2412 10001 10144 10014 10003 0
-2408 -2446 -2457 -2410 10003 10144 10014 10001 0
-2410 -2444 -2446 -2412 10001 10144 10003 10014 0
-2408 -2444 -2458 -2413 10001 10145 10015 10004 0
-2408 -2447 -2458 -2410 10004 10145 10015 10001 0
-2410 -2444 -2447 -2413 10001 10145 10004 10015 0
-2408 -2444 -2459 -2414 10001 10146 10016 10005 0
-2408 -2448 -2459 -2410 10005 10146 10016 10001 0
-2410 -2444 -2448 -2414 10001 10146 10005 10016 0
-2408 -2444 -2460 -2415 10001 10147 10017 10006 0
-2408 -2449 -2460 -2410 10006 10147 10017 10001 0
-2410 -2444 -2449 -2415 10001 10147 10006 10017 0
-2408 -2445 -2461 -2412 10002 10148 10018 10003 0
-2408 -2446 -2461 -2411 10003 10148 10018 10002 0
-2411 -2445 -2446 -2412 10002 10148 10003 10018 0
-2408 -2445 -2462 -2413 10002 10149 10019 10004 0
-2408 -2447 -2462 -2411 10004 10149 10019 10002 0
-2411 -2445 -2447 -2413 10002 10149 10004 10019 0
-2408 -2445 -2463 -2414 10002 10150 10020 10005 0
-2408 -2448 -2463 -2411 10005 10150 10020 10002 0
-2411 -2445 -2448 -2414 10002 10150 10005 10020 0
-2408 -2445 -2464 -2415 10002 10151 10021 10006 0
-2408 -2449 -2464 -2411 10006 10151 10021 10002 0
-2411 -2445 -2449 -2415 10002 10151 10006 10021 0
-2408 -2446 -2465 -2413 10003 10152 10022 10004 0
-2408 -2447 -2465 -2412 10004 10152 10022 10003 0
-2412 -2446 -2447 -2413 10003 10152 10004 10022 0
-2408 -2446 -2466 -2414 10003 10153 10023 10005 0
-2408 -2448 -2466 -2412 10005 10153 10023 10003 0
-2412 -2446 -2448 -2414 10003 10153 10005 10023 0
-2408 -2446 -2467 -2415 10003 10154 10024 10006 0
-2408 -2449 -2467 -2412 10006 10154 10024 10003 0
-2412 -2446 -2449 -2415 10003 10154 10006 10024 0
-2408 -2447 -2468 -2414 10004 10155 10025 10005 0
-2408 -2448 -2468 -2413 10005 10155 10025 10004 0
-2413 -2447 -2448 -2414 10004 10155 10005 10025 0
-2408 -2447 -2469 -2415 10004 10156 10026 10006 0
-2408 -2449 -2469 -2413 10006 10156 10026 10004 0
-2413 -2447 -2449 -2415 10004 10156 10006 10026 0
-2408 -2448 -2470 -2415 10005 10157 10027 10006 0
-2408 -2449 -2470 -2414 10006 10157 10027 10005 0
-2414 -2448 -2449 -2415 10005 10157 10006 10027 0
-2409 -2450 -2456 -2411 10007 10158 10013 10008 0
-2409 -2451 -2456 -2410 10008 10158 10013 10007 0
-2410 -2450 -2451 -2411 10007 10158 10008 10013 0
-2409 -2450 -2457 -2412 10007 10159 10014 10009 0
-2409 -2452 -2457 -2410 10009 10159 10014 10007 0
-2410 -2450 -2452 -2412 10007 10159 10009 10014 0
-2409 -2450 -2458 -2413 10007 10160 10015 10010 0
-2409 -2453 -2458 -2410 10010 10160 10015 10007 0
-2410 -2450 -2453 -2413 10007 10160 10010 10015 0
-2409 -2450 -2459 -2414 10007 10161 10016 10011 0
-2409 -2454 -2459 -2410 10011 10161 10016 10007 0
-2410 -2450 -2454 -2414 10007 10161 10011 10016 0
-2409 -2450 -2460 -2415 10007 10162 10017 10012 0
-2409 -2455 -2460 -2410 10012 10162 10017 10007 0
-2410 -2450 -2455 -2415 10007 10162 10012 10017 0
-2409 -2451 -2461 -2412 10008 10163 10018 10009 0
-2409 -2452 -2461 -2411 10009 10163 10018 10008 0
-2411 -2451 -2452 -2412 10008 10163 10009 10018 0
-2409 -2451 -2462 -2413 10008 10164 10019 10010 0
-2409 -2453 -2462 -2411 10010 10164 10019 10008 0
-2411 -2451 -2453 -2413 10008 10164 10010 10019 0
-2409 -2451 -2463 -2414 10008 10165 10020 10011 0
-2409 -2454 -2463 -2411 10011 10165 10020 10008 0
-2411 -2451 -2454 -2414 10008 10165 10011 10020 0
-2409 -2451 -2464 -2415 10008 10166 10021 10012 0
-2409 -2455 -2464 -2411 10012 10166 10021 10008 0
-2411 -2451 -2455 -2415 10008 10166 10012 10021 0
-2409 -2452 -2465 -2413 10009 10167 10022 10010 0
-2409 -2453 -2465 -2412 10010 10167 10022 10009 0
-2412 -2452 -2453 -2413 10009 10167 10010 10022 0
-2409 -2452 -2466 -2414 10009 10168 10023 10011 0
-2409 -2454 -2466 -2412 10011 10168 10023 10009 0
-2412 -2452 -2454 -2414 10009 10168 10011 10023 0
-2409 -2452 -2467 -2415 10009 10169 10024 10012 0
-2409 -2455 -2467 -2412 10012 10169 10024 10009 0
-2412 -2452 -2455 -2415 10009 10169 10012 10024 0
-2409 -2453 -2468 -2414 10010 10170 10025 10011 0
-2409 -2454 -2468 -2413 10011 10170 10025 10010 0
-2413 -2453 -2454 -2414 10010 10170 10011 10025 0
-2409 -2453 -2469 -2415 10010 10171 10026 10012 0
-2409 -2455 -2469 -2413 10012 10171 10026 10010 0
-2413 -2453 -2455 -2415 10010 10171 10012 10026 0
-2409 -2454 -2470 -2415 10011 10172 10027 10012 0
-2409 -2455 -2470 -2414 10012 10172 10027 10011 0
-2414 -2454 -2455 -2415 10011 10172 10012 10027 0
-2410 -2456 -2461 -2412 10013 10173 10018 10014 0
-2410 -2457 -2461 -2411 10014 10173 10018 10013 0
-2411 -2456 -2457 -2412 10013 10173 10014 10018 0
-2410 -2456 -2462 -2413 10013 10174 10019 10015 0
-2410 -2458 -2462 -2411 10015 10174 10019 10013 0
-2411 -2456 -2458 -2413 10013 10174 10015 10019 0
-2410 -2456 -2463 -2414 10013 10175 10020 10016 0
-2410 -2459 -2463 -2411 10016 10175 10020 10013 0
-2411 -2456 -2459 -2414 10013 10175 10016 10020 0
-2410 -2456 -2464 -2415 10013 10176 10021 10017 0
-2410 -2460 -2464 -2411 10017 10176 10021 10013 0
-2411 -2456 -2460 -2415 10013 10176 10017 10021 0
-2410 -2457 -2465 -2413 10014 10177 10022 10015 0
-2410 -2458 -2465 -2412 10015 10177 10022 10014 0
-2412 -2457 -2458 -2413 10014 10177 10015 10022 0
-2410 -2457 -2466 -2414 10014 10178 10023 10016 0
-2410 -2459 -2466 -2412 10016 10178 10023 10014 0
-2412 -2457 -2459 -2414 10014 10178 10016 10023 0
-2410 -2457 -2467 -2415 10014 10179 10024 10017 0
-2410 -2460 -2467 -2412 10017 10179 10024 10014 0
-2412 -2457 -2460 -2415 10014 10179 10017 10024 0
-2410 -2458 -2468 -2414 10015 10180 10025 10016 0
-2410 -2459 -2468 -2413 10016 10180 10025 10015 0
-2413 -2458 -2459 -2414 10015 10180 10016 10025 0
-2410 -2458 -2469 -2415 10015 10181 10026 10017 0
-2410 -2460 -2469 -2413 10017 10181 10026 10015 0
-2413 -2458 -2460 -2415 10015 10181 10017 10026 0
-2410 -2459 -2470 -2415 10016 10182 10027 10017 0
-2410 -2460 -2470 -2414 10017 10182 10027 10016 0
-2414 -2459 -2460 -2415 10016 10182 10017 10027 0
-2411 -2461 -2465 -2413 10018 10183 10022 10019 0
-2411 -2462 -2465 -2412 10019 10183 10022 10018 0
-2412 -2461 -2462 -2413 10018 10183 10019 10022 0
-2411 -2461 -2466 -2414 10018 10184 10023 10020 0
-2411 -2463 -2466 -2412 10020 10184 10023 10018 0
-2412 -2461 -2463 -2414 10018 10184 10020 10023 0
-2411 -2461 -2467 -2415 10018 10185 10024 10021 0
-2411 -2464 -2467 -2412 10021 10185 10024 10018 0
-2412 -2461 -2464 -2415 10018 10185 10021 10024 0
-2411 -2462 -2468 -2414 10019 10186 10025 10020 0
-2411 -2463 -2468 -2413 10020 10186 10025 10019 0
-2413 -2462 -2463 -2414 10019 10186 10020 10025 0
-2411 -2462 -2469 -2415 10019 10187 10026 10021 0
-2411 -2464 -2469 -2413 10021 10187 10026 10019 0
-2413 -2462 -2464 -2415 10019 10187 10021 10026 0
-2411 -2463 -2470 -2415 10020 10188 10027 10021 0
-2411 -2464 -2470 -2414 10021 10188 10027 10020 0
-2414 -2463 -2464 -2415 10020 10188 10021 10027 0
-2412 -2465 -2468 -2414 10022 10189 10025 10023 0
-2412 -2466 -2468 -2413 10023 10189 10025 10022 0
-2413 -2465 -2466 -2414 10022 10189 10023 10025 0
-2412 -2465 -2469 -2415 10022 10190 10026 10024 0
-2412 -2467 -2469 -2413 10024 10190 10026 10022 0
-2413 -2465 -2467 -2415 10022 10190 10024 10026 0
-2412 -2466 -2470 -2415 10023 10191 10027 10024 0
-2412 -2467 -2470 -2414 10024 10191 10027 10023 0
-2414 -2466 -2467 -2415 10023 10191 10024 10027 0
-2413 -2468 -2470 -2415 10025 10192 10027 10026 0
-2413 -2469 -2470 -2414 10026 10192 10027 10025 0
-2414 -2468 -2469 -2415 10025 10192 10026 10027 0
-2416 -2426 -2435 -2418 10028 10073 10037 10029 0
-2416 -2427 -2435 -2417 10029 10073 10037 10028 0
-2417 -2426 -2427 -2418 10028 10073 10029 10037 0
-2416 -2426 -2436 -2419 10028 10074 10038 10030 0
-2416 -2428 -2436 -2417 10030 10074 10038 10028 0
-2417 -2426 -2428 -2419 10028 10074 10030 10038 0
-2416 -2426 -2437 -2420 10028 10075 10039 10031 0
-2416 -2429 -2437 -2417 10031 10075 10039 10028 0
-2417 -2426 -2429 -2420 10028 10075 10031 10039 0
-2416 -2426 -2438 -2421 10028 10076 10040 10032 0
-2416 -2430 -2438 -2417 10032 10076 10040 10028 0
-2417 -2426 -2430 -2421 10028 10076 10032 10040 0
-2416 -2426 -2439 -2422 10028 10077 10041 10033 0
-2416 -2431 -2439 -2417 10033 10077 10041 10028 0
-2417 -2426 -2431 -2422 10028 10077 10033 10041 0
-2416 -2426 -2440 -2423 10028 10078 10042 10034 0
-2416 -2432 -2440 -2417 10034 10078 10042 10028 0
-2417 -2426 -2432 -2423 10028 10078 10034 10042 0
-2416 -2426 -2441 -2424 10028 10079 10043 10035 0
-2416 -2433 -2441 -2417 10035 10079 10043 10028 0
-2417 -2426 -2433 -2424 10028 10079 10035 10043 0
-2416 -2426 -2442 -2425 10028 10080 10044 10036 0
-2416 -2434 -2442 -2417 10036 10080 10044 10028 0
-2417 -2426 -2434 -2425 10028 10080 10036 10044 0
-2416 -2427 -2443 -2419 10029 10081 10045 10030 0
-2416 -2428 -2443 -2418 10030 10081 10045 10029 0
-2418 -2427 -2428 -2419 10029 10081 10030 10045 0
-2416 -2427 -2444 -2420 10029 10082 10046 10031 0
-2416 -2429 -2444 -2418 10031 10082 10046 10029 0
-2418 -2427 -2429 -2420 10029 10082 10031 10046 0
-2416 -2427 -2445 -2421 10029 10083 10047 10032 0
-2416 -2430 -2445 -2418 10032 10083 10047 10029 0
-2418 -2427 -2430 -2421 10029 10083 10032 10047 0
-2416 -2427 -2446 -2422 10029 10084 10048 10033 0
-2416 -2431 -2446 -2418 10033 10084 10048 10029 0
-2418 -2427 -2431 -2422 10029 10084 10033 10048 0
-2416 -2427 -2447 -2423 10029 10085 10049 10034 0
-2416 -2432 -2447 -2418 10034 10085 10049 10029 0
-2418 -2427 -2432 -2423 10029 10085 10034 10049 0
-2416 -2427 -2448 -2424 10029 10086 10050 10035 0
-2416 -2433 -2448 -2418 10035 10086 10050 10029 0
-2418 -2427 -2433 -2424 10029 10086 10035 10050 0
-2416 -2427 -2449 -2425 10029 10087 10051 10036 0
-2416 -2434 -2449 -2418 10036 10087 10051 10029 0
-2418 -2427 -2434 -2425 10029 10087 10036 10051 0
-2416 -2428 -2450 -2420 10030 10088 10052 10031 0
-2416 -2429 -2450 -2419 10031 10088 10052 10030 0
-2419 -2428 -2429 -2420 10030 10088 10031 10052 0
-2416 -2428 -2451 -2421 10030 10089 10053 10032 0
-2416 -2430 -2451 -2419 10032 10089 10053 10030 0
-2419 -2428 -2430 -2421 10030 10089 10032 10053 0
-2416 -2428 -2452 -2422 10030 10090 10054 10033 0
-2416 -2431 -2452 -2419 10033 10090 10054 10030 0
-2419 -2428 -2431 -2422 10030 10090 10033 10054 0
-2416 -2428 -2453 -2423 10030 10091 10055 10034 0
-2416 -2432 -2453 -2419 10034 10091 10055 10030 0
-2419 -2428 -2432 -2423 10030 10091 10034 10055 0
-2416 -2428 -2454 -2424 10030 10092 10056 10035 0
-2416 -2433 -2454 -2419 10035 10092 10056 10030 0
-2419 -2428 -2433 -2424 10030 10092 10035 10056 0
-2416 -2428 -2455 -2425 10030 10093 10057 10036 0
-2416 -2434 -2455 -2419 10036 10093 10057 10030 0
-2419 -2428 -2434 -2425 10030 10093 10036 10057 0
-2416 -2429 -2456 -2421 10031 10094 10058 10032 0
-2416 -2430 -2456 -2420 10032 10094 10058 10031 0
-2420 -2429 -2430 -2421 10031 10094 10032 10058 0
-2416 -2429 -2457 -2422 10031 10095 10059 10033 0
-2416 -2431 -2457 -2420 10033 10095 10059 10031 0
-2420 -2429 -2431 -2422 10031 10095 10033 10059 0
-2416 -2429 -2458 -2423 10031 10096 10060 10034 0
-2416 -2432 -2458 -2420 10034 10096 10060 10031 0
-2420 -2429 -2432 -2423 10031 10096 10034 10060 0
-2416 -2429 -2459 -2424 10031 10097 10061 10035 0
-2416 -2433 -2459 -2420 10035 10097 10061 10031 0
-2420 -2429 -2433 -2424 10031 10097 10035 10061 0
-2416 -2429 -2460 -2425 10031 10098 10062 10036 0
-2416 -2434 -2460 -2420 10036 10098 10062 10031 0
-2420 -2429 -2434 -2425 10031 10098 10036 10062 0
-2416 -2430 -2461 -2422 10032 10099 10063 10033 0
-2416 -2431 -2461 -2421 10033 10099 10063 10032 0
-2421 -2430 -2431 -2422 10032 10099 10033 10063 0
-2416 -2430 -2462 -2423 10032 10100 10064 10034 0
-2416 -2432 -2462 -2421 10034 10100 10064 10032 0
-2421 -2430 -2432 -2423 10032 10100 10034 10064 0
-2416 -2430 -2463 -2424 10032 10101 10065 10035 0
-2416 -2433 -2463 -2421 10035 10101 10065 10032 0
-2421 -2430 -2433 -2424 10032 10101 10035 10065 0
-2416 -2430 -2464 -2425 10032 10102 10066 10036 0
-2416 -2434 -2464 -2421 10036 10102 10066 10032 0
-2421 -2430 -2434 -2425 10032 10102 10036 10066 0
-2416 -2431 -2465 -2423 10033 10103 10067 10034 0
-2416 -2432 -2465 -2422 10034 10103 10067 10033 0
-2422 -2431 -2432 -2423 10033 10103 10034 10067 0
-2416 -2431 -2466 -2424 10033 10104 10068 10035 0
-2416 -2433 -2466 -2422 10035 10104 10068 10033 0
-2422 -2431 -2433 -2424 10033 10104 10035 10068 0
-2416 -2431 -2467 -2425 10033 10105 10069 10036 0
-2416 -2434 -2467 -2422 10036 10105 10069 10033 0
-2422 -2431 -2434 -2425 10033 10105 10036 10069 0
-2416 -2432 -2468 -2424 10034 10106 10070 10035 0
-2416 -2433 -2468 -2423 10035 10106 10070 10034 0
-2423 -2432 -2433 -2424 10034 10106 10035 10070 0
-2416 -2432 -2469 -2425 10034 10107 10071 10036 0
-2416 -2434 -2469 -2423 10036 10107 10071 10034 0
-2423 -2432 -2434 -2425 10034 10107 10036 10071 0
-2416 -2433 -2470 -2425 10035 10108 10072 10036 0
-2416 -2434 -2470 -2424 10036 10108 10072 10035 0
-2424 -2433 -2434 -2425 10035 10108 10036 10072 0
-2417 -2435 -2443 -2419 10037 10109 10045 10038 0
-2417 -2436 -2443 -2418 10038 10109 10045 10037 0
-2418 -2435 -2436 -2419 10037 10109 10038 10045 0
-2417 -2435 -2444 -2420 10037 10110 10046 10039 0
-2417 -2437 -2444 -2418 10039 10110 10046 10037 0
-2418 -2435 -2437 -2420 10037 10110 10039 10046 0
-2417 -2435 -2445 -2421 10037 10111 10047 10040 0
-2417 -2438 -2445 -2418 10040 10111 10047 10037 0
-2418 -2435 -2438 -2421 10037 10111 10040 10047 0
-2417 -2435 -2446 -2422 10037 10112 10048 10041 0
-2417 -2439 -2446 -2418 10041 10112 10048 10037 0
-2418 -2435 -2439 -2422 10037 10112 10041 10048 0
-2417 -2435 -2447 -2423 10037 10113 10049 10042 0
-2417 -2440 -2447 -2418 10042 10113 10049 10037 0
-2418 -2435 -2440 -2423 10037 10113 10042 10049 0
-2417 -2435 -2448 -2424 10037 10114 10050 10043 0
-2417 -2441 -2448 -2418 10043 10114 10050 10037 0
-2418 -2435 -2441 -2424 10037 10114 10043 10050 0
-2417 -2435 -2449 -2425 10037 10115 10051 10044 0
-2417 -2442 -2449 -2418 10044 10115 10051 10037 0
-2418 -2435 -2442 -2425 10037 10115 10044 10051 0
-2417 -2436 -2450 -2420 10038 10116 10052 10039 0
-2417 -2437 -2450 -2419 10039 10116 10052 10038 0
-2419 -2436 -2437 -2420 10038 10116 10039 10052 0
-2417 -2436 -2451 -2421 10038 10117 10053 10040 0
-2417 -2438 -2451 -2419 10040 10117 10053 10038 0
-2419 -2436 -2438 -2421 10038 10117 10040 10053 0
-2417 -2436 -2452 -2422 10038 10118 10054 10041 0
-2417 -2439 -2452 -2419 10041 10118 10054 10038 0
-2419 -2436 -2439 -2422 10038 10118 10041 10054 0
-2417 -2436 -2453 -2423 10038 10119 10055 10042 0
-2417 -2440 -2453 -2419 10042 10119 10055 10038 0
-2419 -2436 -2440 -2423 10038 10119 10042 10055 0
-2417 -2436 -2454 -2424 10038 10120 10056 10043 0
-2417 -2441 -2454 -2419 10043 10120 10056 10038 0
-2419 -2436 -2441 -2424 10038 10120 10043 10056 0
-2417 -2436 -2455 -2425 10038 10121 10057 10044 0
-2417 -2442 -2455 -2419 10044 10121 10057 10038 0
-2419 -2436 -2442 -2425 10038 10121 10044 10057 0
-2417 -2437 -2456 -2421 10039 10122 10058 10040 0
-2417 -2438 -2456 -2420 10040 10122 10058 10039 0
-2420 -2437 -2438 -2421 10039 10122 10040 10058 0
-2417 -2437 -2457 -2422 10039 10123 10059 10041 0
-2417 -2439 -2457 -2420 10041 10123 10059 10039 0
-2420 -2437 -2439 -2422 10039 10123 10041 10059 0
-2417 -2437 -2458 -2423 10039 10124 10060 10042 0
-2417 -2440 -2458 -2420 10042 10124 10060 10039 0
-2420 -2437 -2440 -2423 10039 10124 10042 10060 0
-2417 -2437 -2459 -2424 10039 10125 10061 10043 0
-2417 -2441 -2459 -2420 10043 10125 10061 10039 0
-2420 -2437 -2441 -2424 10039 10125 10043 10061 0
-2417 -2437 -2460 -2425 10039 10126 10062 10044 0
-2417 -2442 -2460 -2420 10044 10126 10062 10039 0
-2420 -2437 -2442 -2425 10039 10126 10044 10062 0
-2417 -2438 -2461 -2422 10040 10127 10063 10041 0
-2417 -2439 -2461 -2421 10041 10127 10063 10040 0
-2421 -2438 -2439 -2422 10040 10127 10041 10063 0
-2417 -2438 -2462 -2423 10040 10128 10064 10042 0
-2417 -2440 -2462 -2421 10042 10128 10064 10040 0
-2421 -2438 -2440 -2423 10040 10128 10042 10064 0
-2417 -2438 -2463 -2424 10040 10129 10065 10043 0
-2417 -2441 -2463 -2421 10043 10129 10065 10040 0
-2421 -2438 -2441 -2424 10040 10129 10043 10065 0
-2417 -2438 -2464 -2425 10040 10130 10066 10044 0
-2417 -2442 -2464 -2421 10044 10130 10066 10040 0
-2421 -2438 -2442 -2425 10040 10130 10044 10066 0
-2417 -2439 -2465 -2423 10041 10131 10067 10042 0
-2417 -2440 -2465 -2422 10042 10131 10067 10041 0
-2422 -2439 -2440 -2423 10041 10131 10042 10067 0
-2417 -2439 -2466 -2424 10041 10132 10068 10043 0
-2417 -2441 -2466 -2422 10043 10132 10068 10041 0
-2422 -2439 -2441 -2424 10041 10132 10043 10068 0
-2417 -2439 -2467 -2425 10041 10133 10069 10044 0
-2417 -2442 -2467 -2422 10044 10133 10069 10041 0
-2422 -2439 -2442 -2425 10041 10133 10044 10069 0
-2417 -2440 -2468 -2424 10042 10134 10070 10043 0
-2417 -2441 -2468 -2423 10043 10134 10070 10042 0
-2423 -2440 -2441 -2424 10042 10134 10043 10070 0
-2417 -2440 -2469 -2425 10042 10135 10071 10044 0
-2417 -2442 -2469 -2423 10044 10135 10071 10042 0
-2423 -2440 -2442 -2425 10042 10135 10044 10071 0
-2417 -2441 -2470 -2425 10043 10136 10072 10044 0
-2417 -2442 -2470 -2424 10044 10136 10072 10043 0
-2424 -2441 -2442 -2425 10043 10136 10044 10072 0
-2418 -2443 -2450 -2420 10045 10137 10052 10046 0
-2418 -2444 -2450 -2419 10046 10137 10052 10045 0
-2419 -2443 -2444 -2420 10045 10137 10046 10052 0
-2418 -2443 -2451 -2421 10045 10138 10053 10047 0
-2418 -2445 -2451 -2419 10047 10138 10053 10045 0
-2419 -2443 -2445 -2421 10045 10138 10047 10053 0
-2418 -2443 -2452 -2422 10045 10139 10054 10048 0
-2418 -2446 -2452 -2419 10048 10139 10054 10045 0
-2419 -2443 -2446 -2422 10045 10139 10048 10054 0
-2418 -2443 -2453 -2423 10045 10140 10055 10049 0
-2418 -2447 -2453 -2419 10049 10140 10055 10045 0
-2419 -2443 -2447 -2423 10045 10140 10049 10055 0
-2418 -2443 -2454 -2424 10045 10141 10056 10050 0
-2418 -2448 -2454 -2419 10050 10141 10056 10045 0
-2419 -2443 -2448 -2424 10045 10141 10050 10056 0
-2418 -2443 -2455 -2425 10045 10142 10057 10051 0
-2418 -2449 -2455 -2419 10051 10142 10057 10045 0
-2419 -2443 -2449 -2425 10045 10142 10051 10057 0
-2418 -2444 -2456 -2421 10046 10143 10058 10047 0
-2418 -2445 -2456 -2420 10047 10143 10058 10046 0
-2420 -2444 -2445 -2421 10046 10143 10047 10058 0
-2418 -2444 -2457 -2422 10046 10144 10059 10048 0
-2418 -2446 -2457 -2420 10048 10144 10059 10046 0
-2420 -2444 -2446 -2422 10046 10144 10048 10059 0
-2418 -2444 -2458 -2423 10046 10145 10060 10049 0
-2418 -2447 -2458 -2420 10049 10145 10060 10046 0
-2420 -2444 -2447 -2423 10046 10145 10049 10060 0
-2418 -2444 -2459 -2424 10046 10146 10061 10050 0
-2418 -2448 -2459 -2420 10050 10146 10061 10046 0
-2420 -2444 -2448 -2424 10046 10146 10050 10061 0
-2418 -2444 -2460 -2425 10046 10147 10062 10051 0
-2418 -2449 -2460 -2420 10051 10147 10062 10046 0
-2420 -2444 -2449 -2425 10046 10147 10051 10062 0
-2418 -2445 -2461 -2422 10047 10148 10063 10048 0
-2418 -2446 -2461 -2421 10048 10148 10063 10047 0
-2421 -2445 -2446 -2422 10047 10148 10048 10063 0
-2418 -2445 -2462 -2423 10047 10149 10064 10049 0
-2418 -2447 -2462 -2421 10049 10149 10064 10047 0
-2421 -2445 -2447 -2423 10047 10149 10049 10064 0
-2418 -2445 -2463 -2424 10047 10150 10065 10050 0
-2418 -2448 -2463 -2421 10050 10150 10065 10047 0
-2421 -2445 -2448 -2424 10047 10150 10050 10065 0
-2418 -2445 -2464 -2425 10047 10151 10066 10051 0
-2418 -2449 -2464 -2421 10051 10151 10066 10047 0
-2421 -2445 -2449 -2425 10047 10151 10051 10066 0
-2418 -2446 -2465 -2423 10048 10152 10067 10049 0
-2418 -2447 -2465 -2422 10049 10152 10067 10048 0
-2422 -2446 -2447 -2423 10048 10152 10049 10067 0
-2418 -2446 -2466 -2424 10048 10153 10068 10050 0
-2418 -2448 -2466 -2422 10050 10153 10068 10048 0
-2422 -2446 -2448 -2424 10048 10153 10050 10068 0
-2418 -2446 -2467 -2425 10048 10154 10069 10051 0
-2418 -2449 -2467 -2422 10051 10154 10069 10048 0
-2422 -2446 -2449 -2425 10048 10154 10051 10069 0
-2418 -2447 -2468 -2424 10049 10155 10070 10050 0
-2418 -2448 -2468 -2423 10050 10155 10070 10049 0
-2423 -2447 -2448 -2424 10049 10155 10050 10070 0
-2418 -2447 -2469 -2425 10049 10156 10071 10051 0
-2418 -2449 -2469 -2423 10051 10156 10071 10049 0
-2423 -2447 -2449 -2425 10049 10156 10051 10071 0
-2418 -2448 -2470 -2425 10050 10157 10072 10051 0
-2418 -2449 -2470 -2424 10051 10157 10072 10050 0
-2424 -2448 -2449 -2425 10050 10157 10051 10072 0
-2419 -2450 -2456 -2421 10052 10158 10058 10053 0
-2419 -2451 -2456 -2420 10053 10158 10058 10052 0
-2420 -2450 -2451 -2421 10052 10158 10053 10058 0
-2419 -2450 -2457 -2422 10052 10159 10059 10054 0
-2419 -2452 -2457 -2420 10054 10159 10059 10052 0
-2420 -2450 -2452 -2422 10052 10159 10054 10059 0
-2419 -2450 -2458 -2423 10052 10160 10060 10055 0
-2419 -2453 -2458 -2420 10055 10160 10060 10052 0
-2420 -2450 -2453 -2423 10052 10160 10055 10060 0
-2419 -2450 -2459 -2424 10052 10161 10061 10056 0
-2419 -2454 -2459 -2420 10056 10161 10061 10052 0
-2420 -2450 -2454 -2424 10052 10161 10056 10061 0
-2419 -2450 -2460 -2425 10052 10162 10062 10057 0
-2419 -2455 -2460 -2420 10057 10162 10062 10052 0
-2420 -2450 -2455 -2425 10052 10162 10057 10062 0
-2419 -2451 -2461 -2422 10053 10163 10063 10054 0
-2419 -2452 -2461 -2421 10054 10163 10063 10053 0
-2421 -2451 -2452 -2422 10053 10163 10054 10063 0
-2419 -2451 -2462 -2423 10053 10164 10064 10055 0
-2419 -2453 -2462 -2421 10055 10164 10064 10053 0
-2421 -2451 -2453 -2423 10053 10164 10055 10064 0
-2419 -2451 -2463 -2424 10053 10165 10065 10056 0
-2419 -2454 -2463 -2421 10056 10165 10065 10053 0
-2421 -2451 -2454 -2424 10053 10165 10056 10065 0
-2419 -2451 -2464 -2425 10053 10166 10066 10057 0
-2419 -2455 -2464 -2421 10057 10166 10066 10053 0
-2421 -2451 -2455 -2425 10053 10166 10057 10066 0
-2419 -2452 -2465 -2423 10054 10167 10067 10055 0
-2419 -2453 -2465 -2422 10055 10167 10067 10054 0
-2422 -2452 -2453 -2423 10054 10167 10055 10067 0
-2419 -2452 -2466 -2424 10054 10168 10068 10056 0
-2419 -2454 -2466 -2422 10056 10168 10068 10054 0
-2422 -2452 -2454 -2424 10054 10168 10056 10068 0
-2419 -2452 -2467 -2425 10054 10169 10069 10057 0
-2419 -2455 -2467 -2422 10057 10169 10069 10054 0
-2422 -2452 -2455 -2425 10054 10169 10057 10069 0
-2419 -2453 -2468 -2424 10055 10170 10070 10056 0
-2419 -2454 -2468 -2423 10056 10170 10070 10055 0
-2423 -2453 -2454 -2424 10055 10170 10056 10070 0
-2419 -2453 -2469 -2425 10055 10171 10071 10057 0
-2419 -2455 -2469 -2423 10057 10171 10071 10055 0
-2423 -2453 -2455 -2425 10055 10171 10057 10071 0
-2419 -2454 -2470 -2425 10056 10172 10072 10057 0
-2419 -2455 -2470 -2424 10057 10172 10072 10056 0
-2424 -2454 -2455 -2425 10056 10172 10057 10072 0
-2420 -2456 -2461 -2422 10058 10173 10063 10059 0
-2420 -2457 -2461 -2421 10059 10173 10063 10058 0
-2421 -2456 -2457 -2422 10058 10173 10059 10063 0
-2420 -2456 -2462 -2423 10058 10174 10064 10060 0
-2420 -2458 -2462 -2421 10060 10174 10064 10058 0
-2421 -2456 -2458 -2423 10058 10174 10060 10064 0
-2420 -2456 -2463 -2424 10058 10175 10065 10061 0
-2420 -2459 -2463 -2421 10061 10175 10065 10058 0
-2421 -2456 -2459 -2424 10058 10175 10061 10065 0
-2420 -2456 -2464 -2425 10058 10176 10066 10062 0
-2420 -2460 -2464 -2421 10062 10176 10066 10058 0
-2421 -2456 -2460 -2425 10058 10176 10062 10066 0
-2420 -2457 -2465 -2423 10059 10177 10067 10060 0
-2420 -2458 -2465 -2422 10060 10177 10067 10059 0
-2422 -2457 -2458 -2423 10059 10177 10060 10067 0
-2420 -2457 -2466 -2424 10059 10178 10068 10061 0
-2420 -2459 -2466 -2422 10061 10178 10068 10059 0
-2422 -2457 -2459 -2424 10059 10178 10061 10068 0
-2420 -2457 -2467 -2425 10059 10179 10069 10062 0
-2420 -2460 -2467 -2422 10062 10179 10069 10059 0
-2422 -2457 -2460 -2425 10059 10179 10062 10069 0
-2420 -2458 -2468 -2424 10060 10180 10070 10061 0
-2420 -2459 -2468 -2423 10061 10180 10070 10060 0
-2423 -2458 -2459 -2424 10060 10180 10061 10070 0
-2420 -2458 -2469 -2425 10060 10181 10071 10062 0
-2420 -2460 -2469 -2423 10062 10181 10071 10060 0
-2423 -2458 -2460 -2425 10060 10181 10062 10071 0
-2420 -2459 -2470 -2425 10061 10182 10072 10062 0
-2420 -2460 -2470 -2424 10062 10182 10072 10061 0
-2424 -2459 -2460 -2425 10061 10182 10062 10072 0
-2421 -2461 -2465 -2423 10063 10183 10067 10064 0
-2421 -2462 -2465 -2422 10064 10183 10067 10063 0
-2422 -2461 -2462 -2423 10063 10183 10064 10067 0
-2421 -2461 -2466 -2424 10063 10184 10068 10065 0
-2421 -2463 -2466 -2422 10065 10184 10068 10063 0
-2422 -2461 -2463 -2424 10063 10184 10065 10068 0
-2421 -2461 -2467 -2425 10063 10185 10069 10066 0
-2421 -2464 -2467 -2422 10066 10185 10069 10063 0
-2422 -2461 -2464 -2425 10063 10185 10066 10069 0
-2421 -2462 -2468 -2424 10064 10186 10070 10065 0
-2421 -2463 -2468 -2423 10065 10186 10070 10064 0
-2423 -2462 -2463 -2424 10064 10186 10065 10070 0
-2421 -2462 -2469 -2425 10064 10187 10071 10066 0
-2421 -2464 -2469 -2423 10066 10187 10071 10064 0
-2423 -2462 -2464 -2425 10064 10187 10066 10071 0
-2421 -2463 -2470 -2425 10065 10188 10072 10066 0
-2421 -2464 -2470 -2424 10066 10188 10072 10065 0
-2424 -2463 -2464 -2425 10065 10188 10066 10072 0
-2422 -2465 -2468 -2424 10067 10189 10070 10068 0
-2422 -2466 -2468 -2423 10068 10189 10070 10067 0
-2423 -2465 -2466 -2424 10067 10189 10068 10070 0
-2422 -2465 -2469 -2425 10067 10190 10071 10069 0
-2422 -2467 -2469 -2423 10069 10190 10071 10067 0
-2423 -2465 -2467 -2425 10067 10190 10069 10071 0
-2422 -2466 -2470 -2425 10068 10191 10072 10069 0
-2422 -2467 -2470 -2424 10069 10191 10072 10068 0
-2424 -2466 -2467 -2425 10068 10191 10069 10072 0
-2423 -2468 -2470 -2425 10070 10192 10072 10071 0
-2423 -2469 -2470 -2424 10071 10192 10072 10070 0
-2424 -2468 -2469 -2425 10070 10192 10071 10072 0
-2426 -2435 -2443 -2428 10073 10109 10081 10074 0
-2426 -2436 -2443 -2427 10074 10109 10081 10073 0
-2427 -2435 -2436 -2428 10073 10109 10074 10081 0
-2426 -2435 -2444 -2429 10073 10110 10082 10075 0
-2426 -2437 -2444 -2427 10075 10110 10082 10073 0
-2427 -2435 -2437 -2429 10073 10110 10075 10082 0
-2426 -2435 -2445 -2430 10073 10111 10083 10076 0
-2426 -2438 -2445 -2427 10076 10111 10083 10073 0
-2427 -2435 -2438 -2430 10073 10111 10076 10083 0
-2426 -2435 -2446 -2431 10073 10112 10084 10077 0
-2426 -2439 -2446 -2427 10077 10112 10084 10073 0
-2427 -2435 -2439 -2431 10073 10112 10077 10084 0
-2426 -2435 -2447 -2432 10073 10113 10085 10078 0
-2426 -2440 -2447 -2427 10078 10113 10085 10073 0
-2427 -2435 -2440 -2432 10073 10113 10078 10085 0
-2426 -2435 -2448 -2433 10073 10114 10086 10079 0
-2426 -2441 -2448 -2427 10079 10114 10086 10073 0
-2427 -2435 -2441 -2433 10073 10114 10079 10086 0
-2426 -2435 -2449 -2434 10073 10115 10087 10080 0
-2426 -2442 -2449 -2427 10080 10115 10087 10073 0
-2427 -2435 -2442 -2434 10073 10115 10080 10087 0
-2426 -2436 -2450 -2429 10074 10116 10088 10075 0
-2426 -2437 -2450 -2428 10075 10116 10088 10074 0
-2428 -2436 -2437 -2429 10074 10116 10075 10088 0
-2426 -2436 -2451 -2430 10074 10117 10089 10076 0
-2426 -2438 -2451 -2428 10076 10117 10089 10074 0
-2428 -2436 -2438 -2430 10074 10117 10076 10089 0
-2426 -2436 -2452 -2431 10074 10118 10090 10077 0
-2426 -2439 -2452 -2428 10077 10118 10090 10074 0
-2428 -2436 -2439 -2431 10074 10118 10077 10090 0
-2426 -2436 -2453 -2432 10074 10119 10091 10078 0
-2426 -2440 -2453 -2428 10078 10119 10091 10074 0
-2428 -2436 -2440 -2432 10074 10119 10078 10091 0
-2426 -2436 -2454 -2433 10074 10120 10092 10079 0
-2426 -2441 -2454 -2428 10079 10120 10092 10074 0
-2428 -2436 -2441 -2433 10074 10120 10079 10092 0
-2426 -2436 -2455 -2434 10074 10121 10093 10080 0
-2426 -2442 -2455 -2428 10080 10121 10093 10074 0
-2428 -2436 -2442 -2434 10074 10121 10080 10093 0
-2426 -2437 -2456 -2430 10075 10122 10094 10076 0
-2426 -2438 -2456 -2429 10076 10122 10094 10075 0
-2429 -2437 -2438 -2430 10075 10122 10076 10094 0
-2426 -2437 -2457 -2431 10075 10123 10095 10077 0
-2426 -2439 -2457 -2429 10077 10123 10095 10075 0
-2429 -2437 -2439 -2431 10075 10123 10077 10095 0
-2426 -2437 -2458 -2432 10075 10124 10096 10078 0
-2426 -2440 -2458 -2429 10078 10124 10096 10075 0
-2429 -2437 -2440 -2432 10075 10124 10078 10096 0
-2426 -2437 -2459 -2433 10075 10125 10097 10079 0
-2426 -2441 -2459 -2429 10079 10125 10097 10075 0
-2429 -2437 -2441 -2433 10075 10125 10079 10097 0
-2426 -2437 -2460 -2434 10075 10126 10098 10080 0
-2426 -2442 -2460 -2429 10080 10126 10098 10075 0
-2429 -2437 -2442 -2434 10075 10126 10080 10098 0
-2426 -2438 -2461 -2431 10076 10127 10099 10077 0
-2426 -2439 -2461 -2430 10077 10127 10099 10076 0
-2430 -2438 -2439 -2431 10076 10127 10077 10099 0
-2426 -2438 -2462 -2432 10076 10128 10100 10078 0
-2426 -2440 -2462 -2430 10078 10128 10100 10076 0
-2430 -2438 -2440 -2432 10076 10128 10078 10100 0
-2426 -2438 -2463 -2433 10076 10129 10101 10079 0
-2426 -2441 -2463 -2430 10079 10129 10101 10076 0
-2430 -2438 -2441 -2433 10076 10129 10079 10101 0
-2426 -2438 -2464 -2434 10076 10130 10102 10080 0
-2426 -2442 -2464 -2430 10080 10130 10102 10076 0
-2430 -2438 -2442 -2434 10076 10130 10080 10102 0
-2426 -2439 -2465 -2432 10077 10131 10103 10078 0
-2426 -2440 -2465 -2431 10078 10131 10103 10077 0
-2431 -2439 -2440 -2432 10077 10131 10078 10103 0
-2426 -2439 -2466 -2433 10077 10132 10104 10079 0
-2426 -2441 -2466 -2431 10079 10132 10104 10077 0
-2431 -2439 -2441 -2433 10077 10132 10079 10104 0
-2426 -2439 -2467 -2434 10077 10133 10105 10080 0
-2426 -2442 -2467 -2431 10080 10133 10105 10077 0
-2431 -2439 -2442 -2434 10077 10133 10080 10105 0
-2426 -2440 -2468 -2433 10078 10134 10106 10079 0
-2426 -2441 -2468 -2432 10079 10134 10106 10078 0
-2432 -2440 -2441 -2433 10078 10134 10079 10106 0
-2426 -2440 -2469 -2434 10078 10135 10107 10080 0
-2426 -2442 -2469 -2432 10080 10135 10107 10078 0
-2432 -2440 -2442 -2434 10078 10135 10080 10107 0
-2426 -2441 -2470 -2434 10079 10136 10108 10080 0
-2426 -2442 -2470 -2433 10080 10136 10108 10079 0
-2433 -2441 -2442 -2434 10079 10136 10080 10108 0
-2427 -2443 -2450 -2429 10081 10137 10088 10082 0
-2427 -2444 -2450 -2428 10082 10137 10088 10081 0
-2428 -2443 -2444 -2429 10081 10137 10082 10088 0
-2427 -2443 -2451 -2430 10081 10138 10089 10083 0
-2427 -2445 -2451 -2428 10083 10138 10089 10081 0
-2428 -2443 -2445 -2430 10081 10138 10083 10089 0
-2427 -2443 -2452 -2431 10081 10139 10090 10084 0
-2427 -2446 -2452 -2428 10084 10139 10090 10081 0
-2428 -2443 -2446 -2431 10081 10139 10084 10090 0
-2427 -2443 -2453 -2432 10081 10140 10091 10085 0
-2427 -2447 -2453 -2428 10085 10140 10091 10081 0
-2428 -2443 -2447 -2432 10081 10140 10085 10091 0
-2427 -2443 -2454 -2433 10081 10141 10092 10086 0
-2427 -2448 -2454 -2428 10086 10141 10092 10081 0
-2428 -2443 -2448 -2433 10081 10141 10086 10092 0
-2427 -2443 -2455 -2434 10081 10142 10093 10087 0
-2427 -2449 -2455 -2428 10087 10142 10093 10081 0
-2428 -2443 -2449 -2434 10081 10142 10087 10093 0
-2427 -2444 -2456 -2430 10082 10143 10094 10083 0
-2427 -2445 -2456 -2429 10083 10143 10094 10082 0
-2429 -2444 -2445 -2430 10082 10143 10083 10094 0
-2427 -2444 -2457 -2431 10082 10144 10095 10084 0
-2427 -2446 -2457 -2429 10084 10144 10095 10082 0
-2429 -2444 -2446 -2431 10082 10144 10084 10095 0
-2427 -2444 -2458 -2432 10082 10145 10096 10085 0
-2427 -2447 -2458 -2429 10085 10145 10096 10082 0
-2429 -2444 -2447 -2432 10082 10145 10085 10096 0
-2427 -2444 -2459 -2433 10082 10146 10097 10086 0
-2427 -2448 -2459 -2429 10086 10146 10097 10082 0
-2429 -2444 -2448 -2433 10082 10146 10086 10097 0
-2427 -2444 -2460 -2434 10082 10147 10098 10087 0
-2427 -2449 -2460 -2429 10087 10147 10098 10082 0
-2429 -2444 -2449 -2434 10082 10147 10087 10098 0
-2427 -2445 -2461 -2431 10083 10148 10099 10084 0
-2427 -2446 -2461 -2430 10084 10148 10099 10083 0
-2430 -2445 -2446 -2431 10083 10148 10084 10099 0
-2427 -2445 -2462 -2432 10083 10149 10100 10085 0
-2427 -2447 -2462 -2430 10085 10149 10100 10083 0
-2430 -2445 -2447 -2432 10083 10149 10085 10100 0
-2427 -2445 -2463 -2433 10083 10150 10101 10086 0
-2427 -2448 -2463 -2430 10086 10150 10101 10083 0
-2430 -2445 -2448 -2433 10083 10150 10086 10101 0
-2427 -2445 -2464 -2434 10083 10151 10102 10087 0
-2427 -2449 -2464 -2430 10087 10151 10102 10083 0
-2430 -2445 -2449 -2434 10083 10151 10087 10102 0
-2427 -2446 -2465 -2432 10084 10152 10103 10085 0
-2427 -2447 -2465 -2431 10085 10152 10103 10084 0
-2431 -2446 -2447 -2432 10084 10152 10085 10103 0
-2427 -2446 -2466 -2433 10084 10153 10104 10086 0
-2427 -2448 -2466 -2431 10086 10153 10104 10084 0
-2431 -2446 -2448 -2433 10084 10153 10086 10104 0
-2427 -2446 -2467 -2434 10084 10154 10105 10087 0
-2427 -2449 -2467 -2431 10087 10154 10105 10084 0
-2431 -2446 -2449 -2434 10084 10154 10087 10105 0
-2427 -2447 -2468 -2433 10085 10155 10106 10086 0
-2427 -2448 -2468 -2432 10086 10155 10106 10085 0
-2432 -2447 -2448 -2433 10085 10155 10086 10106 0
-2427 -2447 -2469 -2434 10085 10156 10107 10087 0
-2427 -2449 -2469 -2432 10087 10156 10107 10085 0
-2432 -2447 -2449 -2434 10085 10156 10087 10107 0
-2427 -2448 -2470 -2434 10086 10157 10108 10087 0
-2427 -2449 -2470 -2433 10087 10157 10108 10086 0
-2433 -2448 -2449 -2434 10086 10157 10087 10108 0
-2428 -2450 -2456 -2430 10088 10158 10094 10089 0
-2428 -2451 -2456 -2429 10089 10158 10094 10088 0
-2429 -2450 -2451 -2430 10088 10158 10089 10094 0
-2428 -2450 -2457 -2431 10088 10159 10095 10090 0
-2428 -2452 -2457 -2429 10090 10159 10095 10088 0
-2429 -2450 -2452 -2431 10088 10159 10090 10095 0
-2428 -2450 -2458 -2432 10088 10160 10096 10091 0
-2428 -2453 -2458 -2429 10091 10160 10096 10088 0
-2429 -2450 -2453 -2432 10088 10160 10091 10096 0
-2428 -2450 -2459 -2433 10088 10161 10097 10092 0
-2428 -2454 -2459 -2429 10092 10161 10097 10088 0
-2429 -2450 -2454 -2433 10088 10161 10092 10097 0
-2428 -2450 -2460 -2434 10088 10162 10098 10093 0
-2428 -2455 -2460 -2429 10093 10162 10098 10088 0
-2429 -2450 -2455 -2434 10088 10162 10093 10098 0
-2428 -2451 -2461 -2431 10089 10163 10099 10090 0
-2428 -2452 -2461 -2430 10090 10163 10099 10089 0
-2430 -2451 -2452 -2431 10089 10163 10090 10099 0
-2428 -2451 -2462 -2432 10089 10164 10100 10091 0
-2428 -2453 -2462 -2430 10091 10164 10100 10089 0
-2430 -2451 -2453 -2432 10089 10164 10091 10100 0
-2428 -2451 -2463 -2433 10089 10165 10101 10092 0
-2428 -2454 -2463 -2430 10092 10165 10101 10089 0
-2430 -2451 -2454 -2433 10089 10165 10092 10101 0
-2428 -2451 -2464 -2434 10089 10166 10102 10093 0
-2428 -2455 -2464 -2430 10093 10166 10102 10089 0
-2430 -2451 -2455 -2434 10089 10166 10093 10102 0
-2428 -2452 -2465 -2432 10090 10167 10103 10091 0
-2428 -2453 -2465 -2431 10091 10167 10103 10090 0
-2431 -2452 -2453 -2432 10090 10167 10091 10103 0
-2428 -2452 -2466 -2433 10090 10168 10104 10092 0
-2428 -2454 -2466 -2431 10092 10168 10104 10090 0
-2431 -2452 -2454 -2433 10090 10168 10092 10104 0
-2428 -2452 -2467 -2434 10090 10169 10105 10093 0
-2428 -2455 -2467 -2431 10093 10169 10105 10090 0
-2431 -2452 -2455 -2434 10090 10169 10093 10105 0
-2428 -2453 -2468 -2433 10091 10170 10106 10092 0
-2428 -2454 -2468 -2432 10092 10170 10106 10091 0
-2432 -2453 -2454 -2433 10091 10170 10092 10106 0
-2428 -2453 -2469 -2434 10091 10171 10107 10093 0
-2428 -2455 -2469 -2432 10093 10171 10107 10091 0
-2432 -2453 -2455 -2434 10091 10171 10093 10107 0
-2428 -2454 -2470 -2434 10092 10172 10108 10093 0
-2428 -2455 -2470 -2433 10093 10172 10108 10092 0
-2433 -2454 -2455 -2434 10092 10172 10093 10108 0
-2429 -2456 -2461 -2431 10094 10173 10099 10095 0
-2429 -2457 -2461 -2430 10095 10173 10099 10094 0
-2430 -2456 -2457 -2431 10094 10173 10095 10099 0
-2429 -2456 -2462 -2432 10094 10174 10100 10096 0
-2429 -2458 -2462 -2430 10096 10174 10100 10094 0
-2430 -2456 -2458 -2432 10094 10174 10096 10100 0
-2429 -2456 -2463 -2433 10094 10175 10101 10097 0
-2429 -2459 -2463 -2430 10097 10175 10101 10094 0
-2430 -2456 -2459 -2433 10094 10175 10097 10101 0
-2429 -2456 -2464 -2434 10094 10176 10102 10098 0
-2429 -2460 -2464 -2430 10098 10176 10102 10094 0
-2430 -2456 -2460 -2434 10094 10176 10098 10102 0
-2429 -2457 -2465 -2432 10095 10177 10103 10096 0
-2429 -2458 -2465 -2431 10096 10177 10103 10095 0
-2431 -2457 -2458 -2432 10095 10177 10096 10103 0
-2429 -2457 -2466 -2433 10095 10178 10104 10097 0
-2429 -2459 -2466 -2431 10097 10178 10104 10095 0
-2431 -2457 -2459 -2433 10095 10178 10097 10104 0
-2429 -2457 -2467 -2434 10095 10179 10105 10098 0
-2429 -2460 -2467 -2431 10098 10179 10105 10095 0
-2431 -2457 -2460 -2434 10095 10179 10098 10105 0
-2429 -2458 -2468 -2433 10096 10180 10106 10097 0
-2429 -2459 -2468 -2432 10097 10180 10106 10096 0
-2432 -2458 -2459 -2433 10096 10180 10097 10106 0
-2429 -2458 -2469 -2434 10096 10181 10107 10098 0
-2429 -2460 -2469 -2432 10098 10181 10107 10096 0
-2432 -2458 -2460 -2434 10096 10181 10098 10107 0
-2429 -2459 -2470 -2434 10097 10182 10108 10098 0
-2429 -2460 -2470 -2433 10098 10182 10108 10097 0
-2433 -2459 -2460 -2434 10097 10182 10098 10108 0
-2430 -2461 -2465 -2432 10099 10183 10103 10100 0
-2430 -2462 -2465 -2431 10100 10183 10103 10099 0
-2431 -2461 -2462 -2432 10099 10183 10100 10103 0
-2430 -2461 -2466 -2433 10099 10184 10104 10101 0
-2430 -2463 -2466 -2431 10101 10184 10104 10099 0
-2431 -2461 -2463 -2433 10099 10184 10101 10104 0
-2430 -2461 -2467 -2434 10099 10185 10105 10102 0
-2430 -2464 -2467 -2431 10102 10185 10105 10099 0
-2431 -2461 -2464 -2434 10099 10185 10102 10105 0
-2430 -2462 -2468 -2433 10100 10186 10106 10101 0
-2430 -2463 -2468 -2432 10101 10186 10106 10100 0
-2432 -2462 -2463 -2433 10100 10186 10101 10106 0
-2430 -2462 -2469 -2434 10100 10187 10107 10102 0
-2430 -2464 -2469 -2432 10102 10187 10107 10100 0
-2432 -2462 -2464 -2434 10100 10187 10102 10107 0
-2430 -2463 -2470 -2434 10101 10188 10108 10102 0
-2430 -2464 -2470 -2433 10102 10188 10108 10101 0
-2433 -2463 -2464 -2434 10101 10188 10102 10108 0
-2431 -2465 -2468 -2433 10103 10189 10106 10104 0
-2431 -2466 -2468 -2432 10104 10189 10106 10103 0
-2432 -2465 -2466 -2433 10103 10189 10104 10106 0
-2431 -2465 -2469 -2434 10103 10190 10107 10105 0
-2431 -2467 -2469 -2432 10105 10190 10107 10103 0
-2432 -2465 -2467 -2434 10103 10190 10105 10107 0
-2431 -2466 -2470 -2434 10104 10191 10108 10105 0
-2431 -2467 -2470 -2433 10105 10191 10108 10104 0
-2433 -2466 -2467 -2434 10104 10191 10105 10108 0
-2432 -2468 -2470 -2434 10106 10192 10108 10107 0
-2432 -2469 -2470 -2433 10107 10192 10108 10106 0
-2433 -2468 -2469 -2434 10106 10192 10107 10108 0
-2435 -2443 -2450 -2437 10109 10137 10116 10110 0
-2435 -2444 -2450 -2436 10110 10137 10116 10109 0
-2436 -2443 -2444 -2437 10109 10137 10110 10116 0
-2435 -2443 -2451 -2438 10109 10138 10117 10111 0
-2435 -2445 -2451 -2436 10111 10138 10117 10109 0
-2436 -2443 -2445 -2438 10109 10138 10111 10117 0
-2435 -2443 -2452 -2439 10109 10139 10118 10112 0
-2435 -2446 -2452 -2436 10112 10139 10118 10109 0
-2436 -2443 -2446 -2439 10109 10139 10112 10118 0
-2435 -2443 -2453 -2440 10109 10140 10119 10113 0
-2435 -2447 -2453 -2436 10113 10140 10119 10109 0
-2436 -2443 -2447 -2440 10109 10140 10113 10119 0
-2435 -2443 -2454 -2441 10109 10141 10120 10114 0
-2435 -2448 -2454 -2436 10114 10141 10120 10109 0
-2436 -2443 -2448 -2441 10109 10141 10114 10120 0
-2435 -2443 -2455 -2442 10109 10142 10121 10115 0
-2435 -2449 -2455 -2436 10115 10142 10121 10109 0
-2436 -2443 -2449 -2442 10109 10142 10115 10121 0
-2435 -2444 -2456 -2438 10110 10143 10122 10111 0
-2435 -2445 -2456 -2437 10111 10143 10122 10110 0
-2437 -2444 -2445 -2438 10110 10143 10111 10122 0
-2435 -2444 -2457 -2439 10110 10144 10123 10112 0
-2435 -2446 -2457 -2437 10112 10144 10123 10110 0
-2437 -2444 -2446 -2439 10110 10144 10112 10123 0
-2435 -2444 -2458 -2440 10110 10145 10124 10113 0
-2435 -2447 -2458 -2437 10113 10145 10124 10110 0
-2437 -2444 -2447 -2440 10110 10145 10113 10124 0
-2435 -2444 -2459 -2441 10110 10146 10125 10114 0
-2435 -2448 -2459 -2437 10114 10146 10125 10110 0
-2437 -2444 -2448 -2441 10110 10146 10114 10125 0
-2435 -2444 -2460 -2442 10110 10147 10126 10115 0
-2435 -2449 -2460 -2437 10115 10147 10126 10110 0
-2437 -2444 -2449 -2442 10110 10147 10115 10126 0
-2435 -2445 -2461 -2439 10111 10148 10127 10112 0
-2435 -2446 -2461 -2438 10112 10148 10127 10111 0
-2438 -2445 -2446 -2439 10111 10148 10112 10127 0
-2435 -2445 -2462 -2440 10111 10149 10128 10113 0
-2435 -2447 -2462 -2438 10113 10149 10128 10111 0
-2438 -2445 -2447 -2440 10111 10149 10113 10128 0
-2435 -2445 -2463 -2441 10111 10150 10129 10114 0
-2435 -2448 -2463 -2438 10114 10150 10129 10111 0
-2438 -2445 -2448 -2441 10111 10150 10114 10129 0
-2435 -2445 -2464 -2442 10111 10151 10130 10115 0
-2435 -2449 -2464 -2438 10115 10151 10130 10111 0
-2438 -2445 -2449 -2442 10111 10151 10115 10130 0
-2435 -2446 -2465 -2440 10112 10152 10131 10113 0
-2435 -2447 -2465 -2439 10113 10152 10131 10112 0
-2439 -2446 -2447 -2440 10112 10152 10113 10131 0
-2435 -2446 -2466 -2441 10112 10153 10132 10114 0
-2435 -2448 -2466 -2439 10114 10153 10132 10112 0
-2439 -2446 -2448 -2441 10112 10153 10114 10132 0
-2435 -2446 -2467 -2442 10112 10154 10133 10115 0
-2435 -2449 -2467 -2439 10115 10154 10133 10112 0
-2439 -2446 -2449 -2442 10112 10154 10115 10133 0
-2435 -2447 -2468 -2441 10113 10155 10134 10114 0
-2435 -2448 -2468 -2440 10114 10155 10134 10113 0
-2440 -2447 -2448 -2441 10113 10155 10114 10134 0
-2435 -2447 -2469 -2442 10113 10156 10135 10115 0
-2435 -2449 -2469 -2440 10115 10156 10135 10113 0
-2440 -2447 -2449 -2442 10113 10156 10115 10135 0
-2435 -2448 -2470 -2442 10114 10157 10136 10115 0
-2435 -2449 -2470 -2441 10115 10157 10136 10114 0
-2441 -2448 -2449 -2442 10114 10157 10115 10136 0
-2436 -2450 -2456 -2438 10116 10158 10122 10117 0
-2436 -2451 -2456 -2437 10117 10158 10122 10116 0
-2437 -2450 -2451 -2438 10116 10158 10117 10122 0
-2436 -2450 -2457 -2439 10116 10159 10123 10118 0
-2436 -2452 -2457 -2437 10118 10159 10123 10116 0
-2437 -2450 -2452 -2439 10116 10159 10118 10123 0
-2436 -2450 -2458 -2440 10116 10160 10124 10119 0
-2436 -2453 -2458 -2437 10119 10160 10124 10116 0
-2437 -2450 -2453 -2440 10116 10160 10119 10124 0
-2436 -2450 -2459 -2441 10116 10161 10125 10120 0
-2436 -2454 -2459 -2437 10120 10161 10125 10116 0
-2437 -2450 -2454 -2441 10116 10161 10120 10125 0
-2436 -2450 -2460 -2442 10116 10162 10126 10121 0
-2436 -2455 -2460 -2437 10121 10162 10126 10116 0
-2437 -2450 -2455 -2442 10116 10162 10121 10126 0
-2436 -2451 -2461 -2439 10117 10163 10127 10118 0
-2436 -2452 -2461 -2438 10118 10163 10127 10117 0
-2438 -2451 -2452 -2439 10117 10163 10118 10127 0
-2436 -2451 -2462 -2440 10117 10164 10128 10119 0
-2436 -2453 -2462 -2438 10119 10164 10128 10117 0
-2438 -2451 -2453 -2440 10117 10164 10119 10128 0
-2436 -2451 -2463 -2441 10117 10165 10129 10120 0
-2436 -2454 -2463 -2438 10120 10165 10129 10117 0
-2438 -2451 -2454 -2441 10117 10165 10120 10129 0
-2436 -2451 -2464 -2442 10117 10166 10130 10121 0
-2436 -2455 -2464 -2438 10121 10166 10130 10117 0
-2438 -2451 -2455 -2442 10117 10166 10121 10130 0
-2436 -2452 -2465 -2440 10118 10167 10131 10119 0
-2436 -2453 -2465 -2439 10119 10167 10131 10118 0
-2439 -2452 -2453 -2440 10118 10167 10119 10131 0
-2436 -2452 -2466 -2441 10118 10168 10132 10120 0
-2436 -2454 -2466 -2439 10120 10168 10132 10118 0
-2439 -2452 -2454 -2441 10118 10168 10120 10132 0
-2436 -2452 -2467 -2442 10118 10169 10133 10121 0
-2436 -2455 -2467 -2439 10121 10169 10133 10118 0
-2439 -2452 -2455 -2442 10118 10169 10121 10133 0
-2436 -2453 -2468 -2441 10119 10170 10134 10120 0
-2436 -2454 -2468 -2440 10120 10170 10134 10119 0
-2440 -2453 -2454 -2441 10119 10170 10120 10134 0
-2436 -2453 -2469 -2442 10119 10171 10135 10121 0
-2436 -2455 -2469 -2440 10121 10171 10135 10119 0
-2440 -2453 -2455 -2442 10119 10171 10121 10135 0
-2436 -2454 -2470 -2442 10120 10172 10136 10121 0
-2436 -2455 -2470 -2441 10121 10172 10136 10120 0
-2441 -2454 -2455 -2442 10120 10172 10121 10136 0
-2437 -2456 -2461 -2439 10122 10173 10127 10123 0
-2437 -2457 -2461 -2438 10123 10173 10127 10122 0
-2438 -2456 -2457 -2439 10122 10173 10123 10127 0
-2437 -2456 -2462 -2440 10122 10174 10128 10124 0
-2437 -2458 -2462 -2438 10124 10174 10128 10122 0
-2438 -2456 -2458 -2440 10122 10174 10124 10128 0
-2437 -2456 -2463 -2441 10122 10175 10129 10125 0
-2437 -2459 -2463 -2438 10125 10175 10129 10122 0
-2438 -2456 -2459 -2441 10122 10175 10125 10129 0
-2437 -2456 -2464 -2442 10122 10176 10130 10126 0
-2437 -2460 -2464 -2438 10126 10176 10130 10122 0
-2438 -2456 -2460 -2442 10122 10176 10126 10130 0
-2437 -2457 -2465 -2440 10123 10177 10131 10124 0
-2437 -2458 -2465 -2439 10124 10177 10131 10123 0
-2439 -2457 -2458 -2440 10123 10177 10124 10131 0
-2437 -2457 -2466 -2441 10123 10178 10132 10125 0
-2437 -2459 -2466 -2439 10125 10178 10132 10123 0
-2439 -2457 -2459 -2441 10123 10178 10125 10132 0
-2437 -2457 -2467 -2442 10123 10179 10133 10126 0
-2437 -2460 -2467 -2439 10126 10179 10133 10123 0
-2439 -2457 -2460 -2442 10123 10179 10126 10133 0
-2437 -2458 -2468 -2441 10124 10180 10134 10125 0
-2437 -2459 -2468 -2440 10125 10180 10134 10124 0
-2440 -2458 -2459 -2441 10124 10180 10125 10134 0
-2437 -2458 -2469 -2442 10124 10181 10135 10126 0
-2437 -2460 -2469 -2440 10126 10181 10135 10124 0
-2440 -2458 -2460 -2442 10124 10181 10126 10135 0
-2437 -2459 -2470 -2442 10125 10182 10136 10126 0
-2437 -2460 -2470 -2441 10126 10182 10136 10125 0
-2441 -2459 -2460 -2442 10125 10182 10126 10136 0
-2438 -2461 -2465 -2440 10127 10183 10131 10128 0
-2438 -2462 -2465 -2439 10128 10183 10131 10127 0
-2439 -2461 -2462 -2440 10127 10183 10128 10131 0
-2438 -2461 -2466 -2441 10127 10184 10132 10129 0
-2438 -2463 -2466 -2439 10129 10184 10132 10127 0
-2439 -2461 -2463 -2441 10127 10184 10129 10132 0
-2438 -2461 -2467 -2442 10127 10185 10133 10130 0
-2438 -2464 -2467 -2439 10130 10185 10133 10127 0
-2439 -2461 -2464 -2442 10127 10185 10130 10133 0
-2438 -2462 -2468 -2441 10128 10186 10134 10129 0
-2438 -2463 -2468 -2440 10129 10186 10134 10128 0
-2440 -2462 -2463 -2441 10128 10186 10129 10134 0
-2438 -2462 -2469 -2442 10128 10187 10135 10130 0
-2438 -2464 -2469 -2440 10130 10187 10135 10128 0
-2440 -2462 -2464 -2442 10128 10187 10130 10135 0
-2438 -2463 -2470 -2442 10129 10188 10136 10130 0
-2438 -2464 -2470 -2441 10130 10188 10136 10129 0
-2441 -2463 -2464 -2442 10129 10188 10130 10136 0
-2439 -2465 -2468 -2441 10131 10189 10134 10132 0
-2439 -2466 -2468 -2440 10132 10189 10134 10131 0
-2440 -2465 -2466 -2441 10131 10189 10132 10134 0
-2439 -2465 -2469 -2442 10131 10190 10135 10133 0
-2439 -2467 -2469 -2440 10133 10190 10135 10131 0
-2440 -2465 -2467 -2442 10131 10190 10133 10135 0
-2439 -2466 -2470 -2442 10132 10191 10136 10133 0
-2439 -2467 -2470 -2441 10133 10191 10136 10132 0
-2441 -2466 -2467 -2442 10132 10191 10133 10136 0
-2440 -2468 -2470 -2442 10134 10192 10136 10135 0
-2440 -2469 -2470 -2441 10135 10192 10136 10134 0
-2441 -2468 -2469 -2442 10134 10192 10135 10136 0
-2443 -2450 -2456 -2445 10137 10158 10143 10138 0
-2443 -2451 -2456 -2444 10138 10158 10143 10137 0
-2444 -2450 -2451 -2445 10137 10158 10138 10143 0
-2443 -2450 -2457 -2446 10137 10159 10144 10139 0
-2443 -2452 -2457 -2444 10139 10159 10144 10137 0
-2444 -2450 -2452 -2446 10137 10159 10139 10144 0
-2443 -2450 -2458 -2447 10137 10160 10145 10140 0
-2443 -2453 -2458 -2444 10140 10160 10145 10137 0
-2444 -2450 -2453 -2447 10137 10160 10140 10145 0
-2443 -2450 -2459 -2448 10137 10161 10146 10141 0
-2443 -2454 -2459 -2444 10141 10161 10146 10137 0
-2444 -2450 -2454 -2448 10137 10161 10141 10146 0
-2443 -2450 -2460 -2449 10137 10162 10147 10142 0
-2443 -2455 -2460 -2444 10142 10162 10147 10137 0
-2444 -2450 -2455 -2449 10137 10162 10142 10147 0
-2443 -2451 -2461 -2446 10138 10163 10148 10139 0
-2443 -2452 -2461 -2445 10139 10163 10148 10138 0
-2445 -2451 -2452 -2446 10138 10163 10139 10148 0
-2443 -2451 -2462 -2447 10138 10164 10149 10140 0
-2443 -2453 -2462 -2445 10140 10164 10149 10138 0
-2445 -2451 -2453 -2447 10138 10164 10140 10149 0
-2443 -2451 -2463 -2448 10138 10165 10150 10141 0
-2443 -2454 -2463 -2445 10141 10165 10150 10138 0
-2445 -2451 -2454 -2448 10138 10165 10141 10150 0
-2443 -2451 -2464 -2449 10138 10166 10151 10142 0
-2443 -2455 -2464 -2445 10142 10166 10151 10138 0
-2445 -2451 -2455 -2449 10138 10166 10142 10151 0
-2443 -2452 -2465 -2447 10139 10167 10152 10140 0
-2443 -2453 -2465 -2446 10140 10167 10152 10139 0
-2446 -2452 -2453 -2447 10139 10167 10140 10152 0
-2443 -2452 -2466 -2448 10139 10168 10153 10141 0
-2443 -2454 -2466 -2446 10141 10168 10153 10139 0
-2446 -2452 -2454 -2448 10139 10168 10141 10153 0
-2443 -2452 -2467 -2449 10139 10169 10154 10142 0
-2443 -2455 -2467 -2446 10142 10169 10154 10139 0
-2446 -2452 -2455 -2449 10139 10169 10142 10154 0
-2443 -2453 -2468 -2448 10140 10170 10155 10141 0
-2443 -2454 -2468 -2447 10141 10170 10155 10140 0
-2447 -2453 -2454 -2448 10140 10170 10141 10155 0
-2443 -2453 -2469 -2449 10140 10171 10156 10142 0
-2443 -2455 -2469 -2447 10142 10171 10156 10140 0
-2447 -2453 -2455 -2449 10140 10171 10142 10156 0
-2443 -2454 -2470 -2449 10141 10172 10157 10142 0
-2443 -2455 -2470 -2448 10142 10172 10157 10141 0
-2448 -2454 -2455 -2449 10141 10172 10142 10157 0
-2444 -2456 -2461 -2446 10143 10173 10148 10144 0
-2444 -2457 -2461 -2445 10144 10173 10148 10143 0
-2445 -2456 -2457 -2446 10143 10173 10144 10148 0
-2444 -2456 -2462 -2447 10143 10174 10149 10145 0
-2444 -2458 -2462 -2445 10145 10174 10149 10143 0
-2445 -2456 -2458 -2447 10143 10174 10145 10149 0
-2444 -2456 -2463 -2448 10143 10175 10150 10146 0
-2444 -2459 -2463 -2445 10146 10175 10150 10143 0
-2445 -2456 -2459 -2448 10143 10175 10146 10150 0
-2444 -2456 -2464 -2449 10143 10176 10151 10147 0
-2444 -2460 -2464 -2445 10147 10176 10151 10143 0
-2445 -2456 -2460 -2449 10143 10176 10147 10151 0
-2444 -2457 -2465 -2447 10144 10177 10152 10145 0
-2444 -2458 -2465 -2446 10145 10177 10152 10144 0
-2446 -2457 -2458 -2447 10144 10177 10145 10152 0
-2444 -2457 -2466 -2448 10144 10178 10153 10146 0
-2444 -2459 -2466 -2446 10146 10178 10153 10144 0
-2446 -2457 -2459 -2448 10144 10178 10146 10153 0
-2444 -2457 -2467 -2449 10144 10179 10154 10147 0
-2444 -2460 -2467 -2446 10147 10179 10154 10144 0
-2446 -2457 -2460 -2449 10144 10179 10147 10154 0
-2444 -2458 -2468 -2448 10145 10180 10155 10146 0
-2444 -2459 -2468 -2447 10146 10180 10155 10145 0
-2447 -2458 -2459 -2448 10145 10180 10146 10155 0
-2444 -2458 -2469 -2449 10145 10181 10156 10147 0
-2444 -2460 -2469 -2447 10147 10181 10156 10145 0
-2447 -2458 -2460 -2449 10145 10181 10147 10156 0
-2444 -2459 -2470 -2449 10146 10182 10157 10147 0
-2444 -2460 -2470 -2448 10147 10182 10157 10146 0
-2448 -2459 -2460 -2449 10146 10182 10147 10157 0
-2445 -2461 -2465 -2447 10148 10183 10152 10149 0
-2445 -2462 -2465 -2446 10149 10183 10152 10148 0
-2446 -2461 -2462 -2447 10148 10183 10149 10152 0
-2445 -2461 -2466 -2448 10148 10184 10153 10150 0
-2445 -2463 -2466 -2446 10150 10184 10153 10148 0
-2446 -2461 -2463 -2448 10148 10184 10150 10153 0
-2445 -2461 -2467 -2449 10148 10185 10154 10151 0
-2445 -2464 -2467 -2446 10151 10185 10154 10148 0
-2446 -2461 -2464 -2449 10148 10185 10151 10154 0
-2445 -2462 -2468 -2448 10149 10186 10155 10150 0
-2445 -2463 -2468 -2447 10150 10186 10155 10149 0
-2447 -2462 -2463 -2448 10149 10186 10150 10155 0
-2445 -2462 -2469 -2449 10149 10187 10156 10151 0
-2445 -2464 -2469 -2447 10151 10187 10156 10149 0
-2447 -2462 -2464 -2449 10149 10187 10151 10156 0
-2445 -2463 -2470 -2449 10150 10188 10157 10151 0
-2445 -2464 -2470 -2448 10151 10188 10157 10150 0
-2448 -2463 -2464 -2449 10150 10188 10151 10157 0
-2446 -2465 -2468 -2448 10152 10189 10155 10153 0
-2446 -2466 -2468 -2447 10153 10189 10155 10152 0
-2447 -2465 -2466 -2448 10152 10189 10153 10155 0
-2446 -2465 -2469 -2449 10152 10190 10156 10154 0
-2446 -2467 -2469 -2447 10154 10190 10156 10152 0
-2447 -2465 -2467 -2449 10152 10190 10154 10156 0
-2446 -2466 -2470 -2449 10153 10191 10157 10154 0
-2446 -2467 -2470 -2448 10154 10191 10157 10153 0
-2448 -2466 -2467 -2449 10153 10191 10154 10157 0
-2447 -2468 -2470 -2449 10155 10192 10157 10156 0
-2447 -2469 -2470 -2448 10156 10192 10157 10155 0
-2448 -2468 -2469 -2449 10155 10192 10156 10157 0
-2450 -2456 -2461 -2452 10158 10173 10163 10159 0
-2450 -2457 -2461 -2451 10159 10173 10163 10158 0
-2451 -2456 -2457 -2452 10158 10173 10159 10163 0
-2450 -2456 -2462 -2453 10158 10174 10164 10160 0
-2450 -2458 -2462 -2451 10160 10174 10164 10158 0
-2451 -2456 -2458 -2453 10158 10174 10160 10164 0
-2450 -2456 -2463 -2454 10158 10175 10165 10161 0
-2450 -2459 -2463 -2451 10161 10175 10165 10158 0
-2451 -2456 -2459 -2454 10158 10175 10161 10165 0
-2450 -2456 -2464 -2455 10158 10176 10166 10162 0
-2450 -2460 -2464 -2451 10162 10176 10166 10158 0
-2451 -2456 -2460 -2455 10158 10176 10162 10166 0
-2450 -2457 -2465 -2453 10159 10177 10167 10160 0
-2450 -2458 -2465 -2452 10160 10177 10167 10159 0
-2452 -2457 -2458 -2453 10159 10177 10160 10167 0
-2450 -2457 -2466 -2454 10159 10178 10168 10161 0
-2450 -2459 -2466 -2452 10161 10178 10168 10159 0
-2452 -2457 -2459 -2454 10159 10178 10161 10168 0
-2450 -2457 -2467 -2455 10159 10179 10169 10162 0
-2450 -2460 -2467 -2452 10162 10179 10169 10159 0
-2452 -2457 -2460 -2455 10159 10179 10162 10169 0
-2450 -2458 -2468 -2454 10160 10180 10170 10161 0
-2450 -2459 -2468 -2453 10161 10180 10170 10160 0
-2453 -2458 -2459 -2454 10160 10180 10161 10170 0
-2450 -2458 -2469 -2455 10160 10181 10171 10162 0
-2450 -2460 -2469 -2453 10162 10181 10171 10160 0
-2453 -2458 -2460 -2455 10160 10181 10162 10171 0
-2450 -2459 -2470 -2455 10161 10182 10172 10162 0
-2450 -2460 -2470 -2454 10162 10182 10172 10161 0
-2454 -2459 -2460 -2455 10161 10182 10162 10172 0
-2451 -2461 -2465 -2453 10163 10183 10167 10164 0
-2451 -2462 -2465 -2452 10164 10183 10167 10163 0
-2452 -2461 -2462 -2453 10163 10183 10164 10167 0
-2451 -2461 -2466 -2454 10163 10184 10168 10165 0
-2451 -2463 -2466 -2452 10165 10184 10168 10163 0
-2452 -2461 -2463 -2454 10163 10184 10165 10168 0
-2451 -2461 -2467 -2455 10163 10185 10169 10166 0
-2451 -2464 -2467 -2452 10166 10185 10169 10163 0
-2452 -2461 -2464 -2455 10163 10185 10166 10169 0
-2451 -2462 -2468 -2454 10164 10186 10170 10165 0
-2451 -2463 -2468 -2453 10165 10186 10170 10164 0
-2453 -2462 -2463 -2454 10164 10186 10165 10170 0
-2451 -2462 -2469 -2455 10164 10187 10171 10166 0
-2451 -2464 -2469 -2453 10166 10187 10171 10164 0
-2453 -2462 -2464 -2455 10164 10187 10166 10171 0
-2451 -2463 -2470 -2455 10165 10188 10172 10166 0
-2451 -2464 -2470 -2454 10166 10188 10172 10165 0
-2454 -2463 -2464 -2455 10165 10188 10166 10172 0
-2452 -2465 -2468 -2454 10167 10189 10170 10168 0
-2452 -2466 -2468 -2453 10168 10189 10170 10167 0
-2453 -2465 -2466 -2454 10167 10189 10168 10170 0
-2452 -2465 -2469 -2455 10167 10190 10171 10169 0
-2452 -2467 -2469 -2453 10169 10190 10171 10167 0
-2453 -2465 -2467 -2455 10167 10190 10169 10171 0
-2452 -2466 -2470 -2455 10168 10191 10172 10169 0
-2452 -2467 -2470 -2454 10169 10191 10172 10168 0
-2454 -2466 -2467 -2455 10168 10191 10169 10172 0
-2453 -2468 -2470 -2455 10170 10192 10172 10171 0
-2453 -2469 -2470 -2454 10171 10192 10172 10170 0
-2454 -2468 -2469 -2455 10170 10192 10171 10172 0
-2456 -2461 -2465 -2458 10173 10183 10177 10174 0
-2456 -2462 -2465 -2457 10174 10183 10177 10173 0
-2457 -2461 -2462 -2458 10173 10183 10174 10177 0
-2456 -2461 -2466 -2459 10173 10184 10178 10175 0
-2456 -2463 -2466 -2457 10175 10184 10178 10173 0
-2457 -2461 -2463 -2459 10173 10184 10175 10178 0
-2456 -2461 -2467 -2460 10173 10185 10179 10176 0
-2456 -2464 -2467 -2457 10176 10185 10179 10173 0
-2457 -2461 -2464 -2460 10173 10185 10176 10179 0
-2456 -2462 -2468 -2459 10174 10186 10180 10175 0
-2456 -2463 -2468 -2458 10175 10186 10180 10174 0
-2458 -2462 -2463 -2459 10174 10186 10175 10180 0
-2456 -2462 -2469 -2460 10174 10187 10181 10176 0
-2456 -2464 -2469 -2458 10176 10187 10181 10174 0
-2458 -2462 -2464 -2460 10174 10187 10176 10181 0
-2456 -2463 -2470 -2460 10175 10188 10182 10176 0
-2456 -2464 -2470 -2459 10176 10188 10182 10175 0
-2459 -2463 -2464 -2460 10175 10188 10176 10182 0
-2457 -2465 -2468 -2459 10177 10189 10180 10178 0
-2457 -2466 -2468 -2458 10178 10189 10180 10177 0
-2458 -2465 -2466 -2459 10177 10189 10178 10180 0
-2457 -2465 -2469 -2460 10177 10190 10181 10179 0
-2457 -2467 -2469 -2458 10179 10190 10181 10177 0
-2458 -2465 -2467 -2460 10177 10190 10179 10181 0
-2457 -2466 -2470 -2460 10178 10191 10182 10179 0
-2457 -2467 -2470 -2459 10179 10191 10182 10178 0
-2459 -2466 -2467 -2460 10178 10191 10179 10182 0
-2458 -2468 -2470 -2460 10180 10192 10182 10181 0
-2458 -2469 -2470 -2459 10181 10192 10182 10180 0
-2459 -2468 -2469 -2460 10180 10192 10181 10182 0
-2461 -2465 -2468 -2463 10183 10189 10186 10184 0
-2461 -2466 -2468 -2462 10184 10189 10186 10183 0
-2462 -2465 -2466 -2463 10183 10189 10184 10186 0
-2461 -2465 -2469 -2464 10183 10190 10187 10185 0
-2461 -2467 -2469 -2462 10185 10190 10187 10183 0
-2462 -2465 -2467 -2464 10183 10190 10185 10187 0
-2461 -2466 -2470 -2464 10184 10191 10188 10185 0
-2461 -2467 -2470 -2463 10185 10191 10188 10184 0
-2463 -2466 -2467 -2464 10184 10191 10185 10188 0
-2462 -2468 -2470 -2464 10186 10192 10188 10187 0
-2462 -2469 -2470 -2463 10187 10192 10188 10186 0
-2463 -2468 -2469 -2464 10186 10192 10187 10188 0
-2465 -2468 -2470 -2467 10189 10192 10191 10190 0
-2465 -2469 -2470 -2466 10190 10192 10191 10189 0
-2466 -2468 -2469 -2467 10189 10192 10190 10191 0
14132 0
-14132 1 -2 0
-14133 14132 0
-14133 1 -2 0
-14133 -1 2 0
-14132 -1 -2 14133 0
-14132 1 2 14133 0
-14133 27 -28 0
-14134 14133 0
-14134 27 -28 0
-14134 -27 28 0
-14133 -27 -28 14134 0
-14133 27 28 14134 0
-14134 53 -54 0
-14135 14134 0
-14135 53 -54 0
-14135 -53 54 0
-14134 -53 -54 14135 0
-14134 53 54 14135 0
-14135 79 -80 0
-14136 14135 0
-14136 79 -80 0
-14136 -79 80 0
-14135 -79 -80 14136 0
-14135 79 80 14136 0
-14136 105 -106 0
-14137 14136 0
-14137 105 -106 0
-14137 -105 106 0
-14136 -105 -106 14137 0
-14136 105 106 14137 0
-14137 131 -132 0
-14138 14137 0
-14138 131 -132 0
-14138 -131 132 0
-14137 -131 -132 14138 0
-14137 131 132 14138 0
-14138 157 -158 0
-14139 14138 0
-14139 157 -158 0
-14139 -157 158 0
-14138 -157 -158 14139 0
-14138 157 158 14139 0
-14139 183 -184 0
-14140 14139 0
-14140 183 -184 0
-14140 -183 184 0
-14139 -183 -184 14140 0
-14139 183 184 14140 0
-14140 209 -210 0
-14141 14140 0
-14141 209 -210 0
-14141 -209 210 0
-14140 -209 -210 14141 0
-14140 209 210 14141 0
-14141 235 -236 0
-14142 14141 0
-14142 235 -236 0
-14142 -235 236 0
-14141 -235 -236 14142 0
-14141 235 236 14142 0
-14142 261 -262 0
-14143 14142 0
-14143 261 -262 0
-14143 -261 262 0
-14142 -261 -262 14143 0
-14142 261 262 14143 0
-14143 287 -288 0
-14144 14143 0
-14144 287 -288 0
-14144 -287 288 0
-14143 -287 -288 14144 0
-14143 287 288 14144 0
-14144 313 -314 0
-14145 14144 0
-14145 313 -314 0
-14145 -313 314 0
-14144 -313 -314 14145 0
-14144 313 314 14145 0
14146 0
-14146 2 -3 0
-14147 14146 0
-14147 2 -3 0
-14147 -2 3 0
-14146 -2 -3 14147 0
-14146 2 3 14147 0
-14147 28 -29 0
-14148 14147 0
-14148 28 -29 0
-14148 -28 29 0
-14147 -28 -29 14148 0
-14147 28 29 14148 0
-14148 54 -55 0
-14149 14148 0
-14149 54 -55 0
-14149 -54 55 0
-14148 -54 -55 14149 0
-14148 54 55 14149 0
-14149 80 -81 0
-14150 14149 0
-14150 80 -81 0
-14150 -80 81 0
-14149 -80 -81 14150 0
-14149 80 81 14150 0
-14150 106 -107 0
-14151 14150 0
-14151 106 -107 0
-14151 -106 107 0
-14150 -106 -107 14151 0
-14150 106 107 14151 0
-14151 132 -133 0
-14152 14151 0
-14152 132 -133 0
-14152 -132 133 0
-14151 -132 -133 14152 0
-14151 132 133 14152 0
-14152 158 -159 0
-14153 14152 0
-14153 158 -159 0
-14153 -158 159 0
-14152 -158 -159 14153 0
-14152 158 159 14153 0
-14153 184 -185 0
-14154 14153 0
-14154 184 -185 0
-14154 -184 185 0
-14153 -184 -185 14154 0
-14153 184 185 14154 0
-14154 210 -211 0
-14155 14154 0
-14155 210 -211 0
-14155 -210 211 0
-14154 -210 -211 14155 0
-14154 210 211 14155 0
-14155 236 -237 0
-14156 14155 0
-14156 236 -237 0
-14156 -236 237 0
-14155 -236 -237 14156 0
-14155 236 237 14156 0
-14156 262 -263 0
-14157 14156 0
-14157 262 -263 0
-14157 -262 263 0
-14156 -262 -263 14157 0
-14156 262 263 14157 0
-14157 288 -289 0
-14158 14157 0
-14158 288 -289 0
-14158 -288 289 0
-14157 -288 -289 14158 0
-14157 288 289 14158 0
-14158 314 -315 0
-14159 14158 0
-14159 314 -315 0
-14159 -314 315 0
-14158 -314 -315 14159 0
-14158 314 315 14159 0
14160 0
-14160 3 -4 0
-14161 14160 0
-14161 3 -4 0
-14161 -3 4 0
-14160 -3 -4 14161 0
-14160 3 4 14161 0
-14161 29 -30 0
-14162 14161 0
-14162 29 -30 0
-14162 -29 30 0
-14161 -29 -30 14162 0
-14161 29 30 14162 0
-14162 55 -56 0
-14163 14162 0
-14163 55 -56 0
-14163 -55 56 0
-14162 -55 -56 14163 0
-14162 55 56 14163 0
-14163 81 -82 0
-14164 14163 0
-14164 81 -82 0
-14164 -81 82 0
-14163 -81 -82 14164 0
-14163 81 82 14164 0
-14164 107 -108 0
-14165 14164 0
-14165 107 -108 0
-14165 -107 108 0
-14164 -107 -108 14165 0
-14164 107 108 14165 0
-14165 133 -134 0
-14166 14165 0
-14166 133 -134 0
-14166 -133 134 0
-14165 -133 -134 14166 0
-14165 133 134 14166 0
-14166 159 -160 0
-14167 14166 0
-14167 159 -160 0
-14167 -159 160 0
-14166 -159 -160 14167 0
-14166 159 160 14167 0
-14167 185 -186 0
-14168 14167 0
-14168 185 -186 0
-14168 -185 186 0
-14167 -185 -186 14168 0
-14167 185 186 14168 0
-14168 211 -212 0
-14169 14168 0
-14169 211 -212 0
-14169 -211 212 0
-14168 -211 -212 14169 0
-14168 211 212 14169 0
-14169 237 -238 0
-14170 14169 0
-14170 237 -238 0
-14170 -237 238 0
-14169 -237 -238 14170 0
-14169 237 238 14170 0
-14170 263 -264 0
-14171 14170 0
-14171 263 -264 0
-14171 -263 264 0
-14170 -263 -264 14171 0
-14170 263 264 14171 0
-14171 289 -290 0
-14172 14171 0
-14172 289 -290 0
-14172 -289 290 0
-14171 -289 -290 14172 0
-14171 289 290 14172 0
-14172 315 -316 0
-14173 14172 0
-14173 315 -316 0
-14173 -315 316 0
-14172 -315 -316 14173 0
-14172 315 316 14173 0
14174 0
-14174 4 -5 0
-14175 14174 0
-14175 4 -5 0
-14175 -4 5 0
-14174 -4 -5 14175 0
-14174 4 5 14175 0
-14175 30 -31 0
-14176 14175 0
-14176 30 -31 0
-14176 -30 31 0
-14175 -30 -31 14176 0
-14175 30 31 14176 0
-14176 56 -57 0
-14177 14176 0
-14177 56 -57 0
-14177 -56 57 0
-14176 -56 -57 14177 0
-14176 56 57 14177 0
-14177 82 -83 0
-14178 14177 0
-14178 82 -83 0
-14178 -82 83 0
-14177 -82 -83 14178 0
-14177 82 83 14178 0
-14178 108 -109 0
-14179 14178 0
-14179 108 -109 0
-14179 -108 109 0
-14178 -108 -109 14179 0
-14178 108 109 14179 0
-14179 134 -135 0
-14180 14179 0
-14180 134 -135 0
-14180 -134 135 0
-14179 -134 -135 14180 0
-14179 134 135 14180 0
-14180 160 -161 0
-14181 14180 0
-14181 160 -161 0
-14181 -160 161 0
-14180 -160 -161 14181 0
-14180 160 161 14181 0
-14181 186 -187 0
-14182 14181 0
-14182 186 -187 0
-14182 -186 187 0
-14181 -186 -187 14182 0
-14181 186 187 14182 0
-14182 212 -213 0
-14183 14182 0
-14183 212 -213 0
-14183 -212 213 0
-14182 -212 -213 14183 0
-14182 212 213 14183 0
-14183 238 -239 0
-14184 14183 0
-14184 238 -239 0
-14184 -238 239 0
-14183 -238 -239 14184 0
-14183 238 239 14184 0
-14184 264 -265 0
-14185 14184 0
-14185 264 -265 0
-14185 -264 265 0
-14184 -264 -265 14185 0
-14184 264 265 14185 0
-14185 290 -291 0
-14186 14185 0
-14186 290 -291 0
-14186 -290 291 0
-14185 -290 -291 14186 0
-14185 290 291 14186 0
-14186 316 -317 0
-14187 14186 0
-14187 316 -317 0
-14187 -316 317 0
-14186 -316 -317 14187 0
-14186 316 317 14187 0
14188 0
-14188 5 -6 0
-14189 14188 0
-14189 5 -6 0
-14189 -5 6 0
-14188 -5 -6 14189 0
-14188 5 6 14189 0
-14189 31 -32 0
-14190 14189 0
-14190 31 -32 0
-14190 -31 32 0
-14189 -31 -32 14190 0
-14189 31 32 14190 0
-14190 57 -58 0
-14191 14190 0
-14191 57 -58 0
-14191 -57 58 0
-14190 -57 -58 14191 0
-14190 57 58 14191 0
-14191 83 -84 0
-14192 14191 0
-14192 83 -84 0
-14192 -83 84 0
-14191 -83 -84 14192 0
-14191 83 84 14192 0
-14192 109 -110 0
-14193 14192 0
-14193 109 -110 0
-14193 -109 110 0
-14192 -109 -110 14193 0
-14192 109 110 14193 0
-14193 135 -136 0
-14194 14193 0
-14194 135 -136 0
-14194 -135 136 0
-14193 -135 -136 14194 0
-14193 135 136 14194 0
-14194 161 -162 0
-14195 14194 0
-14195 161 -162 0
-14195 -161 162 0
-14194 -161 -162 14195 0
-14194 161 162 14195 0
-14195 187 -188 0
-14196 14195 0
-14196 187 -188 0
-14196 -187 188 0
-14195 -187 -188 14196 0
-14195 187 188 14196 0
-14196 213 -214 0
-14197 14196 0
-14197 213 -214 0
-14197 -213 214 0
-14196 -213 -214 14197 0
-14196 213 214 14197 0
-14197 239 -240 0
-14198 14197 0
-14198 239 -240 0
-14198 -239 240 0
-14197 -239 -240 14198 0
-14197 239 240 14198 0
-14198 265 -266 0
-14199 14198 0
-14199 265 -266 0
-14199 -265 266 0
-14198 -265 -266 14199 0
-14198 265 266 14199 0
-14199 291 -292 0
-14200 14199 0
-14200 291 -292 0
-14200 -291 292 0
-14199 -291 -292 14200 0
-14199 291 292 14200 0
-14200 317 -318 0
-14201 14200 0
-14201 317 -318 0
-14201 -317 318 0
-14200 -317 -318 14201 0
-14200 317 318 14201 0
14202 0
-14202 6 -7 0
-14203 14202 0
-14203 6 -7 0
-14203 -6 7 0
-14202 -6 -7 14203 0
-14202 6 7 14203 0
-14203 32 -33 0
-14204 14203 0
-14204 32 -33 0
-14204 -32 33 0
-14203 -32 -33 14204 0
-14203 32 33 14204 0
-14204 58 -59 0
-14205 14204 0
-14205 58 -59 0
-14205 -58 59 0
-14204 -58 -59 14205 0
-14204 58 59 14205 0
-14205 84 -85 0
-14206 14205 0
-14206 84 -85 0
-14206 -84 85 0
-14205 -84 -85 14206 0
-14205 84 85 14206 0
-14206 110 -111 0
-14207 14206 0
-14207 110 -111 0
-14207 -110 111 0
-14206 -110 -111 14207 0
-14206 110 111 14207 0
-14207 136 -137 0
-14208 14207 0
-14208 136 -137 0
-14208 -136 137 0
-14207 -136 -137 14208 0
-14207 136 137 14208 0
-14208 162 -163 0
-14209 14208 0
-14209 162 -163 0
-14209 -162 163 0
-14208 -162 -163 14209 0
-14208 162 163 14209 0
-14209 188 -189 0
-14210 14209 0
-14210 188 -189 0
-14210 -188 189 0
-14209 -188 -189 14210 0
-14209 188 189 14210 0
-14210 214 -215 0
-14211 14210 0
-14211 214 -215 0
-14211 -214 215 0
-14210 -214 -215 14211 0
-14210 214 215 14211 0
-14211 240 -241 0
-14212 14211 0
-14212 240 -241 0
-14212 -240 241 0
-14211 -240 -241 14212 0
-14211 240 241 14212 0
-14212 266 -267 0
-14213 14212 0
-14213 266 -267 0
-14213 -266 267 0
-14212 -266 -267 14213 0
-14212 266 267 14213 0
-14213 292 -293 0
-14214 14213 0
-14214 292 -293 0
-14214 -292 293 0
-14213 -292 -293 14214 0
-14213 292 293 14214 0
-14214 318 -319 0
-14215 14214 0
-14215 318 -319 0
-14215 -318 319 0
-14214 -318 -319 14215 0
-14214 318 319 14215 0
14216 0
-14216 7 -8 0
-14217 14216 0
-14217 7 -8 0
-14217 -7 8 0
-14216 -7 -8 14217 0
-14216 7 8 14217 0
-14217 33 -34 0
-14218 14217 0
-14218 33 -34 0
-14218 -33 34 0
-14217 -33 -34 14218 0
-14217 33 34 14218 0
-14218 59 -60 0
-14219 14218 0
-14219 59 -60 0
-14219 -59 60 0
-14218 -59 -60 14219 0
-14218 59 60 14219 0
-14219 85 -86 0
-14220 14219 0
-14220 85 -86 0
-14220 -85 86 0
-14219 -85 -86 14220 0
-14219 85 86 14220 0
-14220 111 -112 0
-14221 14220 0
-14221 111 -112 0
-14221 -111 112 0
-14220 -111 -112 14221 0
-14220 111 112 14221 0
-14221 137 -138 0
-14222 14221 0
-14222 137 -138 0
-14222 -137 138 0
-14221 -137 -138 14222 0
-14221 137 138 14222 0
-14222 163 -164 0
-14223 14222 0
-14223 163 -164 0
-14223 -163 164 0
-14222 -163 -164 14223 0
-14222 163 164 14223 0
-14223 189 -190 0
-14224 14223 0
-14224 189 -190 0
-14224 -189 190 0
-14223 -189 -190 14224 0
-14223 189 190 14224 0
-14224 215 -216 0
-14225 14224 0
-14225 215 -216 0
-14225 -215 216 0
-14224 -215 -216 14225 0
-14224 215 216 14225 0
-14225 241 -242 0
-14226 14225 0
-14226 241 -242 0
-14226 -241 242 0
-14225 -241 -242 14226 0
-14225 241 242 14226 0
-14226 267 -268 0
-14227 14226 0
-14227 267 -268 0
-14227 -267 268 0
-14226 -267 -268 14227 0
-14226 267 268 14227 0
-14227 293 -294 0
-14228 14227 0
-14228 293 -294 0
-14228 -293 294 0
-14227 -293 -294 14228 0
-14227 293 294 14228 0
-14228 319 -320 0
-14229 14228 0
-14229 319 -320 0
-14229 -319 320 0
-14228 -319 -320 14229 0
-14228 319 320 14229 0
14230 0
-14230 8 -9 0
-14231 14230 0
-14231 8 -9 0
-14231 -8 9 0
-14230 -8 -9 14231 0
-14230 8 9 14231 0
-14231 34 -35 0
-14232 14231 0
-14232 34 -35 0
-14232 -34 35 0
-14231 -34 -35 14232 0
-14231 34 35 14232 0
-14232 60 -61 0
-14233 14232 0
-14233 60 -61 0
-14233 -60 61 0
-14232 -60 -61 14233 0
-14232 60 61 14233 0
-14233 86 -87 0
-14234 14233 0
-14234 86 -87 0
-14234 -86 87 0
-14233 -86 -87 14234 0
-14233 86 87 14234 0
-14234 112 -113 0
-14235 14234 0
-14235 112 -113 0
-14235 -112 113 0
-14234 -112 -113 14235 0
-14234 112 113 14235 0
-14235 138 -139 0
-14236 14235 0
-14236 138 -139 0
-14236 -138 139 0
-14235 -138 -139 14236 0
-14235 138 139 14236 0
-14236 164 -165 0
-14237 14236 0
-14237 164 -165 0
-14237 -164 165 0
-14236 -164 -165 14237 0
-14236 164 165 14237 0
-14237 190 -191 0
-14238 14237 0
-14238 190 -191 0
-14238 -190 191 0
-14237 -190 -191 14238 0
-14237 190 191 14238 0
-14238 216 -217 0
-14239 14238 0
-14239 216 -217 0
-14239 -216 217 0
-14238 -216 -217 14239 0
-14238 216 217 14239 0
-14239 242 -243 0
-14240 14239 0
-14240 242 -243 0
-14240 -242 243 0
-14239 -242 -243 14240 0
-14239 242 243 14240 0
-14240 268 -269 0
-14241 14240 0
-14241 268 -269 0
-14241 -268 269 0
-14240 -268 -269 14241 0
-14240 268 269 14241 0
-14241 294 -295 0
-14242 14241 0
-14242 294 -295 0
-14242 -294 295 0
-14241 -294 -295 14242 0
-14241 294 295 14242 0
-14242 320 -321 0
-14243 14242 0
-14243 320 -321 0
-14243 -320 321 0
-14242 -320 -321 14243 0
-14242 320 321 14243 0
14244 0
-14244 9 -10 0
-14245 14244 0
-14245 9 -10 0
-14245 -9 10 0
-14244 -9 -10 14245 0
-14244 9 10 14245 0
-14245 35 -36 0
-14246 14245 0
-14246 35 -36 0
-14246 -35 36 0
-14245 -35 -36 14246 0
-14245 35 36 14246 0
-14246 61 -62 0
-14247 14246 0
-14247 61 -62 0
-14247 -61 62 0
-14246 -61 -62 14247 0
-14246 61 62 14247 0
-14247 87 -88 0
-14248 14247 0
-14248 87 -88 0
-14248 -87 88 0
-14247 -87 -88 14248 0
-14247 87 88 14248 0
-14248 113 -114 0
-14249 14248 0
-14249 113 -114 0
-14249 -113 114 0
-14248 -113 -114 14249 0
-14248 113 114 14249 0
-14249 139 -140 0
-14250 14249 0
-14250 139 -140 0
-14250 -139 140 0
-14249 -139 -140 14250 0
-14249 139 140 14250 0
-14250 165 -166 0
-14251 14250 0
-14251 165 -166 0
-14251 -165 166 0
-14250 -165 -166 14251 0
-14250 165 166 14251 0
-14251 191 -192 0
-14252 14251 0
-14252 191 -192 0
-14252 -191 192 0
-14251 -191 -192 14252 0
-14251 191 192 14252 0
-14252 217 -218 0
-14253 14252 0
-14253 217 -218 0
-14253 -217 218 0
-14252 -217 -218 14253 0
-14252 217 218 14253 0
-14253 243 -244 0
-14254 14253 0
-14254 243 -244 0
-14254 -243 244 0
-14253 -243 -244 14254 0
-14253 243 244 14254 0
-14254 269 -270 0
-14255 14254 0
-14255 269 -270 0
-14255 -269 270 0
-14254 -269 -270 14255 0
-14254 269 270 14255 0
-14255 295 -296 0
-14256 14255 0
-14256 295 -296 0
-14256 -295 296 0
-14255 -295 -296 14256 0
-14255 295 296 14256 0
-14256 321 -322 0
-14257 14256 0
-14257 321 -322 0
-14257 -321 322 0
-14256 -321 -322 14257 0
-14256 321 322 14257 0
14258 0
-14258 10 -11 0
-14259 14258 0
-14259 10 -11 0
-14259 -10 11 0
-14258 -10 -11 14259 0
-14258 10 11 14259 0
-14259 36 -37 0
-14260 14259 0
-14260 36 -37 0
-14260 -36 37 0
-14259 -36 -37 14260 0
-14259 36 37 14260 0
-14260 62 -63 0
-14261 14260 0
-14261 62 -63 0
-14261 -62 63 0
-14260 -62 -63 14261 0
-14260 62 63 14261 0
-14261 88 -89 0
-14262 14261 0
-14262 88 -89 0
-14262 -88 89 0
-14261 -88 -89 14262 0
-14261 88 89 14262 0
-14262 114 -115 0
-14263 14262 0
-14263 114 -115 0
-14263 -114 115 0
-14262 -114 -115 14263 0
-14262 114 115 14263 0
-14263 140 -141 0
-14264 14263 0
-14264 140 -141 0
-14264 -140 141 0
-14263 -140 -141 14264 0
-14263 140 141 14264 0
-14264 166 -167 0
-14265 14264 0
-14265 166 -167 0
-14265 -166 167 0
-14264 -166 -167 14265 0
-14264 166 167 14265 0
-14265 192 -193 0
-14266 14265 0
-14266 192 -193 0
-14266 -192 193 0
-14265 -192 -193 14266 0
-14265 192 193 14266 0
-14266 218 -219 0
-14267 14266 0
-14267 218 -219 0
-14267 -218 219 0
-14266 -218 -219 14267 0
-14266 218 219 14267 0
-14267 244 -245 0
-14268 14267 0
-14268 244 -245 0
-14268 -244 245 0
-14267 -244 -245 14268 0
-14267 244 245 14268 0
-14268 270 -271 0
-14269 14268 0
-14269 270 -271 0
-14269 -270 271 0
-14268 -270 -271 14269 0
-14268 270 271 14269 0
-14269 296 -297 0
-14270 14269 0
-14270 296 -297 0
-14270 -296 297 0
-14269 -296 -297 14270 0
-14269 296 297 14270 0
-14270 322 -323 0
-14271 14270 0
-14271 322 -323 0
-14271 -322 323 0
-14270 -322 -323 14271 0
-14270 322 323 14271 0
14272 0
-14272 11 -12 0
-14273 14272 0
-14273 11 -12 0
-14273 -11 12 0
-14272 -11 -12 14273 0
-14272 11 12 14273 0
-14273 37 -38 0
-14274 14273 0
-14274 37 -38 0
-14274 -37 38 0
-14273 -37 -38 14274 0
-14273 37 38 14274 0
-14274 63 -64 0
-14275 14274 0
-14275 63 -64 0
-14275 -63 64 0
-14274 -63 -64 14275 0
-14274 63 64 14275 0
-14275 89 -90 0
-14276 14275 0
-14276 89 -90 0
-14276 -89 90 0
-14275 -89 -90 14276 0
-14275 89 90 14276 0
-14276 115 -116 0
-14277 14276 0
-14277 115 -116 0
-14277 -115 116 0
-14276 -115 -116 14277 0
-14276 115 116 14277 0
-14277 141 -142 0
-14278 14277 0
-14278 141 -142 0
-14278 -141 142 0
-14277 -141 -142 14278 0
-14277 141 142 14278 0
-14278 167 -168 0
-14279 14278 0
-14279 167 -168 0
-14279 -167 168 0
-14278 -167 -168 14279 0
-14278 167 168 14279 0
-14279 193 -194 0
-14280 14279 0
-14280 193 -194 0
-14280 -193 194 0
-14279 -193 -194 14280 0
-14279 193 194 14280 0
-14280 219 -220 0
-14281 14280 0
-14281 219 -220 0
-14281 -219 220 0
-14280 -219 -220 14281 0
-14280 219 220 14281 0
-14281 245 -246 0
-14282 14281 0
-14282 245 -246 0
-14282 -245 246 0
-14281 -245 -246 14282 0
-14281 245 246 14282 0
-14282 271 -272 0
-14283 14282 0
-14283 271 -272 0
-14283 -271 272 0
-14282 -271 -272 14283 0
-14282 271 272 14283 0
-14283 297 -298 0
-14284 14283 0
-14284 297 -298 0
-14284 -297 298 0
-14283 -297 -298 14284 0
-14283 297 298 14284 0
-14284 323 -324 0
-14285 14284 0
-14285 323 -324 0
-14285 -323 324 0
-14284 -323 -324 14285 0
-14284 323 324 14285 0
14286 0
-14286 12 -13 0
-14287 14286 0
-14287 12 -13 0
-14287 -12 13 0
-14286 -12 -13 14287 0
-14286 12 13 14287 0
-14287 38 -39 0
-14288 14287 0
-14288 38 -39 0
-14288 -38 39 0
-14287 -38 -39 14288 0
-14287 38 39 14288 0
-14288 64 -65 0
-14289 14288 0
-14289 64 -65 0
-14289 -64 65 0
-14288 -64 -65 14289 0
-14288 64 65 14289 0
-14289 90 -91 0
-14290 14289 0
-14290 90 -91 0
-14290 -90 91 0
-14289 -90 -91 14290 0
-14289 90 91 14290 0
-14290 116 -117 0
-14291 14290 0
-14291 116 -117 0
-14291 -116 117 0
-14290 -116 -117 14291 0
-14290 116 117 14291 0
-14291 142 -143 0
-14292 14291 0
-14292 142 -143 0
-14292 -142 143 0
-14291 -142 -143 14292 0
-14291 142 143 14292 0
-14292 168 -169 0
-14293 14292 0
-14293 168 -169 0
-14293 -168 169 0
-14292 -168 -169 14293 0
-14292 168 169 14293 0
-14293 194 -195 0
-14294 14293 0
-14294 194 -195 0
-14294 -194 195 0
-14293 -194 -195 14294 0
-14293 194 195 14294 0
-14294 220 -221 0
-14295 14294 0
-14295 220 -221 0
-14295 -220 221 0
-14294 -220 -221 14295 0
-14294 220 221 14295 0
-14295 246 -247 0
-14296 14295 0
-14296 246 -247 0
-14296 -246 247 0
-14295 -246 -247 14296 0
-14295 246 247 14296 0
-14296 272 -273 0
-14297 14296 0
-14297 272 -273 0
-14297 -272 273 0
-14296 -272 -273 14297 0
-14296 272 273 14297 0
-14297 298 -299 0
-14298 14297 0
-14298 298 -299 0
-14298 -298 299 0
-14297 -298 -299 14298 0
-14297 298 299 14298 0
-14298 324 -325 0
-14299 14298 0
-14299 324 -325 0
-14299 -324 325 0
-14298 -324 -325 14299 0
-14298 324 325 14299 0
14300 0
-14300 13 -14 0
-14301 14300 0
-14301 13 -14 0
-14301 -13 14 0
-14300 -13 -14 14301 0
-14300 13 14 14301 0
-14301 39 -40 0
-14302 14301 0
-14302 39 -40 0
-14302 -39 40 0
-14301 -39 -40 14302 0
-14301 39 40 14302 0
-14302 65 -66 0
-14303 14302 0
-14303 65 -66 0
-14303 -65 66 0
-14302 -65 -66 14303 0
-14302 65 66 14303 0
-14303 91 -92 0
-14304 14303 0
-14304 91 -92 0
-14304 -91 92 0
-14303 -91 -92 14304 0
-14303 91 92 14304 0
-14304 117 -118 0
-14305 14304 0
-14305 117 -118 0
-14305 -117 118 0
-14304 -117 -118 14305 0
-14304 117 118 14305 0
-14305 143 -144 0
-14306 14305 0
-14306 143 -144 0
-14306 -143 144 0
-14305 -143 -144 14306 0
-14305 143 144 14306 0
-14306 169 -170 0
-14307 14306 0
-14307 169 -170 0
-14307 -169 170 0
-14306 -169 -170 14307 0
-14306 169 170 14307 0
-14307 195 -196 0
-14308 14307 0
-14308 195 -196 0
-14308 -195 196 0
-14307 -195 -196 14308 0
-14307 195 196 14308 0
-14308 221 -222 0
-14309 14308 0
-14309 221 -222 0
-14309 -221 222 0
-14308 -221 -222 14309 0
-14308 221 222 14309 0
-14309 247 -248 0
-14310 14309 0
-14310 247 -248 0
-14310 -247 248 0
-14309 -247 -248 14310 0
-14309 247 248 14310 0
-14310 273 -274 0
-14311 14310 0
-14311 273 -274 0
-14311 -273 274 0
-14310 -273 -274 14311 0
-14310 273 274 14311 0
-14311 299 -300 0
-14312 14311 0
-14312 299 -300 0
-14312 -299 300 0
-14311 -299 -300 14312 0
-14311 299 300 14312 0
-14312 325 -326 0
-14313 14312 0
-14313 325 -326 0
-14313 -325 326 0
-14312 -325 -326 14313 0
-14312 325 326 14313 0
14314 0
-14314 14 -15 0
-14315 14314 0
-14315 14 -15 0
-14315 -14 15 0
-14314 -14 -15 14315 0
-14314 14 15 14315 0
-14315 40 -41 0
-14316 14315 0
-14316 40 -41 0
-14316 -40 41 0
-14315 -40 -41 14316 0
-14315 40 41 14316 0
-14316 66 -67 0
-14317 14316 0
-14317 66 -67 0
-14317 -66 67 0
-14316 -66 -67 14317 0
-14316 66 67 14317 0
-14317 92 -93 0
-14318 14317 0
-14318 92 -93 0
-14318 -92 93 0
-14317 -92 -93 14318 0
-14317 92 93 14318 0
-14318 118 -119 0
-14319 14318 0
-14319 118 -119 0
-14319 -118 119 0
-14318 -118 -119 14319 0
-14318 118 119 14319 0
-14319 144 -145 0
-14320 14319 0
-14320 144 -145 0
-14320 -144 145 0
-14319 -144 -145 14320 0
-14319 144 145 14320 0
-14320 170 -171 0
-14321 14320 0
-14321 170 -171 0
-14321 -170 171 0
-14320 -170 -171 14321 0
-14320 170 171 14321 0
-14321 196 -197 0
-14322 14321 0
-14322 196 -197 0
-14322 -196 197 0
-14321 -196 -197 14322 0
-14321 196 197 14322 0
-14322 222 -223 0
-14323 14322 0
-14323 222 -223 0
-14323 -222 223 0
-14322 -222 -223 14323 0
-14322 222 223 14323 0
-14323 248 -249 0
-14324 14323 0
-14324 248 -249 0
-14324 -248 249 0
-14323 -248 -249 14324 0
-14323 248 249 14324 0
-14324 274 -275 0
-14325 14324 0
-14325 274 -275 0
-14325 -274 275 0
-14324 -274 -275 14325 0
-14324 274 275 14325 0
-14325 300 -301 0
-14326 14325 0
-14326 300 -301 0
-14326 -300 301 0
-14325 -300 -301 14326 0
-14325 300 301 14326 0
-14326 326 -327 0
-14327 14326 0
-14327 326 -327 0
-14327 -326 327 0
-14326 -326 -327 14327 0
-14326 326 327 14327 0
14328 0
-14328 15 -16 0
-14329 14328 0
-14329 15 -16 0
-14329 -15 16 0
-14328 -15 -16 14329 0
-14328 15 16 14329 0
-14329 41 -42 0
-14330 14329 0
-14330 41 -42 0
-14330 -41 42 0
-14329 -41 -42 14330 0
-14329 41 42 14330 0
-14330 67 -68 0
-14331 14330 0
-14331 67 -68 0
-14331 -67 68 0
-14330 -67 -68 14331 0
-14330 67 68 14331 0
-14331 93 -94 0
-14332 14331 0
-14332 93 -94 0
-14332 -93 94 0
-14331 -93 -94 14332 0
-14331 93 94 14332 0
-14332 119 -120 0
-14333 14332 0
-14333 119 -120 0
-14333 -119 120 0
-14332 -119 -120 14333 0
-14332 119 120 14333 0
-14333 145 -146 0
-14334 14333 0
-14334 145 -146 0
-14334 -145 146 0
-14333 -145 -146 14334 0
-14333 145 146 14334 0
-14334 171 -172 0
-14335 14334 0
-14335 171 -172 0
-14335 -171 172 0
-14334 -171 -172 14335 0
-14334 171 172 14335 0
-14335 197 -198 0
-14336 14335 0
-14336 197 -198 0
-14336 -197 198 0
-14335 -197 -198 14336 0
-14335 197 198 14336 0
-14336 223 -224 0
-14337 14336 0
-14337 223 -224 0
-14337 -223 224 0
-14336 -223 -224 14337 0
-14336 223 224 14337 0
-14337 249 -250 0
-14338 14337 0
-14338 249 -250 0
-14338 -249 250 0
-14337 -249 -250 14338 0
-14337 249 250 14338 0
-14338 275 -276 0
-14339 14338 0
-14339 275 -276 0
-14339 -275 276 0
-14338 -275 -276 14339 0
-14338 275 276 14339 0
-14339 301 -302 0
-14340 14339 0
-14340 301 -302 0
-14340 -301 302 0
-14339 -301 -302 14340 0
-14339 301 302 14340 0
-14340 327 -328 0
-14341 14340 0
-14341 327 -328 0
-14341 -327 328 0
-14340 -327 -328 14341 0
-14340 327 328 14341 0
14342 0
-14342 16 -17 0
-14343 14342 0
-14343 16 -17 0
-14343 -16 17 0
-14342 -16 -17 14343 0
-14342 16 17 14343 0
-14343 42 -43 0
-14344 14343 0
-14344 42 -43 0
-14344 -42 43 0
-14343 -42 -43 14344 0
-14343 42 43 14344 0
-14344 68 -69 0
-14345 14344 0
-14345 68 -69 0
-14345 -68 69 0
-14344 -68 -69 14345 0
-14344 68 69 14345 0
-14345 94 -95 0
-14346 14345 0
-14346 94 -95 0
-14346 -94 95 0
-14345 -94 -95 14346 0
-14345 94 95 14346 0
-14346 120 -121 0
-14347 14346 0
-14347 120 -121 0
-14347 -120 121 0
-14346 -120 -121 14347 0
-14346 120 121 14347 0
-14347 146 -147 0
-14348 14347 0
-14348 146 -147 0
-14348 -146 147 0
-14347 -146 -147 14348 0
-14347 146 147 14348 0
-14348 172 -173 0
-14349 14348 0
-14349 172 -173 0
-14349 -172 173 0
-14348 -172 -173 14349 0
-14348 172 173 14349 0
-14349 198 -199 0
-14350 14349 0
-14350 198 -199 0
-14350 -198 199 0
-14349 -198 -199 14350 0
-14349 198 199 14350 0
-14350 224 -225 0
-14351 14350 0
-14351 224 -225 0
-14351 -224 225 0
-14350 -224 -225 14351 0
-14350 224 225 14351 0
-14351 250 -251 0
-14352 14351 0
-14352 250 -251 0
-14352 -250 251 0
-14351 -250 -251 14352 0
-14351 250 251 14352 0
-14352 276 -277 0
-14353 14352 0
-14353 276 -277 0
-14353 -276 277 0
-14352 -276 -277 14353 0
-14352 276 277 14353 0
-14353 302 -303 0
-14354 14353 0
-14354 302 -303 0
-14354 -302 303 0
-14353 -302 -303 14354 0
-14353 302 303 14354 0
-14354 328 -329 0
-14355 14354 0
-14355 328 -329 0
-14355 -328 329 0
-14354 -328 -329 14355 0
-14354 328 329 14355 0
14356 0
-14356 17 -18 0
-14357 14356 0
-14357 17 -18 0
-14357 -17 18 0
-14356 -17 -18 14357 0
-14356 17 18 14357 0
-14357 43 -44 0
-14358 14357 0
-14358 43 -44 0
-14358 -43 44 0
-14357 -43 -44 14358 0
-14357 43 44 14358 0
-14358 69 -70 0
-14359 14358 0
-14359 69 -70 0
-14359 -69 70 0
-14358 -69 -70 14359 0
-14358 69 70 14359 0
-14359 95 -96 0
-14360 14359 0
-14360 95 -96 0
-14360 -95 96 0
-14359 -95 -96 14360 0
-14359 95 96 14360 0
-14360 121 -122 0
-14361 14360 0
-14361 121 -122 0
-14361 -121 122 0
-14360 -121 -122 14361 0
-14360 121 122 14361 0
-14361 147 -148 0
-14362 14361 0
-14362 147 -148 0
-14362 -147 148 0
-14361 -147 -148 14362 0
-14361 147 148 14362 0
-14362 173 -174 0
-14363 14362 0
-14363 173 -174 0
-14363 -173 174 0
-14362 -173 -174 14363 0
-14362 173 174 14363 0
-14363 199 -200 0
-14364 14363 0
-14364 199 -200 0
-14364 -199 200 0
-14363 -199 -200 14364 0
-14363 199 200 14364 0
-14364 225 -226 0
-14365 14364 0
-14365 225 -226 0
-14365 -225 226 0
-14364 -225 -226 14365 0
-14364 225 226 14365 0
-14365 251 -252 0
-14366 14365 0
-14366 251 -252 0
-14366 -251 252 0
-14365 -251 -252 14366 0
-14365 251 252 14366 0
-14366 277 -278 0
-14367 14366 0
-14367 277 -278 0
-14367 -277 278 0
-14366 -277 -278 14367 0
-14366 277 278 14367 0
-14367 303 -304 0
-14368 14367 0
-14368 303 -304 0
-14368 -303 304 0
-14367 -303 -304 14368 0
-14367 303 304 14368 0
-14368 329 -330 0
-14369 14368 0
-14369 329 -330 0
-14369 -329 330 0
-14368 -329 -330 14369 0
-14368 329 330 14369 0
14370 0
-14370 18 -19 0
-14371 14370 0
-14371 18 -19 0
-14371 -18 19 0
-14370 -18 -19 14371 0
-14370 18 19 14371 0
-14371 44 -45 0
-14372 14371 0
-14372 44 -45 0
-14372 -44 45 0
-14371 -44 -45 14372 0
-14371 44 45 14372 0
-14372 70 -71 0
-14373 14372 0
-14373 70 -71 0
-14373 -70 71 0
-14372 -70 -71 14373 0
-14372 70 71 14373 0
-14373 96 -97 0
-14374 14373 0
-14374 96 -97 0
-14374 -96 97 0
-14373 -96 -97 14374 0
-14373 96 97 14374 0
-14374 122 -123 0
-14375 14374 0
-14375 122 -123 0
-14375 -122 123 0
-14374 -122 -123 14375 0
-14374 122 123 14375 0
-14375 148 -149 0
-14376 14375 0
-14376 148 -149 0
-14376 -148 149 0
-14375 -148 -149 14376 0
-14375 148 149 14376 0
-14376 174 -175 0
-14377 14376 0
-14377 174 -175 0
-14377 -174 175 0
-14376 -174 -175 14377 0
-14376 174 175 14377 0
-14377 200 -201 0
-14378 14377 0
-14378 200 -201 0
-14378 -200 201 0
-14377 -200 -201 14378 0
-14377 200 201 14378 0
-14378 226 -227 0
-14379 14378 0
-14379 226 -227 0
-14379 -226 227 0
-14378 -226 -227 14379 0
-14378 226 227 14379 0
-14379 252 -253 0
-14380 14379 0
-14380 252 -253 0
-14380 -252 253 0
-14379 -252 -253 14380 0
-14379 252 253 14380 0
-14380 278 -279 0
-14381 14380 0
-14381 278 -279 0
-14381 -278 279 0
-14380 -278 -279 14381 0
-14380 278 279 14381 0
-14381 304 -305 0
-14382 14381 0
-14382 304 -305 0
-14382 -304 305 0
-14381 -304 -305 14382 0
-14381 304 305 14382 0
-14382 330 -331 0
-14383 14382 0
-14383 330 -331 0
-14383 -330 331 0
-14382 -330 -331 14383 0
-14382 330 331 14383 0
14384 0
-14384 19 -20 0
-14385 14384 0
-14385 19 -20 0
-14385 -19 20 0
-14384 -19 -20 14385 0
-14384 19 20 14385 0
-14385 45 -46 0
-14386 14385 0
-14386 45 -46 0
-14386 -45 46 0
-14385 -45 -46 14386 0
-14385 45 46 14386 0
-14386 71 -72 0
-14387 14386 0
-14387 71 -72 0
-14387 -71 72 0
-14386 -71 -72 14387 0
-14386 71 72 14387 0
-14387 97 -98 0
-14388 14387 0
-14388 97 -98 0
-14388 -97 98 0
-14387 -97 -98 14388 0
-14387 97 98 14388 0
-14388 123 -124 0
-14389 14388 0
-14389 123 -124 0
-14389 -123 124 0
-14388 -123 -124 14389 0
-14388 123 124 14389 0
-14389 149 -150 0
-14390 14389 0
-14390 149 -150 0
-14390 -149 150 0
-14389 -149 -150 14390 0
-14389 149 150 14390 0
-14390 175 -176 0
-14391 14390 0
-14391 175 -176 0
-14391 -175 176 0
-14390 -175 -176 14391 0
-14390 175 176 14391 0
-14391 201 -202 0
-14392 14391 0
-14392 201 -202 0
-14392 -201 202 0
-14391 -201 -202 14392 0
-14391 201 202 14392 0
-14392 227 -228 0
-14393 14392 0
-14393 227 -228 0
-14393 -227 228 0
-14392 -227 -228 14393 0
-14392 227 228 14393 0
-14393 253 -254 0
-14394 14393 0
-14394 253 -254 0
-14394 -253 254 0
-14393 -253 -254 14394 0
-14393 253 254 14394 0
-14394 279 -280 0
-14395 14394 0
-14395 279 -280 0
-14395 -279 280 0
-14394 -279 -280 14395 0
-14394 279 280 14395 0
-14395 305 -306 0
-14396 14395 0
-14396 305 -306 0
-14396 -305 306 0
-14395 -305 -306 14396 0
-14395 305 306 14396 0
-14396 331 -332 0
-14397 14396 0
-14397 331 -332 0
-14397 -331 332 0
-14396 -331 -332 14397 0
-14396 331 332 14397 0
14398 0
-14398 20 -21 0
-14399 14398 0
-14399 20 -21 0
-14399 -20 21 0
-14398 -20 -21 14399 0
-14398 20 21 14399 0
-14399 46 -47 0
-14400 14399 0
-14400 46 -47 0
-14400 -46 47 0
-14399 -46 -47 14400 0
-14399 46 47 14400 0
-14400 72 -73 0
-14401 14400 0
-14401 72 -73 0
-14401 -72 73 0
-14400 -72 -73 14401 0
-14400 72 73 14401 0
-14401 98 -99 0
-14402 14401 0
-14402 98 -99 0
-14402 -98 99 0
-14401 -98 -99 14402 0
-14401 98 99 14402 0
-14402 124 -125 0
-14403 14402 0
-14403 124 -125 0
-14403 -124 125 0
-14402 -124 -125 14403 0
-14402 124 125 14403 0
-14403 150 -151 0
-14404 14403 0
-14404 150 -151 0
-14404 -150 151 0
-14403 -150 -151 14404 0
-14403 150 151 14404 0
-14404 176 -177 0
-14405 14404 0
-14405 176 -177 0
-14405 -176 177 0
-14404 -176 -177 14405 0
-14404 176 177 14405 0
-14405 202 -203 0
-14406 14405 0
-14406 202 -203 0
-14406 -202 203 0
-14405 -202 -203 14406 0
-14405 202 203 14406 0
-14406 228 -229 0
-14407 14406 0
-14407 228 -229 0
-14407 -228 229 0
-14406 -228 -229 14407 0
-14406 228 229 14407 0
-14407 254 -255 0
-14408 14407 0
-14408 254 -255 0
-14408 -254 255 0
-14407 -254 -255 14408 0
-14407 254 255 14408 0
-14408 280 -281 0
-14409 14408 0
-14409 280 -281 0
-14409 -280 281 0
-14408 -280 -281 14409 0
-14408 280 281 14409 0
-14409 306 -307 0
-14410 14409 0
-14410 306 -307 0
-14410 -306 307 0
-14409 -306 -307 14410 0
-14409 306 307 14410 0
-14410 332 -333 0
-14411 14410 0
-14411 332 -333 0
-14411 -332 333 0
-14410 -332 -333 14411 0
-14410 332 333 14411 0
14412 0
-14412 21 -22 0
-14413 14412 0
-14413 21 -22 0
-14413 -21 22 0
-14412 -21 -22 14413 0
-14412 21 22 14413 0
-14413 47 -48 0
-14414 14413 0
-14414 47 -48 0
-14414 -47 48 0
-14413 -47 -48 14414 0
-14413 47 48 14414 0
-14414 73 -74 0
-14415 14414 0
-14415 73 -74 0
-14415 -73 74 0
-14414 -73 -74 14415 0
-14414 73 74 14415 0
-14415 99 -100 0
-14416 14415 0
-14416 99 -100 0
-14416 -99 100 0
-14415 -99 -100 14416 0
-14415 99 100 14416 0
-14416 125 -126 0
-14417 14416 0
-14417 125 -126 0
-14417 -125 126 0
-14416 -125 -126 14417 0
-14416 125 126 14417 0
-14417 151 -152 0
-14418 14417 0
-14418 151 -152 0
-14418 -151 152 0
-14417 -151 -152 14418 0
-14417 151 152 14418 0
-14418 177 -178 0
-14419 14418 0
-14419 177 -178 0
-14419 -177 178 0
-14418 -177 -178 14419 0
-14418 177 178 14419 0
-14419 203 -204 0
-14420 14419 0
-14420 203 -204 0
-14420 -203 204 0
-14419 -203 -204 14420 0
-14419 203 204 14420 0
-14420 229 -230 0
-14421 14420 0
-14421 229 -230 0
-14421 -229 230 0
-14420 -229 -230 14421 0
-14420 229 230 14421 0
-14421 255 -256 0
-14422 14421 0
-14422 255 -256 0
-14422 -255 256 0
-14421 -255 -256 14422 0
-14421 255 256 14422 0
-14422 281 -282 0
-14423 14422 0
-14423 281 -282 0
-14423 -281 282 0
-14422 -281 -282 14423 0
-14422 281 282 14423 0
-14423 307 -308 0
-14424 14423 0
-14424 307 -308 0
-14424 -307 308 0
-14423 -307 -308 14424 0
-14423 307 308 14424 0
-14424 333 -334 0
-14425 14424 0
-14425 333 -334 0
-14425 -333 334 0
-14424 -333 -334 14425 0
-14424 333 334 14425 0
14426 0
-14426 22 -23 0
-14427 14426 0
-14427 22 -23 0
-14427 -22 23 0
-14426 -22 -23 14427 0
-14426 22 23 14427 0
-14427 48 -49 0
-14428 14427 0
-14428 48 -49 0
-14428 -48 49 0
-14427 -48 -49 14428 0
-14427 48 49 14428 0
-14428 74 -75 0
-14429 14428 0
-14429 74 -75 0
-14429 -74 75 0
-14428 -74 -75 14429 0
-14428 74 75 14429 0
-14429 100 -101 0
-14430 14429 0
-14430 100 -101 0
-14430 -100 101 0
-14429 -100 -101 14430 0
-14429 100 101 14430 0
-14430 126 -127 0
-14431 14430 0
-14431 126 -127 0
-14431 -126 127 0
-14430 -126 -127 14431 0
-14430 126 127 14431 0
-14431 152 -153 0
-14432 14431 0
-14432 152 -153 0
-14432 -152 153 0
-14431 -152 -153 14432 0
-14431 152 153 14432 0
-14432 178 -179 0
-14433 14432 0
-14433 178 -179 0
-14433 -178 179 0
-14432 -178 -179 14433 0
-14432 178 179 14433 0
-14433 204 -205 0
-14434 14433 0
-14434 204 -205 0
-14434 -204 205 0
-14433 -204 -205 14434 0
-14433 204 205 14434 0
-14434 230 -231 0
-14435 14434 0
-14435 230 -231 0
-14435 -230 231 0
-14434 -230 -231 14435 0
-14434 230 231 14435 0
-14435 256 -257 0
-14436 14435 0
-14436 256 -257 0
-14436 -256 257 0
-14435 -256 -257 14436 0
-14435 256 257 14436 0
-14436 282 -283 0
-14437 14436 0
-14437 282 -283 0
-14437 -282 283 0
-14436 -282 -283 14437 0
-14436 282 283 14437 0
-14437 308 -309 0
-14438 14437 0
-14438 308 -309 0
-14438 -308 309 0
-14437 -308 -309 14438 0
-14437 308 309 14438 0
-14438 334 -335 0
-14439 14438 0
-14439 334 -335 0
-14439 -334 335 0
-14438 -334 -335 14439 0
-14438 334 335 14439 0
14440 0
-14440 23 -24 0
-14441 14440 0
-14441 23 -24 0
-14441 -23 24 0
-14440 -23 -24 14441 0
-14440 23 24 14441 0
-14441 49 -50 0
-14442 14441 0
-14442 49 -50 0
-14442 -49 50 0
-14441 -49 -50 14442 0
-14441 49 50 14442 0
-14442 75 -76 0
-14443 14442 0
-14443 75 -76 0
-14443 -75 76 0
-14442 -75 -76 14443 0
-14442 75 76 14443 0
-14443 101 -102 0
-14444 14443 0
-14444 101 -102 0
-14444 -101 102 0
-14443 -101 -102 14444 0
-14443 101 102 14444 0
-14444 127 -128 0
-14445 14444 0
-14445 127 -128 0
-14445 -127 128 0
-14444 -127 -128 14445 0
-14444 127 128 14445 0
-14445 153 -154 0
-14446 14445 0
-14446 153 -154 0
-14446 -153 154 0
-14445 -153 -154 14446 0
-14445 153 154 14446 0
-14446 179 -180 0
-14447 14446 0
-14447 179 -180 0
-14447 -179 180 0
-14446 -179 -180 14447 0
-14446 179 180 14447 0
-14447 205 -206 0
-14448 14447 0
-14448 205 -206 0
-14448 -205 206 0
-14447 -205 -206 14448 0
-14447 205 206 14448 0
-14448 231 -232 0
-14449 14448 0
-14449 231 -232 0
-14449 -231 232 0
-14448 -231 -232 14449 0
-14448 231 232 14449 0
-14449 257 -258 0
-14450 14449 0
-14450 257 -258 0
-14450 -257 258 0
-14449 -257 -258 14450 0
-14449 257 258 14450 0
-14450 283 -284 0
-14451 14450 0
-14451 283 -284 0
-14451 -283 284 0
-14450 -283 -284 14451 0
-14450 283 284 14451 0
-14451 309 -310 0
-14452 14451 0
-14452 309 -310 0
-14452 -309 310 0
-14451 -309 -310 14452 0
-14451 309 310 14452 0
-14452 335 -336 0
-14453 14452 0
-14453 335 -336 0
-14453 -335 336 0
-14452 -335 -336 14453 0
-14452 335 336 14453 0
14454 0
-14454 24 -25 0
-14455 14454 0
-14455 24 -25 0
-14455 -24 25 0
-14454 -24 -25 14455 0
-14454 24 25 14455 0
-14455 50 -51 0
-14456 14455 0
-14456 50 -51 0
-14456 -50 51 0
-14455 -50 -51 14456 0
-14455 50 51 14456 0
-14456 76 -77 0
-14457 14456 0
-14457 76 -77 0
-14457 -76 77 0
-14456 -76 -77 14457 0
-14456 76 77 14457 0
-14457 102 -103 0
-14458 14457 0
-14458 102 -103 0
-14458 -102 103 0
-14457 -102 -103 14458 0
-14457 102 103 14458 0
-14458 128 -129 0
-14459 14458 0
-14459 128 -129 0
-14459 -128 129 0
-14458 -128 -129 14459 0
-14458 128 129 14459 0
-14459 154 -155 0
-14460 14459 0
-14460 154 -155 0
-14460 -154 155 0
-14459 -154 -155 14460 0
-14459 154 155 14460 0
-14460 180 -181 0
-14461 14460 0
-14461 180 -181 0
-14461 -180 181 0
-14460 -180 -181 14461 0
-14460 180 181 14461 0
-14461 206 -207 0
-14462 14461 0
-14462 206 -207 0
-14462 -206 207 0
-14461 -206 -207 14462 0
-14461 206 207 14462 0
-14462 232 -233 0
-14463 14462 0
-14463 232 -233 0
-14463 -232 233 0
-14462 -232 -233 14463 0
-14462 232 233 14463 0
-14463 258 -259 0
-14464 14463 0
-14464 258 -259 0
-14464 -258 259 0
-14463 -258 -259 14464 0
-14463 258 259 14464 0
-14464 284 -285 0
-14465 14464 0
-14465 284 -285 0
-14465 -284 285 0
-14464 -284 -285 14465 0
-14464 284 285 14465 0
-14465 310 -311 0
-14466 14465 0
-14466 310 -311 0
-14466 -310 311 0
-14465 -310 -311 14466 0
-14465 310 311 14466 0
-14466 336 -337 0
-14467 14466 0
-14467 336 -337 0
-14467 -336 337 0
-14466 -336 -337 14467 0
-14466 336 337 14467 0
14468 0
-14468 25 -26 0
-14469 14468 0
-14469 25 -26 0
-14469 -25 26 0
-14468 -25 -26 14469 0
-14468 25 26 14469 0
-14469 51 -52 0
-14470 14469 0
-14470 51 -52 0
-14470 -51 52 0
-14469 -51 -52 14470 0
-14469 51 52 14470 0
-14470 77 -78 0
-14471 14470 0
-14471 77 -78 0
-14471 -77 78 0
-14470 -77 -78 14471 0
-14470 77 78 14471 0
-14471 103 -104 0
-14472 14471 0
-14472 103 -104 0
-14472 -103 104 0
-14471 -103 -104 14472 0
-14471 103 104 14472 0
-14472 129 -130 0
-14473 14472 0
-14473 129 -130 0
-14473 -129 130 0
-14472 -129 -130 14473 0
-14472 129 130 14473 0
-14473 155 -156 0
-14474 14473 0
-14474 155 -156 0
-14474 -155 156 0
-14473 -155 -156 14474 0
-14473 155 156 14474 0
-14474 181 -182 0
-14475 14474 0
-14475 181 -182 0
-14475 -181 182 0
-14474 -181 -182 14475 0
-14474 181 182 14475 0
-14475 207 -208 0
-14476 14475 0
-14476 207 -208 0
-14476 -207 208 0
-14475 -207 -208 14476 0
-14475 207 208 14476 0
-14476 233 -234 0
-14477 14476 0
-14477 233 -234 0
-14477 -233 234 0
-14476 -233 -234 14477 0
-14476 233 234 14477 0
-14477 259 -260 0
-14478 14477 0
-14478 259 -260 0
-14478 -259 260 0
-14477 -259 -260 14478 0
-14477 259 260 14478 0
-14478 285 -286 0
-14479 14478 0
-14479 285 -286 0
-14479 -285 286 0
-14478 -285 -286 14479 0
-14478 285 286 14479 0
-14479 311 -312 0
-14480 14479 0
-14480 311 -312 0
-14480 -311 312 0
-14479 -311 -312 14480 0
-14479 311 312 14480 0
-14480 337 -338 0
-14481 14480 0
-14481 337 -338 0
-14481 -337 338 0
-14480 -337 -338 14481 0
-14480 337 338 14481 0
14482 0
-14482 1 -27 0
-14483 14482 0
-14483 1 -27 0
-14483 -1 27 0
-14482 -1 -27 14483 0
-14482 1 27 14483 0
-14483 2 -28 0
-14484 14483 0
-14484 2 -28 0
-14484 -2 28 0
-14483 -2 -28 14484 0
-14483 2 28 14484 0
-14484 3 -29 0
-14485 14484 0
-14485 3 -29 0
-14485 -3 29 0
-14484 -3 -29 14485 0
-14484 3 29 14485 0
-14485 4 -30 0
-14486 14485 0
-14486 4 -30 0
-14486 -4 30 0
-14485 -4 -30 14486 0
-14485 4 30 14486 0
-14486 5 -31 0
-14487 14486 0
-14487 5 -31 0
-14487 -5 31 0
-14486 -5 -31 14487 0
-14486 5 31 14487 0
-14487 6 -32 0
-14488 14487 0
-14488 6 -32 0
-14488 -6 32 0
-14487 -6 -32 14488 0
-14487 6 32 14488 0
-14488 7 -33 0
-14489 14488 0
-14489 7 -33 0
-14489 -7 33 0
-14488 -7 -33 14489 0
-14488 7 33 14489 0
-14489 8 -34 0
-14490 14489 0
-14490 8 -34 0
-14490 -8 34 0
-14489 -8 -34 14490 0
-14489 8 34 14490 0
-14490 9 -35 0
-14491 14490 0
-14491 9 -35 0
-14491 -9 35 0
-14490 -9 -35 14491 0
-14490 9 35 14491 0
-14491 10 -36 0
-14492 14491 0
-14492 10 -36 0
-14492 -10 36 0
-14491 -10 -36 14492 0
-14491 10 36 14492 0
-14492 11 -37 0
-14493 14492 0
-14493 11 -37 0
-14493 -11 37 0
-14492 -11 -37 14493 0
-14492 11 37 14493 0
-14493 12 -38 0
-14494 14493 0
-14494 12 -38 0
-14494 -12 38 0
-14493 -12 -38 14494 0
-14493 12 38 14494 0
-14494 13 -39 0
-14495 14494 0
-14495 13 -39 0
-14495 -13 39 0
-14494 -13 -39 14495 0
-14494 13 39 14495 0
-14495 14 -40 0
-14496 14495 0
-14496 14 -40 0
-14496 -14 40 0
-14495 -14 -40 14496 0
-14495 14 40 14496 0
-14496 15 -41 0
-14497 14496 0
-14497 15 -41 0
-14497 -15 41 0
-14496 -15 -41 14497 0
-14496 15 41 14497 0
-14497 16 -42 0
-14498 14497 0
-14498 16 -42 0
-14498 -16 42 0
-14497 -16 -42 14498 0
-14497 16 42 14498 0
-14498 17 -43 0
-14499 14498 0
-14499 17 -43 0
-14499 -17 43 0
-14498 -17 -43 14499 0
-14498 17 43 14499 0
-14499 18 -44 0
-14500 14499 0
-14500 18 -44 0
-14500 -18 44 0
-14499 -18 -44 14500 0
-14499 18 44 14500 0
-14500 19 -45 0
-14501 14500 0
-14501 19 -45 0
-14501 -19 45 0
-14500 -19 -45 14501 0
-14500 19 45 14501 0
-14501 20 -46 0
-14502 14501 0
-14502 20 -46 0
-14502 -20 46 0
-14501 -20 -46 14502 0
-14501 20 46 14502 0
-14502 21 -47 0
-14503 14502 0
-14503 21 -47 0
-14503 -21 47 0
-14502 -21 -47 14503 0
-14502 21 47 14503 0
-14503 22 -48 0
-14504 14503 0
-14504 22 -48 0
-14504 -22 48 0
-14503 -22 -48 14504 0
-14503 22 48 14504 0
-14504 23 -49 0
-14505 14504 0
-14505 23 -49 0
-14505 -23 49 0
-14504 -23 -49 14505 0
-14504 23 49 14505 0
-14505 24 -50 0
-14506 14505 0
-14506 24 -50 0
-14506 -24 50 0
-14505 -24 -50 14506 0
-14505 24 50 14506 0
-14506 25 -51 0
-14507 14506 0
-14507 25 -51 0
-14507 -25 51 0
-14506 -25 -51 14507 0
-14506 25 51 14507 0
-14507 26 -52 0
-14508 14507 0
-14508 26 -52 0
-14508 -26 52 0
-14507 -26 -52 14508 0
-14507 26 52 14508 0
14509 0
-14509 27 -53 0
-14510 14509 0
-14510 27 -53 0
-14510 -27 53 0
-14509 -27 -53 14510 0
-14509 27 53 14510 0
-14510 28 -54 0
-14511 14510 0
-14511 28 -54 0
-14511 -28 54 0
-14510 -28 -54 14511 0
-14510 28 54 14511 0
-14511 29 -55 0
-14512 14511 0
-14512 29 -55 0
-14512 -29 55 0
-14511 -29 -55 14512 0
-14511 29 55 14512 0
-14512 30 -56 0
-14513 14512 0
-14513 30 -56 0
-14513 -30 56 0
-14512 -30 -56 14513 0
-14512 30 56 14513 0
-14513 31 -57 0
-14514 14513 0
-14514 31 -57 0
-14514 -31 57 0
-14513 -31 -57 14514 0
-14513 31 57 14514 0
-14514 32 -58 0
-14515 14514 0
-14515 32 -58 0
-14515 -32 58 0
-14514 -32 -58 14515 0
-14514 32 58 14515 0
-14515 33 -59 0
-14516 14515 0
-14516 33 -59 0
-14516 -33 59 0
-14515 -33 -59 14516 0
-14515 33 59 14516 0
-14516 34 -60 0
-14517 14516 0
-14517 34 -60 0
-14517 -34 60 0
-14516 -34 -60 14517 0
-14516 34 60 14517 0
-14517 35 -61 0
-14518 14517 0
-14518 35 -61 0
-14518 -35 61 0
-14517 -35 -61 14518 0
-14517 35 61 14518 0
-14518 36 -62 0
-14519 14518 0
-14519 36 -62 0
-14519 -36 62 0
-14518 -36 -62 14519 0
-14518 36 62 14519 0
-14519 37 -63 0
-14520 14519 0
-14520 37 -63 0
-14520 -37 63 0
-14519 -37 -63 14520 0
-14519 37 63 14520 0
-14520 38 -64 0
-14521 14520 0
-14521 38 -64 0
-14521 -38 64 0
-14520 -38 -64 14521 0
-14520 38 64 14521 0
-14521 39 -65 0
-14522 14521 0
-14522 39 -65 0
-14522 -39 65 0
-14521 -39 -65 14522 0
-14521 39 65 14522 0
-14522 40 -66 0
-14523 14522 0
-14523 40 -66 0
-14523 -40 66 0
-14522 -40 -66 14523 0
-14522 40 66 14523 0
-14523 41 -67 0
-14524 14523 0
-14524 41 -67 0
-14524 -41 67 0
-14523 -41 -67 14524 0
-14523 41 67 14524 0
-14524 42 -68 0
-14525 14524 0
-14525 42 -68 0
-14525 -42 68 0
-14524 -42 -68 14525 0
-14524 42 68 14525 0
-14525 43 -69 0
-14526 14525 0
-14526 43 -69 0
-14526 -43 69 0
-14525 -43 -69 14526 0
-14525 43 69 14526 0
-14526 44 -70 0
-14527 14526 0
-14527 44 -70 0
-14527 -44 70 0
-14526 -44 -70 14527 0
-14526 44 70 14527 0
-14527 45 -71 0
-14528 14527 0
-14528 45 -71 0
-14528 -45 71 0
-14527 -45 -71 14528 0
-14527 45 71 14528 0
-14528 46 -72 0
-14529 14528 0
-14529 46 -72 0
-14529 -46 72 0
-14528 -46 -72 14529 0
-14528 46 72 14529 0
-14529 47 -73 0
-14530 14529 0
-14530 47 -73 0
-14530 -47 73 0
-14529 -47 -73 14530 0
-14529 47 73 14530 0
-14530 48 -74 0
-14531 14530 0
-14531 48 -74 0
-14531 -48 74 0
-14530 -48 -74 14531 0
-14530 48 74 14531 0
-14531 49 -75 0
-14532 14531 0
-14532 49 -75 0
-14532 -49 75 0
-14531 -49 -75 14532 0
-14531 49 75 14532 0
-14532 50 -76 0
-14533 14532 0
-14533 50 -76 0
-14533 -50 76 0
-14532 -50 -76 14533 0
-14532 50 76 14533 0
-14533 51 -77 0
-14534 14533 0
-14534 51 -77 0
-14534 -51 77 0
-14533 -51 -77 14534 0
-14533 51 77 14534 0
-14534 52 -78 0
-14535 14534 0
-14535 52 -78 0
-14535 -52 78 0
-14534 -52 -78 14535 0
-14534 52 78 14535 0
14536 0
-14536 53 -79 0
-14537 14536 0
-14537 53 -79 0
-14537 -53 79 0
-14536 -53 -79 14537 0
-14536 53 79 14537 0
-14537 54 -80 0
-14538 14537 0
-14538 54 -80 0
-14538 -54 80 0
-14537 -54 -80 14538 0
-14537 54 80 14538 0
-14538 55 -81 0
-14539 14538 0
-14539 55 -81 0
-14539 -55 81 0
-14538 -55 -81 14539 0
-14538 55 81 14539 0
-14539 56 -82 0
-14540 14539 0
-14540 56 -82 0
-14540 -56 82 0
-14539 -56 -82 14540 0
-14539 56 82 14540 0
-14540 57 -83 0
-14541 14540 0
-14541 57 -83 0
-14541 -57 83 0
-14540 -57 -83 14541 0
-14540 57 83 14541 0
-14541 58 -84 0
-14542 14541 0
-14542 58 -84 0
-14542 -58 84 0
-14541 -58 -84 14542 0
-14541 58 84 14542 0
-14542 59 -85 0
-14543 14542 0
-14543 59 -85 0
-14543 -59 85 0
-14542 -59 -85 14543 0
-14542 59 85 14543 0
-14543 60 -86 0
-14544 14543 0
-14544 60 -86 0
-14544 -60 86 0
-14543 -60 -86 14544 0
-14543 60 86 14544 0
-14544 61 -87 0
-14545 14544 0
-14545 61 -87 0
-14545 -61 87 0
-14544 -61 -87 14545 0
-14544 61 87 14545 0
-14545 62 -88 0
-14546 14545 0
-14546 62 -88 0
-14546 -62 88 0
-14545 -62 -88 14546 0
-14545 62 88 14546 0
-14546 63 -89 0
-14547 14546 0
-14547 63 -89 0
-14547 -63 89 0
-14546 -63 -89 14547 0
-14546 63 89 14547 0
-14547 64 -90 0
-14548 14547 0
-14548 64 -90 0
-14548 -64 90 0
-14547 -64 -90 14548 0
-14547 64 90 14548 0
-14548 65 -91 0
-14549 14548 0
-14549 65 -91 0
-14549 -65 91 0
-14548 -65 -91 14549 0
-14548 65 91 14549 0
-14549 66 -92 0
-14550 14549 0
-14550 66 -92 0
-14550 -66 92 0
-14549 -66 -92 14550 0
-14549 66 92 14550 0
-14550 67 -93 0
-14551 14550 0
-14551 67 -93 0
-14551 -67 93 0
-14550 -67 -93 14551 0
-14550 67 93 14551 0
-14551 68 -94 0
-14552 14551 0
-14552 68 -94 0
-14552 -68 94 0
-14551 -68 -94 14552 0
-14551 68 94 14552 0
-14552 69 -95 0
-14553 14552 0
-14553 69 -95 0
-14553 -69 95 0
-14552 -69 -95 14553 0
-14552 69 95 14553 0
-14553 70 -96 0
-14554 14553 0
-14554 70 -96 0
-14554 -70 96 0
-14553 -70 -96 14554 0
-14553 70 96 14554 0
-14554 71 -97 0
-14555 14554 0
-14555 71 -97 0
-14555 -71 97 0
-14554 -71 -97 14555 0
-14554 71 97 14555 0
-14555 72 -98 0
-14556 14555 0
-14556 72 -98 0
-14556 -72 98 0
-14555 -72 -98 14556 0
-14555 72 98 14556 0
-14556 73 -99 0
-14557 14556 0
-14557 73 -99 0
-14557 -73 99 0
-14556 -73 -99 14557 0
-14556 73 99 14557 0
-14557 74 -100 0
-14558 14557 0
-14558 74 -100 0
-14558 -74 100 0
-14557 -74 -100 14558 0
-14557 74 100 14558 0
-14558 75 -101 0
-14559 14558 0
-14559 75 -101 0
-14559 -75 101 0
-14558 -75 -101 14559 0
-14558 75 101 14559 0
-14559 76 -102 0
-14560 14559 0
-14560 76 -102 0
-14560 -76 102 0
-14559 -76 -102 14560 0
-14559 76 102 14560 0
-14560 77 -103 0
-14561 14560 0
-14561 77 -103 0
-14561 -77 103 0
-14560 -77 -103 14561 0
-14560 77 103 14561 0
-14561 78 -104 0
-14562 14561 0
-14562 78 -104 0
-14562 -78 104 0
-14561 -78 -104 14562 0
-14561 78 104 14562 0
14563 0
-14563 79 -105 0
-14564 14563 0
-14564 79 -105 0
-14564 -79 105 0
-14563 -79 -105 14564 0
-14563 79 105 14564 0
-14564 80 -106 0
-14565 14564 0
-14565 80 -106 0
-14565 -80 106 0
-14564 -80 -106 14565 0
-14564 80 106 14565 0
-14565 81 -107 0
-14566 14565 0
-14566 81 -107 0
-14566 -81 107 0
-14565 -81 -107 14566 0
-14565 81 107 14566 0
-14566 82 -108 0
-14567 14566 0
-14567 82 -108 0
-14567 -82 108 0
-14566 -82 -108 14567 0
-14566 82 108 14567 0
-14567 83 -109 0
-14568 14567 0
-14568 83 -109 0
-14568 -83 109 0
-14567 -83 -109 14568 0
-14567 83 109 14568 0
-14568 84 -110 0
-14569 14568 0
-14569 84 -110 0
-14569 -84 110 0
-14568 -84 -110 14569 0
-14568 84 110 14569 0
-14569 85 -111 0
-14570 14569 0
-14570 85 -111 0
-14570 -85 111 0
-14569 -85 -111 14570 0
-14569 85 111 14570 0
-14570 86 -112 0
-14571 14570 0
-14571 86 -112 0
-14571 -86 112 0
-14570 -86 -112 14571 0
-14570 86 112 14571 0
-14571 87 -113 0
-14572 14571 0
-14572 87 -113 0
-14572 -87 113 0
-14571 -87 -113 14572 0
-14571 87 113 14572 0
-14572 88 -114 0
-14573 14572 0
-14573 88 -114 0
-14573 -88 114 0
-14572 -88 -114 14573 0
-14572 88 114 14573 0
-14573 89 -115 0
-14574 14573 0
-14574 89 -115 0
-14574 -89 115 0
-14573 -89 -115 14574 0
-14573 89 115 14574 0
-14574 90 -116 0
-14575 14574 0
-14575 90 -116 0
-14575 -90 116 0
-14574 -90 -116 14575 0
-14574 90 116 14575 0
-14575 91 -117 0
-14576 14575 0
-14576 91 -117 0
-14576 -91 117 0
-14575 -91 -117 14576 0
-14575 91 117 14576 0
-14576 92 -118 0
-14577 14576 0
-14577 92 -118 0
-14577 -92 118 0
-14576 -92 -118 14577 0
-14576 92 118 14577 0
-14577 93 -119 0
-14578 14577 0
-14578 93 -119 0
-14578 -93 119 0
-14577 -93 -119 14578 0
-14577 93 119 14578 0
-14578 94 -120 0
-14579 14578 0
-14579 94 -120 0
-14579 -94 120 0
-14578 -94 -120 14579 0
-14578 94 120 14579 0
-14579 95 -121 0
-14580 14579 0
-14580 95 -121 0
-14580 -95 121 0
-14579 -95 -121 14580 0
-14579 95 121 14580 0
-14580 96 -122 0
-14581 14580 0
-14581 96 -122 0
-14581 -96 122 0
-14580 -96 -122 14581 0
-14580 96 122 14581 0
-14581 97 -123 0
-14582 14581 0
-14582 97 -123 0
-14582 -97 123 0
-14581 -97 -123 14582 0
-14581 97 123 14582 0
-14582 98 -124 0
-14583 14582 0
-14583 98 -124 0
-14583 -98 124 0
-14582 -98 -124 14583 0
-14582 98 124 14583 0
-14583 99 -125 0
-14584 14583 0
-14584 99 -125 0
-14584 -99 125 0
-14583 -99 -125 14584 0
-14583 99 125 14584 0
-14584 100 -126 0
-14585 14584 0
-14585 100 -126 0
-14585 -100 126 0
-14584 -100 -126 14585 0
-14584 100 126 14585 0
-14585 101 -127 0
-14586 14585 0
-14586 101 -127 0
-14586 -101 127 0
-14585 -101 -127 14586 0
-14585 101 127 14586 0
-14586 102 -128 0
-14587 14586 0
-14587 102 -128 0
-14587 -102 128 0
-14586 -102 -128 14587 0
-14586 102 128 14587 0
-14587 103 -129 0
-14588 14587 0
-14588 103 -129 0
-14588 -103 129 0
-14587 -103 -129 14588 0
-14587 103 129 14588 0
-14588 104 -130 0
-14589 14588 0
-14589 104 -130 0
-14589 -104 130 0
-14588 -104 -130 14589 0
-14588 104 130 14589 0
14590 0
-14590 105 -131 0
-14591 14590 0
-14591 105 -131 0
-14591 -105 131 0
-14590 -105 -131 14591 0
-14590 105 131 14591 0
-14591 106 -132 0
-14592 14591 0
-14592 106 -132 0
-14592 -106 132 0
-14591 -106 -132 14592 0
-14591 106 132 14592 0
-14592 107 -133 0
-14593 14592 0
-14593 107 -133 0
-14593 -107 133 0
-14592 -107 -133 14593 0
-14592 107 133 14593 0
-14593 108 -134 0
-14594 14593 0
-14594 108 -134 0
-14594 -108 134 0
-14593 -108 -134 14594 0
-14593 108 134 14594 0
-14594 109 -135 0
-14595 14594 0
-14595 109 -135 0
-14595 -109 135 0
-14594 -109 -135 14595 0
-14594 109 135 14595 0
-14595 110 -136 0
-14596 14595 0
-14596 110 -136 0
-14596 -110 136 0
-14595 -110 -136 14596 0
-14595 110 136 14596 0
-14596 111 -137 0
-14597 14596 0
-14597 111 -137 0
-14597 -111 137 0
-14596 -111 -137 14597 0
-14596 111 137 14597 0
-14597 112 -138 0
-14598 14597 0
-14598 112 -138 0
-14598 -112 138 0
-14597 -112 -138 14598 0
-14597 112 138 14598 0
-14598 113 -139 0
-14599 14598 0
-14599 113 -139 0
-14599 -113 139 0
-14598 -113 -139 14599 0
-14598 113 139 14599 0
-14599 114 -140 0
-14600 14599 0
-14600 114 -140 0
-14600 -114 140 0
-14599 -114 -140 14600 0
-14599 114 140 14600 0
-14600 115 -141 0
-14601 14600 0
-14601 115 -141 0
-14601 -115 141 0
-14600 -115 -141 14601 0
-14600 115 141 14601 0
-14601 116 -142 0
-14602 14601 0
-14602 116 -142 0
-14602 -116 142 0
-14601 -116 -142 14602 0
-14601 116 142 14602 0
-14602 117 -143 0
-14603 14602 0
-14603 117 -143 0
-14603 -117 143 0
-14602 -117 -143 14603 0
-14602 117 143 14603 0
-14603 118 -144 0
-14604 14603 0
-14604 118 -144 0
-14604 -118 144 0
-14603 -118 -144 14604 0
-14603 118 144 14604 0
-14604 119 -145 0
-14605 14604 0
-14605 119 -145 0
-14605 -119 145 0
-14604 -119 -145 14605 0
-14604 119 145 14605 0
-14605 120 -146 0
-14606 14605 0
-14606 120 -146 0
-14606 -120 146 0
-14605 -120 -146 14606 0
-14605 120 146 14606 0
-14606 121 -147 0
-14607 14606 0
-14607 121 -147 0
-14607 -121 147 0
-14606 -121 -147 14607 0
-14606 121 147 14607 0
-14607 122 -148 0
-14608 14607 0
-14608 122 -148 0
-14608 -122 148 0
-14607 -122 -148 14608 0
-14607 122 148 14608 0
-14608 123 -149 0
-14609 14608 0
-14609 123 -149 0
-14609 -123 149 0
-14608 -123 -149 14609 0
-14608 123 149 14609 0
-14609 124 -150 0
-14610 14609 0
-14610 124 -150 0
-14610 -124 150 0
-14609 -124 -150 14610 0
-14609 124 150 14610 0
-14610 125 -151 0
-14611 14610 0
-14611 125 -151 0
-14611 -125 151 0
-14610 -125 -151 14611 0
-14610 125 151 14611 0
-14611 126 -152 0
-14612 14611 0
-14612 126 -152 0
-14612 -126 152 0
-14611 -126 -152 14612 0
-14611 126 152 14612 0
-14612 127 -153 0
-14613 14612 0
-14613 127 -153 0
-14613 -127 153 0
-14612 -127 -153 14613 0
-14612 127 153 14613 0
-14613 128 -154 0
-14614 14613 0
-14614 128 -154 0
-14614 -128 154 0
-14613 -128 -154 14614 0
-14613 128 154 14614 0
-14614 129 -155 0
-14615 14614 0
-14615 129 -155 0
-14615 -129 155 0
-14614 -129 -155 14615 0
-14614 129 155 14615 0
-14615 130 -156 0
-14616 14615 0
-14616 130 -156 0
-14616 -130 156 0
-14615 -130 -156 14616 0
-14615 130 156 14616 0
14617 0
-14617 131 -157 0
-14618 14617 0
-14618 131 -157 0
-14618 -131 157 0
-14617 -131 -157 14618 0
-14617 131 157 14618 0
-14618 132 -158 0
-14619 14618 0
-14619 132 -158 0
-14619 -132 158 0
-14618 -132 -158 14619 0
-14618 132 158 14619 0
-14619 133 -159 0
-14620 14619 0
-14620 133 -159 0
-14620 -133 159 0
-14619 -133 -159 14620 0
-14619 133 159 14620 0
-14620 134 -160 0
-14621 14620 0
-14621 134 -160 0
-14621 -134 160 0
-14620 -134 -160 14621 0
-14620 134 160 14621 0
-14621 135 -161 0
-14622 14621 0
-14622 135 -161 0
-14622 -135 161 0
-14621 -135 -161 14622 0
-14621 135 161 14622 0
-14622 136 -162 0
-14623 14622 0
-14623 136 -162 0
-14623 -136 162 0
-14622 -136 -162 14623 0
-14622 136 162 14623 0
-14623 137 -163 0
-14624 14623 0
-14624 137 -163 0
-14624 -137 163 0
-14623 -137 -163 14624 0
-14623 137 163 14624 0
-14624 138 -164 0
-14625 14624 0
-14625 138 -164 0
-14625 -138 164 0
-14624 -138 -164 14625 0
-14624 138 164 14625 0
-14625 139 -165 0
-14626 14625 0
-14626 139 -165 0
-14626 -139 165 0
-14625 -139 -165 14626 0
-14625 139 165 14626 0
-14626 140 -166 0
-14627 14626 0
-14627 140 -166 0
-14627 -140 166 0
-14626 -140 -166 14627 0
-14626 140 166 14627 0
-14627 141 -167 0
-14628 14627 0
-14628 141 -167 0
-14628 -141 167 0
-14627 -141 -167 14628 0
-14627 141 167 14628 0
-14628 142 -168 0
-14629 14628 0
-14629 142 -168 0
-14629 -142 168 0
-14628 -142 -168 14629 0
-14628 142 168 14629 0
-14629 143 -169 0
-14630 14629 0
-14630 143 -169 0
-14630 -143 169 0
-14629 -143 -169 14630 0
-14629 143 169 14630 0
-14630 144 -170 0
-14631 14630 0
-14631 144 -170 0
-14631 -144 170 0
-14630 -144 -170 14631 0
-14630 144 170 14631 0
-14631 145 -171 0
-14632 14631 0
-14632 145 -171 0
-14632 -145 171 0
-14631 -145 -171 14632 0
-14631 145 171 14632 0
-14632 146 -172 0
-14633 14632 0
-14633 146 -172 0
-14633 -146 172 0
-14632 -146 -172 14633 0
-14632 146 172 14633 0
-14633 147 -173 0
-14634 14633 0
-14634 147 -173 0
-14634 -147 173 0
-14633 -147 -173 14634 0
-14633 147 173 14634 0
-14634 148 -174 0
-14635 14634 0
-14635 148 -174 0
-14635 -148 174 0
-14634 -148 -174 14635 0
-14634 148 174 14635 0
-14635 149 -175 0
-14636 14635 0
-14636 149 -175 0
-14636 -149 175 0
-14635 -149 -175 14636 0
-14635 149 175 14636 0
-14636 150 -176 0
-14637 14636 0
-14637 150 -176 0
-14637 -150 176 0
-14636 -150 -176 14637 0
-14636 150 176 14637 0
-14637 151 -177 0
-14638 14637 0
-14638 151 -177 0
-14638 -151 177 0
-14637 -151 -177 14638 0
-14637 151 177 14638 0
-14638 152 -178 0
-14639 14638 0
-14639 152 -178 0
-14639 -152 178 0
-14638 -152 -178 14639 0
-14638 152 178 14639 0
-14639 153 -179 0
-14640 14639 0
-14640 153 -179 0
-14640 -153 179 0
-14639 -153 -179 14640 0
-14639 153 179 14640 0
-14640 154 -180 0
-14641 14640 0
-14641 154 -180 0
-14641 -154 180 0
-14640 -154 -180 14641 0
-14640 154 180 14641 0
-14641 155 -181 0
-14642 14641 0
-14642 155 -181 0
-14642 -155 181 0
-14641 -155 -181 14642 0
-14641 155 181 14642 0
-14642 156 -182 0
-14643 14642 0
-14643 156 -182 0
-14643 -156 182 0
-14642 -156 -182 14643 0
-14642 156 182 14643 0
14644 0
-14644 157 -183 0
-14645 14644 0
-14645 157 -183 0
-14645 -157 183 0
-14644 -157 -183 14645 0
-14644 157 183 14645 0
-14645 158 -184 0
-14646 14645 0
-14646 158 -184 0
-14646 -158 184 0
-14645 -158 -184 14646 0
-14645 158 184 14646 0
-14646 159 -185 0
-14647 14646 0
-14647 159 -185 0
-14647 -159 185 0
-14646 -159 -185 14647 0
-14646 159 185 14647 0
-14647 160 -186 0
-14648 14647 0
-14648 160 -186 0
-14648 -160 186 0
-14647 -160 -186 14648 0
-14647 160 186 14648 0
-14648 161 -187 0
-14649 14648 0
-14649 161 -187 0
-14649 -161 187 0
-14648 -161 -187 14649 0
-14648 161 187 14649 0
-14649 162 -188 0
-14650 14649 0
-14650 162 -188 0
-14650 -162 188 0
-14649 -162 -188 14650 0
-14649 162 188 14650 0
-14650 163 -189 0
-14651 14650 0
-14651 163 -189 0
-14651 -163 189 0
-14650 -163 -189 14651 0
-14650 163 189 14651 0
-14651 164 -190 0
-14652 14651 0
-14652 164 -190 0
-14652 -164 190 0
-14651 -164 -190 14652 0
-14651 164 190 14652 0
-14652 165 -191 0
-14653 14652 0
-14653 165 -191 0
-14653 -165 191 0
-14652 -165 -191 14653 0
-14652 165 191 14653 0
-14653 166 -192 0
-14654 14653 0
-14654 166 -192 0
-14654 -166 192 0
-14653 -166 -192 14654 0
-14653 166 192 14654 0
-14654 167 -193 0
-14655 14654 0
-14655 167 -193 0
-14655 -167 193 0
-14654 -167 -193 14655 0
-14654 167 193 14655 0
-14655 168 -194 0
-14656 14655 0
-14656 168 -194 0
-14656 -168 194 0
-14655 -168 -194 14656 0
-14655 168 194 14656 0
-14656 169 -195 0
-14657 14656 0
-14657 169 -195 0
-14657 -169 195 0
-14656 -169 -195 14657 0
-14656 169 195 14657 0
-14657 170 -196 0
-14658 14657 0
-14658 170 -196 0
-14658 -170 196 0
-14657 -170 -196 14658 0
-14657 170 196 14658 0
-14658 171 -197 0
-14659 14658 0
-14659 171 -197 0
-14659 -171 197 0
-14658 -171 -197 14659 0
-14658 171 197 14659 0
-14659 172 -198 0
-14660 14659 0
-14660 172 -198 0
-14660 -172 198 0
-14659 -172 -198 14660 0
-14659 172 198 14660 0
-14660 173 -199 0
-14661 14660 0
-14661 173 -199 0
-14661 -173 199 0
-14660 -173 -199 14661 0
-14660 173 199 14661 0
-14661 174 -200 0
-14662 14661 0
-14662 174 -200 0
-14662 -174 200 0
-14661 -174 -200 14662 0
-14661 174 200 14662 0
-14662 175 -201 0
-14663 14662 0
-14663 175 -201 0
-14663 -175 201 0
-14662 -175 -201 14663 0
-14662 175 201 14663 0
-14663 176 -202 0
-14664 14663 0
-14664 176 -202 0
-14664 -176 202 0
-14663 -176 -202 14664 0
-14663 176 202 14664 0
-14664 177 -203 0
-14665 14664 0
-14665 177 -203 0
-14665 -177 203 0
-14664 -177 -203 14665 0
-14664 177 203 14665 0
-14665 178 -204 0
-14666 14665 0
-14666 178 -204 0
-14666 -178 204 0
-14665 -178 -204 14666 0
-14665 178 204 14666 0
-14666 179 -205 0
-14667 14666 0
-14667 179 -205 0
-14667 -179 205 0
-14666 -179 -205 14667 0
-14666 179 205 14667 0
-14667 180 -206 0
-14668 14667 0
-14668 180 -206 0
-14668 -180 206 0
-14667 -180 -206 14668 0
-14667 180 206 14668 0
-14668 181 -207 0
-14669 14668 0
-14669 181 -207 0
-14669 -181 207 0
-14668 -181 -207 14669 0
-14668 181 207 14669 0
-14669 182 -208 0
-14670 14669 0
-14670 182 -208 0
-14670 -182 208 0
-14669 -182 -208 14670 0
-14669 182 208 14670 0
14671 0
-14671 183 -209 0
-14672 14671 0
-14672 183 -209 0
-14672 -183 209 0
-14671 -183 -209 14672 0
-14671 183 209 14672 0
-14672 184 -210 0
-14673 14672 0
-14673 184 -210 0
-14673 -184 210 0
-14672 -184 -210 14673 0
-14672 184 210 14673 0
-14673 185 -211 0
-14674 14673 0
-14674 185 -211 0
-14674 -185 211 0
-14673 -185 -211 14674 0
-14673 185 211 14674 0
-14674 186 -212 0
-14675 14674 0
-14675 186 -212 0
-14675 -186 212 0
-14674 -186 -212 14675 0
-14674 186 212 14675 0
-14675 187 -213 0
-14676 14675 0
-14676 187 -213 0
-14676 -187 213 0
-14675 -187 -213 14676 0
-14675 187 213 14676 0
-14676 188 -214 0
-14677 14676 0
-14677 188 -214 0
-14677 -188 214 0
-14676 -188 -214 14677 0
-14676 188 214 14677 0
-14677 189 -215 0
-14678 14677 0
-14678 189 -215 0
-14678 -189 215 0
-14677 -189 -215 14678 0
-14677 189 215 14678 0
-14678 190 -216 0
-14679 14678 0
-14679 190 -216 0
-14679 -190 216 0
-14678 -190 -216 14679 0
-14678 190 216 14679 0
-14679 191 -217 0
-14680 14679 0
-14680 191 -217 0
-14680 -191 217 0
-14679 -191 -217 14680 0
-14679 191 217 14680 0
-14680 192 -218 0
-14681 14680 0
-14681 192 -218 0
-14681 -192 218 0
-14680 -192 -218 14681 0
-14680 192 218 14681 0
-14681 193 -219 0
-14682 14681 0
-14682 193 -219 0
-14682 -193 219 0
-14681 -193 -219 14682 0
-14681 193 219 14682 0
-14682 194 -220 0
-14683 14682 0
-14683 194 -220 0
-14683 -194 220 0
-14682 -194 -220 14683 0
-14682 194 220 14683 0
-14683 195 -221 0
-14684 14683 0
-14684 195 -221 0
-14684 -195 221 0
-14683 -195 -221 14684 0
-14683 195 221 14684 0
-14684 196 -222 0
-14685 14684 0
-14685 196 -222 0
-14685 -196 222 0
-14684 -196 -222 14685 0
-14684 196 222 14685 0
-14685 197 -223 0
-14686 14685 0
-14686 197 -223 0
-14686 -197 223 0
-14685 -197 -223 14686 0
-14685 197 223 14686 0
-14686 198 -224 0
-14687 14686 0
-14687 198 -224 0
-14687 -198 224 0
-14686 -198 -224 14687 0
-14686 198 224 14687 0
-14687 199 -225 0
-14688 14687 0
-14688 199 -225 0
-14688 -199 225 0
-14687 -199 -225 14688 0
-14687 199 225 14688 0
-14688 200 -226 0
-14689 14688 0
-14689 200 -226 0
-14689 -200 226 0
-14688 -200 -226 14689 0
-14688 200 226 14689 0
-14689 201 -227 0
-14690 14689 0
-14690 201 -227 0
-14690 -201 227 0
-14689 -201 -227 14690 0
-14689 201 227 14690 0
-14690 202 -228 0
-14691 14690 0
-14691 202 -228 0
-14691 -202 228 0
-14690 -202 -228 14691 0
-14690 202 228 14691 0
-14691 203 -229 0
-14692 14691 0
-14692 203 -229 0
-14692 -203 229 0
-14691 -203 -229 14692 0
-14691 203 229 14692 0
-14692 204 -230 0
-14693 14692 0
-14693 204 -230 0
-14693 -204 230 0
-14692 -204 -230 14693 0
-14692 204 230 14693 0
-14693 205 -231 0
-14694 14693 0
-14694 205 -231 0
-14694 -205 231 0
-14693 -205 -231 14694 0
-14693 205 231 14694 0
-14694 206 -232 0
-14695 14694 0
-14695 206 -232 0
-14695 -206 232 0
-14694 -206 -232 14695 0
-14694 206 232 14695 0
-14695 207 -233 0
-14696 14695 0
-14696 207 -233 0
-14696 -207 233 0
-14695 -207 -233 14696 0
-14695 207 233 14696 0
-14696 208 -234 0
-14697 14696 0
-14697 208 -234 0
-14697 -208 234 0
-14696 -208 -234 14697 0
-14696 208 234 14697 0
14698 0
-14698 209 -235 0
-14699 14698 0
-14699 209 -235 0
-14699 -209 235 0
-14698 -209 -235 14699 0
-14698 209 235 14699 0
-14699 210 -236 0
-14700 14699 0
-14700 210 -236 0
-14700 -210 236 0
-14699 -210 -236 14700 0
-14699 210 236 14700 0
-14700 211 -237 0
-14701 14700 0
-14701 211 -237 0
-14701 -211 237 0
-14700 -211 -237 14701 0
-14700 211 237 14701 0
-14701 212 -238 0
-14702 14701 0
-14702 212 -238 0
-14702 -212 238 0
-14701 -212 -238 14702 0
-14701 212 238 14702 0
-14702 213 -239 0
-14703 14702 0
-14703 213 -239 0
-14703 -213 239 0
-14702 -213 -239 14703 0
-14702 213 239 14703 0
-14703 214 -240 0
-14704 14703 0
-14704 214 -240 0
-14704 -214 240 0
-14703 -214 -240 14704 0
-14703 214 240 14704 0
-14704 215 -241 0
-14705 14704 0
-14705 215 -241 0
-14705 -215 241 0
-14704 -215 -241 14705 0
-14704 215 241 14705 0
-14705 216 -242 0
-14706 14705 0
-14706 216 -242 0
-14706 -216 242 0
-14705 -216 -242 14706 0
-14705 216 242 14706 0
-14706 217 -243 0
-14707 14706 0
-14707 217 -243 0
-14707 -217 243 0
-14706 -217 -243 14707 0
-14706 217 243 14707 0
-14707 218 -244 0
-14708 14707 0
-14708 218 -244 0
-14708 -218 244 0
-14707 -218 -244 14708 0
-14707 218 244 14708 0
-14708 219 -245 0
-14709 14708 0
-14709 219 -245 0
-14709 -219 245 0
-14708 -219 -245 14709 0
-14708 219 245 14709 0
-14709 220 -246 0
-14710 14709 0
-14710 220 -246 0
-14710 -220 246 0
-14709 -220 -246 14710 0
-14709 220 246 14710 0
-14710 221 -247 0
-14711 14710 0
-14711 221 -247 0
-14711 -221 247 0
-14710 -221 -247 14711 0
-14710 221 247 14711 0
-14711 222 -248 0
-14712 14711 0
-14712 222 -248 0
-14712 -222 248 0
-14711 -222 -248 14712 0
-14711 222 248 14712 0
-14712 223 -249 0
-14713 14712 0
-14713 223 -249 0
-14713 -223 249 0
-14712 -223 -249 14713 0
-14712 223 249 14713 0
-14713 224 -250 0
-14714 14713 0
-14714 224 -250 0
-14714 -224 250 0
-14713 -224 -250 14714 0
-14713 224 250 14714 0
-14714 225 -251 0
-14715 14714 0
-14715 225 -251 0
-14715 -225 251 0
-14714 -225 -251 14715 0
-14714 225 251 14715 0
-14715 226 -252 0
-14716 14715 0
-14716 226 -252 0
-14716 -226 252 0
-14715 -226 -252 14716 0
-14715 226 252 14716 0
-14716 227 -253 0
-14717 14716 0
-14717 227 -253 0
-14717 -227 253 0
-14716 -227 -253 14717 0
-14716 227 253 14717 0
-14717 228 -254 0
-14718 14717 0
-14718 228 -254 0
-14718 -228 254 0
-14717 -228 -254 14718 0
-14717 228 254 14718 0
-14718 229 -255 0
-14719 14718 0
-14719 229 -255 0
-14719 -229 255 0
-14718 -229 -255 14719 0
-14718 229 255 14719 0
-14719 230 -256 0
-14720 14719 0
-14720 230 -256 0
-14720 -230 256 0
-14719 -230 -256 14720 0
-14719 230 256 14720 0
-14720 231 -257 0
-14721 14720 0
-14721 231 -257 0
-14721 -231 257 0
-14720 -231 -257 14721 0
-14720 231 257 14721 0
-14721 232 -258 0
-14722 14721 0
-14722 232 -258 0
-14722 -232 258 0
-14721 -232 -258 14722 0
-14721 232 258 14722 0
-14722 233 -259 0
-14723 14722 0
-14723 233 -259 0
-14723 -233 259 0
-14722 -233 -259 14723 0
-14722 233 259 14723 0
-14723 234 -260 0
-14724 14723 0
-14724 234 -260 0
-14724 -234 260 0
-14723 -234 -260 14724 0
-14723 234 260 14724 0
14725 0
-14725 235 -261 0
-14726 14725 0
-14726 235 -261 0
-14726 -235 261 0
-14725 -235 -261 14726 0
-14725 235 261 14726 0
-14726 236 -262 0
-14727 14726 0
-14727 236 -262 0
-14727 -236 262 0
-14726 -236 -262 14727 0
-14726 236 262 14727 0
-14727 237 -263 0
-14728 14727 0
-14728 237 -263 0
-14728 -237 263 0
-14727 -237 -263 14728 0
-14727 237 263 14728 0
-14728 238 -264 0
-14729 14728 0
-14729 238 -264 0
-14729 -238 264 0
-14728 -238 -264 14729 0
-14728 238 264 14729 0
-14729 239 -265 0
-14730 14729 0
-14730 239 -265 0
-14730 -239 265 0
-14729 -239 -265 14730 0
-14729 239 265 14730 0
-14730 240 -266 0
-14731 14730 0
-14731 240 -266 0
-14731 -240 266 0
-14730 -240 -266 14731 0
-14730 240 266 14731 0
-14731 241 -267 0
-14732 14731 0
-14732 241 -267 0
-14732 -241 267 0
-14731 -241 -267 14732 0
-14731 241 267 14732 0
-14732 242 -268 0
-14733 14732 0
-14733 242 -268 0
-14733 -242 268 0
-14732 -242 -268 14733 0
-14732 242 268 14733 0
-14733 243 -269 0
-14734 14733 0
-14734 243 -269 0
-14734 -243 269 0
-14733 -243 -269 14734 0
-14733 243 269 14734 0
-14734 244 -270 0
-14735 14734 0
-14735 244 -270 0
-14735 -244 270 0
-14734 -244 -270 14735 0
-14734 244 270 14735 0
-14735 245 -271 0
-14736 14735 0
-14736 245 -271 0
-14736 -245 271 0
-14735 -245 -271 14736 0
-14735 245 271 14736 0
-14736 246 -272 0
-14737 14736 0
-14737 246 -272 0
-14737 -246 272 0
-14736 -246 -272 14737 0
-14736 246 272 14737 0
-14737 247 -273 0
-14738 14737 0
-14738 247 -273 0
-14738 -247 273 0
-14737 -247 -273 14738 0
-14737 247 273 14738 0
-14738 248 -274 0
-14739 14738 0
-14739 248 -274 0
-14739 -248 274 0
-14738 -248 -274 14739 0
-14738 248 274 14739 0
-14739 249 -275 0
-14740 14739 0
-14740 249 -275 0
-14740 -249 275 0
-14739 -249 -275 14740 0
-14739 249 275 14740 0
-14740 250 -276 0
-14741 14740 0
-14741 250 -276 0
-14741 -250 276 0
-14740 -250 -276 14741 0
-14740 250 276 14741 0
-14741 251 -277 0
-14742 14741 0
-14742 251 -277 0
-14742 -251 277 0
-14741 -251 -277 14742 0
-14741 251 277 14742 0
-14742 252 -278 0
-14743 14742 0
-14743 252 -278 0
-14743 -252 278 0
-14742 -252 -278 14743 0
-14742 252 278 14743 0
-14743 253 -279 0
-14744 14743 0
-14744 253 -279 0
-14744 -253 279 0
-14743 -253 -279 14744 0
-14743 253 279 14744 0
-14744 254 -280 0
-14745 14744 0
-14745 254 -280 0
-14745 -254 280 0
-14744 -254 -280 14745 0
-14744 254 280 14745 0
-14745 255 -281 0
-14746 14745 0
-14746 255 -281 0
-14746 -255 281 0
-14745 -255 -281 14746 0
-14745 255 281 14746 0
-14746 256 -282 0
-14747 14746 0
-14747 256 -282 0
-14747 -256 282 0
-14746 -256 -282 14747 0
-14746 256 282 14747 0
-14747 257 -283 0
-14748 14747 0
-14748 257 -283 0
-14748 -257 283 0
-14747 -257 -283 14748 0
-14747 257 283 14748 0
-14748 258 -284 0
-14749 14748 0
-14749 258 -284 0
-14749 -258 284 0
-14748 -258 -284 14749 0
-14748 258 284 14749 0
-14749 259 -285 0
-14750 14749 0
-14750 259 -285 0
-14750 -259 285 0
-14749 -259 -285 14750 0
-14749 259 285 14750 0
-14750 260 -286 0
-14751 14750 0
-14751 260 -286 0
-14751 -260 286 0
-14750 -260 -286 14751 0
-14750 260 286 14751 0
14752 0
-14752 261 -287 0
-14753 14752 0
-14753 261 -287 0
-14753 -261 287 0
-14752 -261 -287 14753 0
-14752 261 287 14753 0
-14753 262 -288 0
-14754 14753 0
-14754 262 -288 0
-14754 -262 288 0
-14753 -262 -288 14754 0
-14753 262 288 14754 0
-14754 263 -289 0
-14755 14754 0
-14755 263 -289 0
-14755 -263 289 0
-14754 -263 -289 14755 0
-14754 263 289 14755 0
-14755 264 -290 0
-14756 14755 0
-14756 264 -290 0
-14756 -264 290 0
-14755 -264 -290 14756 0
-14755 264 290 14756 0
-14756 265 -291 0
-14757 14756 0
-14757 265 -291 0
-14757 -265 291 0
-14756 -265 -291 14757 0
-14756 265 291 14757 0
-14757 266 -292 0
-14758 14757 0
-14758 266 -292 0
-14758 -266 292 0
-14757 -266 -292 14758 0
-14757 266 292 14758 0
-14758 267 -293 0
-14759 14758 0
-14759 267 -293 0
-14759 -267 293 0
-14758 -267 -293 14759 0
-14758 267 293 14759 0
-14759 268 -294 0
-14760 14759 0
-14760 268 -294 0
-14760 -268 294 0
-14759 -268 -294 14760 0
-14759 268 294 14760 0
-14760 269 -295 0
-14761 14760 0
-14761 269 -295 0
-14761 -269 295 0
-14760 -269 -295 14761 0
-14760 269 295 14761 0
-14761 270 -296 0
-14762 14761 0
-14762 270 -296 0
-14762 -270 296 0
-14761 -270 -296 14762 0
-14761 270 296 14762 0
-14762 271 -297 0
-14763 14762 0
-14763 271 -297 0
-14763 -271 297 0
-14762 -271 -297 14763 0
-14762 271 297 14763 0
-14763 272 -298 0
-14764 14763 0
-14764 272 -298 0
-14764 -272 298 0
-14763 -272 -298 14764 0
-14763 272 298 14764 0
-14764 273 -299 0
-14765 14764 0
-14765 273 -299 0
-14765 -273 299 0
-14764 -273 -299 14765 0
-14764 273 299 14765 0
-14765 274 -300 0
-14766 14765 0
-14766 274 -300 0
-14766 -274 300 0
-14765 -274 -300 14766 0
-14765 274 300 14766 0
-14766 275 -301 0
-14767 14766 0
-14767 275 -301 0
-14767 -275 301 0
-14766 -275 -301 14767 0
-14766 275 301 14767 0
-14767 276 -302 0
-14768 14767 0
-14768 276 -302 0
-14768 -276 302 0
-14767 -276 -302 14768 0
-14767 276 302 14768 0
-14768 277 -303 0
-14769 14768 0
-14769 277 -303 0
-14769 -277 303 0
-14768 -277 -303 14769 0
-14768 277 303 14769 0
-14769 278 -304 0
-14770 14769 0
-14770 278 -304 0
-14770 -278 304 0
-14769 -278 -304 14770 0
-14769 278 304 14770 0
-14770 279 -305 0
-14771 14770 0
-14771 279 -305 0
-14771 -279 305 0
-14770 -279 -305 14771 0
-14770 279 305 14771 0
-14771 280 -306 0
-14772 14771 0
-14772 280 -306 0
-14772 -280 306 0
-14771 -280 -306 14772 0
-14771 280 306 14772 0
-14772 281 -307 0
-14773 14772 0
-14773 281 -307 0
-14773 -281 307 0
-14772 -281 -307 14773 0
-14772 281 307 14773 0
-14773 282 -308 0
-14774 14773 0
-14774 282 -308 0
-14774 -282 308 0
-14773 -282 -308 14774 0
-14773 282 308 14774 0
-14774 283 -309 0
-14775 14774 0
-14775 283 -309 0
-14775 -283 309 0
-14774 -283 -309 14775 0
-14774 283 309 14775 0
-14775 284 -310 0
-14776 14775 0
-14776 284 -310 0
-14776 -284 310 0
-14775 -284 -310 14776 0
-14775 284 310 14776 0
-14776 285 -311 0
-14777 14776 0
-14777 285 -311 0
-14777 -285 311 0
-14776 -285 -311 14777 0
-14776 285 311 14777 0
-14777 286 -312 0
-14778 14777 0
-14778 286 -312 0
-14778 -286 312 0
-14777 -286 -312 14778 0
-14777 286 312 14778 0
14779 0
-14779 287 -313 0
-14780 14779 0
-14780 287 -313 0
-14780 -287 313 0
-14779 -287 -313 14780 0
-14779 287 313 14780 0
-14780 288 -314 0
-14781 14780 0
-14781 288 -314 0
-14781 -288 314 0
-14780 -288 -314 14781 0
-14780 288 314 14781 0
-14781 289 -315 0
-14782 14781 0
-14782 289 -315 0
-14782 -289 315 0
-14781 -289 -315 14782 0
-14781 289 315 14782 0
-14782 290 -316 0
-14783 14782 0
-14783 290 -316 0
-14783 -290 316 0
-14782 -290 -316 14783 0
-14782 290 316 14783 0
-14783 291 -317 0
-14784 14783 0
-14784 291 -317 0
-14784 -291 317 0
-14783 -291 -317 14784 0
-14783 291 317 14784 0
-14784 292 -318 0
-14785 14784 0
-14785 292 -318 0
-14785 -292 318 0
-14784 -292 -318 14785 0
-14784 292 318 14785 0
-14785 293 -319 0
-14786 14785 0
-14786 293 -319 0
-14786 -293 319 0
-14785 -293 -319 14786 0
-14785 293 319 14786 0
-14786 294 -320 0
-14787 14786 0
-14787 294 -320 0
-14787 -294 320 0
-14786 -294 -320 14787 0
-14786 294 320 14787 0
-14787 295 -321 0
-14788 14787 0
-14788 295 -321 0
-14788 -295 321 0
-14787 -295 -321 14788 0
-14787 295 321 14788 0
-14788 296 -322 0
-14789 14788 0
-14789 296 -322 0
-14789 -296 322 0
-14788 -296 -322 14789 0
-14788 296 322 14789 0
-14789 297 -323 0
-14790 14789 0
-14790 297 -323 0
-14790 -297 323 0
-14789 -297 -323 14790 0
-14789 297 323 14790 0
-14790 298 -324 0
-14791 14790 0
-14791 298 -324 0
-14791 -298 324 0
-14790 -298 -324 14791 0
-14790 298 324 14791 0
-14791 299 -325 0
-14792 14791 0
-14792 299 -325 0
-14792 -299 325 0
-14791 -299 -325 14792 0
-14791 299 325 14792 0
-14792 300 -326 0
-14793 14792 0
-14793 300 -326 0
-14793 -300 326 0
-14792 -300 -326 14793 0
-14792 300 326 14793 0
-14793 301 -327 0
-14794 14793 0
-14794 301 -327 0
-14794 -301 327 0
-14793 -301 -327 14794 0
-14793 301 327 14794 0
-14794 302 -328 0
-14795 14794 0
-14795 302 -328 0
-14795 -302 328 0
-14794 -302 -328 14795 0
-14794 302 328 14795 0
-14795 303 -329 0
-14796 14795 0
-14796 303 -329 0
-14796 -303 329 0
-14795 -303 -329 14796 0
-14795 303 329 14796 0
-14796 304 -330 0
-14797 14796 0
-14797 304 -330 0
-14797 -304 330 0
-14796 -304 -330 14797 0
-14796 304 330 14797 0
-14797 305 -331 0
-14798 14797 0
-14798 305 -331 0
-14798 -305 331 0
-14797 -305 -331 14798 0
-14797 305 331 14798 0
-14798 306 -332 0
-14799 14798 0
-14799 306 -332 0
-14799 -306 332 0
-14798 -306 -332 14799 0
-14798 306 332 14799 0
-14799 307 -333 0
-14800 14799 0
-14800 307 -333 0
-14800 -307 333 0
-14799 -307 -333 14800 0
-14799 307 333 14800 0
-14800 308 -334 0
-14801 14800 0
-14801 308 -334 0
-14801 -308 334 0
-14800 -308 -334 14801 0
-14800 308 334 14801 0
-14801 309 -335 0
-14802 14801 0
-14802 309 -335 0
-14802 -309 335 0
-14801 -309 -335 14802 0
-14801 309 335 14802 0
-14802 310 -336 0
-14803 14802 0
-14803 310 -336 0
-14803 -310 336 0
-14802 -310 -336 14803 0
-14802 310 336 14803 0
-14803 311 -337 0
-14804 14803 0
-14804 311 -337 0
-14804 -311 337 0
-14803 -311 -337 14804 0
-14803 311 337 14804 0
-14804 312 -338 0
-14805 14804 0
-14805 312 -338 0
-14805 -312 338 0
-14804 -312 -338 14805 0
-14804 312 338 14805 0
