p cnf 1532 5251
-1 73 0
-10 73 0
-19 73 0
-28 73 0
-37 73 0
-46 73 0
-55 73 0
-64 73 0
-2 74 0
-11 74 0
-20 74 0
-29 74 0
-38 74 0
-47 74 0
-56 74 0
-65 74 0
-3 75 0
-12 75 0
-21 75 0
-30 75 0
-39 75 0
-48 75 0
-57 75 0
-66 75 0
-4 76 0
-13 76 0
-22 76 0
-31 76 0
-40 76 0
-49 76 0
-58 76 0
-67 76 0
-5 77 0
-14 77 0
-23 77 0
-32 77 0
-41 77 0
-50 77 0
-59 77 0
-68 77 0
-6 78 0
-15 78 0
-24 78 0
-33 78 0
-42 78 0
-51 78 0
-60 78 0
-69 78 0
-7 79 0
-16 79 0
-25 79 0
-34 79 0
-43 79 0
-52 79 0
-61 79 0
-70 79 0
-8 80 0
-17 80 0
-26 80 0
-35 80 0
-44 80 0
-53 80 0
-62 80 0
-71 80 0
-9 81 0
-18 81 0
-27 81 0
-36 81 0
-45 81 0
-54 81 0
-63 81 0
-72 81 0
-74 73 0
-75 74 0
-76 75 0
-77 76 0
-78 77 0
-79 78 0
-80 79 0
-81 80 0
73 922 0
-922 -73 0
73 923 0
-923 -73 0
73 924 0
-924 -73 0
1 925 0
-925 926 0
10 -925 927 0
-927 928 0
19 -927 929 0
-929 930 0
28 -929 931 0
-931 932 0
37 -931 933 0
-933 934 0
46 -933 935 0
-935 936 0
55 -935 937 0
-937 938 0
64 -937 939 0
-939 940 0
922 -939 0
10 926 0
-926 941 0
19 -926 928 0
-928 942 0
28 -928 930 0
-930 943 0
37 -930 932 0
-932 944 0
46 -932 934 0
-934 945 0
55 -934 936 0
-936 946 0
64 -936 938 0
-938 947 0
922 -938 940 0
-940 948 0
923 -940 0
19 941 0
28 -941 942 0
37 -942 943 0
46 -943 944 0
55 -944 945 0
64 -945 946 0
922 -946 947 0
923 -947 948 0
924 -948 0
74 949 0
-949 -74 0
74 950 0
-950 -74 0
74 951 0
-951 -74 0
2 952 0
-952 953 0
11 -952 954 0
-954 955 0
20 -954 956 0
-956 957 0
29 -956 958 0
-958 959 0
38 -958 960 0
-960 961 0
47 -960 962 0
-962 963 0
56 -962 964 0
-964 965 0
65 -964 966 0
-966 967 0
949 -966 0
11 953 0
-953 968 0
20 -953 955 0
-955 969 0
29 -955 957 0
-957 970 0
38 -957 959 0
-959 971 0
47 -959 961 0
-961 972 0
56 -961 963 0
-963 973 0
65 -963 965 0
-965 974 0
949 -965 967 0
-967 975 0
950 -967 0
20 968 0
29 -968 969 0
38 -969 970 0
47 -970 971 0
56 -971 972 0
65 -972 973 0
949 -973 974 0
950 -974 975 0
951 -975 0
75 976 0
-976 -75 0
75 977 0
-977 -75 0
75 978 0
-978 -75 0
3 979 0
-979 980 0
12 -979 981 0
-981 982 0
21 -981 983 0
-983 984 0
30 -983 985 0
-985 986 0
39 -985 987 0
-987 988 0
48 -987 989 0
-989 990 0
57 -989 991 0
-991 992 0
66 -991 993 0
-993 994 0
976 -993 0
12 980 0
-980 995 0
21 -980 982 0
-982 996 0
30 -982 984 0
-984 997 0
39 -984 986 0
-986 998 0
48 -986 988 0
-988 999 0
57 -988 990 0
-990 1000 0
66 -990 992 0
-992 1001 0
976 -992 994 0
-994 1002 0
977 -994 0
21 995 0
30 -995 996 0
39 -996 997 0
48 -997 998 0
57 -998 999 0
66 -999 1000 0
976 -1000 1001 0
977 -1001 1002 0
978 -1002 0
76 1003 0
-1003 -76 0
76 1004 0
-1004 -76 0
76 1005 0
-1005 -76 0
4 1006 0
-1006 1007 0
13 -1006 1008 0
-1008 1009 0
22 -1008 1010 0
-1010 1011 0
31 -1010 1012 0
-1012 1013 0
40 -1012 1014 0
-1014 1015 0
49 -1014 1016 0
-1016 1017 0
58 -1016 1018 0
-1018 1019 0
67 -1018 1020 0
-1020 1021 0
1003 -1020 0
13 1007 0
-1007 1022 0
22 -1007 1009 0
-1009 1023 0
31 -1009 1011 0
-1011 1024 0
40 -1011 1013 0
-1013 1025 0
49 -1013 1015 0
-1015 1026 0
58 -1015 1017 0
-1017 1027 0
67 -1017 1019 0
-1019 1028 0
1003 -1019 1021 0
-1021 1029 0
1004 -1021 0
22 1022 0
31 -1022 1023 0
40 -1023 1024 0
49 -1024 1025 0
58 -1025 1026 0
67 -1026 1027 0
1003 -1027 1028 0
1004 -1028 1029 0
1005 -1029 0
77 1030 0
-1030 -77 0
77 1031 0
-1031 -77 0
77 1032 0
-1032 -77 0
5 1033 0
-1033 1034 0
14 -1033 1035 0
-1035 1036 0
23 -1035 1037 0
-1037 1038 0
32 -1037 1039 0
-1039 1040 0
41 -1039 1041 0
-1041 1042 0
50 -1041 1043 0
-1043 1044 0
59 -1043 1045 0
-1045 1046 0
68 -1045 1047 0
-1047 1048 0
1030 -1047 0
14 1034 0
-1034 1049 0
23 -1034 1036 0
-1036 1050 0
32 -1036 1038 0
-1038 1051 0
41 -1038 1040 0
-1040 1052 0
50 -1040 1042 0
-1042 1053 0
59 -1042 1044 0
-1044 1054 0
68 -1044 1046 0
-1046 1055 0
1030 -1046 1048 0
-1048 1056 0
1031 -1048 0
23 1049 0
32 -1049 1050 0
41 -1050 1051 0
50 -1051 1052 0
59 -1052 1053 0
68 -1053 1054 0
1030 -1054 1055 0
1031 -1055 1056 0
1032 -1056 0
78 1057 0
-1057 -78 0
78 1058 0
-1058 -78 0
78 1059 0
-1059 -78 0
6 1060 0
-1060 1061 0
15 -1060 1062 0
-1062 1063 0
24 -1062 1064 0
-1064 1065 0
33 -1064 1066 0
-1066 1067 0
42 -1066 1068 0
-1068 1069 0
51 -1068 1070 0
-1070 1071 0
60 -1070 1072 0
-1072 1073 0
69 -1072 1074 0
-1074 1075 0
1057 -1074 0
15 1061 0
-1061 1076 0
24 -1061 1063 0
-1063 1077 0
33 -1063 1065 0
-1065 1078 0
42 -1065 1067 0
-1067 1079 0
51 -1067 1069 0
-1069 1080 0
60 -1069 1071 0
-1071 1081 0
69 -1071 1073 0
-1073 1082 0
1057 -1073 1075 0
-1075 1083 0
1058 -1075 0
24 1076 0
33 -1076 1077 0
42 -1077 1078 0
51 -1078 1079 0
60 -1079 1080 0
69 -1080 1081 0
1057 -1081 1082 0
1058 -1082 1083 0
1059 -1083 0
79 1084 0
-1084 -79 0
79 1085 0
-1085 -79 0
79 1086 0
-1086 -79 0
7 1087 0
-1087 1088 0
16 -1087 1089 0
-1089 1090 0
25 -1089 1091 0
-1091 1092 0
34 -1091 1093 0
-1093 1094 0
43 -1093 1095 0
-1095 1096 0
52 -1095 1097 0
-1097 1098 0
61 -1097 1099 0
-1099 1100 0
70 -1099 1101 0
-1101 1102 0
1084 -1101 0
16 1088 0
-1088 1103 0
25 -1088 1090 0
-1090 1104 0
34 -1090 1092 0
-1092 1105 0
43 -1092 1094 0
-1094 1106 0
52 -1094 1096 0
-1096 1107 0
61 -1096 1098 0
-1098 1108 0
70 -1098 1100 0
-1100 1109 0
1084 -1100 1102 0
-1102 1110 0
1085 -1102 0
25 1103 0
34 -1103 1104 0
43 -1104 1105 0
52 -1105 1106 0
61 -1106 1107 0
70 -1107 1108 0
1084 -1108 1109 0
1085 -1109 1110 0
1086 -1110 0
80 1111 0
-1111 -80 0
80 1112 0
-1112 -80 0
80 1113 0
-1113 -80 0
8 1114 0
-1114 1115 0
17 -1114 1116 0
-1116 1117 0
26 -1116 1118 0
-1118 1119 0
35 -1118 1120 0
-1120 1121 0
44 -1120 1122 0
-1122 1123 0
53 -1122 1124 0
-1124 1125 0
62 -1124 1126 0
-1126 1127 0
71 -1126 1128 0
-1128 1129 0
1111 -1128 0
17 1115 0
-1115 1130 0
26 -1115 1117 0
-1117 1131 0
35 -1117 1119 0
-1119 1132 0
44 -1119 1121 0
-1121 1133 0
53 -1121 1123 0
-1123 1134 0
62 -1123 1125 0
-1125 1135 0
71 -1125 1127 0
-1127 1136 0
1111 -1127 1129 0
-1129 1137 0
1112 -1129 0
26 1130 0
35 -1130 1131 0
44 -1131 1132 0
53 -1132 1133 0
62 -1133 1134 0
71 -1134 1135 0
1111 -1135 1136 0
1112 -1136 1137 0
1113 -1137 0
81 1138 0
-1138 -81 0
81 1139 0
-1139 -81 0
81 1140 0
-1140 -81 0
9 1141 0
-1141 1142 0
18 -1141 1143 0
-1143 1144 0
27 -1143 1145 0
-1145 1146 0
36 -1145 1147 0
-1147 1148 0
45 -1147 1149 0
-1149 1150 0
54 -1149 1151 0
-1151 1152 0
63 -1151 1153 0
-1153 1154 0
72 -1153 1155 0
-1155 1156 0
1138 -1155 0
18 1142 0
-1142 1157 0
27 -1142 1144 0
-1144 1158 0
36 -1144 1146 0
-1146 1159 0
45 -1146 1148 0
-1148 1160 0
54 -1148 1150 0
-1150 1161 0
63 -1150 1152 0
-1152 1162 0
72 -1152 1154 0
-1154 1163 0
1138 -1154 1156 0
-1156 1164 0
1139 -1156 0
27 1157 0
36 -1157 1158 0
45 -1158 1159 0
54 -1159 1160 0
63 -1160 1161 0
72 -1161 1162 0
1138 -1162 1163 0
1139 -1163 1164 0
1140 -1164 0
1 1165 0
-1165 1166 0
2 -1165 1167 0
-1167 1168 0
3 -1167 1169 0
-1169 1170 0
4 -1169 1171 0
-1171 1172 0
5 -1171 1173 0
-1173 1174 0
6 -1173 1175 0
-1175 1176 0
7 -1175 0
2 1166 0
-1166 1177 0
3 -1166 1168 0
-1168 1178 0
4 -1168 1170 0
-1170 1179 0
5 -1170 1172 0
-1172 1180 0
6 -1172 1174 0
-1174 1181 0
7 -1174 1176 0
-1176 1182 0
8 -1176 0
3 1177 0
4 -1177 1178 0
5 -1178 1179 0
6 -1179 1180 0
7 -1180 1181 0
8 -1181 1182 0
9 -1182 0
10 1183 0
-1183 1184 0
11 -1183 1185 0
-1185 1186 0
12 -1185 1187 0
-1187 1188 0
13 -1187 1189 0
-1189 1190 0
14 -1189 1191 0
-1191 1192 0
15 -1191 1193 0
-1193 1194 0
16 -1193 0
11 1184 0
-1184 1195 0
12 -1184 1186 0
-1186 1196 0
13 -1186 1188 0
-1188 1197 0
14 -1188 1190 0
-1190 1198 0
15 -1190 1192 0
-1192 1199 0
16 -1192 1194 0
-1194 1200 0
17 -1194 0
12 1195 0
13 -1195 1196 0
14 -1196 1197 0
15 -1197 1198 0
16 -1198 1199 0
17 -1199 1200 0
18 -1200 0
19 1201 0
-1201 1202 0
20 -1201 1203 0
-1203 1204 0
21 -1203 1205 0
-1205 1206 0
22 -1205 1207 0
-1207 1208 0
23 -1207 1209 0
-1209 1210 0
24 -1209 1211 0
-1211 1212 0
25 -1211 0
20 1202 0
-1202 1213 0
21 -1202 1204 0
-1204 1214 0
22 -1204 1206 0
-1206 1215 0
23 -1206 1208 0
-1208 1216 0
24 -1208 1210 0
-1210 1217 0
25 -1210 1212 0
-1212 1218 0
26 -1212 0
21 1213 0
22 -1213 1214 0
23 -1214 1215 0
24 -1215 1216 0
25 -1216 1217 0
26 -1217 1218 0
27 -1218 0
28 1219 0
-1219 1220 0
29 -1219 1221 0
-1221 1222 0
30 -1221 1223 0
-1223 1224 0
31 -1223 1225 0
-1225 1226 0
32 -1225 1227 0
-1227 1228 0
33 -1227 1229 0
-1229 1230 0
34 -1229 0
29 1220 0
-1220 1231 0
30 -1220 1222 0
-1222 1232 0
31 -1222 1224 0
-1224 1233 0
32 -1224 1226 0
-1226 1234 0
33 -1226 1228 0
-1228 1235 0
34 -1228 1230 0
-1230 1236 0
35 -1230 0
30 1231 0
31 -1231 1232 0
32 -1232 1233 0
33 -1233 1234 0
34 -1234 1235 0
35 -1235 1236 0
36 -1236 0
37 1237 0
-1237 1238 0
38 -1237 1239 0
-1239 1240 0
39 -1239 1241 0
-1241 1242 0
40 -1241 1243 0
-1243 1244 0
41 -1243 1245 0
-1245 1246 0
42 -1245 1247 0
-1247 1248 0
43 -1247 0
38 1238 0
-1238 1249 0
39 -1238 1240 0
-1240 1250 0
40 -1240 1242 0
-1242 1251 0
41 -1242 1244 0
-1244 1252 0
42 -1244 1246 0
-1246 1253 0
43 -1246 1248 0
-1248 1254 0
44 -1248 0
39 1249 0
40 -1249 1250 0
41 -1250 1251 0
42 -1251 1252 0
43 -1252 1253 0
44 -1253 1254 0
45 -1254 0
46 1255 0
-1255 1256 0
47 -1255 1257 0
-1257 1258 0
48 -1257 1259 0
-1259 1260 0
49 -1259 1261 0
-1261 1262 0
50 -1261 1263 0
-1263 1264 0
51 -1263 1265 0
-1265 1266 0
52 -1265 0
47 1256 0
-1256 1267 0
48 -1256 1258 0
-1258 1268 0
49 -1258 1260 0
-1260 1269 0
50 -1260 1262 0
-1262 1270 0
51 -1262 1264 0
-1264 1271 0
52 -1264 1266 0
-1266 1272 0
53 -1266 0
48 1267 0
49 -1267 1268 0
50 -1268 1269 0
51 -1269 1270 0
52 -1270 1271 0
53 -1271 1272 0
54 -1272 0
55 1273 0
-1273 1274 0
56 -1273 1275 0
-1275 1276 0
57 -1275 1277 0
-1277 1278 0
58 -1277 1279 0
-1279 1280 0
59 -1279 1281 0
-1281 1282 0
60 -1281 1283 0
-1283 1284 0
61 -1283 0
56 1274 0
-1274 1285 0
57 -1274 1276 0
-1276 1286 0
58 -1276 1278 0
-1278 1287 0
59 -1278 1280 0
-1280 1288 0
60 -1280 1282 0
-1282 1289 0
61 -1282 1284 0
-1284 1290 0
62 -1284 0
57 1285 0
58 -1285 1286 0
59 -1286 1287 0
60 -1287 1288 0
61 -1288 1289 0
62 -1289 1290 0
63 -1290 0
64 1291 0
-1291 1292 0
65 -1291 1293 0
-1293 1294 0
66 -1293 1295 0
-1295 1296 0
67 -1295 1297 0
-1297 1298 0
68 -1297 1299 0
-1299 1300 0
69 -1299 1301 0
-1301 1302 0
70 -1301 0
65 1292 0
-1292 1303 0
66 -1292 1294 0
-1294 1304 0
67 -1294 1296 0
-1296 1305 0
68 -1296 1298 0
-1298 1306 0
69 -1298 1300 0
-1300 1307 0
70 -1300 1302 0
-1302 1308 0
71 -1302 0
66 1303 0
67 -1303 1304 0
68 -1304 1305 0
69 -1305 1306 0
70 -1306 1307 0
71 -1307 1308 0
72 -1308 0
-82 1 0
-82 10 0
-1 -10 82 0
-83 2 0
-83 11 0
-2 -11 83 0
-84 3 0
-84 12 0
-3 -12 84 0
-85 4 0
-85 13 0
-4 -13 85 0
-86 5 0
-86 14 0
-5 -14 86 0
-87 6 0
-87 15 0
-6 -15 87 0
-88 7 0
-88 16 0
-7 -16 88 0
-89 8 0
-89 17 0
-8 -17 89 0
-90 9 0
-90 18 0
-9 -18 90 0
-82 1309 0
-1309 1310 0
-83 -1309 0
-83 1310 0
-1310 1311 0
-84 -1310 0
-84 1311 0
-1311 1312 0
-85 -1311 0
-85 1312 0
-1312 1313 0
-86 -1312 0
-86 1313 0
-1313 1314 0
-87 -1313 0
-87 1314 0
-1314 1315 0
-88 -1314 0
-88 1315 0
-1315 1316 0
-89 -1315 0
-89 1316 0
-90 -1316 0
-82 334 0
-83 334 0
-84 334 0
-85 334 0
-86 334 0
-87 334 0
-88 334 0
-89 334 0
-90 334 0
-334 82 83 84 85 86 87 88 89 90 0
-91 1 0
-91 19 0
-1 -19 91 0
-92 2 0
-92 20 0
-2 -20 92 0
-93 3 0
-93 21 0
-3 -21 93 0
-94 4 0
-94 22 0
-4 -22 94 0
-95 5 0
-95 23 0
-5 -23 95 0
-96 6 0
-96 24 0
-6 -24 96 0
-97 7 0
-97 25 0
-7 -25 97 0
-98 8 0
-98 26 0
-8 -26 98 0
-99 9 0
-99 27 0
-9 -27 99 0
-91 1317 0
-1317 1318 0
-92 -1317 0
-92 1318 0
-1318 1319 0
-93 -1318 0
-93 1319 0
-1319 1320 0
-94 -1319 0
-94 1320 0
-1320 1321 0
-95 -1320 0
-95 1321 0
-1321 1322 0
-96 -1321 0
-96 1322 0
-1322 1323 0
-97 -1322 0
-97 1323 0
-1323 1324 0
-98 -1323 0
-98 1324 0
-99 -1324 0
-91 335 0
-92 335 0
-93 335 0
-94 335 0
-95 335 0
-96 335 0
-97 335 0
-98 335 0
-99 335 0
-335 91 92 93 94 95 96 97 98 99 0
-100 1 0
-100 28 0
-1 -28 100 0
-101 2 0
-101 29 0
-2 -29 101 0
-102 3 0
-102 30 0
-3 -30 102 0
-103 4 0
-103 31 0
-4 -31 103 0
-104 5 0
-104 32 0
-5 -32 104 0
-105 6 0
-105 33 0
-6 -33 105 0
-106 7 0
-106 34 0
-7 -34 106 0
-107 8 0
-107 35 0
-8 -35 107 0
-108 9 0
-108 36 0
-9 -36 108 0
-100 1325 0
-1325 1326 0
-101 -1325 0
-101 1326 0
-1326 1327 0
-102 -1326 0
-102 1327 0
-1327 1328 0
-103 -1327 0
-103 1328 0
-1328 1329 0
-104 -1328 0
-104 1329 0
-1329 1330 0
-105 -1329 0
-105 1330 0
-1330 1331 0
-106 -1330 0
-106 1331 0
-1331 1332 0
-107 -1331 0
-107 1332 0
-108 -1332 0
-100 336 0
-101 336 0
-102 336 0
-103 336 0
-104 336 0
-105 336 0
-106 336 0
-107 336 0
-108 336 0
-336 100 101 102 103 104 105 106 107 108 0
-109 1 0
-109 37 0
-1 -37 109 0
-110 2 0
-110 38 0
-2 -38 110 0
-111 3 0
-111 39 0
-3 -39 111 0
-112 4 0
-112 40 0
-4 -40 112 0
-113 5 0
-113 41 0
-5 -41 113 0
-114 6 0
-114 42 0
-6 -42 114 0
-115 7 0
-115 43 0
-7 -43 115 0
-116 8 0
-116 44 0
-8 -44 116 0
-117 9 0
-117 45 0
-9 -45 117 0
-109 1333 0
-1333 1334 0
-110 -1333 0
-110 1334 0
-1334 1335 0
-111 -1334 0
-111 1335 0
-1335 1336 0
-112 -1335 0
-112 1336 0
-1336 1337 0
-113 -1336 0
-113 1337 0
-1337 1338 0
-114 -1337 0
-114 1338 0
-1338 1339 0
-115 -1338 0
-115 1339 0
-1339 1340 0
-116 -1339 0
-116 1340 0
-117 -1340 0
-109 337 0
-110 337 0
-111 337 0
-112 337 0
-113 337 0
-114 337 0
-115 337 0
-116 337 0
-117 337 0
-337 109 110 111 112 113 114 115 116 117 0
-118 1 0
-118 46 0
-1 -46 118 0
-119 2 0
-119 47 0
-2 -47 119 0
-120 3 0
-120 48 0
-3 -48 120 0
-121 4 0
-121 49 0
-4 -49 121 0
-122 5 0
-122 50 0
-5 -50 122 0
-123 6 0
-123 51 0
-6 -51 123 0
-124 7 0
-124 52 0
-7 -52 124 0
-125 8 0
-125 53 0
-8 -53 125 0
-126 9 0
-126 54 0
-9 -54 126 0
-118 1341 0
-1341 1342 0
-119 -1341 0
-119 1342 0
-1342 1343 0
-120 -1342 0
-120 1343 0
-1343 1344 0
-121 -1343 0
-121 1344 0
-1344 1345 0
-122 -1344 0
-122 1345 0
-1345 1346 0
-123 -1345 0
-123 1346 0
-1346 1347 0
-124 -1346 0
-124 1347 0
-1347 1348 0
-125 -1347 0
-125 1348 0
-126 -1348 0
-118 338 0
-119 338 0
-120 338 0
-121 338 0
-122 338 0
-123 338 0
-124 338 0
-125 338 0
-126 338 0
-338 118 119 120 121 122 123 124 125 126 0
-127 1 0
-127 55 0
-1 -55 127 0
-128 2 0
-128 56 0
-2 -56 128 0
-129 3 0
-129 57 0
-3 -57 129 0
-130 4 0
-130 58 0
-4 -58 130 0
-131 5 0
-131 59 0
-5 -59 131 0
-132 6 0
-132 60 0
-6 -60 132 0
-133 7 0
-133 61 0
-7 -61 133 0
-134 8 0
-134 62 0
-8 -62 134 0
-135 9 0
-135 63 0
-9 -63 135 0
-127 1349 0
-1349 1350 0
-128 -1349 0
-128 1350 0
-1350 1351 0
-129 -1350 0
-129 1351 0
-1351 1352 0
-130 -1351 0
-130 1352 0
-1352 1353 0
-131 -1352 0
-131 1353 0
-1353 1354 0
-132 -1353 0
-132 1354 0
-1354 1355 0
-133 -1354 0
-133 1355 0
-1355 1356 0
-134 -1355 0
-134 1356 0
-135 -1356 0
-127 339 0
-128 339 0
-129 339 0
-130 339 0
-131 339 0
-132 339 0
-133 339 0
-134 339 0
-135 339 0
-339 127 128 129 130 131 132 133 134 135 0
-136 1 0
-136 64 0
-1 -64 136 0
-137 2 0
-137 65 0
-2 -65 137 0
-138 3 0
-138 66 0
-3 -66 138 0
-139 4 0
-139 67 0
-4 -67 139 0
-140 5 0
-140 68 0
-5 -68 140 0
-141 6 0
-141 69 0
-6 -69 141 0
-142 7 0
-142 70 0
-7 -70 142 0
-143 8 0
-143 71 0
-8 -71 143 0
-144 9 0
-144 72 0
-9 -72 144 0
-136 1357 0
-1357 1358 0
-137 -1357 0
-137 1358 0
-1358 1359 0
-138 -1358 0
-138 1359 0
-1359 1360 0
-139 -1359 0
-139 1360 0
-1360 1361 0
-140 -1360 0
-140 1361 0
-1361 1362 0
-141 -1361 0
-141 1362 0
-1362 1363 0
-142 -1362 0
-142 1363 0
-1363 1364 0
-143 -1363 0
-143 1364 0
-144 -1364 0
-136 340 0
-137 340 0
-138 340 0
-139 340 0
-140 340 0
-141 340 0
-142 340 0
-143 340 0
-144 340 0
-340 136 137 138 139 140 141 142 143 144 0
-145 10 0
-145 19 0
-10 -19 145 0
-146 11 0
-146 20 0
-11 -20 146 0
-147 12 0
-147 21 0
-12 -21 147 0
-148 13 0
-148 22 0
-13 -22 148 0
-149 14 0
-149 23 0
-14 -23 149 0
-150 15 0
-150 24 0
-15 -24 150 0
-151 16 0
-151 25 0
-16 -25 151 0
-152 17 0
-152 26 0
-17 -26 152 0
-153 18 0
-153 27 0
-18 -27 153 0
-145 1365 0
-1365 1366 0
-146 -1365 0
-146 1366 0
-1366 1367 0
-147 -1366 0
-147 1367 0
-1367 1368 0
-148 -1367 0
-148 1368 0
-1368 1369 0
-149 -1368 0
-149 1369 0
-1369 1370 0
-150 -1369 0
-150 1370 0
-1370 1371 0
-151 -1370 0
-151 1371 0
-1371 1372 0
-152 -1371 0
-152 1372 0
-153 -1372 0
-145 341 0
-146 341 0
-147 341 0
-148 341 0
-149 341 0
-150 341 0
-151 341 0
-152 341 0
-153 341 0
-341 145 146 147 148 149 150 151 152 153 0
-154 10 0
-154 28 0
-10 -28 154 0
-155 11 0
-155 29 0
-11 -29 155 0
-156 12 0
-156 30 0
-12 -30 156 0
-157 13 0
-157 31 0
-13 -31 157 0
-158 14 0
-158 32 0
-14 -32 158 0
-159 15 0
-159 33 0
-15 -33 159 0
-160 16 0
-160 34 0
-16 -34 160 0
-161 17 0
-161 35 0
-17 -35 161 0
-162 18 0
-162 36 0
-18 -36 162 0
-154 1373 0
-1373 1374 0
-155 -1373 0
-155 1374 0
-1374 1375 0
-156 -1374 0
-156 1375 0
-1375 1376 0
-157 -1375 0
-157 1376 0
-1376 1377 0
-158 -1376 0
-158 1377 0
-1377 1378 0
-159 -1377 0
-159 1378 0
-1378 1379 0
-160 -1378 0
-160 1379 0
-1379 1380 0
-161 -1379 0
-161 1380 0
-162 -1380 0
-154 342 0
-155 342 0
-156 342 0
-157 342 0
-158 342 0
-159 342 0
-160 342 0
-161 342 0
-162 342 0
-342 154 155 156 157 158 159 160 161 162 0
-163 10 0
-163 37 0
-10 -37 163 0
-164 11 0
-164 38 0
-11 -38 164 0
-165 12 0
-165 39 0
-12 -39 165 0
-166 13 0
-166 40 0
-13 -40 166 0
-167 14 0
-167 41 0
-14 -41 167 0
-168 15 0
-168 42 0
-15 -42 168 0
-169 16 0
-169 43 0
-16 -43 169 0
-170 17 0
-170 44 0
-17 -44 170 0
-171 18 0
-171 45 0
-18 -45 171 0
-163 1381 0
-1381 1382 0
-164 -1381 0
-164 1382 0
-1382 1383 0
-165 -1382 0
-165 1383 0
-1383 1384 0
-166 -1383 0
-166 1384 0
-1384 1385 0
-167 -1384 0
-167 1385 0
-1385 1386 0
-168 -1385 0
-168 1386 0
-1386 1387 0
-169 -1386 0
-169 1387 0
-1387 1388 0
-170 -1387 0
-170 1388 0
-171 -1388 0
-163 343 0
-164 343 0
-165 343 0
-166 343 0
-167 343 0
-168 343 0
-169 343 0
-170 343 0
-171 343 0
-343 163 164 165 166 167 168 169 170 171 0
-172 10 0
-172 46 0
-10 -46 172 0
-173 11 0
-173 47 0
-11 -47 173 0
-174 12 0
-174 48 0
-12 -48 174 0
-175 13 0
-175 49 0
-13 -49 175 0
-176 14 0
-176 50 0
-14 -50 176 0
-177 15 0
-177 51 0
-15 -51 177 0
-178 16 0
-178 52 0
-16 -52 178 0
-179 17 0
-179 53 0
-17 -53 179 0
-180 18 0
-180 54 0
-18 -54 180 0
-172 1389 0
-1389 1390 0
-173 -1389 0
-173 1390 0
-1390 1391 0
-174 -1390 0
-174 1391 0
-1391 1392 0
-175 -1391 0
-175 1392 0
-1392 1393 0
-176 -1392 0
-176 1393 0
-1393 1394 0
-177 -1393 0
-177 1394 0
-1394 1395 0
-178 -1394 0
-178 1395 0
-1395 1396 0
-179 -1395 0
-179 1396 0
-180 -1396 0
-172 344 0
-173 344 0
-174 344 0
-175 344 0
-176 344 0
-177 344 0
-178 344 0
-179 344 0
-180 344 0
-344 172 173 174 175 176 177 178 179 180 0
-181 10 0
-181 55 0
-10 -55 181 0
-182 11 0
-182 56 0
-11 -56 182 0
-183 12 0
-183 57 0
-12 -57 183 0
-184 13 0
-184 58 0
-13 -58 184 0
-185 14 0
-185 59 0
-14 -59 185 0
-186 15 0
-186 60 0
-15 -60 186 0
-187 16 0
-187 61 0
-16 -61 187 0
-188 17 0
-188 62 0
-17 -62 188 0
-189 18 0
-189 63 0
-18 -63 189 0
-181 1397 0
-1397 1398 0
-182 -1397 0
-182 1398 0
-1398 1399 0
-183 -1398 0
-183 1399 0
-1399 1400 0
-184 -1399 0
-184 1400 0
-1400 1401 0
-185 -1400 0
-185 1401 0
-1401 1402 0
-186 -1401 0
-186 1402 0
-1402 1403 0
-187 -1402 0
-187 1403 0
-1403 1404 0
-188 -1403 0
-188 1404 0
-189 -1404 0
-181 345 0
-182 345 0
-183 345 0
-184 345 0
-185 345 0
-186 345 0
-187 345 0
-188 345 0
-189 345 0
-345 181 182 183 184 185 186 187 188 189 0
-190 10 0
-190 64 0
-10 -64 190 0
-191 11 0
-191 65 0
-11 -65 191 0
-192 12 0
-192 66 0
-12 -66 192 0
-193 13 0
-193 67 0
-13 -67 193 0
-194 14 0
-194 68 0
-14 -68 194 0
-195 15 0
-195 69 0
-15 -69 195 0
-196 16 0
-196 70 0
-16 -70 196 0
-197 17 0
-197 71 0
-17 -71 197 0
-198 18 0
-198 72 0
-18 -72 198 0
-190 1405 0
-1405 1406 0
-191 -1405 0
-191 1406 0
-1406 1407 0
-192 -1406 0
-192 1407 0
-1407 1408 0
-193 -1407 0
-193 1408 0
-1408 1409 0
-194 -1408 0
-194 1409 0
-1409 1410 0
-195 -1409 0
-195 1410 0
-1410 1411 0
-196 -1410 0
-196 1411 0
-1411 1412 0
-197 -1411 0
-197 1412 0
-198 -1412 0
-190 346 0
-191 346 0
-192 346 0
-193 346 0
-194 346 0
-195 346 0
-196 346 0
-197 346 0
-198 346 0
-346 190 191 192 193 194 195 196 197 198 0
-199 19 0
-199 28 0
-19 -28 199 0
-200 20 0
-200 29 0
-20 -29 200 0
-201 21 0
-201 30 0
-21 -30 201 0
-202 22 0
-202 31 0
-22 -31 202 0
-203 23 0
-203 32 0
-23 -32 203 0
-204 24 0
-204 33 0
-24 -33 204 0
-205 25 0
-205 34 0
-25 -34 205 0
-206 26 0
-206 35 0
-26 -35 206 0
-207 27 0
-207 36 0
-27 -36 207 0
-199 1413 0
-1413 1414 0
-200 -1413 0
-200 1414 0
-1414 1415 0
-201 -1414 0
-201 1415 0
-1415 1416 0
-202 -1415 0
-202 1416 0
-1416 1417 0
-203 -1416 0
-203 1417 0
-1417 1418 0
-204 -1417 0
-204 1418 0
-1418 1419 0
-205 -1418 0
-205 1419 0
-1419 1420 0
-206 -1419 0
-206 1420 0
-207 -1420 0
-199 347 0
-200 347 0
-201 347 0
-202 347 0
-203 347 0
-204 347 0
-205 347 0
-206 347 0
-207 347 0
-347 199 200 201 202 203 204 205 206 207 0
-208 19 0
-208 37 0
-19 -37 208 0
-209 20 0
-209 38 0
-20 -38 209 0
-210 21 0
-210 39 0
-21 -39 210 0
-211 22 0
-211 40 0
-22 -40 211 0
-212 23 0
-212 41 0
-23 -41 212 0
-213 24 0
-213 42 0
-24 -42 213 0
-214 25 0
-214 43 0
-25 -43 214 0
-215 26 0
-215 44 0
-26 -44 215 0
-216 27 0
-216 45 0
-27 -45 216 0
-208 1421 0
-1421 1422 0
-209 -1421 0
-209 1422 0
-1422 1423 0
-210 -1422 0
-210 1423 0
-1423 1424 0
-211 -1423 0
-211 1424 0
-1424 1425 0
-212 -1424 0
-212 1425 0
-1425 1426 0
-213 -1425 0
-213 1426 0
-1426 1427 0
-214 -1426 0
-214 1427 0
-1427 1428 0
-215 -1427 0
-215 1428 0
-216 -1428 0
-208 348 0
-209 348 0
-210 348 0
-211 348 0
-212 348 0
-213 348 0
-214 348 0
-215 348 0
-216 348 0
-348 208 209 210 211 212 213 214 215 216 0
-217 19 0
-217 46 0
-19 -46 217 0
-218 20 0
-218 47 0
-20 -47 218 0
-219 21 0
-219 48 0
-21 -48 219 0
-220 22 0
-220 49 0
-22 -49 220 0
-221 23 0
-221 50 0
-23 -50 221 0
-222 24 0
-222 51 0
-24 -51 222 0
-223 25 0
-223 52 0
-25 -52 223 0
-224 26 0
-224 53 0
-26 -53 224 0
-225 27 0
-225 54 0
-27 -54 225 0
-217 1429 0
-1429 1430 0
-218 -1429 0
-218 1430 0
-1430 1431 0
-219 -1430 0
-219 1431 0
-1431 1432 0
-220 -1431 0
-220 1432 0
-1432 1433 0
-221 -1432 0
-221 1433 0
-1433 1434 0
-222 -1433 0
-222 1434 0
-1434 1435 0
-223 -1434 0
-223 1435 0
-1435 1436 0
-224 -1435 0
-224 1436 0
-225 -1436 0
-217 349 0
-218 349 0
-219 349 0
-220 349 0
-221 349 0
-222 349 0
-223 349 0
-224 349 0
-225 349 0
-349 217 218 219 220 221 222 223 224 225 0
-226 19 0
-226 55 0
-19 -55 226 0
-227 20 0
-227 56 0
-20 -56 227 0
-228 21 0
-228 57 0
-21 -57 228 0
-229 22 0
-229 58 0
-22 -58 229 0
-230 23 0
-230 59 0
-23 -59 230 0
-231 24 0
-231 60 0
-24 -60 231 0
-232 25 0
-232 61 0
-25 -61 232 0
-233 26 0
-233 62 0
-26 -62 233 0
-234 27 0
-234 63 0
-27 -63 234 0
-226 1437 0
-1437 1438 0
-227 -1437 0
-227 1438 0
-1438 1439 0
-228 -1438 0
-228 1439 0
-1439 1440 0
-229 -1439 0
-229 1440 0
-1440 1441 0
-230 -1440 0
-230 1441 0
-1441 1442 0
-231 -1441 0
-231 1442 0
-1442 1443 0
-232 -1442 0
-232 1443 0
-1443 1444 0
-233 -1443 0
-233 1444 0
-234 -1444 0
-226 350 0
-227 350 0
-228 350 0
-229 350 0
-230 350 0
-231 350 0
-232 350 0
-233 350 0
-234 350 0
-350 226 227 228 229 230 231 232 233 234 0
-235 19 0
-235 64 0
-19 -64 235 0
-236 20 0
-236 65 0
-20 -65 236 0
-237 21 0
-237 66 0
-21 -66 237 0
-238 22 0
-238 67 0
-22 -67 238 0
-239 23 0
-239 68 0
-23 -68 239 0
-240 24 0
-240 69 0
-24 -69 240 0
-241 25 0
-241 70 0
-25 -70 241 0
-242 26 0
-242 71 0
-26 -71 242 0
-243 27 0
-243 72 0
-27 -72 243 0
-235 1445 0
-1445 1446 0
-236 -1445 0
-236 1446 0
-1446 1447 0
-237 -1446 0
-237 1447 0
-1447 1448 0
-238 -1447 0
-238 1448 0
-1448 1449 0
-239 -1448 0
-239 1449 0
-1449 1450 0
-240 -1449 0
-240 1450 0
-1450 1451 0
-241 -1450 0
-241 1451 0
-1451 1452 0
-242 -1451 0
-242 1452 0
-243 -1452 0
-235 351 0
-236 351 0
-237 351 0
-238 351 0
-239 351 0
-240 351 0
-241 351 0
-242 351 0
-243 351 0
-351 235 236 237 238 239 240 241 242 243 0
-244 28 0
-244 37 0
-28 -37 244 0
-245 29 0
-245 38 0
-29 -38 245 0
-246 30 0
-246 39 0
-30 -39 246 0
-247 31 0
-247 40 0
-31 -40 247 0
-248 32 0
-248 41 0
-32 -41 248 0
-249 33 0
-249 42 0
-33 -42 249 0
-250 34 0
-250 43 0
-34 -43 250 0
-251 35 0
-251 44 0
-35 -44 251 0
-252 36 0
-252 45 0
-36 -45 252 0
-244 1453 0
-1453 1454 0
-245 -1453 0
-245 1454 0
-1454 1455 0
-246 -1454 0
-246 1455 0
-1455 1456 0
-247 -1455 0
-247 1456 0
-1456 1457 0
-248 -1456 0
-248 1457 0
-1457 1458 0
-249 -1457 0
-249 1458 0
-1458 1459 0
-250 -1458 0
-250 1459 0
-1459 1460 0
-251 -1459 0
-251 1460 0
-252 -1460 0
-244 352 0
-245 352 0
-246 352 0
-247 352 0
-248 352 0
-249 352 0
-250 352 0
-251 352 0
-252 352 0
-352 244 245 246 247 248 249 250 251 252 0
-253 28 0
-253 46 0
-28 -46 253 0
-254 29 0
-254 47 0
-29 -47 254 0
-255 30 0
-255 48 0
-30 -48 255 0
-256 31 0
-256 49 0
-31 -49 256 0
-257 32 0
-257 50 0
-32 -50 257 0
-258 33 0
-258 51 0
-33 -51 258 0
-259 34 0
-259 52 0
-34 -52 259 0
-260 35 0
-260 53 0
-35 -53 260 0
-261 36 0
-261 54 0
-36 -54 261 0
-253 1461 0
-1461 1462 0
-254 -1461 0
-254 1462 0
-1462 1463 0
-255 -1462 0
-255 1463 0
-1463 1464 0
-256 -1463 0
-256 1464 0
-1464 1465 0
-257 -1464 0
-257 1465 0
-1465 1466 0
-258 -1465 0
-258 1466 0
-1466 1467 0
-259 -1466 0
-259 1467 0
-1467 1468 0
-260 -1467 0
-260 1468 0
-261 -1468 0
-253 353 0
-254 353 0
-255 353 0
-256 353 0
-257 353 0
-258 353 0
-259 353 0
-260 353 0
-261 353 0
-353 253 254 255 256 257 258 259 260 261 0
-262 28 0
-262 55 0
-28 -55 262 0
-263 29 0
-263 56 0
-29 -56 263 0
-264 30 0
-264 57 0
-30 -57 264 0
-265 31 0
-265 58 0
-31 -58 265 0
-266 32 0
-266 59 0
-32 -59 266 0
-267 33 0
-267 60 0
-33 -60 267 0
-268 34 0
-268 61 0
-34 -61 268 0
-269 35 0
-269 62 0
-35 -62 269 0
-270 36 0
-270 63 0
-36 -63 270 0
-262 1469 0
-1469 1470 0
-263 -1469 0
-263 1470 0
-1470 1471 0
-264 -1470 0
-264 1471 0
-1471 1472 0
-265 -1471 0
-265 1472 0
-1472 1473 0
-266 -1472 0
-266 1473 0
-1473 1474 0
-267 -1473 0
-267 1474 0
-1474 1475 0
-268 -1474 0
-268 1475 0
-1475 1476 0
-269 -1475 0
-269 1476 0
-270 -1476 0
-262 354 0
-263 354 0
-264 354 0
-265 354 0
-266 354 0
-267 354 0
-268 354 0
-269 354 0
-270 354 0
-354 262 263 264 265 266 267 268 269 270 0
-271 28 0
-271 64 0
-28 -64 271 0
-272 29 0
-272 65 0
-29 -65 272 0
-273 30 0
-273 66 0
-30 -66 273 0
-274 31 0
-274 67 0
-31 -67 274 0
-275 32 0
-275 68 0
-32 -68 275 0
-276 33 0
-276 69 0
-33 -69 276 0
-277 34 0
-277 70 0
-34 -70 277 0
-278 35 0
-278 71 0
-35 -71 278 0
-279 36 0
-279 72 0
-36 -72 279 0
-271 1477 0
-1477 1478 0
-272 -1477 0
-272 1478 0
-1478 1479 0
-273 -1478 0
-273 1479 0
-1479 1480 0
-274 -1479 0
-274 1480 0
-1480 1481 0
-275 -1480 0
-275 1481 0
-1481 1482 0
-276 -1481 0
-276 1482 0
-1482 1483 0
-277 -1482 0
-277 1483 0
-1483 1484 0
-278 -1483 0
-278 1484 0
-279 -1484 0
-271 355 0
-272 355 0
-273 355 0
-274 355 0
-275 355 0
-276 355 0
-277 355 0
-278 355 0
-279 355 0
-355 271 272 273 274 275 276 277 278 279 0
-280 37 0
-280 46 0
-37 -46 280 0
-281 38 0
-281 47 0
-38 -47 281 0
-282 39 0
-282 48 0
-39 -48 282 0
-283 40 0
-283 49 0
-40 -49 283 0
-284 41 0
-284 50 0
-41 -50 284 0
-285 42 0
-285 51 0
-42 -51 285 0
-286 43 0
-286 52 0
-43 -52 286 0
-287 44 0
-287 53 0
-44 -53 287 0
-288 45 0
-288 54 0
-45 -54 288 0
-280 1485 0
-1485 1486 0
-281 -1485 0
-281 1486 0
-1486 1487 0
-282 -1486 0
-282 1487 0
-1487 1488 0
-283 -1487 0
-283 1488 0
-1488 1489 0
-284 -1488 0
-284 1489 0
-1489 1490 0
-285 -1489 0
-285 1490 0
-1490 1491 0
-286 -1490 0
-286 1491 0
-1491 1492 0
-287 -1491 0
-287 1492 0
-288 -1492 0
-280 356 0
-281 356 0
-282 356 0
-283 356 0
-284 356 0
-285 356 0
-286 356 0
-287 356 0
-288 356 0
-356 280 281 282 283 284 285 286 287 288 0
-289 37 0
-289 55 0
-37 -55 289 0
-290 38 0
-290 56 0
-38 -56 290 0
-291 39 0
-291 57 0
-39 -57 291 0
-292 40 0
-292 58 0
-40 -58 292 0
-293 41 0
-293 59 0
-41 -59 293 0
-294 42 0
-294 60 0
-42 -60 294 0
-295 43 0
-295 61 0
-43 -61 295 0
-296 44 0
-296 62 0
-44 -62 296 0
-297 45 0
-297 63 0
-45 -63 297 0
-289 1493 0
-1493 1494 0
-290 -1493 0
-290 1494 0
-1494 1495 0
-291 -1494 0
-291 1495 0
-1495 1496 0
-292 -1495 0
-292 1496 0
-1496 1497 0
-293 -1496 0
-293 1497 0
-1497 1498 0
-294 -1497 0
-294 1498 0
-1498 1499 0
-295 -1498 0
-295 1499 0
-1499 1500 0
-296 -1499 0
-296 1500 0
-297 -1500 0
-289 357 0
-290 357 0
-291 357 0
-292 357 0
-293 357 0
-294 357 0
-295 357 0
-296 357 0
-297 357 0
-357 289 290 291 292 293 294 295 296 297 0
-298 37 0
-298 64 0
-37 -64 298 0
-299 38 0
-299 65 0
-38 -65 299 0
-300 39 0
-300 66 0
-39 -66 300 0
-301 40 0
-301 67 0
-40 -67 301 0
-302 41 0
-302 68 0
-41 -68 302 0
-303 42 0
-303 69 0
-42 -69 303 0
-304 43 0
-304 70 0
-43 -70 304 0
-305 44 0
-305 71 0
-44 -71 305 0
-306 45 0
-306 72 0
-45 -72 306 0
-298 1501 0
-1501 1502 0
-299 -1501 0
-299 1502 0
-1502 1503 0
-300 -1502 0
-300 1503 0
-1503 1504 0
-301 -1503 0
-301 1504 0
-1504 1505 0
-302 -1504 0
-302 1505 0
-1505 1506 0
-303 -1505 0
-303 1506 0
-1506 1507 0
-304 -1506 0
-304 1507 0
-1507 1508 0
-305 -1507 0
-305 1508 0
-306 -1508 0
-298 358 0
-299 358 0
-300 358 0
-301 358 0
-302 358 0
-303 358 0
-304 358 0
-305 358 0
-306 358 0
-358 298 299 300 301 302 303 304 305 306 0
-307 46 0
-307 55 0
-46 -55 307 0
-308 47 0
-308 56 0
-47 -56 308 0
-309 48 0
-309 57 0
-48 -57 309 0
-310 49 0
-310 58 0
-49 -58 310 0
-311 50 0
-311 59 0
-50 -59 311 0
-312 51 0
-312 60 0
-51 -60 312 0
-313 52 0
-313 61 0
-52 -61 313 0
-314 53 0
-314 62 0
-53 -62 314 0
-315 54 0
-315 63 0
-54 -63 315 0
-307 1509 0
-1509 1510 0
-308 -1509 0
-308 1510 0
-1510 1511 0
-309 -1510 0
-309 1511 0
-1511 1512 0
-310 -1511 0
-310 1512 0
-1512 1513 0
-311 -1512 0
-311 1513 0
-1513 1514 0
-312 -1513 0
-312 1514 0
-1514 1515 0
-313 -1514 0
-313 1515 0
-1515 1516 0
-314 -1515 0
-314 1516 0
-315 -1516 0
-307 359 0
-308 359 0
-309 359 0
-310 359 0
-311 359 0
-312 359 0
-313 359 0
-314 359 0
-315 359 0
-359 307 308 309 310 311 312 313 314 315 0
-316 46 0
-316 64 0
-46 -64 316 0
-317 47 0
-317 65 0
-47 -65 317 0
-318 48 0
-318 66 0
-48 -66 318 0
-319 49 0
-319 67 0
-49 -67 319 0
-320 50 0
-320 68 0
-50 -68 320 0
-321 51 0
-321 69 0
-51 -69 321 0
-322 52 0
-322 70 0
-52 -70 322 0
-323 53 0
-323 71 0
-53 -71 323 0
-324 54 0
-324 72 0
-54 -72 324 0
-316 1517 0
-1517 1518 0
-317 -1517 0
-317 1518 0
-1518 1519 0
-318 -1518 0
-318 1519 0
-1519 1520 0
-319 -1519 0
-319 1520 0
-1520 1521 0
-320 -1520 0
-320 1521 0
-1521 1522 0
-321 -1521 0
-321 1522 0
-1522 1523 0
-322 -1522 0
-322 1523 0
-1523 1524 0
-323 -1523 0
-323 1524 0
-324 -1524 0
-316 360 0
-317 360 0
-318 360 0
-319 360 0
-320 360 0
-321 360 0
-322 360 0
-323 360 0
-324 360 0
-360 316 317 318 319 320 321 322 323 324 0
-325 55 0
-325 64 0
-55 -64 325 0
-326 56 0
-326 65 0
-56 -65 326 0
-327 57 0
-327 66 0
-57 -66 327 0
-328 58 0
-328 67 0
-58 -67 328 0
-329 59 0
-329 68 0
-59 -68 329 0
-330 60 0
-330 69 0
-60 -69 330 0
-331 61 0
-331 70 0
-61 -70 331 0
-332 62 0
-332 71 0
-62 -71 332 0
-333 63 0
-333 72 0
-63 -72 333 0
-325 1525 0
-1525 1526 0
-326 -1525 0
-326 1526 0
-1526 1527 0
-327 -1526 0
-327 1527 0
-1527 1528 0
-328 -1527 0
-328 1528 0
-1528 1529 0
-329 -1528 0
-329 1529 0
-1529 1530 0
-330 -1529 0
-330 1530 0
-1530 1531 0
-331 -1530 0
-331 1531 0
-1531 1532 0
-332 -1531 0
-332 1532 0
-333 -1532 0
-325 361 0
-326 361 0
-327 361 0
-328 361 0
-329 361 0
-330 361 0
-331 361 0
-332 361 0
-333 361 0
-361 325 326 327 328 329 330 331 332 333 0
-362 1 0
-362 10 0
-362 19 0
-1 -10 -19 362 0
-363 2 0
-363 11 0
-363 20 0
-2 -11 -20 363 0
-364 3 0
-364 12 0
-364 21 0
-3 -12 -21 364 0
-365 4 0
-365 13 0
-365 22 0
-4 -13 -22 365 0
-366 5 0
-366 14 0
-366 23 0
-5 -14 -23 366 0
-367 6 0
-367 15 0
-367 24 0
-6 -15 -24 367 0
-368 7 0
-368 16 0
-368 25 0
-7 -16 -25 368 0
-369 8 0
-369 17 0
-369 26 0
-8 -17 -26 369 0
-370 9 0
-370 18 0
-370 27 0
-9 -18 -27 370 0
-362 866 0
-363 866 0
-364 866 0
-365 866 0
-366 866 0
-367 866 0
-368 866 0
-369 866 0
-370 866 0
-866 362 363 364 365 366 367 368 369 370 0
-371 1 0
-371 10 0
-371 28 0
-1 -10 -28 371 0
-372 2 0
-372 11 0
-372 29 0
-2 -11 -29 372 0
-373 3 0
-373 12 0
-373 30 0
-3 -12 -30 373 0
-374 4 0
-374 13 0
-374 31 0
-4 -13 -31 374 0
-375 5 0
-375 14 0
-375 32 0
-5 -14 -32 375 0
-376 6 0
-376 15 0
-376 33 0
-6 -15 -33 376 0
-377 7 0
-377 16 0
-377 34 0
-7 -16 -34 377 0
-378 8 0
-378 17 0
-378 35 0
-8 -17 -35 378 0
-379 9 0
-379 18 0
-379 36 0
-9 -18 -36 379 0
-371 867 0
-372 867 0
-373 867 0
-374 867 0
-375 867 0
-376 867 0
-377 867 0
-378 867 0
-379 867 0
-867 371 372 373 374 375 376 377 378 379 0
-380 1 0
-380 10 0
-380 37 0
-1 -10 -37 380 0
-381 2 0
-381 11 0
-381 38 0
-2 -11 -38 381 0
-382 3 0
-382 12 0
-382 39 0
-3 -12 -39 382 0
-383 4 0
-383 13 0
-383 40 0
-4 -13 -40 383 0
-384 5 0
-384 14 0
-384 41 0
-5 -14 -41 384 0
-385 6 0
-385 15 0
-385 42 0
-6 -15 -42 385 0
-386 7 0
-386 16 0
-386 43 0
-7 -16 -43 386 0
-387 8 0
-387 17 0
-387 44 0
-8 -17 -44 387 0
-388 9 0
-388 18 0
-388 45 0
-9 -18 -45 388 0
-380 868 0
-381 868 0
-382 868 0
-383 868 0
-384 868 0
-385 868 0
-386 868 0
-387 868 0
-388 868 0
-868 380 381 382 383 384 385 386 387 388 0
-389 1 0
-389 10 0
-389 46 0
-1 -10 -46 389 0
-390 2 0
-390 11 0
-390 47 0
-2 -11 -47 390 0
-391 3 0
-391 12 0
-391 48 0
-3 -12 -48 391 0
-392 4 0
-392 13 0
-392 49 0
-4 -13 -49 392 0
-393 5 0
-393 14 0
-393 50 0
-5 -14 -50 393 0
-394 6 0
-394 15 0
-394 51 0
-6 -15 -51 394 0
-395 7 0
-395 16 0
-395 52 0
-7 -16 -52 395 0
-396 8 0
-396 17 0
-396 53 0
-8 -17 -53 396 0
-397 9 0
-397 18 0
-397 54 0
-9 -18 -54 397 0
-389 869 0
-390 869 0
-391 869 0
-392 869 0
-393 869 0
-394 869 0
-395 869 0
-396 869 0
-397 869 0
-869 389 390 391 392 393 394 395 396 397 0
-398 1 0
-398 10 0
-398 55 0
-1 -10 -55 398 0
-399 2 0
-399 11 0
-399 56 0
-2 -11 -56 399 0
-400 3 0
-400 12 0
-400 57 0
-3 -12 -57 400 0
-401 4 0
-401 13 0
-401 58 0
-4 -13 -58 401 0
-402 5 0
-402 14 0
-402 59 0
-5 -14 -59 402 0
-403 6 0
-403 15 0
-403 60 0
-6 -15 -60 403 0
-404 7 0
-404 16 0
-404 61 0
-7 -16 -61 404 0
-405 8 0
-405 17 0
-405 62 0
-8 -17 -62 405 0
-406 9 0
-406 18 0
-406 63 0
-9 -18 -63 406 0
-398 870 0
-399 870 0
-400 870 0
-401 870 0
-402 870 0
-403 870 0
-404 870 0
-405 870 0
-406 870 0
-870 398 399 400 401 402 403 404 405 406 0
-407 1 0
-407 10 0
-407 64 0
-1 -10 -64 407 0
-408 2 0
-408 11 0
-408 65 0
-2 -11 -65 408 0
-409 3 0
-409 12 0
-409 66 0
-3 -12 -66 409 0
-410 4 0
-410 13 0
-410 67 0
-4 -13 -67 410 0
-411 5 0
-411 14 0
-411 68 0
-5 -14 -68 411 0
-412 6 0
-412 15 0
-412 69 0
-6 -15 -69 412 0
-413 7 0
-413 16 0
-413 70 0
-7 -16 -70 413 0
-414 8 0
-414 17 0
-414 71 0
-8 -17 -71 414 0
-415 9 0
-415 18 0
-415 72 0
-9 -18 -72 415 0
-407 871 0
-408 871 0
-409 871 0
-410 871 0
-411 871 0
-412 871 0
-413 871 0
-414 871 0
-415 871 0
-871 407 408 409 410 411 412 413 414 415 0
-416 1 0
-416 19 0
-416 28 0
-1 -19 -28 416 0
-417 2 0
-417 20 0
-417 29 0
-2 -20 -29 417 0
-418 3 0
-418 21 0
-418 30 0
-3 -21 -30 418 0
-419 4 0
-419 22 0
-419 31 0
-4 -22 -31 419 0
-420 5 0
-420 23 0
-420 32 0
-5 -23 -32 420 0
-421 6 0
-421 24 0
-421 33 0
-6 -24 -33 421 0
-422 7 0
-422 25 0
-422 34 0
-7 -25 -34 422 0
-423 8 0
-423 26 0
-423 35 0
-8 -26 -35 423 0
-424 9 0
-424 27 0
-424 36 0
-9 -27 -36 424 0
-416 872 0
-417 872 0
-418 872 0
-419 872 0
-420 872 0
-421 872 0
-422 872 0
-423 872 0
-424 872 0
-872 416 417 418 419 420 421 422 423 424 0
-425 1 0
-425 19 0
-425 37 0
-1 -19 -37 425 0
-426 2 0
-426 20 0
-426 38 0
-2 -20 -38 426 0
-427 3 0
-427 21 0
-427 39 0
-3 -21 -39 427 0
-428 4 0
-428 22 0
-428 40 0
-4 -22 -40 428 0
-429 5 0
-429 23 0
-429 41 0
-5 -23 -41 429 0
-430 6 0
-430 24 0
-430 42 0
-6 -24 -42 430 0
-431 7 0
-431 25 0
-431 43 0
-7 -25 -43 431 0
-432 8 0
-432 26 0
-432 44 0
-8 -26 -44 432 0
-433 9 0
-433 27 0
-433 45 0
-9 -27 -45 433 0
-425 873 0
-426 873 0
-427 873 0
-428 873 0
-429 873 0
-430 873 0
-431 873 0
-432 873 0
-433 873 0
-873 425 426 427 428 429 430 431 432 433 0
-434 1 0
-434 19 0
-434 46 0
-1 -19 -46 434 0
-435 2 0
-435 20 0
-435 47 0
-2 -20 -47 435 0
-436 3 0
-436 21 0
-436 48 0
-3 -21 -48 436 0
-437 4 0
-437 22 0
-437 49 0
-4 -22 -49 437 0
-438 5 0
-438 23 0
-438 50 0
-5 -23 -50 438 0
-439 6 0
-439 24 0
-439 51 0
-6 -24 -51 439 0
-440 7 0
-440 25 0
-440 52 0
-7 -25 -52 440 0
-441 8 0
-441 26 0
-441 53 0
-8 -26 -53 441 0
-442 9 0
-442 27 0
-442 54 0
-9 -27 -54 442 0
-434 874 0
-435 874 0
-436 874 0
-437 874 0
-438 874 0
-439 874 0
-440 874 0
-441 874 0
-442 874 0
-874 434 435 436 437 438 439 440 441 442 0
-443 1 0
-443 19 0
-443 55 0
-1 -19 -55 443 0
-444 2 0
-444 20 0
-444 56 0
-2 -20 -56 444 0
-445 3 0
-445 21 0
-445 57 0
-3 -21 -57 445 0
-446 4 0
-446 22 0
-446 58 0
-4 -22 -58 446 0
-447 5 0
-447 23 0
-447 59 0
-5 -23 -59 447 0
-448 6 0
-448 24 0
-448 60 0
-6 -24 -60 448 0
-449 7 0
-449 25 0
-449 61 0
-7 -25 -61 449 0
-450 8 0
-450 26 0
-450 62 0
-8 -26 -62 450 0
-451 9 0
-451 27 0
-451 63 0
-9 -27 -63 451 0
-443 875 0
-444 875 0
-445 875 0
-446 875 0
-447 875 0
-448 875 0
-449 875 0
-450 875 0
-451 875 0
-875 443 444 445 446 447 448 449 450 451 0
-452 1 0
-452 19 0
-452 64 0
-1 -19 -64 452 0
-453 2 0
-453 20 0
-453 65 0
-2 -20 -65 453 0
-454 3 0
-454 21 0
-454 66 0
-3 -21 -66 454 0
-455 4 0
-455 22 0
-455 67 0
-4 -22 -67 455 0
-456 5 0
-456 23 0
-456 68 0
-5 -23 -68 456 0
-457 6 0
-457 24 0
-457 69 0
-6 -24 -69 457 0
-458 7 0
-458 25 0
-458 70 0
-7 -25 -70 458 0
-459 8 0
-459 26 0
-459 71 0
-8 -26 -71 459 0
-460 9 0
-460 27 0
-460 72 0
-9 -27 -72 460 0
-452 876 0
-453 876 0
-454 876 0
-455 876 0
-456 876 0
-457 876 0
-458 876 0
-459 876 0
-460 876 0
-876 452 453 454 455 456 457 458 459 460 0
-461 1 0
-461 28 0
-461 37 0
-1 -28 -37 461 0
-462 2 0
-462 29 0
-462 38 0
-2 -29 -38 462 0
-463 3 0
-463 30 0
-463 39 0
-3 -30 -39 463 0
-464 4 0
-464 31 0
-464 40 0
-4 -31 -40 464 0
-465 5 0
-465 32 0
-465 41 0
-5 -32 -41 465 0
-466 6 0
-466 33 0
-466 42 0
-6 -33 -42 466 0
-467 7 0
-467 34 0
-467 43 0
-7 -34 -43 467 0
-468 8 0
-468 35 0
-468 44 0
-8 -35 -44 468 0
-469 9 0
-469 36 0
-469 45 0
-9 -36 -45 469 0
-461 877 0
-462 877 0
-463 877 0
-464 877 0
-465 877 0
-466 877 0
-467 877 0
-468 877 0
-469 877 0
-877 461 462 463 464 465 466 467 468 469 0
-470 1 0
-470 28 0
-470 46 0
-1 -28 -46 470 0
-471 2 0
-471 29 0
-471 47 0
-2 -29 -47 471 0
-472 3 0
-472 30 0
-472 48 0
-3 -30 -48 472 0
-473 4 0
-473 31 0
-473 49 0
-4 -31 -49 473 0
-474 5 0
-474 32 0
-474 50 0
-5 -32 -50 474 0
-475 6 0
-475 33 0
-475 51 0
-6 -33 -51 475 0
-476 7 0
-476 34 0
-476 52 0
-7 -34 -52 476 0
-477 8 0
-477 35 0
-477 53 0
-8 -35 -53 477 0
-478 9 0
-478 36 0
-478 54 0
-9 -36 -54 478 0
-470 878 0
-471 878 0
-472 878 0
-473 878 0
-474 878 0
-475 878 0
-476 878 0
-477 878 0
-478 878 0
-878 470 471 472 473 474 475 476 477 478 0
-479 1 0
-479 28 0
-479 55 0
-1 -28 -55 479 0
-480 2 0
-480 29 0
-480 56 0
-2 -29 -56 480 0
-481 3 0
-481 30 0
-481 57 0
-3 -30 -57 481 0
-482 4 0
-482 31 0
-482 58 0
-4 -31 -58 482 0
-483 5 0
-483 32 0
-483 59 0
-5 -32 -59 483 0
-484 6 0
-484 33 0
-484 60 0
-6 -33 -60 484 0
-485 7 0
-485 34 0
-485 61 0
-7 -34 -61 485 0
-486 8 0
-486 35 0
-486 62 0
-8 -35 -62 486 0
-487 9 0
-487 36 0
-487 63 0
-9 -36 -63 487 0
-479 879 0
-480 879 0
-481 879 0
-482 879 0
-483 879 0
-484 879 0
-485 879 0
-486 879 0
-487 879 0
-879 479 480 481 482 483 484 485 486 487 0
-488 1 0
-488 28 0
-488 64 0
-1 -28 -64 488 0
-489 2 0
-489 29 0
-489 65 0
-2 -29 -65 489 0
-490 3 0
-490 30 0
-490 66 0
-3 -30 -66 490 0
-491 4 0
-491 31 0
-491 67 0
-4 -31 -67 491 0
-492 5 0
-492 32 0
-492 68 0
-5 -32 -68 492 0
-493 6 0
-493 33 0
-493 69 0
-6 -33 -69 493 0
-494 7 0
-494 34 0
-494 70 0
-7 -34 -70 494 0
-495 8 0
-495 35 0
-495 71 0
-8 -35 -71 495 0
-496 9 0
-496 36 0
-496 72 0
-9 -36 -72 496 0
-488 880 0
-489 880 0
-490 880 0
-491 880 0
-492 880 0
-493 880 0
-494 880 0
-495 880 0
-496 880 0
-880 488 489 490 491 492 493 494 495 496 0
-497 1 0
-497 37 0
-497 46 0
-1 -37 -46 497 0
-498 2 0
-498 38 0
-498 47 0
-2 -38 -47 498 0
-499 3 0
-499 39 0
-499 48 0
-3 -39 -48 499 0
-500 4 0
-500 40 0
-500 49 0
-4 -40 -49 500 0
-501 5 0
-501 41 0
-501 50 0
-5 -41 -50 501 0
-502 6 0
-502 42 0
-502 51 0
-6 -42 -51 502 0
-503 7 0
-503 43 0
-503 52 0
-7 -43 -52 503 0
-504 8 0
-504 44 0
-504 53 0
-8 -44 -53 504 0
-505 9 0
-505 45 0
-505 54 0
-9 -45 -54 505 0
-497 881 0
-498 881 0
-499 881 0
-500 881 0
-501 881 0
-502 881 0
-503 881 0
-504 881 0
-505 881 0
-881 497 498 499 500 501 502 503 504 505 0
-506 1 0
-506 37 0
-506 55 0
-1 -37 -55 506 0
-507 2 0
-507 38 0
-507 56 0
-2 -38 -56 507 0
-508 3 0
-508 39 0
-508 57 0
-3 -39 -57 508 0
-509 4 0
-509 40 0
-509 58 0
-4 -40 -58 509 0
-510 5 0
-510 41 0
-510 59 0
-5 -41 -59 510 0
-511 6 0
-511 42 0
-511 60 0
-6 -42 -60 511 0
-512 7 0
-512 43 0
-512 61 0
-7 -43 -61 512 0
-513 8 0
-513 44 0
-513 62 0
-8 -44 -62 513 0
-514 9 0
-514 45 0
-514 63 0
-9 -45 -63 514 0
-506 882 0
-507 882 0
-508 882 0
-509 882 0
-510 882 0
-511 882 0
-512 882 0
-513 882 0
-514 882 0
-882 506 507 508 509 510 511 512 513 514 0
-515 1 0
-515 37 0
-515 64 0
-1 -37 -64 515 0
-516 2 0
-516 38 0
-516 65 0
-2 -38 -65 516 0
-517 3 0
-517 39 0
-517 66 0
-3 -39 -66 517 0
-518 4 0
-518 40 0
-518 67 0
-4 -40 -67 518 0
-519 5 0
-519 41 0
-519 68 0
-5 -41 -68 519 0
-520 6 0
-520 42 0
-520 69 0
-6 -42 -69 520 0
-521 7 0
-521 43 0
-521 70 0
-7 -43 -70 521 0
-522 8 0
-522 44 0
-522 71 0
-8 -44 -71 522 0
-523 9 0
-523 45 0
-523 72 0
-9 -45 -72 523 0
-515 883 0
-516 883 0
-517 883 0
-518 883 0
-519 883 0
-520 883 0
-521 883 0
-522 883 0
-523 883 0
-883 515 516 517 518 519 520 521 522 523 0
-524 1 0
-524 46 0
-524 55 0
-1 -46 -55 524 0
-525 2 0
-525 47 0
-525 56 0
-2 -47 -56 525 0
-526 3 0
-526 48 0
-526 57 0
-3 -48 -57 526 0
-527 4 0
-527 49 0
-527 58 0
-4 -49 -58 527 0
-528 5 0
-528 50 0
-528 59 0
-5 -50 -59 528 0
-529 6 0
-529 51 0
-529 60 0
-6 -51 -60 529 0
-530 7 0
-530 52 0
-530 61 0
-7 -52 -61 530 0
-531 8 0
-531 53 0
-531 62 0
-8 -53 -62 531 0
-532 9 0
-532 54 0
-532 63 0
-9 -54 -63 532 0
-524 884 0
-525 884 0
-526 884 0
-527 884 0
-528 884 0
-529 884 0
-530 884 0
-531 884 0
-532 884 0
-884 524 525 526 527 528 529 530 531 532 0
-533 1 0
-533 46 0
-533 64 0
-1 -46 -64 533 0
-534 2 0
-534 47 0
-534 65 0
-2 -47 -65 534 0
-535 3 0
-535 48 0
-535 66 0
-3 -48 -66 535 0
-536 4 0
-536 49 0
-536 67 0
-4 -49 -67 536 0
-537 5 0
-537 50 0
-537 68 0
-5 -50 -68 537 0
-538 6 0
-538 51 0
-538 69 0
-6 -51 -69 538 0
-539 7 0
-539 52 0
-539 70 0
-7 -52 -70 539 0
-540 8 0
-540 53 0
-540 71 0
-8 -53 -71 540 0
-541 9 0
-541 54 0
-541 72 0
-9 -54 -72 541 0
-533 885 0
-534 885 0
-535 885 0
-536 885 0
-537 885 0
-538 885 0
-539 885 0
-540 885 0
-541 885 0
-885 533 534 535 536 537 538 539 540 541 0
-542 1 0
-542 55 0
-542 64 0
-1 -55 -64 542 0
-543 2 0
-543 56 0
-543 65 0
-2 -56 -65 543 0
-544 3 0
-544 57 0
-544 66 0
-3 -57 -66 544 0
-545 4 0
-545 58 0
-545 67 0
-4 -58 -67 545 0
-546 5 0
-546 59 0
-546 68 0
-5 -59 -68 546 0
-547 6 0
-547 60 0
-547 69 0
-6 -60 -69 547 0
-548 7 0
-548 61 0
-548 70 0
-7 -61 -70 548 0
-549 8 0
-549 62 0
-549 71 0
-8 -62 -71 549 0
-550 9 0
-550 63 0
-550 72 0
-9 -63 -72 550 0
-542 886 0
-543 886 0
-544 886 0
-545 886 0
-546 886 0
-547 886 0
-548 886 0
-549 886 0
-550 886 0
-886 542 543 544 545 546 547 548 549 550 0
-551 10 0
-551 19 0
-551 28 0
-10 -19 -28 551 0
-552 11 0
-552 20 0
-552 29 0
-11 -20 -29 552 0
-553 12 0
-553 21 0
-553 30 0
-12 -21 -30 553 0
-554 13 0
-554 22 0
-554 31 0
-13 -22 -31 554 0
-555 14 0
-555 23 0
-555 32 0
-14 -23 -32 555 0
-556 15 0
-556 24 0
-556 33 0
-15 -24 -33 556 0
-557 16 0
-557 25 0
-557 34 0
-16 -25 -34 557 0
-558 17 0
-558 26 0
-558 35 0
-17 -26 -35 558 0
-559 18 0
-559 27 0
-559 36 0
-18 -27 -36 559 0
-551 887 0
-552 887 0
-553 887 0
-554 887 0
-555 887 0
-556 887 0
-557 887 0
-558 887 0
-559 887 0
-887 551 552 553 554 555 556 557 558 559 0
-560 10 0
-560 19 0
-560 37 0
-10 -19 -37 560 0
-561 11 0
-561 20 0
-561 38 0
-11 -20 -38 561 0
-562 12 0
-562 21 0
-562 39 0
-12 -21 -39 562 0
-563 13 0
-563 22 0
-563 40 0
-13 -22 -40 563 0
-564 14 0
-564 23 0
-564 41 0
-14 -23 -41 564 0
-565 15 0
-565 24 0
-565 42 0
-15 -24 -42 565 0
-566 16 0
-566 25 0
-566 43 0
-16 -25 -43 566 0
-567 17 0
-567 26 0
-567 44 0
-17 -26 -44 567 0
-568 18 0
-568 27 0
-568 45 0
-18 -27 -45 568 0
-560 888 0
-561 888 0
-562 888 0
-563 888 0
-564 888 0
-565 888 0
-566 888 0
-567 888 0
-568 888 0
-888 560 561 562 563 564 565 566 567 568 0
-569 10 0
-569 19 0
-569 46 0
-10 -19 -46 569 0
-570 11 0
-570 20 0
-570 47 0
-11 -20 -47 570 0
-571 12 0
-571 21 0
-571 48 0
-12 -21 -48 571 0
-572 13 0
-572 22 0
-572 49 0
-13 -22 -49 572 0
-573 14 0
-573 23 0
-573 50 0
-14 -23 -50 573 0
-574 15 0
-574 24 0
-574 51 0
-15 -24 -51 574 0
-575 16 0
-575 25 0
-575 52 0
-16 -25 -52 575 0
-576 17 0
-576 26 0
-576 53 0
-17 -26 -53 576 0
-577 18 0
-577 27 0
-577 54 0
-18 -27 -54 577 0
-569 889 0
-570 889 0
-571 889 0
-572 889 0
-573 889 0
-574 889 0
-575 889 0
-576 889 0
-577 889 0
-889 569 570 571 572 573 574 575 576 577 0
-578 10 0
-578 19 0
-578 55 0
-10 -19 -55 578 0
-579 11 0
-579 20 0
-579 56 0
-11 -20 -56 579 0
-580 12 0
-580 21 0
-580 57 0
-12 -21 -57 580 0
-581 13 0
-581 22 0
-581 58 0
-13 -22 -58 581 0
-582 14 0
-582 23 0
-582 59 0
-14 -23 -59 582 0
-583 15 0
-583 24 0
-583 60 0
-15 -24 -60 583 0
-584 16 0
-584 25 0
-584 61 0
-16 -25 -61 584 0
-585 17 0
-585 26 0
-585 62 0
-17 -26 -62 585 0
-586 18 0
-586 27 0
-586 63 0
-18 -27 -63 586 0
-578 890 0
-579 890 0
-580 890 0
-581 890 0
-582 890 0
-583 890 0
-584 890 0
-585 890 0
-586 890 0
-890 578 579 580 581 582 583 584 585 586 0
-587 10 0
-587 19 0
-587 64 0
-10 -19 -64 587 0
-588 11 0
-588 20 0
-588 65 0
-11 -20 -65 588 0
-589 12 0
-589 21 0
-589 66 0
-12 -21 -66 589 0
-590 13 0
-590 22 0
-590 67 0
-13 -22 -67 590 0
-591 14 0
-591 23 0
-591 68 0
-14 -23 -68 591 0
-592 15 0
-592 24 0
-592 69 0
-15 -24 -69 592 0
-593 16 0
-593 25 0
-593 70 0
-16 -25 -70 593 0
-594 17 0
-594 26 0
-594 71 0
-17 -26 -71 594 0
-595 18 0
-595 27 0
-595 72 0
-18 -27 -72 595 0
-587 891 0
-588 891 0
-589 891 0
-590 891 0
-591 891 0
-592 891 0
-593 891 0
-594 891 0
-595 891 0
-891 587 588 589 590 591 592 593 594 595 0
-596 10 0
-596 28 0
-596 37 0
-10 -28 -37 596 0
-597 11 0
-597 29 0
-597 38 0
-11 -29 -38 597 0
-598 12 0
-598 30 0
-598 39 0
-12 -30 -39 598 0
-599 13 0
-599 31 0
-599 40 0
-13 -31 -40 599 0
-600 14 0
-600 32 0
-600 41 0
-14 -32 -41 600 0
-601 15 0
-601 33 0
-601 42 0
-15 -33 -42 601 0
-602 16 0
-602 34 0
-602 43 0
-16 -34 -43 602 0
-603 17 0
-603 35 0
-603 44 0
-17 -35 -44 603 0
-604 18 0
-604 36 0
-604 45 0
-18 -36 -45 604 0
-596 892 0
-597 892 0
-598 892 0
-599 892 0
-600 892 0
-601 892 0
-602 892 0
-603 892 0
-604 892 0
-892 596 597 598 599 600 601 602 603 604 0
-605 10 0
-605 28 0
-605 46 0
-10 -28 -46 605 0
-606 11 0
-606 29 0
-606 47 0
-11 -29 -47 606 0
-607 12 0
-607 30 0
-607 48 0
-12 -30 -48 607 0
-608 13 0
-608 31 0
-608 49 0
-13 -31 -49 608 0
-609 14 0
-609 32 0
-609 50 0
-14 -32 -50 609 0
-610 15 0
-610 33 0
-610 51 0
-15 -33 -51 610 0
-611 16 0
-611 34 0
-611 52 0
-16 -34 -52 611 0
-612 17 0
-612 35 0
-612 53 0
-17 -35 -53 612 0
-613 18 0
-613 36 0
-613 54 0
-18 -36 -54 613 0
-605 893 0
-606 893 0
-607 893 0
-608 893 0
-609 893 0
-610 893 0
-611 893 0
-612 893 0
-613 893 0
-893 605 606 607 608 609 610 611 612 613 0
-614 10 0
-614 28 0
-614 55 0
-10 -28 -55 614 0
-615 11 0
-615 29 0
-615 56 0
-11 -29 -56 615 0
-616 12 0
-616 30 0
-616 57 0
-12 -30 -57 616 0
-617 13 0
-617 31 0
-617 58 0
-13 -31 -58 617 0
-618 14 0
-618 32 0
-618 59 0
-14 -32 -59 618 0
-619 15 0
-619 33 0
-619 60 0
-15 -33 -60 619 0
-620 16 0
-620 34 0
-620 61 0
-16 -34 -61 620 0
-621 17 0
-621 35 0
-621 62 0
-17 -35 -62 621 0
-622 18 0
-622 36 0
-622 63 0
-18 -36 -63 622 0
-614 894 0
-615 894 0
-616 894 0
-617 894 0
-618 894 0
-619 894 0
-620 894 0
-621 894 0
-622 894 0
-894 614 615 616 617 618 619 620 621 622 0
-623 10 0
-623 28 0
-623 64 0
-10 -28 -64 623 0
-624 11 0
-624 29 0
-624 65 0
-11 -29 -65 624 0
-625 12 0
-625 30 0
-625 66 0
-12 -30 -66 625 0
-626 13 0
-626 31 0
-626 67 0
-13 -31 -67 626 0
-627 14 0
-627 32 0
-627 68 0
-14 -32 -68 627 0
-628 15 0
-628 33 0
-628 69 0
-15 -33 -69 628 0
-629 16 0
-629 34 0
-629 70 0
-16 -34 -70 629 0
-630 17 0
-630 35 0
-630 71 0
-17 -35 -71 630 0
-631 18 0
-631 36 0
-631 72 0
-18 -36 -72 631 0
-623 895 0
-624 895 0
-625 895 0
-626 895 0
-627 895 0
-628 895 0
-629 895 0
-630 895 0
-631 895 0
-895 623 624 625 626 627 628 629 630 631 0
-632 10 0
-632 37 0
-632 46 0
-10 -37 -46 632 0
-633 11 0
-633 38 0
-633 47 0
-11 -38 -47 633 0
-634 12 0
-634 39 0
-634 48 0
-12 -39 -48 634 0
-635 13 0
-635 40 0
-635 49 0
-13 -40 -49 635 0
-636 14 0
-636 41 0
-636 50 0
-14 -41 -50 636 0
-637 15 0
-637 42 0
-637 51 0
-15 -42 -51 637 0
-638 16 0
-638 43 0
-638 52 0
-16 -43 -52 638 0
-639 17 0
-639 44 0
-639 53 0
-17 -44 -53 639 0
-640 18 0
-640 45 0
-640 54 0
-18 -45 -54 640 0
-632 896 0
-633 896 0
-634 896 0
-635 896 0
-636 896 0
-637 896 0
-638 896 0
-639 896 0
-640 896 0
-896 632 633 634 635 636 637 638 639 640 0
-641 10 0
-641 37 0
-641 55 0
-10 -37 -55 641 0
-642 11 0
-642 38 0
-642 56 0
-11 -38 -56 642 0
-643 12 0
-643 39 0
-643 57 0
-12 -39 -57 643 0
-644 13 0
-644 40 0
-644 58 0
-13 -40 -58 644 0
-645 14 0
-645 41 0
-645 59 0
-14 -41 -59 645 0
-646 15 0
-646 42 0
-646 60 0
-15 -42 -60 646 0
-647 16 0
-647 43 0
-647 61 0
-16 -43 -61 647 0
-648 17 0
-648 44 0
-648 62 0
-17 -44 -62 648 0
-649 18 0
-649 45 0
-649 63 0
-18 -45 -63 649 0
-641 897 0
-642 897 0
-643 897 0
-644 897 0
-645 897 0
-646 897 0
-647 897 0
-648 897 0
-649 897 0
-897 641 642 643 644 645 646 647 648 649 0
-650 10 0
-650 37 0
-650 64 0
-10 -37 -64 650 0
-651 11 0
-651 38 0
-651 65 0
-11 -38 -65 651 0
-652 12 0
-652 39 0
-652 66 0
-12 -39 -66 652 0
-653 13 0
-653 40 0
-653 67 0
-13 -40 -67 653 0
-654 14 0
-654 41 0
-654 68 0
-14 -41 -68 654 0
-655 15 0
-655 42 0
-655 69 0
-15 -42 -69 655 0
-656 16 0
-656 43 0
-656 70 0
-16 -43 -70 656 0
-657 17 0
-657 44 0
-657 71 0
-17 -44 -71 657 0
-658 18 0
-658 45 0
-658 72 0
-18 -45 -72 658 0
-650 898 0
-651 898 0
-652 898 0
-653 898 0
-654 898 0
-655 898 0
-656 898 0
-657 898 0
-658 898 0
-898 650 651 652 653 654 655 656 657 658 0
-659 10 0
-659 46 0
-659 55 0
-10 -46 -55 659 0
-660 11 0
-660 47 0
-660 56 0
-11 -47 -56 660 0
-661 12 0
-661 48 0
-661 57 0
-12 -48 -57 661 0
-662 13 0
-662 49 0
-662 58 0
-13 -49 -58 662 0
-663 14 0
-663 50 0
-663 59 0
-14 -50 -59 663 0
-664 15 0
-664 51 0
-664 60 0
-15 -51 -60 664 0
-665 16 0
-665 52 0
-665 61 0
-16 -52 -61 665 0
-666 17 0
-666 53 0
-666 62 0
-17 -53 -62 666 0
-667 18 0
-667 54 0
-667 63 0
-18 -54 -63 667 0
-659 899 0
-660 899 0
-661 899 0
-662 899 0
-663 899 0
-664 899 0
-665 899 0
-666 899 0
-667 899 0
-899 659 660 661 662 663 664 665 666 667 0
-668 10 0
-668 46 0
-668 64 0
-10 -46 -64 668 0
-669 11 0
-669 47 0
-669 65 0
-11 -47 -65 669 0
-670 12 0
-670 48 0
-670 66 0
-12 -48 -66 670 0
-671 13 0
-671 49 0
-671 67 0
-13 -49 -67 671 0
-672 14 0
-672 50 0
-672 68 0
-14 -50 -68 672 0
-673 15 0
-673 51 0
-673 69 0
-15 -51 -69 673 0
-674 16 0
-674 52 0
-674 70 0
-16 -52 -70 674 0
-675 17 0
-675 53 0
-675 71 0
-17 -53 -71 675 0
-676 18 0
-676 54 0
-676 72 0
-18 -54 -72 676 0
-668 900 0
-669 900 0
-670 900 0
-671 900 0
-672 900 0
-673 900 0
-674 900 0
-675 900 0
-676 900 0
-900 668 669 670 671 672 673 674 675 676 0
-677 10 0
-677 55 0
-677 64 0
-10 -55 -64 677 0
-678 11 0
-678 56 0
-678 65 0
-11 -56 -65 678 0
-679 12 0
-679 57 0
-679 66 0
-12 -57 -66 679 0
-680 13 0
-680 58 0
-680 67 0
-13 -58 -67 680 0
-681 14 0
-681 59 0
-681 68 0
-14 -59 -68 681 0
-682 15 0
-682 60 0
-682 69 0
-15 -60 -69 682 0
-683 16 0
-683 61 0
-683 70 0
-16 -61 -70 683 0
-684 17 0
-684 62 0
-684 71 0
-17 -62 -71 684 0
-685 18 0
-685 63 0
-685 72 0
-18 -63 -72 685 0
-677 901 0
-678 901 0
-679 901 0
-680 901 0
-681 901 0
-682 901 0
-683 901 0
-684 901 0
-685 901 0
-901 677 678 679 680 681 682 683 684 685 0
-686 19 0
-686 28 0
-686 37 0
-19 -28 -37 686 0
-687 20 0
-687 29 0
-687 38 0
-20 -29 -38 687 0
-688 21 0
-688 30 0
-688 39 0
-21 -30 -39 688 0
-689 22 0
-689 31 0
-689 40 0
-22 -31 -40 689 0
-690 23 0
-690 32 0
-690 41 0
-23 -32 -41 690 0
-691 24 0
-691 33 0
-691 42 0
-24 -33 -42 691 0
-692 25 0
-692 34 0
-692 43 0
-25 -34 -43 692 0
-693 26 0
-693 35 0
-693 44 0
-26 -35 -44 693 0
-694 27 0
-694 36 0
-694 45 0
-27 -36 -45 694 0
-686 902 0
-687 902 0
-688 902 0
-689 902 0
-690 902 0
-691 902 0
-692 902 0
-693 902 0
-694 902 0
-902 686 687 688 689 690 691 692 693 694 0
-695 19 0
-695 28 0
-695 46 0
-19 -28 -46 695 0
-696 20 0
-696 29 0
-696 47 0
-20 -29 -47 696 0
-697 21 0
-697 30 0
-697 48 0
-21 -30 -48 697 0
-698 22 0
-698 31 0
-698 49 0
-22 -31 -49 698 0
-699 23 0
-699 32 0
-699 50 0
-23 -32 -50 699 0
-700 24 0
-700 33 0
-700 51 0
-24 -33 -51 700 0
-701 25 0
-701 34 0
-701 52 0
-25 -34 -52 701 0
-702 26 0
-702 35 0
-702 53 0
-26 -35 -53 702 0
-703 27 0
-703 36 0
-703 54 0
-27 -36 -54 703 0
-695 903 0
-696 903 0
-697 903 0
-698 903 0
-699 903 0
-700 903 0
-701 903 0
-702 903 0
-703 903 0
-903 695 696 697 698 699 700 701 702 703 0
-704 19 0
-704 28 0
-704 55 0
-19 -28 -55 704 0
-705 20 0
-705 29 0
-705 56 0
-20 -29 -56 705 0
-706 21 0
-706 30 0
-706 57 0
-21 -30 -57 706 0
-707 22 0
-707 31 0
-707 58 0
-22 -31 -58 707 0
-708 23 0
-708 32 0
-708 59 0
-23 -32 -59 708 0
-709 24 0
-709 33 0
-709 60 0
-24 -33 -60 709 0
-710 25 0
-710 34 0
-710 61 0
-25 -34 -61 710 0
-711 26 0
-711 35 0
-711 62 0
-26 -35 -62 711 0
-712 27 0
-712 36 0
-712 63 0
-27 -36 -63 712 0
-704 904 0
-705 904 0
-706 904 0
-707 904 0
-708 904 0
-709 904 0
-710 904 0
-711 904 0
-712 904 0
-904 704 705 706 707 708 709 710 711 712 0
-713 19 0
-713 28 0
-713 64 0
-19 -28 -64 713 0
-714 20 0
-714 29 0
-714 65 0
-20 -29 -65 714 0
-715 21 0
-715 30 0
-715 66 0
-21 -30 -66 715 0
-716 22 0
-716 31 0
-716 67 0
-22 -31 -67 716 0
-717 23 0
-717 32 0
-717 68 0
-23 -32 -68 717 0
-718 24 0
-718 33 0
-718 69 0
-24 -33 -69 718 0
-719 25 0
-719 34 0
-719 70 0
-25 -34 -70 719 0
-720 26 0
-720 35 0
-720 71 0
-26 -35 -71 720 0
-721 27 0
-721 36 0
-721 72 0
-27 -36 -72 721 0
-713 905 0
-714 905 0
-715 905 0
-716 905 0
-717 905 0
-718 905 0
-719 905 0
-720 905 0
-721 905 0
-905 713 714 715 716 717 718 719 720 721 0
-722 19 0
-722 37 0
-722 46 0
-19 -37 -46 722 0
-723 20 0
-723 38 0
-723 47 0
-20 -38 -47 723 0
-724 21 0
-724 39 0
-724 48 0
-21 -39 -48 724 0
-725 22 0
-725 40 0
-725 49 0
-22 -40 -49 725 0
-726 23 0
-726 41 0
-726 50 0
-23 -41 -50 726 0
-727 24 0
-727 42 0
-727 51 0
-24 -42 -51 727 0
-728 25 0
-728 43 0
-728 52 0
-25 -43 -52 728 0
-729 26 0
-729 44 0
-729 53 0
-26 -44 -53 729 0
-730 27 0
-730 45 0
-730 54 0
-27 -45 -54 730 0
-722 906 0
-723 906 0
-724 906 0
-725 906 0
-726 906 0
-727 906 0
-728 906 0
-729 906 0
-730 906 0
-906 722 723 724 725 726 727 728 729 730 0
-731 19 0
-731 37 0
-731 55 0
-19 -37 -55 731 0
-732 20 0
-732 38 0
-732 56 0
-20 -38 -56 732 0
-733 21 0
-733 39 0
-733 57 0
-21 -39 -57 733 0
-734 22 0
-734 40 0
-734 58 0
-22 -40 -58 734 0
-735 23 0
-735 41 0
-735 59 0
-23 -41 -59 735 0
-736 24 0
-736 42 0
-736 60 0
-24 -42 -60 736 0
-737 25 0
-737 43 0
-737 61 0
-25 -43 -61 737 0
-738 26 0
-738 44 0
-738 62 0
-26 -44 -62 738 0
-739 27 0
-739 45 0
-739 63 0
-27 -45 -63 739 0
-731 907 0
-732 907 0
-733 907 0
-734 907 0
-735 907 0
-736 907 0
-737 907 0
-738 907 0
-739 907 0
-907 731 732 733 734 735 736 737 738 739 0
-740 19 0
-740 37 0
-740 64 0
-19 -37 -64 740 0
-741 20 0
-741 38 0
-741 65 0
-20 -38 -65 741 0
-742 21 0
-742 39 0
-742 66 0
-21 -39 -66 742 0
-743 22 0
-743 40 0
-743 67 0
-22 -40 -67 743 0
-744 23 0
-744 41 0
-744 68 0
-23 -41 -68 744 0
-745 24 0
-745 42 0
-745 69 0
-24 -42 -69 745 0
-746 25 0
-746 43 0
-746 70 0
-25 -43 -70 746 0
-747 26 0
-747 44 0
-747 71 0
-26 -44 -71 747 0
-748 27 0
-748 45 0
-748 72 0
-27 -45 -72 748 0
-740 908 0
-741 908 0
-742 908 0
-743 908 0
-744 908 0
-745 908 0
-746 908 0
-747 908 0
-748 908 0
-908 740 741 742 743 744 745 746 747 748 0
-749 19 0
-749 46 0
-749 55 0
-19 -46 -55 749 0
-750 20 0
-750 47 0
-750 56 0
-20 -47 -56 750 0
-751 21 0
-751 48 0
-751 57 0
-21 -48 -57 751 0
-752 22 0
-752 49 0
-752 58 0
-22 -49 -58 752 0
-753 23 0
-753 50 0
-753 59 0
-23 -50 -59 753 0
-754 24 0
-754 51 0
-754 60 0
-24 -51 -60 754 0
-755 25 0
-755 52 0
-755 61 0
-25 -52 -61 755 0
-756 26 0
-756 53 0
-756 62 0
-26 -53 -62 756 0
-757 27 0
-757 54 0
-757 63 0
-27 -54 -63 757 0
-749 909 0
-750 909 0
-751 909 0
-752 909 0
-753 909 0
-754 909 0
-755 909 0
-756 909 0
-757 909 0
-909 749 750 751 752 753 754 755 756 757 0
-758 19 0
-758 46 0
-758 64 0
-19 -46 -64 758 0
-759 20 0
-759 47 0
-759 65 0
-20 -47 -65 759 0
-760 21 0
-760 48 0
-760 66 0
-21 -48 -66 760 0
-761 22 0
-761 49 0
-761 67 0
-22 -49 -67 761 0
-762 23 0
-762 50 0
-762 68 0
-23 -50 -68 762 0
-763 24 0
-763 51 0
-763 69 0
-24 -51 -69 763 0
-764 25 0
-764 52 0
-764 70 0
-25 -52 -70 764 0
-765 26 0
-765 53 0
-765 71 0
-26 -53 -71 765 0
-766 27 0
-766 54 0
-766 72 0
-27 -54 -72 766 0
-758 910 0
-759 910 0
-760 910 0
-761 910 0
-762 910 0
-763 910 0
-764 910 0
-765 910 0
-766 910 0
-910 758 759 760 761 762 763 764 765 766 0
-767 19 0
-767 55 0
-767 64 0
-19 -55 -64 767 0
-768 20 0
-768 56 0
-768 65 0
-20 -56 -65 768 0
-769 21 0
-769 57 0
-769 66 0
-21 -57 -66 769 0
-770 22 0
-770 58 0
-770 67 0
-22 -58 -67 770 0
-771 23 0
-771 59 0
-771 68 0
-23 -59 -68 771 0
-772 24 0
-772 60 0
-772 69 0
-24 -60 -69 772 0
-773 25 0
-773 61 0
-773 70 0
-25 -61 -70 773 0
-774 26 0
-774 62 0
-774 71 0
-26 -62 -71 774 0
-775 27 0
-775 63 0
-775 72 0
-27 -63 -72 775 0
-767 911 0
-768 911 0
-769 911 0
-770 911 0
-771 911 0
-772 911 0
-773 911 0
-774 911 0
-775 911 0
-911 767 768 769 770 771 772 773 774 775 0
-776 28 0
-776 37 0
-776 46 0
-28 -37 -46 776 0
-777 29 0
-777 38 0
-777 47 0
-29 -38 -47 777 0
-778 30 0
-778 39 0
-778 48 0
-30 -39 -48 778 0
-779 31 0
-779 40 0
-779 49 0
-31 -40 -49 779 0
-780 32 0
-780 41 0
-780 50 0
-32 -41 -50 780 0
-781 33 0
-781 42 0
-781 51 0
-33 -42 -51 781 0
-782 34 0
-782 43 0
-782 52 0
-34 -43 -52 782 0
-783 35 0
-783 44 0
-783 53 0
-35 -44 -53 783 0
-784 36 0
-784 45 0
-784 54 0
-36 -45 -54 784 0
-776 912 0
-777 912 0
-778 912 0
-779 912 0
-780 912 0
-781 912 0
-782 912 0
-783 912 0
-784 912 0
-912 776 777 778 779 780 781 782 783 784 0
-785 28 0
-785 37 0
-785 55 0
-28 -37 -55 785 0
-786 29 0
-786 38 0
-786 56 0
-29 -38 -56 786 0
-787 30 0
-787 39 0
-787 57 0
-30 -39 -57 787 0
-788 31 0
-788 40 0
-788 58 0
-31 -40 -58 788 0
-789 32 0
-789 41 0
-789 59 0
-32 -41 -59 789 0
-790 33 0
-790 42 0
-790 60 0
-33 -42 -60 790 0
-791 34 0
-791 43 0
-791 61 0
-34 -43 -61 791 0
-792 35 0
-792 44 0
-792 62 0
-35 -44 -62 792 0
-793 36 0
-793 45 0
-793 63 0
-36 -45 -63 793 0
-785 913 0
-786 913 0
-787 913 0
-788 913 0
-789 913 0
-790 913 0
-791 913 0
-792 913 0
-793 913 0
-913 785 786 787 788 789 790 791 792 793 0
-794 28 0
-794 37 0
-794 64 0
-28 -37 -64 794 0
-795 29 0
-795 38 0
-795 65 0
-29 -38 -65 795 0
-796 30 0
-796 39 0
-796 66 0
-30 -39 -66 796 0
-797 31 0
-797 40 0
-797 67 0
-31 -40 -67 797 0
-798 32 0
-798 41 0
-798 68 0
-32 -41 -68 798 0
-799 33 0
-799 42 0
-799 69 0
-33 -42 -69 799 0
-800 34 0
-800 43 0
-800 70 0
-34 -43 -70 800 0
-801 35 0
-801 44 0
-801 71 0
-35 -44 -71 801 0
-802 36 0
-802 45 0
-802 72 0
-36 -45 -72 802 0
-794 914 0
-795 914 0
-796 914 0
-797 914 0
-798 914 0
-799 914 0
-800 914 0
-801 914 0
-802 914 0
-914 794 795 796 797 798 799 800 801 802 0
-803 28 0
-803 46 0
-803 55 0
-28 -46 -55 803 0
-804 29 0
-804 47 0
-804 56 0
-29 -47 -56 804 0
-805 30 0
-805 48 0
-805 57 0
-30 -48 -57 805 0
-806 31 0
-806 49 0
-806 58 0
-31 -49 -58 806 0
-807 32 0
-807 50 0
-807 59 0
-32 -50 -59 807 0
-808 33 0
-808 51 0
-808 60 0
-33 -51 -60 808 0
-809 34 0
-809 52 0
-809 61 0
-34 -52 -61 809 0
-810 35 0
-810 53 0
-810 62 0
-35 -53 -62 810 0
-811 36 0
-811 54 0
-811 63 0
-36 -54 -63 811 0
-803 915 0
-804 915 0
-805 915 0
-806 915 0
-807 915 0
-808 915 0
-809 915 0
-810 915 0
-811 915 0
-915 803 804 805 806 807 808 809 810 811 0
-812 28 0
-812 46 0
-812 64 0
-28 -46 -64 812 0
-813 29 0
-813 47 0
-813 65 0
-29 -47 -65 813 0
-814 30 0
-814 48 0
-814 66 0
-30 -48 -66 814 0
-815 31 0
-815 49 0
-815 67 0
-31 -49 -67 815 0
-816 32 0
-816 50 0
-816 68 0
-32 -50 -68 816 0
-817 33 0
-817 51 0
-817 69 0
-33 -51 -69 817 0
-818 34 0
-818 52 0
-818 70 0
-34 -52 -70 818 0
-819 35 0
-819 53 0
-819 71 0
-35 -53 -71 819 0
-820 36 0
-820 54 0
-820 72 0
-36 -54 -72 820 0
-812 916 0
-813 916 0
-814 916 0
-815 916 0
-816 916 0
-817 916 0
-818 916 0
-819 916 0
-820 916 0
-916 812 813 814 815 816 817 818 819 820 0
-821 28 0
-821 55 0
-821 64 0
-28 -55 -64 821 0
-822 29 0
-822 56 0
-822 65 0
-29 -56 -65 822 0
-823 30 0
-823 57 0
-823 66 0
-30 -57 -66 823 0
-824 31 0
-824 58 0
-824 67 0
-31 -58 -67 824 0
-825 32 0
-825 59 0
-825 68 0
-32 -59 -68 825 0
-826 33 0
-826 60 0
-826 69 0
-33 -60 -69 826 0
-827 34 0
-827 61 0
-827 70 0
-34 -61 -70 827 0
-828 35 0
-828 62 0
-828 71 0
-35 -62 -71 828 0
-829 36 0
-829 63 0
-829 72 0
-36 -63 -72 829 0
-821 917 0
-822 917 0
-823 917 0
-824 917 0
-825 917 0
-826 917 0
-827 917 0
-828 917 0
-829 917 0
-917 821 822 823 824 825 826 827 828 829 0
-830 37 0
-830 46 0
-830 55 0
-37 -46 -55 830 0
-831 38 0
-831 47 0
-831 56 0
-38 -47 -56 831 0
-832 39 0
-832 48 0
-832 57 0
-39 -48 -57 832 0
-833 40 0
-833 49 0
-833 58 0
-40 -49 -58 833 0
-834 41 0
-834 50 0
-834 59 0
-41 -50 -59 834 0
-835 42 0
-835 51 0
-835 60 0
-42 -51 -60 835 0
-836 43 0
-836 52 0
-836 61 0
-43 -52 -61 836 0
-837 44 0
-837 53 0
-837 62 0
-44 -53 -62 837 0
-838 45 0
-838 54 0
-838 63 0
-45 -54 -63 838 0
-830 918 0
-831 918 0
-832 918 0
-833 918 0
-834 918 0
-835 918 0
-836 918 0
-837 918 0
-838 918 0
-918 830 831 832 833 834 835 836 837 838 0
-839 37 0
-839 46 0
-839 64 0
-37 -46 -64 839 0
-840 38 0
-840 47 0
-840 65 0
-38 -47 -65 840 0
-841 39 0
-841 48 0
-841 66 0
-39 -48 -66 841 0
-842 40 0
-842 49 0
-842 67 0
-40 -49 -67 842 0
-843 41 0
-843 50 0
-843 68 0
-41 -50 -68 843 0
-844 42 0
-844 51 0
-844 69 0
-42 -51 -69 844 0
-845 43 0
-845 52 0
-845 70 0
-43 -52 -70 845 0
-846 44 0
-846 53 0
-846 71 0
-44 -53 -71 846 0
-847 45 0
-847 54 0
-847 72 0
-45 -54 -72 847 0
-839 919 0
-840 919 0
-841 919 0
-842 919 0
-843 919 0
-844 919 0
-845 919 0
-846 919 0
-847 919 0
-919 839 840 841 842 843 844 845 846 847 0
-848 37 0
-848 55 0
-848 64 0
-37 -55 -64 848 0
-849 38 0
-849 56 0
-849 65 0
-38 -56 -65 849 0
-850 39 0
-850 57 0
-850 66 0
-39 -57 -66 850 0
-851 40 0
-851 58 0
-851 67 0
-40 -58 -67 851 0
-852 41 0
-852 59 0
-852 68 0
-41 -59 -68 852 0
-853 42 0
-853 60 0
-853 69 0
-42 -60 -69 853 0
-854 43 0
-854 61 0
-854 70 0
-43 -61 -70 854 0
-855 44 0
-855 62 0
-855 71 0
-44 -62 -71 855 0
-856 45 0
-856 63 0
-856 72 0
-45 -63 -72 856 0
-848 920 0
-849 920 0
-850 920 0
-851 920 0
-852 920 0
-853 920 0
-854 920 0
-855 920 0
-856 920 0
-920 848 849 850 851 852 853 854 855 856 0
-857 46 0
-857 55 0
-857 64 0
-46 -55 -64 857 0
-858 47 0
-858 56 0
-858 65 0
-47 -56 -65 858 0
-859 48 0
-859 57 0
-859 66 0
-48 -57 -66 859 0
-860 49 0
-860 58 0
-860 67 0
-49 -58 -67 860 0
-861 50 0
-861 59 0
-861 68 0
-50 -59 -68 861 0
-862 51 0
-862 60 0
-862 69 0
-51 -60 -69 862 0
-863 52 0
-863 61 0
-863 70 0
-52 -61 -70 863 0
-864 53 0
-864 62 0
-864 71 0
-53 -62 -71 864 0
-865 54 0
-865 63 0
-865 72 0
-54 -63 -72 865 0
-857 921 0
-858 921 0
-859 921 0
-860 921 0
-861 921 0
-862 921 0
-863 921 0
-864 921 0
-865 921 0
-921 857 858 859 860 861 862 863 864 865 0
-334 -341 -347 -336 866 887 872 867 0
-334 -342 -347 -335 867 887 872 866 0
-335 -341 -342 -336 866 887 867 872 0
-334 -341 -348 -337 866 888 873 868 0
-334 -343 -348 -335 868 888 873 866 0
-335 -341 -343 -337 866 888 868 873 0
-334 -341 -349 -338 866 889 874 869 0
-334 -344 -349 -335 869 889 874 866 0
-335 -341 -344 -338 866 889 869 874 0
-334 -341 -350 -339 866 890 875 870 0
-334 -345 -350 -335 870 890 875 866 0
-335 -341 -345 -339 866 890 870 875 0
-334 -341 -351 -340 866 891 876 871 0
-334 -346 -351 -335 871 891 876 866 0
-335 -341 -346 -340 866 891 871 876 0
-334 -342 -352 -337 867 892 877 868 0
-334 -343 -352 -336 868 892 877 867 0
-336 -342 -343 -337 867 892 868 877 0
-334 -342 -353 -338 867 893 878 869 0
-334 -344 -353 -336 869 893 878 867 0
-336 -342 -344 -338 867 893 869 878 0
-334 -342 -354 -339 867 894 879 870 0
-334 -345 -354 -336 870 894 879 867 0
-336 -342 -345 -339 867 894 870 879 0
-334 -342 -355 -340 867 895 880 871 0
-334 -346 -355 -336 871 895 880 867 0
-336 -342 -346 -340 867 895 871 880 0
-334 -343 -356 -338 868 896 881 869 0
-334 -344 -356 -337 869 896 881 868 0
-337 -343 -344 -338 868 896 869 881 0
-334 -343 -357 -339 868 897 882 870 0
-334 -345 -357 -337 870 897 882 868 0
-337 -343 -345 -339 868 897 870 882 0
-334 -343 -358 -340 868 898 883 871 0
-334 -346 -358 -337 871 898 883 868 0
-337 -343 -346 -340 868 898 871 883 0
-334 -344 -359 -339 869 899 884 870 0
-334 -345 -359 -338 870 899 884 869 0
-338 -344 -345 -339 869 899 870 884 0
-334 -344 -360 -340 869 900 885 871 0
-334 -346 -360 -338 871 900 885 869 0
-338 -344 -346 -340 869 900 871 885 0
-334 -345 -361 -340 870 901 886 871 0
-334 -346 -361 -339 871 901 886 870 0
-339 -345 -346 -340 870 901 871 886 0
-335 -347 -352 -337 872 902 877 873 0
-335 -348 -352 -336 873 902 877 872 0
-336 -347 -348 -337 872 902 873 877 0
-335 -347 -353 -338 872 903 878 874 0
-335 -349 -353 -336 874 903 878 872 0
-336 -347 -349 -338 872 903 874 878 0
-335 -347 -354 -339 872 904 879 875 0
-335 -350 -354 -336 875 904 879 872 0
-336 -347 -350 -339 872 904 875 879 0
-335 -347 -355 -340 872 905 880 876 0
-335 -351 -355 -336 876 905 880 872 0
-336 -347 -351 -340 872 905 876 880 0
-335 -348 -356 -338 873 906 881 874 0
-335 -349 -356 -337 874 906 881 873 0
-337 -348 -349 -338 873 906 874 881 0
-335 -348 -357 -339 873 907 882 875 0
-335 -350 -357 -337 875 907 882 873 0
-337 -348 -350 -339 873 907 875 882 0
-335 -348 -358 -340 873 908 883 876 0
-335 -351 -358 -337 876 908 883 873 0
-337 -348 -351 -340 873 908 876 883 0
-335 -349 -359 -339 874 909 884 875 0
-335 -350 -359 -338 875 909 884 874 0
-338 -349 -350 -339 874 909 875 884 0
-335 -349 -360 -340 874 910 885 876 0
-335 -351 -360 -338 876 910 885 874 0
-338 -349 -351 -340 874 910 876 885 0
-335 -350 -361 -340 875 911 886 876 0
-335 -351 -361 -339 876 911 886 875 0
-339 -350 -351 -340 875 911 876 886 0
-336 -352 -356 -338 877 912 881 878 0
-336 -353 -356 -337 878 912 881 877 0
-337 -352 -353 -338 877 912 878 881 0
-336 -352 -357 -339 877 913 882 879 0
-336 -354 -357 -337 879 913 882 877 0
-337 -352 -354 -339 877 913 879 882 0
-336 -352 -358 -340 877 914 883 880 0
-336 -355 -358 -337 880 914 883 877 0
-337 -352 -355 -340 877 914 880 883 0
-336 -353 -359 -339 878 915 884 879 0
-336 -354 -359 -338 879 915 884 878 0
-338 -353 -354 -339 878 915 879 884 0
-336 -353 -360 -340 878 916 885 880 0
-336 -355 -360 -338 880 916 885 878 0
-338 -353 -355 -340 878 916 880 885 0
-336 -354 -361 -340 879 917 886 880 0
-336 -355 -361 -339 880 917 886 879 0
-339 -354 -355 -340 879 917 880 886 0
-337 -356 -359 -339 881 918 884 882 0
-337 -357 -359 -338 882 918 884 881 0
-338 -356 -357 -339 881 918 882 884 0
-337 -356 -360 -340 881 919 885 883 0
-337 -358 -360 -338 883 919 885 881 0
-338 -356 -358 -340 881 919 883 885 0
-337 -357 -361 -340 882 920 886 883 0
-337 -358 -361 -339 883 920 886 882 0
-339 -357 -358 -340 882 920 883 886 0
-338 -359 -361 -340 884 921 886 885 0
-338 -360 -361 -339 885 921 886 884 0
-339 -359 -360 -340 884 921 885 886 0
-341 -347 -352 -343 887 902 892 888 0
-341 -348 -352 -342 888 902 892 887 0
-342 -347 -348 -343 887 902 888 892 0
-341 -347 -353 -344 887 903 893 889 0
-341 -349 -353 -342 889 903 893 887 0
-342 -347 -349 -344 887 903 889 893 0
-341 -347 -354 -345 887 904 894 890 0
-341 -350 -354 -342 890 904 894 887 0
-342 -347 -350 -345 887 904 890 894 0
-341 -347 -355 -346 887 905 895 891 0
-341 -351 -355 -342 891 905 895 887 0
-342 -347 -351 -346 887 905 891 895 0
-341 -348 -356 -344 888 906 896 889 0
-341 -349 -356 -343 889 906 896 888 0
-343 -348 -349 -344 888 906 889 896 0
-341 -348 -357 -345 888 907 897 890 0
-341 -350 -357 -343 890 907 897 888 0
-343 -348 -350 -345 888 907 890 897 0
-341 -348 -358 -346 888 908 898 891 0
-341 -351 -358 -343 891 908 898 888 0
-343 -348 -351 -346 888 908 891 898 0
-341 -349 -359 -345 889 909 899 890 0
-341 -350 -359 -344 890 909 899 889 0
-344 -349 -350 -345 889 909 890 899 0
-341 -349 -360 -346 889 910 900 891 0
-341 -351 -360 -344 891 910 900 889 0
-344 -349 -351 -346 889 910 891 900 0
-341 -350 -361 -346 890 911 901 891 0
-341 -351 -361 -345 891 911 901 890 0
-345 -350 -351 -346 890 911 891 901 0
-342 -352 -356 -344 892 912 896 893 0
-342 -353 -356 -343 893 912 896 892 0
-343 -352 -353 -344 892 912 893 896 0
-342 -352 -357 -345 892 913 897 894 0
-342 -354 -357 -343 894 913 897 892 0
-343 -352 -354 -345 892 913 894 897 0
-342 -352 -358 -346 892 914 898 895 0
-342 -355 -358 -343 895 914 898 892 0
-343 -352 -355 -346 892 914 895 898 0
-342 -353 -359 -345 893 915 899 894 0
-342 -354 -359 -344 894 915 899 893 0
-344 -353 -354 -345 893 915 894 899 0
-342 -353 -360 -346 893 916 900 895 0
-342 -355 -360 -344 895 916 900 893 0
-344 -353 -355 -346 893 916 895 900 0
-342 -354 -361 -346 894 917 901 895 0
-342 -355 -361 -345 895 917 901 894 0
-345 -354 -355 -346 894 917 895 901 0
-343 -356 -359 -345 896 918 899 897 0
-343 -357 -359 -344 897 918 899 896 0
-344 -356 -357 -345 896 918 897 899 0
-343 -356 -360 -346 896 919 900 898 0
-343 -358 -360 -344 898 919 900 896 0
-344 -356 -358 -346 896 919 898 900 0
-343 -357 -361 -346 897 920 901 898 0
-343 -358 -361 -345 898 920 901 897 0
-345 -357 -358 -346 897 920 898 901 0
-344 -359 -361 -346 899 921 901 900 0
-344 -360 -361 -345 900 921 901 899 0
-345 -359 -360 -346 899 921 900 901 0
-347 -352 -356 -349 902 912 906 903 0
-347 -353 -356 -348 903 912 906 902 0
-348 -352 -353 -349 902 912 903 906 0
-347 -352 -357 -350 902 913 907 904 0
-347 -354 -357 -348 904 913 907 902 0
-348 -352 -354 -350 902 913 904 907 0
-347 -352 -358 -351 902 914 908 905 0
-347 -355 -358 -348 905 914 908 902 0
-348 -352 -355 -351 902 914 905 908 0
-347 -353 -359 -350 903 915 909 904 0
-347 -354 -359 -349 904 915 909 903 0
-349 -353 -354 -350 903 915 904 909 0
-347 -353 -360 -351 903 916 910 905 0
-347 -355 -360 -349 905 916 910 903 0
-349 -353 -355 -351 903 916 905 910 0
-347 -354 -361 -351 904 917 911 905 0
-347 -355 -361 -350 905 917 911 904 0
-350 -354 -355 -351 904 917 905 911 0
-348 -356 -359 -350 906 918 909 907 0
-348 -357 -359 -349 907 918 909 906 0
-349 -356 -357 -350 906 918 907 909 0
-348 -356 -360 -351 906 919 910 908 0
-348 -358 -360 -349 908 919 910 906 0
-349 -356 -358 -351 906 919 908 910 0
-348 -357 -361 -351 907 920 911 908 0
-348 -358 -361 -350 908 920 911 907 0
-350 -357 -358 -351 907 920 908 911 0
-349 -359 -361 -351 909 921 911 910 0
-349 -360 -361 -350 910 921 911 909 0
-350 -359 -360 -351 909 921 910 911 0
-352 -356 -359 -354 912 918 915 913 0
-352 -357 -359 -353 913 918 915 912 0
-353 -356 -357 -354 912 918 913 915 0
-352 -356 -360 -355 912 919 916 914 0
-352 -358 -360 -353 914 919 916 912 0
-353 -356 -358 -355 912 919 914 916 0
-352 -357 -361 -355 913 920 917 914 0
-352 -358 -361 -354 914 920 917 913 0
-354 -357 -358 -355 913 920 914 917 0
-353 -359 -361 -355 915 921 917 916 0
-353 -360 -361 -354 916 921 917 915 0
-354 -359 -360 -355 915 921 916 917 0
-356 -359 -361 -358 918 921 920 919 0
-356 -360 -361 -357 919 921 920 918 0
-357 -359 -360 -358 918 921 919 920 0
