p cnf 10318 41846
-1 265 0
-23 265 0
-45 265 0
-67 265 0
-89 265 0
-111 265 0
-133 265 0
-155 265 0
-177 265 0
-199 265 0
-221 265 0
-243 265 0
-2 266 0
-24 266 0
-46 266 0
-68 266 0
-90 266 0
-112 266 0
-134 266 0
-156 266 0
-178 266 0
-200 266 0
-222 266 0
-244 266 0
-3 267 0
-25 267 0
-47 267 0
-69 267 0
-91 267 0
-113 267 0
-135 267 0
-157 267 0
-179 267 0
-201 267 0
-223 267 0
-245 267 0
-4 268 0
-26 268 0
-48 268 0
-70 268 0
-92 268 0
-114 268 0
-136 268 0
-158 268 0
-180 268 0
-202 268 0
-224 268 0
-246 268 0
-5 269 0
-27 269 0
-49 269 0
-71 269 0
-93 269 0
-115 269 0
-137 269 0
-159 269 0
-181 269 0
-203 269 0
-225 269 0
-247 269 0
-6 270 0
-28 270 0
-50 270 0
-72 270 0
-94 270 0
-116 270 0
-138 270 0
-160 270 0
-182 270 0
-204 270 0
-226 270 0
-248 270 0
-7 271 0
-29 271 0
-51 271 0
-73 271 0
-95 271 0
-117 271 0
-139 271 0
-161 271 0
-183 271 0
-205 271 0
-227 271 0
-249 271 0
-8 272 0
-30 272 0
-52 272 0
-74 272 0
-96 272 0
-118 272 0
-140 272 0
-162 272 0
-184 272 0
-206 272 0
-228 272 0
-250 272 0
-9 273 0
-31 273 0
-53 273 0
-75 273 0
-97 273 0
-119 273 0
-141 273 0
-163 273 0
-185 273 0
-207 273 0
-229 273 0
-251 273 0
-10 274 0
-32 274 0
-54 274 0
-76 274 0
-98 274 0
-120 274 0
-142 274 0
-164 274 0
-186 274 0
-208 274 0
-230 274 0
-252 274 0
-11 275 0
-33 275 0
-55 275 0
-77 275 0
-99 275 0
-121 275 0
-143 275 0
-165 275 0
-187 275 0
-209 275 0
-231 275 0
-253 275 0
-12 276 0
-34 276 0
-56 276 0
-78 276 0
-100 276 0
-122 276 0
-144 276 0
-166 276 0
-188 276 0
-210 276 0
-232 276 0
-254 276 0
-13 277 0
-35 277 0
-57 277 0
-79 277 0
-101 277 0
-123 277 0
-145 277 0
-167 277 0
-189 277 0
-211 277 0
-233 277 0
-255 277 0
-14 278 0
-36 278 0
-58 278 0
-80 278 0
-102 278 0
-124 278 0
-146 278 0
-168 278 0
-190 278 0
-212 278 0
-234 278 0
-256 278 0
-15 279 0
-37 279 0
-59 279 0
-81 279 0
-103 279 0
-125 279 0
-147 279 0
-169 279 0
-191 279 0
-213 279 0
-235 279 0
-257 279 0
-16 280 0
-38 280 0
-60 280 0
-82 280 0
-104 280 0
-126 280 0
-148 280 0
-170 280 0
-192 280 0
-214 280 0
-236 280 0
-258 280 0
-17 281 0
-39 281 0
-61 281 0
-83 281 0
-105 281 0
-127 281 0
-149 281 0
-171 281 0
-193 281 0
-215 281 0
-237 281 0
-259 281 0
-18 282 0
-40 282 0
-62 282 0
-84 282 0
-106 282 0
-128 282 0
-150 282 0
-172 282 0
-194 282 0
-216 282 0
-238 282 0
-260 282 0
-19 283 0
-41 283 0
-63 283 0
-85 283 0
-107 283 0
-129 283 0
-151 283 0
-173 283 0
-195 283 0
-217 283 0
-239 283 0
-261 283 0
-20 284 0
-42 284 0
-64 284 0
-86 284 0
-108 284 0
-130 284 0
-152 284 0
-174 284 0
-196 284 0
-218 284 0
-240 284 0
-262 284 0
-21 285 0
-43 285 0
-65 285 0
-87 285 0
-109 285 0
-131 285 0
-153 285 0
-175 285 0
-197 285 0
-219 285 0
-241 285 0
-263 285 0
-22 286 0
-44 286 0
-66 286 0
-88 286 0
-110 286 0
-132 286 0
-154 286 0
-176 286 0
-198 286 0
-220 286 0
-242 286 0
-264 286 0
-266 265 0
-267 266 0
-268 267 0
-269 268 0
-270 269 0
-271 270 0
-272 271 0
-273 272 0
-274 273 0
-275 274 0
-276 275 0
-277 276 0
-278 277 0
-279 278 0
-280 279 0
-281 280 0
-282 281 0
-283 282 0
-284 283 0
-285 284 0
-286 285 0
265 6865 0
-6865 -265 0
265 6866 0
-6866 -265 0
265 6867 0
-6867 -265 0
1 6868 0
-6868 6869 0
23 -6868 6870 0
-6870 6871 0
45 -6870 6872 0
-6872 6873 0
67 -6872 6874 0
-6874 6875 0
89 -6874 6876 0
-6876 6877 0
111 -6876 6878 0
-6878 6879 0
133 -6878 6880 0
-6880 6881 0
155 -6880 6882 0
-6882 6883 0
177 -6882 6884 0
-6884 6885 0
199 -6884 6886 0
-6886 6887 0
221 -6886 6888 0
-6888 6889 0
243 -6888 6890 0
-6890 6891 0
6865 -6890 0
23 6869 0
-6869 6892 0
45 -6869 6871 0
-6871 6893 0
67 -6871 6873 0
-6873 6894 0
89 -6873 6875 0
-6875 6895 0
111 -6875 6877 0
-6877 6896 0
133 -6877 6879 0
-6879 6897 0
155 -6879 6881 0
-6881 6898 0
177 -6881 6883 0
-6883 6899 0
199 -6883 6885 0
-6885 6900 0
221 -6885 6887 0
-6887 6901 0
243 -6887 6889 0
-6889 6902 0
6865 -6889 6891 0
-6891 6903 0
6866 -6891 0
45 6892 0
67 -6892 6893 0
89 -6893 6894 0
111 -6894 6895 0
133 -6895 6896 0
155 -6896 6897 0
177 -6897 6898 0
199 -6898 6899 0
221 -6899 6900 0
243 -6900 6901 0
6865 -6901 6902 0
6866 -6902 6903 0
6867 -6903 0
266 6904 0
-6904 -266 0
266 6905 0
-6905 -266 0
266 6906 0
-6906 -266 0
2 6907 0
-6907 6908 0
24 -6907 6909 0
-6909 6910 0
46 -6909 6911 0
-6911 6912 0
68 -6911 6913 0
-6913 6914 0
90 -6913 6915 0
-6915 6916 0
112 -6915 6917 0
-6917 6918 0
134 -6917 6919 0
-6919 6920 0
156 -6919 6921 0
-6921 6922 0
178 -6921 6923 0
-6923 6924 0
200 -6923 6925 0
-6925 6926 0
222 -6925 6927 0
-6927 6928 0
244 -6927 6929 0
-6929 6930 0
6904 -6929 0
24 6908 0
-6908 6931 0
46 -6908 6910 0
-6910 6932 0
68 -6910 6912 0
-6912 6933 0
90 -6912 6914 0
-6914 6934 0
112 -6914 6916 0
-6916 6935 0
134 -6916 6918 0
-6918 6936 0
156 -6918 6920 0
-6920 6937 0
178 -6920 6922 0
-6922 6938 0
200 -6922 6924 0
-6924 6939 0
222 -6924 6926 0
-6926 6940 0
244 -6926 6928 0
-6928 6941 0
6904 -6928 6930 0
-6930 6942 0
6905 -6930 0
46 6931 0
68 -6931 6932 0
90 -6932 6933 0
112 -6933 6934 0
134 -6934 6935 0
156 -6935 6936 0
178 -6936 6937 0
200 -6937 6938 0
222 -6938 6939 0
244 -6939 6940 0
6904 -6940 6941 0
6905 -6941 6942 0
6906 -6942 0
267 6943 0
-6943 -267 0
267 6944 0
-6944 -267 0
267 6945 0
-6945 -267 0
3 6946 0
-6946 6947 0
25 -6946 6948 0
-6948 6949 0
47 -6948 6950 0
-6950 6951 0
69 -6950 6952 0
-6952 6953 0
91 -6952 6954 0
-6954 6955 0
113 -6954 6956 0
-6956 6957 0
135 -6956 6958 0
-6958 6959 0
157 -6958 6960 0
-6960 6961 0
179 -6960 6962 0
-6962 6963 0
201 -6962 6964 0
-6964 6965 0
223 -6964 6966 0
-6966 6967 0
245 -6966 6968 0
-6968 6969 0
6943 -6968 0
25 6947 0
-6947 6970 0
47 -6947 6949 0
-6949 6971 0
69 -6949 6951 0
-6951 6972 0
91 -6951 6953 0
-6953 6973 0
113 -6953 6955 0
-6955 6974 0
135 -6955 6957 0
-6957 6975 0
157 -6957 6959 0
-6959 6976 0
179 -6959 6961 0
-6961 6977 0
201 -6961 6963 0
-6963 6978 0
223 -6963 6965 0
-6965 6979 0
245 -6965 6967 0
-6967 6980 0
6943 -6967 6969 0
-6969 6981 0
6944 -6969 0
47 6970 0
69 -6970 6971 0
91 -6971 6972 0
113 -6972 6973 0
135 -6973 6974 0
157 -6974 6975 0
179 -6975 6976 0
201 -6976 6977 0
223 -6977 6978 0
245 -6978 6979 0
6943 -6979 6980 0
6944 -6980 6981 0
6945 -6981 0
268 6982 0
-6982 -268 0
268 6983 0
-6983 -268 0
268 6984 0
-6984 -268 0
4 6985 0
-6985 6986 0
26 -6985 6987 0
-6987 6988 0
48 -6987 6989 0
-6989 6990 0
70 -6989 6991 0
-6991 6992 0
92 -6991 6993 0
-6993 6994 0
114 -6993 6995 0
-6995 6996 0
136 -6995 6997 0
-6997 6998 0
158 -6997 6999 0
-6999 7000 0
180 -6999 7001 0
-7001 7002 0
202 -7001 7003 0
-7003 7004 0
224 -7003 7005 0
-7005 7006 0
246 -7005 7007 0
-7007 7008 0
6982 -7007 0
26 6986 0
-6986 7009 0
48 -6986 6988 0
-6988 7010 0
70 -6988 6990 0
-6990 7011 0
92 -6990 6992 0
-6992 7012 0
114 -6992 6994 0
-6994 7013 0
136 -6994 6996 0
-6996 7014 0
158 -6996 6998 0
-6998 7015 0
180 -6998 7000 0
-7000 7016 0
202 -7000 7002 0
-7002 7017 0
224 -7002 7004 0
-7004 7018 0
246 -7004 7006 0
-7006 7019 0
6982 -7006 7008 0
-7008 7020 0
6983 -7008 0
48 7009 0
70 -7009 7010 0
92 -7010 7011 0
114 -7011 7012 0
136 -7012 7013 0
158 -7013 7014 0
180 -7014 7015 0
202 -7015 7016 0
224 -7016 7017 0
246 -7017 7018 0
6982 -7018 7019 0
6983 -7019 7020 0
6984 -7020 0
269 7021 0
-7021 -269 0
269 7022 0
-7022 -269 0
269 7023 0
-7023 -269 0
5 7024 0
-7024 7025 0
27 -7024 7026 0
-7026 7027 0
49 -7026 7028 0
-7028 7029 0
71 -7028 7030 0
-7030 7031 0
93 -7030 7032 0
-7032 7033 0
115 -7032 7034 0
-7034 7035 0
137 -7034 7036 0
-7036 7037 0
159 -7036 7038 0
-7038 7039 0
181 -7038 7040 0
-7040 7041 0
203 -7040 7042 0
-7042 7043 0
225 -7042 7044 0
-7044 7045 0
247 -7044 7046 0
-7046 7047 0
7021 -7046 0
27 7025 0
-7025 7048 0
49 -7025 7027 0
-7027 7049 0
71 -7027 7029 0
-7029 7050 0
93 -7029 7031 0
-7031 7051 0
115 -7031 7033 0
-7033 7052 0
137 -7033 7035 0
-7035 7053 0
159 -7035 7037 0
-7037 7054 0
181 -7037 7039 0
-7039 7055 0
203 -7039 7041 0
-7041 7056 0
225 -7041 7043 0
-7043 7057 0
247 -7043 7045 0
-7045 7058 0
7021 -7045 7047 0
-7047 7059 0
7022 -7047 0
49 7048 0
71 -7048 7049 0
93 -7049 7050 0
115 -7050 7051 0
137 -7051 7052 0
159 -7052 7053 0
181 -7053 7054 0
203 -7054 7055 0
225 -7055 7056 0
247 -7056 7057 0
7021 -7057 7058 0
7022 -7058 7059 0
7023 -7059 0
270 7060 0
-7060 -270 0
270 7061 0
-7061 -270 0
270 7062 0
-7062 -270 0
6 7063 0
-7063 7064 0
28 -7063 7065 0
-7065 7066 0
50 -7065 7067 0
-7067 7068 0
72 -7067 7069 0
-7069 7070 0
94 -7069 7071 0
-7071 7072 0
116 -7071 7073 0
-7073 7074 0
138 -7073 7075 0
-7075 7076 0
160 -7075 7077 0
-7077 7078 0
182 -7077 7079 0
-7079 7080 0
204 -7079 7081 0
-7081 7082 0
226 -7081 7083 0
-7083 7084 0
248 -7083 7085 0
-7085 7086 0
7060 -7085 0
28 7064 0
-7064 7087 0
50 -7064 7066 0
-7066 7088 0
72 -7066 7068 0
-7068 7089 0
94 -7068 7070 0
-7070 7090 0
116 -7070 7072 0
-7072 7091 0
138 -7072 7074 0
-7074 7092 0
160 -7074 7076 0
-7076 7093 0
182 -7076 7078 0
-7078 7094 0
204 -7078 7080 0
-7080 7095 0
226 -7080 7082 0
-7082 7096 0
248 -7082 7084 0
-7084 7097 0
7060 -7084 7086 0
-7086 7098 0
7061 -7086 0
50 7087 0
72 -7087 7088 0
94 -7088 7089 0
116 -7089 7090 0
138 -7090 7091 0
160 -7091 7092 0
182 -7092 7093 0
204 -7093 7094 0
226 -7094 7095 0
248 -7095 7096 0
7060 -7096 7097 0
7061 -7097 7098 0
7062 -7098 0
271 7099 0
-7099 -271 0
271 7100 0
-7100 -271 0
271 7101 0
-7101 -271 0
7 7102 0
-7102 7103 0
29 -7102 7104 0
-7104 7105 0
51 -7104 7106 0
-7106 7107 0
73 -7106 7108 0
-7108 7109 0
95 -7108 7110 0
-7110 7111 0
117 -7110 7112 0
-7112 7113 0
139 -7112 7114 0
-7114 7115 0
161 -7114 7116 0
-7116 7117 0
183 -7116 7118 0
-7118 7119 0
205 -7118 7120 0
-7120 7121 0
227 -7120 7122 0
-7122 7123 0
249 -7122 7124 0
-7124 7125 0
7099 -7124 0
29 7103 0
-7103 7126 0
51 -7103 7105 0
-7105 7127 0
73 -7105 7107 0
-7107 7128 0
95 -7107 7109 0
-7109 7129 0
117 -7109 7111 0
-7111 7130 0
139 -7111 7113 0
-7113 7131 0
161 -7113 7115 0
-7115 7132 0
183 -7115 7117 0
-7117 7133 0
205 -7117 7119 0
-7119 7134 0
227 -7119 7121 0
-7121 7135 0
249 -7121 7123 0
-7123 7136 0
7099 -7123 7125 0
-7125 7137 0
7100 -7125 0
51 7126 0
73 -7126 7127 0
95 -7127 7128 0
117 -7128 7129 0
139 -7129 7130 0
161 -7130 7131 0
183 -7131 7132 0
205 -7132 7133 0
227 -7133 7134 0
249 -7134 7135 0
7099 -7135 7136 0
7100 -7136 7137 0
7101 -7137 0
272 7138 0
-7138 -272 0
272 7139 0
-7139 -272 0
272 7140 0
-7140 -272 0
8 7141 0
-7141 7142 0
30 -7141 7143 0
-7143 7144 0
52 -7143 7145 0
-7145 7146 0
74 -7145 7147 0
-7147 7148 0
96 -7147 7149 0
-7149 7150 0
118 -7149 7151 0
-7151 7152 0
140 -7151 7153 0
-7153 7154 0
162 -7153 7155 0
-7155 7156 0
184 -7155 7157 0
-7157 7158 0
206 -7157 7159 0
-7159 7160 0
228 -7159 7161 0
-7161 7162 0
250 -7161 7163 0
-7163 7164 0
7138 -7163 0
30 7142 0
-7142 7165 0
52 -7142 7144 0
-7144 7166 0
74 -7144 7146 0
-7146 7167 0
96 -7146 7148 0
-7148 7168 0
118 -7148 7150 0
-7150 7169 0
140 -7150 7152 0
-7152 7170 0
162 -7152 7154 0
-7154 7171 0
184 -7154 7156 0
-7156 7172 0
206 -7156 7158 0
-7158 7173 0
228 -7158 7160 0
-7160 7174 0
250 -7160 7162 0
-7162 7175 0
7138 -7162 7164 0
-7164 7176 0
7139 -7164 0
52 7165 0
74 -7165 7166 0
96 -7166 7167 0
118 -7167 7168 0
140 -7168 7169 0
162 -7169 7170 0
184 -7170 7171 0
206 -7171 7172 0
228 -7172 7173 0
250 -7173 7174 0
7138 -7174 7175 0
7139 -7175 7176 0
7140 -7176 0
273 7177 0
-7177 -273 0
273 7178 0
-7178 -273 0
273 7179 0
-7179 -273 0
9 7180 0
-7180 7181 0
31 -7180 7182 0
-7182 7183 0
53 -7182 7184 0
-7184 7185 0
75 -7184 7186 0
-7186 7187 0
97 -7186 7188 0
-7188 7189 0
119 -7188 7190 0
-7190 7191 0
141 -7190 7192 0
-7192 7193 0
163 -7192 7194 0
-7194 7195 0
185 -7194 7196 0
-7196 7197 0
207 -7196 7198 0
-7198 7199 0
229 -7198 7200 0
-7200 7201 0
251 -7200 7202 0
-7202 7203 0
7177 -7202 0
31 7181 0
-7181 7204 0
53 -7181 7183 0
-7183 7205 0
75 -7183 7185 0
-7185 7206 0
97 -7185 7187 0
-7187 7207 0
119 -7187 7189 0
-7189 7208 0
141 -7189 7191 0
-7191 7209 0
163 -7191 7193 0
-7193 7210 0
185 -7193 7195 0
-7195 7211 0
207 -7195 7197 0
-7197 7212 0
229 -7197 7199 0
-7199 7213 0
251 -7199 7201 0
-7201 7214 0
7177 -7201 7203 0
-7203 7215 0
7178 -7203 0
53 7204 0
75 -7204 7205 0
97 -7205 7206 0
119 -7206 7207 0
141 -7207 7208 0
163 -7208 7209 0
185 -7209 7210 0
207 -7210 7211 0
229 -7211 7212 0
251 -7212 7213 0
7177 -7213 7214 0
7178 -7214 7215 0
7179 -7215 0
274 7216 0
-7216 -274 0
274 7217 0
-7217 -274 0
274 7218 0
-7218 -274 0
10 7219 0
-7219 7220 0
32 -7219 7221 0
-7221 7222 0
54 -7221 7223 0
-7223 7224 0
76 -7223 7225 0
-7225 7226 0
98 -7225 7227 0
-7227 7228 0
120 -7227 7229 0
-7229 7230 0
142 -7229 7231 0
-7231 7232 0
164 -7231 7233 0
-7233 7234 0
186 -7233 7235 0
-7235 7236 0
208 -7235 7237 0
-7237 7238 0
230 -7237 7239 0
-7239 7240 0
252 -7239 7241 0
-7241 7242 0
7216 -7241 0
32 7220 0
-7220 7243 0
54 -7220 7222 0
-7222 7244 0
76 -7222 7224 0
-7224 7245 0
98 -7224 7226 0
-7226 7246 0
120 -7226 7228 0
-7228 7247 0
142 -7228 7230 0
-7230 7248 0
164 -7230 7232 0
-7232 7249 0
186 -7232 7234 0
-7234 7250 0
208 -7234 7236 0
-7236 7251 0
230 -7236 7238 0
-7238 7252 0
252 -7238 7240 0
-7240 7253 0
7216 -7240 7242 0
-7242 7254 0
7217 -7242 0
54 7243 0
76 -7243 7244 0
98 -7244 7245 0
120 -7245 7246 0
142 -7246 7247 0
164 -7247 7248 0
186 -7248 7249 0
208 -7249 7250 0
230 -7250 7251 0
252 -7251 7252 0
7216 -7252 7253 0
7217 -7253 7254 0
7218 -7254 0
275 7255 0
-7255 -275 0
275 7256 0
-7256 -275 0
275 7257 0
-7257 -275 0
11 7258 0
-7258 7259 0
33 -7258 7260 0
-7260 7261 0
55 -7260 7262 0
-7262 7263 0
77 -7262 7264 0
-7264 7265 0
99 -7264 7266 0
-7266 7267 0
121 -7266 7268 0
-7268 7269 0
143 -7268 7270 0
-7270 7271 0
165 -7270 7272 0
-7272 7273 0
187 -7272 7274 0
-7274 7275 0
209 -7274 7276 0
-7276 7277 0
231 -7276 7278 0
-7278 7279 0
253 -7278 7280 0
-7280 7281 0
7255 -7280 0
33 7259 0
-7259 7282 0
55 -7259 7261 0
-7261 7283 0
77 -7261 7263 0
-7263 7284 0
99 -7263 7265 0
-7265 7285 0
121 -7265 7267 0
-7267 7286 0
143 -7267 7269 0
-7269 7287 0
165 -7269 7271 0
-7271 7288 0
187 -7271 7273 0
-7273 7289 0
209 -7273 7275 0
-7275 7290 0
231 -7275 7277 0
-7277 7291 0
253 -7277 7279 0
-7279 7292 0
7255 -7279 7281 0
-7281 7293 0
7256 -7281 0
55 7282 0
77 -7282 7283 0
99 -7283 7284 0
121 -7284 7285 0
143 -7285 7286 0
165 -7286 7287 0
187 -7287 7288 0
209 -7288 7289 0
231 -7289 7290 0
253 -7290 7291 0
7255 -7291 7292 0
7256 -7292 7293 0
7257 -7293 0
276 7294 0
-7294 -276 0
276 7295 0
-7295 -276 0
276 7296 0
-7296 -276 0
12 7297 0
-7297 7298 0
34 -7297 7299 0
-7299 7300 0
56 -7299 7301 0
-7301 7302 0
78 -7301 7303 0
-7303 7304 0
100 -7303 7305 0
-7305 7306 0
122 -7305 7307 0
-7307 7308 0
144 -7307 7309 0
-7309 7310 0
166 -7309 7311 0
-7311 7312 0
188 -7311 7313 0
-7313 7314 0
210 -7313 7315 0
-7315 7316 0
232 -7315 7317 0
-7317 7318 0
254 -7317 7319 0
-7319 7320 0
7294 -7319 0
34 7298 0
-7298 7321 0
56 -7298 7300 0
-7300 7322 0
78 -7300 7302 0
-7302 7323 0
100 -7302 7304 0
-7304 7324 0
122 -7304 7306 0
-7306 7325 0
144 -7306 7308 0
-7308 7326 0
166 -7308 7310 0
-7310 7327 0
188 -7310 7312 0
-7312 7328 0
210 -7312 7314 0
-7314 7329 0
232 -7314 7316 0
-7316 7330 0
254 -7316 7318 0
-7318 7331 0
7294 -7318 7320 0
-7320 7332 0
7295 -7320 0
56 7321 0
78 -7321 7322 0
100 -7322 7323 0
122 -7323 7324 0
144 -7324 7325 0
166 -7325 7326 0
188 -7326 7327 0
210 -7327 7328 0
232 -7328 7329 0
254 -7329 7330 0
7294 -7330 7331 0
7295 -7331 7332 0
7296 -7332 0
277 7333 0
-7333 -277 0
277 7334 0
-7334 -277 0
277 7335 0
-7335 -277 0
13 7336 0
-7336 7337 0
35 -7336 7338 0
-7338 7339 0
57 -7338 7340 0
-7340 7341 0
79 -7340 7342 0
-7342 7343 0
101 -7342 7344 0
-7344 7345 0
123 -7344 7346 0
-7346 7347 0
145 -7346 7348 0
-7348 7349 0
167 -7348 7350 0
-7350 7351 0
189 -7350 7352 0
-7352 7353 0
211 -7352 7354 0
-7354 7355 0
233 -7354 7356 0
-7356 7357 0
255 -7356 7358 0
-7358 7359 0
7333 -7358 0
35 7337 0
-7337 7360 0
57 -7337 7339 0
-7339 7361 0
79 -7339 7341 0
-7341 7362 0
101 -7341 7343 0
-7343 7363 0
123 -7343 7345 0
-7345 7364 0
145 -7345 7347 0
-7347 7365 0
167 -7347 7349 0
-7349 7366 0
189 -7349 7351 0
-7351 7367 0
211 -7351 7353 0
-7353 7368 0
233 -7353 7355 0
-7355 7369 0
255 -7355 7357 0
-7357 7370 0
7333 -7357 7359 0
-7359 7371 0
7334 -7359 0
57 7360 0
79 -7360 7361 0
101 -7361 7362 0
123 -7362 7363 0
145 -7363 7364 0
167 -7364 7365 0
189 -7365 7366 0
211 -7366 7367 0
233 -7367 7368 0
255 -7368 7369 0
7333 -7369 7370 0
7334 -7370 7371 0
7335 -7371 0
278 7372 0
-7372 -278 0
278 7373 0
-7373 -278 0
278 7374 0
-7374 -278 0
14 7375 0
-7375 7376 0
36 -7375 7377 0
-7377 7378 0
58 -7377 7379 0
-7379 7380 0
80 -7379 7381 0
-7381 7382 0
102 -7381 7383 0
-7383 7384 0
124 -7383 7385 0
-7385 7386 0
146 -7385 7387 0
-7387 7388 0
168 -7387 7389 0
-7389 7390 0
190 -7389 7391 0
-7391 7392 0
212 -7391 7393 0
-7393 7394 0
234 -7393 7395 0
-7395 7396 0
256 -7395 7397 0
-7397 7398 0
7372 -7397 0
36 7376 0
-7376 7399 0
58 -7376 7378 0
-7378 7400 0
80 -7378 7380 0
-7380 7401 0
102 -7380 7382 0
-7382 7402 0
124 -7382 7384 0
-7384 7403 0
146 -7384 7386 0
-7386 7404 0
168 -7386 7388 0
-7388 7405 0
190 -7388 7390 0
-7390 7406 0
212 -7390 7392 0
-7392 7407 0
234 -7392 7394 0
-7394 7408 0
256 -7394 7396 0
-7396 7409 0
7372 -7396 7398 0
-7398 7410 0
7373 -7398 0
58 7399 0
80 -7399 7400 0
102 -7400 7401 0
124 -7401 7402 0
146 -7402 7403 0
168 -7403 7404 0
190 -7404 7405 0
212 -7405 7406 0
234 -7406 7407 0
256 -7407 7408 0
7372 -7408 7409 0
7373 -7409 7410 0
7374 -7410 0
279 7411 0
-7411 -279 0
279 7412 0
-7412 -279 0
279 7413 0
-7413 -279 0
15 7414 0
-7414 7415 0
37 -7414 7416 0
-7416 7417 0
59 -7416 7418 0
-7418 7419 0
81 -7418 7420 0
-7420 7421 0
103 -7420 7422 0
-7422 7423 0
125 -7422 7424 0
-7424 7425 0
147 -7424 7426 0
-7426 7427 0
169 -7426 7428 0
-7428 7429 0
191 -7428 7430 0
-7430 7431 0
213 -7430 7432 0
-7432 7433 0
235 -7432 7434 0
-7434 7435 0
257 -7434 7436 0
-7436 7437 0
7411 -7436 0
37 7415 0
-7415 7438 0
59 -7415 7417 0
-7417 7439 0
81 -7417 7419 0
-7419 7440 0
103 -7419 7421 0
-7421 7441 0
125 -7421 7423 0
-7423 7442 0
147 -7423 7425 0
-7425 7443 0
169 -7425 7427 0
-7427 7444 0
191 -7427 7429 0
-7429 7445 0
213 -7429 7431 0
-7431 7446 0
235 -7431 7433 0
-7433 7447 0
257 -7433 7435 0
-7435 7448 0
7411 -7435 7437 0
-7437 7449 0
7412 -7437 0
59 7438 0
81 -7438 7439 0
103 -7439 7440 0
125 -7440 7441 0
147 -7441 7442 0
169 -7442 7443 0
191 -7443 7444 0
213 -7444 7445 0
235 -7445 7446 0
257 -7446 7447 0
7411 -7447 7448 0
7412 -7448 7449 0
7413 -7449 0
280 7450 0
-7450 -280 0
280 7451 0
-7451 -280 0
280 7452 0
-7452 -280 0
16 7453 0
-7453 7454 0
38 -7453 7455 0
-7455 7456 0
60 -7455 7457 0
-7457 7458 0
82 -7457 7459 0
-7459 7460 0
104 -7459 7461 0
-7461 7462 0
126 -7461 7463 0
-7463 7464 0
148 -7463 7465 0
-7465 7466 0
170 -7465 7467 0
-7467 7468 0
192 -7467 7469 0
-7469 7470 0
214 -7469 7471 0
-7471 7472 0
236 -7471 7473 0
-7473 7474 0
258 -7473 7475 0
-7475 7476 0
7450 -7475 0
38 7454 0
-7454 7477 0
60 -7454 7456 0
-7456 7478 0
82 -7456 7458 0
-7458 7479 0
104 -7458 7460 0
-7460 7480 0
126 -7460 7462 0
-7462 7481 0
148 -7462 7464 0
-7464 7482 0
170 -7464 7466 0
-7466 7483 0
192 -7466 7468 0
-7468 7484 0
214 -7468 7470 0
-7470 7485 0
236 -7470 7472 0
-7472 7486 0
258 -7472 7474 0
-7474 7487 0
7450 -7474 7476 0
-7476 7488 0
7451 -7476 0
60 7477 0
82 -7477 7478 0
104 -7478 7479 0
126 -7479 7480 0
148 -7480 7481 0
170 -7481 7482 0
192 -7482 7483 0
214 -7483 7484 0
236 -7484 7485 0
258 -7485 7486 0
7450 -7486 7487 0
7451 -7487 7488 0
7452 -7488 0
281 7489 0
-7489 -281 0
281 7490 0
-7490 -281 0
281 7491 0
-7491 -281 0
17 7492 0
-7492 7493 0
39 -7492 7494 0
-7494 7495 0
61 -7494 7496 0
-7496 7497 0
83 -7496 7498 0
-7498 7499 0
105 -7498 7500 0
-7500 7501 0
127 -7500 7502 0
-7502 7503 0
149 -7502 7504 0
-7504 7505 0
171 -7504 7506 0
-7506 7507 0
193 -7506 7508 0
-7508 7509 0
215 -7508 7510 0
-7510 7511 0
237 -7510 7512 0
-7512 7513 0
259 -7512 7514 0
-7514 7515 0
7489 -7514 0
39 7493 0
-7493 7516 0
61 -7493 7495 0
-7495 7517 0
83 -7495 7497 0
-7497 7518 0
105 -7497 7499 0
-7499 7519 0
127 -7499 7501 0
-7501 7520 0
149 -7501 7503 0
-7503 7521 0
171 -7503 7505 0
-7505 7522 0
193 -7505 7507 0
-7507 7523 0
215 -7507 7509 0
-7509 7524 0
237 -7509 7511 0
-7511 7525 0
259 -7511 7513 0
-7513 7526 0
7489 -7513 7515 0
-7515 7527 0
7490 -7515 0
61 7516 0
83 -7516 7517 0
105 -7517 7518 0
127 -7518 7519 0
149 -7519 7520 0
171 -7520 7521 0
193 -7521 7522 0
215 -7522 7523 0
237 -7523 7524 0
259 -7524 7525 0
7489 -7525 7526 0
7490 -7526 7527 0
7491 -7527 0
282 7528 0
-7528 -282 0
282 7529 0
-7529 -282 0
282 7530 0
-7530 -282 0
18 7531 0
-7531 7532 0
40 -7531 7533 0
-7533 7534 0
62 -7533 7535 0
-7535 7536 0
84 -7535 7537 0
-7537 7538 0
106 -7537 7539 0
-7539 7540 0
128 -7539 7541 0
-7541 7542 0
150 -7541 7543 0
-7543 7544 0
172 -7543 7545 0
-7545 7546 0
194 -7545 7547 0
-7547 7548 0
216 -7547 7549 0
-7549 7550 0
238 -7549 7551 0
-7551 7552 0
260 -7551 7553 0
-7553 7554 0
7528 -7553 0
40 7532 0
-7532 7555 0
62 -7532 7534 0
-7534 7556 0
84 -7534 7536 0
-7536 7557 0
106 -7536 7538 0
-7538 7558 0
128 -7538 7540 0
-7540 7559 0
150 -7540 7542 0
-7542 7560 0
172 -7542 7544 0
-7544 7561 0
194 -7544 7546 0
-7546 7562 0
216 -7546 7548 0
-7548 7563 0
238 -7548 7550 0
-7550 7564 0
260 -7550 7552 0
-7552 7565 0
7528 -7552 7554 0
-7554 7566 0
7529 -7554 0
62 7555 0
84 -7555 7556 0
106 -7556 7557 0
128 -7557 7558 0
150 -7558 7559 0
172 -7559 7560 0
194 -7560 7561 0
216 -7561 7562 0
238 -7562 7563 0
260 -7563 7564 0
7528 -7564 7565 0
7529 -7565 7566 0
7530 -7566 0
283 7567 0
-7567 -283 0
283 7568 0
-7568 -283 0
283 7569 0
-7569 -283 0
19 7570 0
-7570 7571 0
41 -7570 7572 0
-7572 7573 0
63 -7572 7574 0
-7574 7575 0
85 -7574 7576 0
-7576 7577 0
107 -7576 7578 0
-7578 7579 0
129 -7578 7580 0
-7580 7581 0
151 -7580 7582 0
-7582 7583 0
173 -7582 7584 0
-7584 7585 0
195 -7584 7586 0
-7586 7587 0
217 -7586 7588 0
-7588 7589 0
239 -7588 7590 0
-7590 7591 0
261 -7590 7592 0
-7592 7593 0
7567 -7592 0
41 7571 0
-7571 7594 0
63 -7571 7573 0
-7573 7595 0
85 -7573 7575 0
-7575 7596 0
107 -7575 7577 0
-7577 7597 0
129 -7577 7579 0
-7579 7598 0
151 -7579 7581 0
-7581 7599 0
173 -7581 7583 0
-7583 7600 0
195 -7583 7585 0
-7585 7601 0
217 -7585 7587 0
-7587 7602 0
239 -7587 7589 0
-7589 7603 0
261 -7589 7591 0
-7591 7604 0
7567 -7591 7593 0
-7593 7605 0
7568 -7593 0
63 7594 0
85 -7594 7595 0
107 -7595 7596 0
129 -7596 7597 0
151 -7597 7598 0
173 -7598 7599 0
195 -7599 7600 0
217 -7600 7601 0
239 -7601 7602 0
261 -7602 7603 0
7567 -7603 7604 0
7568 -7604 7605 0
7569 -7605 0
284 7606 0
-7606 -284 0
284 7607 0
-7607 -284 0
284 7608 0
-7608 -284 0
20 7609 0
-7609 7610 0
42 -7609 7611 0
-7611 7612 0
64 -7611 7613 0
-7613 7614 0
86 -7613 7615 0
-7615 7616 0
108 -7615 7617 0
-7617 7618 0
130 -7617 7619 0
-7619 7620 0
152 -7619 7621 0
-7621 7622 0
174 -7621 7623 0
-7623 7624 0
196 -7623 7625 0
-7625 7626 0
218 -7625 7627 0
-7627 7628 0
240 -7627 7629 0
-7629 7630 0
262 -7629 7631 0
-7631 7632 0
7606 -7631 0
42 7610 0
-7610 7633 0
64 -7610 7612 0
-7612 7634 0
86 -7612 7614 0
-7614 7635 0
108 -7614 7616 0
-7616 7636 0
130 -7616 7618 0
-7618 7637 0
152 -7618 7620 0
-7620 7638 0
174 -7620 7622 0
-7622 7639 0
196 -7622 7624 0
-7624 7640 0
218 -7624 7626 0
-7626 7641 0
240 -7626 7628 0
-7628 7642 0
262 -7628 7630 0
-7630 7643 0
7606 -7630 7632 0
-7632 7644 0
7607 -7632 0
64 7633 0
86 -7633 7634 0
108 -7634 7635 0
130 -7635 7636 0
152 -7636 7637 0
174 -7637 7638 0
196 -7638 7639 0
218 -7639 7640 0
240 -7640 7641 0
262 -7641 7642 0
7606 -7642 7643 0
7607 -7643 7644 0
7608 -7644 0
285 7645 0
-7645 -285 0
285 7646 0
-7646 -285 0
285 7647 0
-7647 -285 0
21 7648 0
-7648 7649 0
43 -7648 7650 0
-7650 7651 0
65 -7650 7652 0
-7652 7653 0
87 -7652 7654 0
-7654 7655 0
109 -7654 7656 0
-7656 7657 0
131 -7656 7658 0
-7658 7659 0
153 -7658 7660 0
-7660 7661 0
175 -7660 7662 0
-7662 7663 0
197 -7662 7664 0
-7664 7665 0
219 -7664 7666 0
-7666 7667 0
241 -7666 7668 0
-7668 7669 0
263 -7668 7670 0
-7670 7671 0
7645 -7670 0
43 7649 0
-7649 7672 0
65 -7649 7651 0
-7651 7673 0
87 -7651 7653 0
-7653 7674 0
109 -7653 7655 0
-7655 7675 0
131 -7655 7657 0
-7657 7676 0
153 -7657 7659 0
-7659 7677 0
175 -7659 7661 0
-7661 7678 0
197 -7661 7663 0
-7663 7679 0
219 -7663 7665 0
-7665 7680 0
241 -7665 7667 0
-7667 7681 0
263 -7667 7669 0
-7669 7682 0
7645 -7669 7671 0
-7671 7683 0
7646 -7671 0
65 7672 0
87 -7672 7673 0
109 -7673 7674 0
131 -7674 7675 0
153 -7675 7676 0
175 -7676 7677 0
197 -7677 7678 0
219 -7678 7679 0
241 -7679 7680 0
263 -7680 7681 0
7645 -7681 7682 0
7646 -7682 7683 0
7647 -7683 0
286 7684 0
-7684 -286 0
286 7685 0
-7685 -286 0
286 7686 0
-7686 -286 0
22 7687 0
-7687 7688 0
44 -7687 7689 0
-7689 7690 0
66 -7689 7691 0
-7691 7692 0
88 -7691 7693 0
-7693 7694 0
110 -7693 7695 0
-7695 7696 0
132 -7695 7697 0
-7697 7698 0
154 -7697 7699 0
-7699 7700 0
176 -7699 7701 0
-7701 7702 0
198 -7701 7703 0
-7703 7704 0
220 -7703 7705 0
-7705 7706 0
242 -7705 7707 0
-7707 7708 0
264 -7707 7709 0
-7709 7710 0
7684 -7709 0
44 7688 0
-7688 7711 0
66 -7688 7690 0
-7690 7712 0
88 -7690 7692 0
-7692 7713 0
110 -7692 7694 0
-7694 7714 0
132 -7694 7696 0
-7696 7715 0
154 -7696 7698 0
-7698 7716 0
176 -7698 7700 0
-7700 7717 0
198 -7700 7702 0
-7702 7718 0
220 -7702 7704 0
-7704 7719 0
242 -7704 7706 0
-7706 7720 0
264 -7706 7708 0
-7708 7721 0
7684 -7708 7710 0
-7710 7722 0
7685 -7710 0
66 7711 0
88 -7711 7712 0
110 -7712 7713 0
132 -7713 7714 0
154 -7714 7715 0
176 -7715 7716 0
198 -7716 7717 0
220 -7717 7718 0
242 -7718 7719 0
264 -7719 7720 0
7684 -7720 7721 0
7685 -7721 7722 0
7686 -7722 0
1 7723 0
-7723 7724 0
2 -7723 7725 0
-7725 7726 0
3 -7725 7727 0
-7727 7728 0
4 -7727 7729 0
-7729 7730 0
5 -7729 7731 0
-7731 7732 0
6 -7731 7733 0
-7733 7734 0
7 -7733 7735 0
-7735 7736 0
8 -7735 7737 0
-7737 7738 0
9 -7737 7739 0
-7739 7740 0
10 -7739 7741 0
-7741 7742 0
11 -7741 7743 0
-7743 7744 0
12 -7743 7745 0
-7745 7746 0
13 -7745 7747 0
-7747 7748 0
14 -7747 7749 0
-7749 7750 0
15 -7749 7751 0
-7751 7752 0
16 -7751 7753 0
-7753 7754 0
17 -7753 7755 0
-7755 7756 0
18 -7755 7757 0
-7757 7758 0
19 -7757 7759 0
-7759 7760 0
20 -7759 0
2 7724 0
-7724 7761 0
3 -7724 7726 0
-7726 7762 0
4 -7726 7728 0
-7728 7763 0
5 -7728 7730 0
-7730 7764 0
6 -7730 7732 0
-7732 7765 0
7 -7732 7734 0
-7734 7766 0
8 -7734 7736 0
-7736 7767 0
9 -7736 7738 0
-7738 7768 0
10 -7738 7740 0
-7740 7769 0
11 -7740 7742 0
-7742 7770 0
12 -7742 7744 0
-7744 7771 0
13 -7744 7746 0
-7746 7772 0
14 -7746 7748 0
-7748 7773 0
15 -7748 7750 0
-7750 7774 0
16 -7750 7752 0
-7752 7775 0
17 -7752 7754 0
-7754 7776 0
18 -7754 7756 0
-7756 7777 0
19 -7756 7758 0
-7758 7778 0
20 -7758 7760 0
-7760 7779 0
21 -7760 0
3 7761 0
4 -7761 7762 0
5 -7762 7763 0
6 -7763 7764 0
7 -7764 7765 0
8 -7765 7766 0
9 -7766 7767 0
10 -7767 7768 0
11 -7768 7769 0
12 -7769 7770 0
13 -7770 7771 0
14 -7771 7772 0
15 -7772 7773 0
16 -7773 7774 0
17 -7774 7775 0
18 -7775 7776 0
19 -7776 7777 0
20 -7777 7778 0
21 -7778 7779 0
22 -7779 0
23 7780 0
-7780 7781 0
24 -7780 7782 0
-7782 7783 0
25 -7782 7784 0
-7784 7785 0
26 -7784 7786 0
-7786 7787 0
27 -7786 7788 0
-7788 7789 0
28 -7788 7790 0
-7790 7791 0
29 -7790 7792 0
-7792 7793 0
30 -7792 7794 0
-7794 7795 0
31 -7794 7796 0
-7796 7797 0
32 -7796 7798 0
-7798 7799 0
33 -7798 7800 0
-7800 7801 0
34 -7800 7802 0
-7802 7803 0
35 -7802 7804 0
-7804 7805 0
36 -7804 7806 0
-7806 7807 0
37 -7806 7808 0
-7808 7809 0
38 -7808 7810 0
-7810 7811 0
39 -7810 7812 0
-7812 7813 0
40 -7812 7814 0
-7814 7815 0
41 -7814 7816 0
-7816 7817 0
42 -7816 0
24 7781 0
-7781 7818 0
25 -7781 7783 0
-7783 7819 0
26 -7783 7785 0
-7785 7820 0
27 -7785 7787 0
-7787 7821 0
28 -7787 7789 0
-7789 7822 0
29 -7789 7791 0
-7791 7823 0
30 -7791 7793 0
-7793 7824 0
31 -7793 7795 0
-7795 7825 0
32 -7795 7797 0
-7797 7826 0
33 -7797 7799 0
-7799 7827 0
34 -7799 7801 0
-7801 7828 0
35 -7801 7803 0
-7803 7829 0
36 -7803 7805 0
-7805 7830 0
37 -7805 7807 0
-7807 7831 0
38 -7807 7809 0
-7809 7832 0
39 -7809 7811 0
-7811 7833 0
40 -7811 7813 0
-7813 7834 0
41 -7813 7815 0
-7815 7835 0
42 -7815 7817 0
-7817 7836 0
43 -7817 0
25 7818 0
26 -7818 7819 0
27 -7819 7820 0
28 -7820 7821 0
29 -7821 7822 0
30 -7822 7823 0
31 -7823 7824 0
32 -7824 7825 0
33 -7825 7826 0
34 -7826 7827 0
35 -7827 7828 0
36 -7828 7829 0
37 -7829 7830 0
38 -7830 7831 0
39 -7831 7832 0
40 -7832 7833 0
41 -7833 7834 0
42 -7834 7835 0
43 -7835 7836 0
44 -7836 0
45 7837 0
-7837 7838 0
46 -7837 7839 0
-7839 7840 0
47 -7839 7841 0
-7841 7842 0
48 -7841 7843 0
-7843 7844 0
49 -7843 7845 0
-7845 7846 0
50 -7845 7847 0
-7847 7848 0
51 -7847 7849 0
-7849 7850 0
52 -7849 7851 0
-7851 7852 0
53 -7851 7853 0
-7853 7854 0
54 -7853 7855 0
-7855 7856 0
55 -7855 7857 0
-7857 7858 0
56 -7857 7859 0
-7859 7860 0
57 -7859 7861 0
-7861 7862 0
58 -7861 7863 0
-7863 7864 0
59 -7863 7865 0
-7865 7866 0
60 -7865 7867 0
-7867 7868 0
61 -7867 7869 0
-7869 7870 0
62 -7869 7871 0
-7871 7872 0
63 -7871 7873 0
-7873 7874 0
64 -7873 0
46 7838 0
-7838 7875 0
47 -7838 7840 0
-7840 7876 0
48 -7840 7842 0
-7842 7877 0
49 -7842 7844 0
-7844 7878 0
50 -7844 7846 0
-7846 7879 0
51 -7846 7848 0
-7848 7880 0
52 -7848 7850 0
-7850 7881 0
53 -7850 7852 0
-7852 7882 0
54 -7852 7854 0
-7854 7883 0
55 -7854 7856 0
-7856 7884 0
56 -7856 7858 0
-7858 7885 0
57 -7858 7860 0
-7860 7886 0
58 -7860 7862 0
-7862 7887 0
59 -7862 7864 0
-7864 7888 0
60 -7864 7866 0
-7866 7889 0
61 -7866 7868 0
-7868 7890 0
62 -7868 7870 0
-7870 7891 0
63 -7870 7872 0
-7872 7892 0
64 -7872 7874 0
-7874 7893 0
65 -7874 0
47 7875 0
48 -7875 7876 0
49 -7876 7877 0
50 -7877 7878 0
51 -7878 7879 0
52 -7879 7880 0
53 -7880 7881 0
54 -7881 7882 0
55 -7882 7883 0
56 -7883 7884 0
57 -7884 7885 0
58 -7885 7886 0
59 -7886 7887 0
60 -7887 7888 0
61 -7888 7889 0
62 -7889 7890 0
63 -7890 7891 0
64 -7891 7892 0
65 -7892 7893 0
66 -7893 0
67 7894 0
-7894 7895 0
68 -7894 7896 0
-7896 7897 0
69 -7896 7898 0
-7898 7899 0
70 -7898 7900 0
-7900 7901 0
71 -7900 7902 0
-7902 7903 0
72 -7902 7904 0
-7904 7905 0
73 -7904 7906 0
-7906 7907 0
74 -7906 7908 0
-7908 7909 0
75 -7908 7910 0
-7910 7911 0
76 -7910 7912 0
-7912 7913 0
77 -7912 7914 0
-7914 7915 0
78 -7914 7916 0
-7916 7917 0
79 -7916 7918 0
-7918 7919 0
80 -7918 7920 0
-7920 7921 0
81 -7920 7922 0
-7922 7923 0
82 -7922 7924 0
-7924 7925 0
83 -7924 7926 0
-7926 7927 0
84 -7926 7928 0
-7928 7929 0
85 -7928 7930 0
-7930 7931 0
86 -7930 0
68 7895 0
-7895 7932 0
69 -7895 7897 0
-7897 7933 0
70 -7897 7899 0
-7899 7934 0
71 -7899 7901 0
-7901 7935 0
72 -7901 7903 0
-7903 7936 0
73 -7903 7905 0
-7905 7937 0
74 -7905 7907 0
-7907 7938 0
75 -7907 7909 0
-7909 7939 0
76 -7909 7911 0
-7911 7940 0
77 -7911 7913 0
-7913 7941 0
78 -7913 7915 0
-7915 7942 0
79 -7915 7917 0
-7917 7943 0
80 -7917 7919 0
-7919 7944 0
81 -7919 7921 0
-7921 7945 0
82 -7921 7923 0
-7923 7946 0
83 -7923 7925 0
-7925 7947 0
84 -7925 7927 0
-7927 7948 0
85 -7927 7929 0
-7929 7949 0
86 -7929 7931 0
-7931 7950 0
87 -7931 0
69 7932 0
70 -7932 7933 0
71 -7933 7934 0
72 -7934 7935 0
73 -7935 7936 0
74 -7936 7937 0
75 -7937 7938 0
76 -7938 7939 0
77 -7939 7940 0
78 -7940 7941 0
79 -7941 7942 0
80 -7942 7943 0
81 -7943 7944 0
82 -7944 7945 0
83 -7945 7946 0
84 -7946 7947 0
85 -7947 7948 0
86 -7948 7949 0
87 -7949 7950 0
88 -7950 0
89 7951 0
-7951 7952 0
90 -7951 7953 0
-7953 7954 0
91 -7953 7955 0
-7955 7956 0
92 -7955 7957 0
-7957 7958 0
93 -7957 7959 0
-7959 7960 0
94 -7959 7961 0
-7961 7962 0
95 -7961 7963 0
-7963 7964 0
96 -7963 7965 0
-7965 7966 0
97 -7965 7967 0
-7967 7968 0
98 -7967 7969 0
-7969 7970 0
99 -7969 7971 0
-7971 7972 0
100 -7971 7973 0
-7973 7974 0
101 -7973 7975 0
-7975 7976 0
102 -7975 7977 0
-7977 7978 0
103 -7977 7979 0
-7979 7980 0
104 -7979 7981 0
-7981 7982 0
105 -7981 7983 0
-7983 7984 0
106 -7983 7985 0
-7985 7986 0
107 -7985 7987 0
-7987 7988 0
108 -7987 0
90 7952 0
-7952 7989 0
91 -7952 7954 0
-7954 7990 0
92 -7954 7956 0
-7956 7991 0
93 -7956 7958 0
-7958 7992 0
94 -7958 7960 0
-7960 7993 0
95 -7960 7962 0
-7962 7994 0
96 -7962 7964 0
-7964 7995 0
97 -7964 7966 0
-7966 7996 0
98 -7966 7968 0
-7968 7997 0
99 -7968 7970 0
-7970 7998 0
100 -7970 7972 0
-7972 7999 0
101 -7972 7974 0
-7974 8000 0
102 -7974 7976 0
-7976 8001 0
103 -7976 7978 0
-7978 8002 0
104 -7978 7980 0
-7980 8003 0
105 -7980 7982 0
-7982 8004 0
106 -7982 7984 0
-7984 8005 0
107 -7984 7986 0
-7986 8006 0
108 -7986 7988 0
-7988 8007 0
109 -7988 0
91 7989 0
92 -7989 7990 0
93 -7990 7991 0
94 -7991 7992 0
95 -7992 7993 0
96 -7993 7994 0
97 -7994 7995 0
98 -7995 7996 0
99 -7996 7997 0
100 -7997 7998 0
101 -7998 7999 0
102 -7999 8000 0
103 -8000 8001 0
104 -8001 8002 0
105 -8002 8003 0
106 -8003 8004 0
107 -8004 8005 0
108 -8005 8006 0
109 -8006 8007 0
110 -8007 0
111 8008 0
-8008 8009 0
112 -8008 8010 0
-8010 8011 0
113 -8010 8012 0
-8012 8013 0
114 -8012 8014 0
-8014 8015 0
115 -8014 8016 0
-8016 8017 0
116 -8016 8018 0
-8018 8019 0
117 -8018 8020 0
-8020 8021 0
118 -8020 8022 0
-8022 8023 0
119 -8022 8024 0
-8024 8025 0
120 -8024 8026 0
-8026 8027 0
121 -8026 8028 0
-8028 8029 0
122 -8028 8030 0
-8030 8031 0
123 -8030 8032 0
-8032 8033 0
124 -8032 8034 0
-8034 8035 0
125 -8034 8036 0
-8036 8037 0
126 -8036 8038 0
-8038 8039 0
127 -8038 8040 0
-8040 8041 0
128 -8040 8042 0
-8042 8043 0
129 -8042 8044 0
-8044 8045 0
130 -8044 0
112 8009 0
-8009 8046 0
113 -8009 8011 0
-8011 8047 0
114 -8011 8013 0
-8013 8048 0
115 -8013 8015 0
-8015 8049 0
116 -8015 8017 0
-8017 8050 0
117 -8017 8019 0
-8019 8051 0
118 -8019 8021 0
-8021 8052 0
119 -8021 8023 0
-8023 8053 0
120 -8023 8025 0
-8025 8054 0
121 -8025 8027 0
-8027 8055 0
122 -8027 8029 0
-8029 8056 0
123 -8029 8031 0
-8031 8057 0
124 -8031 8033 0
-8033 8058 0
125 -8033 8035 0
-8035 8059 0
126 -8035 8037 0
-8037 8060 0
127 -8037 8039 0
-8039 8061 0
128 -8039 8041 0
-8041 8062 0
129 -8041 8043 0
-8043 8063 0
130 -8043 8045 0
-8045 8064 0
131 -8045 0
113 8046 0
114 -8046 8047 0
115 -8047 8048 0
116 -8048 8049 0
117 -8049 8050 0
118 -8050 8051 0
119 -8051 8052 0
120 -8052 8053 0
121 -8053 8054 0
122 -8054 8055 0
123 -8055 8056 0
124 -8056 8057 0
125 -8057 8058 0
126 -8058 8059 0
127 -8059 8060 0
128 -8060 8061 0
129 -8061 8062 0
130 -8062 8063 0
131 -8063 8064 0
132 -8064 0
133 8065 0
-8065 8066 0
134 -8065 8067 0
-8067 8068 0
135 -8067 8069 0
-8069 8070 0
136 -8069 8071 0
-8071 8072 0
137 -8071 8073 0
-8073 8074 0
138 -8073 8075 0
-8075 8076 0
139 -8075 8077 0
-8077 8078 0
140 -8077 8079 0
-8079 8080 0
141 -8079 8081 0
-8081 8082 0
142 -8081 8083 0
-8083 8084 0
143 -8083 8085 0
-8085 8086 0
144 -8085 8087 0
-8087 8088 0
145 -8087 8089 0
-8089 8090 0
146 -8089 8091 0
-8091 8092 0
147 -8091 8093 0
-8093 8094 0
148 -8093 8095 0
-8095 8096 0
149 -8095 8097 0
-8097 8098 0
150 -8097 8099 0
-8099 8100 0
151 -8099 8101 0
-8101 8102 0
152 -8101 0
134 8066 0
-8066 8103 0
135 -8066 8068 0
-8068 8104 0
136 -8068 8070 0
-8070 8105 0
137 -8070 8072 0
-8072 8106 0
138 -8072 8074 0
-8074 8107 0
139 -8074 8076 0
-8076 8108 0
140 -8076 8078 0
-8078 8109 0
141 -8078 8080 0
-8080 8110 0
142 -8080 8082 0
-8082 8111 0
143 -8082 8084 0
-8084 8112 0
144 -8084 8086 0
-8086 8113 0
145 -8086 8088 0
-8088 8114 0
146 -8088 8090 0
-8090 8115 0
147 -8090 8092 0
-8092 8116 0
148 -8092 8094 0
-8094 8117 0
149 -8094 8096 0
-8096 8118 0
150 -8096 8098 0
-8098 8119 0
151 -8098 8100 0
-8100 8120 0
152 -8100 8102 0
-8102 8121 0
153 -8102 0
135 8103 0
136 -8103 8104 0
137 -8104 8105 0
138 -8105 8106 0
139 -8106 8107 0
140 -8107 8108 0
141 -8108 8109 0
142 -8109 8110 0
143 -8110 8111 0
144 -8111 8112 0
145 -8112 8113 0
146 -8113 8114 0
147 -8114 8115 0
148 -8115 8116 0
149 -8116 8117 0
150 -8117 8118 0
151 -8118 8119 0
152 -8119 8120 0
153 -8120 8121 0
154 -8121 0
155 8122 0
-8122 8123 0
156 -8122 8124 0
-8124 8125 0
157 -8124 8126 0
-8126 8127 0
158 -8126 8128 0
-8128 8129 0
159 -8128 8130 0
-8130 8131 0
160 -8130 8132 0
-8132 8133 0
161 -8132 8134 0
-8134 8135 0
162 -8134 8136 0
-8136 8137 0
163 -8136 8138 0
-8138 8139 0
164 -8138 8140 0
-8140 8141 0
165 -8140 8142 0
-8142 8143 0
166 -8142 8144 0
-8144 8145 0
167 -8144 8146 0
-8146 8147 0
168 -8146 8148 0
-8148 8149 0
169 -8148 8150 0
-8150 8151 0
170 -8150 8152 0
-8152 8153 0
171 -8152 8154 0
-8154 8155 0
172 -8154 8156 0
-8156 8157 0
173 -8156 8158 0
-8158 8159 0
174 -8158 0
156 8123 0
-8123 8160 0
157 -8123 8125 0
-8125 8161 0
158 -8125 8127 0
-8127 8162 0
159 -8127 8129 0
-8129 8163 0
160 -8129 8131 0
-8131 8164 0
161 -8131 8133 0
-8133 8165 0
162 -8133 8135 0
-8135 8166 0
163 -8135 8137 0
-8137 8167 0
164 -8137 8139 0
-8139 8168 0
165 -8139 8141 0
-8141 8169 0
166 -8141 8143 0
-8143 8170 0
167 -8143 8145 0
-8145 8171 0
168 -8145 8147 0
-8147 8172 0
169 -8147 8149 0
-8149 8173 0
170 -8149 8151 0
-8151 8174 0
171 -8151 8153 0
-8153 8175 0
172 -8153 8155 0
-8155 8176 0
173 -8155 8157 0
-8157 8177 0
174 -8157 8159 0
-8159 8178 0
175 -8159 0
157 8160 0
158 -8160 8161 0
159 -8161 8162 0
160 -8162 8163 0
161 -8163 8164 0
162 -8164 8165 0
163 -8165 8166 0
164 -8166 8167 0
165 -8167 8168 0
166 -8168 8169 0
167 -8169 8170 0
168 -8170 8171 0
169 -8171 8172 0
170 -8172 8173 0
171 -8173 8174 0
172 -8174 8175 0
173 -8175 8176 0
174 -8176 8177 0
175 -8177 8178 0
176 -8178 0
177 8179 0
-8179 8180 0
178 -8179 8181 0
-8181 8182 0
179 -8181 8183 0
-8183 8184 0
180 -8183 8185 0
-8185 8186 0
181 -8185 8187 0
-8187 8188 0
182 -8187 8189 0
-8189 8190 0
183 -8189 8191 0
-8191 8192 0
184 -8191 8193 0
-8193 8194 0
185 -8193 8195 0
-8195 8196 0
186 -8195 8197 0
-8197 8198 0
187 -8197 8199 0
-8199 8200 0
188 -8199 8201 0
-8201 8202 0
189 -8201 8203 0
-8203 8204 0
190 -8203 8205 0
-8205 8206 0
191 -8205 8207 0
-8207 8208 0
192 -8207 8209 0
-8209 8210 0
193 -8209 8211 0
-8211 8212 0
194 -8211 8213 0
-8213 8214 0
195 -8213 8215 0
-8215 8216 0
196 -8215 0
178 8180 0
-8180 8217 0
179 -8180 8182 0
-8182 8218 0
180 -8182 8184 0
-8184 8219 0
181 -8184 8186 0
-8186 8220 0
182 -8186 8188 0
-8188 8221 0
183 -8188 8190 0
-8190 8222 0
184 -8190 8192 0
-8192 8223 0
185 -8192 8194 0
-8194 8224 0
186 -8194 8196 0
-8196 8225 0
187 -8196 8198 0
-8198 8226 0
188 -8198 8200 0
-8200 8227 0
189 -8200 8202 0
-8202 8228 0
190 -8202 8204 0
-8204 8229 0
191 -8204 8206 0
-8206 8230 0
192 -8206 8208 0
-8208 8231 0
193 -8208 8210 0
-8210 8232 0
194 -8210 8212 0
-8212 8233 0
195 -8212 8214 0
-8214 8234 0
196 -8214 8216 0
-8216 8235 0
197 -8216 0
179 8217 0
180 -8217 8218 0
181 -8218 8219 0
182 -8219 8220 0
183 -8220 8221 0
184 -8221 8222 0
185 -8222 8223 0
186 -8223 8224 0
187 -8224 8225 0
188 -8225 8226 0
189 -8226 8227 0
190 -8227 8228 0
191 -8228 8229 0
192 -8229 8230 0
193 -8230 8231 0
194 -8231 8232 0
195 -8232 8233 0
196 -8233 8234 0
197 -8234 8235 0
198 -8235 0
199 8236 0
-8236 8237 0
200 -8236 8238 0
-8238 8239 0
201 -8238 8240 0
-8240 8241 0
202 -8240 8242 0
-8242 8243 0
203 -8242 8244 0
-8244 8245 0
204 -8244 8246 0
-8246 8247 0
205 -8246 8248 0
-8248 8249 0
206 -8248 8250 0
-8250 8251 0
207 -8250 8252 0
-8252 8253 0
208 -8252 8254 0
-8254 8255 0
209 -8254 8256 0
-8256 8257 0
210 -8256 8258 0
-8258 8259 0
211 -8258 8260 0
-8260 8261 0
212 -8260 8262 0
-8262 8263 0
213 -8262 8264 0
-8264 8265 0
214 -8264 8266 0
-8266 8267 0
215 -8266 8268 0
-8268 8269 0
216 -8268 8270 0
-8270 8271 0
217 -8270 8272 0
-8272 8273 0
218 -8272 0
200 8237 0
-8237 8274 0
201 -8237 8239 0
-8239 8275 0
202 -8239 8241 0
-8241 8276 0
203 -8241 8243 0
-8243 8277 0
204 -8243 8245 0
-8245 8278 0
205 -8245 8247 0
-8247 8279 0
206 -8247 8249 0
-8249 8280 0
207 -8249 8251 0
-8251 8281 0
208 -8251 8253 0
-8253 8282 0
209 -8253 8255 0
-8255 8283 0
210 -8255 8257 0
-8257 8284 0
211 -8257 8259 0
-8259 8285 0
212 -8259 8261 0
-8261 8286 0
213 -8261 8263 0
-8263 8287 0
214 -8263 8265 0
-8265 8288 0
215 -8265 8267 0
-8267 8289 0
216 -8267 8269 0
-8269 8290 0
217 -8269 8271 0
-8271 8291 0
218 -8271 8273 0
-8273 8292 0
219 -8273 0
201 8274 0
202 -8274 8275 0
203 -8275 8276 0
204 -8276 8277 0
205 -8277 8278 0
206 -8278 8279 0
207 -8279 8280 0
208 -8280 8281 0
209 -8281 8282 0
210 -8282 8283 0
211 -8283 8284 0
212 -8284 8285 0
213 -8285 8286 0
214 -8286 8287 0
215 -8287 8288 0
216 -8288 8289 0
217 -8289 8290 0
218 -8290 8291 0
219 -8291 8292 0
220 -8292 0
221 8293 0
-8293 8294 0
222 -8293 8295 0
-8295 8296 0
223 -8295 8297 0
-8297 8298 0
224 -8297 8299 0
-8299 8300 0
225 -8299 8301 0
-8301 8302 0
226 -8301 8303 0
-8303 8304 0
227 -8303 8305 0
-8305 8306 0
228 -8305 8307 0
-8307 8308 0
229 -8307 8309 0
-8309 8310 0
230 -8309 8311 0
-8311 8312 0
231 -8311 8313 0
-8313 8314 0
232 -8313 8315 0
-8315 8316 0
233 -8315 8317 0
-8317 8318 0
234 -8317 8319 0
-8319 8320 0
235 -8319 8321 0
-8321 8322 0
236 -8321 8323 0
-8323 8324 0
237 -8323 8325 0
-8325 8326 0
238 -8325 8327 0
-8327 8328 0
239 -8327 8329 0
-8329 8330 0
240 -8329 0
222 8294 0
-8294 8331 0
223 -8294 8296 0
-8296 8332 0
224 -8296 8298 0
-8298 8333 0
225 -8298 8300 0
-8300 8334 0
226 -8300 8302 0
-8302 8335 0
227 -8302 8304 0
-8304 8336 0
228 -8304 8306 0
-8306 8337 0
229 -8306 8308 0
-8308 8338 0
230 -8308 8310 0
-8310 8339 0
231 -8310 8312 0
-8312 8340 0
232 -8312 8314 0
-8314 8341 0
233 -8314 8316 0
-8316 8342 0
234 -8316 8318 0
-8318 8343 0
235 -8318 8320 0
-8320 8344 0
236 -8320 8322 0
-8322 8345 0
237 -8322 8324 0
-8324 8346 0
238 -8324 8326 0
-8326 8347 0
239 -8326 8328 0
-8328 8348 0
240 -8328 8330 0
-8330 8349 0
241 -8330 0
223 8331 0
224 -8331 8332 0
225 -8332 8333 0
226 -8333 8334 0
227 -8334 8335 0
228 -8335 8336 0
229 -8336 8337 0
230 -8337 8338 0
231 -8338 8339 0
232 -8339 8340 0
233 -8340 8341 0
234 -8341 8342 0
235 -8342 8343 0
236 -8343 8344 0
237 -8344 8345 0
238 -8345 8346 0
239 -8346 8347 0
240 -8347 8348 0
241 -8348 8349 0
242 -8349 0
243 8350 0
-8350 8351 0
244 -8350 8352 0
-8352 8353 0
245 -8352 8354 0
-8354 8355 0
246 -8354 8356 0
-8356 8357 0
247 -8356 8358 0
-8358 8359 0
248 -8358 8360 0
-8360 8361 0
249 -8360 8362 0
-8362 8363 0
250 -8362 8364 0
-8364 8365 0
251 -8364 8366 0
-8366 8367 0
252 -8366 8368 0
-8368 8369 0
253 -8368 8370 0
-8370 8371 0
254 -8370 8372 0
-8372 8373 0
255 -8372 8374 0
-8374 8375 0
256 -8374 8376 0
-8376 8377 0
257 -8376 8378 0
-8378 8379 0
258 -8378 8380 0
-8380 8381 0
259 -8380 8382 0
-8382 8383 0
260 -8382 8384 0
-8384 8385 0
261 -8384 8386 0
-8386 8387 0
262 -8386 0
244 8351 0
-8351 8388 0
245 -8351 8353 0
-8353 8389 0
246 -8353 8355 0
-8355 8390 0
247 -8355 8357 0
-8357 8391 0
248 -8357 8359 0
-8359 8392 0
249 -8359 8361 0
-8361 8393 0
250 -8361 8363 0
-8363 8394 0
251 -8363 8365 0
-8365 8395 0
252 -8365 8367 0
-8367 8396 0
253 -8367 8369 0
-8369 8397 0
254 -8369 8371 0
-8371 8398 0
255 -8371 8373 0
-8373 8399 0
256 -8373 8375 0
-8375 8400 0
257 -8375 8377 0
-8377 8401 0
258 -8377 8379 0
-8379 8402 0
259 -8379 8381 0
-8381 8403 0
260 -8381 8383 0
-8383 8404 0
261 -8383 8385 0
-8385 8405 0
262 -8385 8387 0
-8387 8406 0
263 -8387 0
245 8388 0
246 -8388 8389 0
247 -8389 8390 0
248 -8390 8391 0
249 -8391 8392 0
250 -8392 8393 0
251 -8393 8394 0
252 -8394 8395 0
253 -8395 8396 0
254 -8396 8397 0
255 -8397 8398 0
256 -8398 8399 0
257 -8399 8400 0
258 -8400 8401 0
259 -8401 8402 0
260 -8402 8403 0
261 -8403 8404 0
262 -8404 8405 0
263 -8405 8406 0
264 -8406 0
-287 1 0
-287 23 0
-1 -23 287 0
-288 2 0
-288 24 0
-2 -24 288 0
-289 3 0
-289 25 0
-3 -25 289 0
-290 4 0
-290 26 0
-4 -26 290 0
-291 5 0
-291 27 0
-5 -27 291 0
-292 6 0
-292 28 0
-6 -28 292 0
-293 7 0
-293 29 0
-7 -29 293 0
-294 8 0
-294 30 0
-8 -30 294 0
-295 9 0
-295 31 0
-9 -31 295 0
-296 10 0
-296 32 0
-10 -32 296 0
-297 11 0
-297 33 0
-11 -33 297 0
-298 12 0
-298 34 0
-12 -34 298 0
-299 13 0
-299 35 0
-13 -35 299 0
-300 14 0
-300 36 0
-14 -36 300 0
-301 15 0
-301 37 0
-15 -37 301 0
-302 16 0
-302 38 0
-16 -38 302 0
-303 17 0
-303 39 0
-17 -39 303 0
-304 18 0
-304 40 0
-18 -40 304 0
-305 19 0
-305 41 0
-19 -41 305 0
-306 20 0
-306 42 0
-20 -42 306 0
-307 21 0
-307 43 0
-21 -43 307 0
-308 22 0
-308 44 0
-22 -44 308 0
-287 8407 0
-8407 8408 0
-288 -8407 0
-288 8408 0
-8408 8409 0
-289 -8408 0
-289 8409 0
-8409 8410 0
-290 -8409 0
-290 8410 0
-8410 8411 0
-291 -8410 0
-291 8411 0
-8411 8412 0
-292 -8411 0
-292 8412 0
-8412 8413 0
-293 -8412 0
-293 8413 0
-8413 8414 0
-294 -8413 0
-294 8414 0
-8414 8415 0
-295 -8414 0
-295 8415 0
-8415 8416 0
-296 -8415 0
-296 8416 0
-8416 8417 0
-297 -8416 0
-297 8417 0
-8417 8418 0
-298 -8417 0
-298 8418 0
-8418 8419 0
-299 -8418 0
-299 8419 0
-8419 8420 0
-300 -8419 0
-300 8420 0
-8420 8421 0
-301 -8420 0
-301 8421 0
-8421 8422 0
-302 -8421 0
-302 8422 0
-8422 8423 0
-303 -8422 0
-303 8423 0
-8423 8424 0
-304 -8423 0
-304 8424 0
-8424 8425 0
-305 -8424 0
-305 8425 0
-8425 8426 0
-306 -8425 0
-306 8426 0
-8426 8427 0
-307 -8426 0
-307 8427 0
-308 -8427 0
-287 1739 0
-288 1739 0
-289 1739 0
-290 1739 0
-291 1739 0
-292 1739 0
-293 1739 0
-294 1739 0
-295 1739 0
-296 1739 0
-297 1739 0
-298 1739 0
-299 1739 0
-300 1739 0
-301 1739 0
-302 1739 0
-303 1739 0
-304 1739 0
-305 1739 0
-306 1739 0
-307 1739 0
-308 1739 0
-1739 287 288 289 290 291 292 293 294 295 296 297 298 299 300 301 302 303 304 305 306 307 308 0
-309 1 0
-309 45 0
-1 -45 309 0
-310 2 0
-310 46 0
-2 -46 310 0
-311 3 0
-311 47 0
-3 -47 311 0
-312 4 0
-312 48 0
-4 -48 312 0
-313 5 0
-313 49 0
-5 -49 313 0
-314 6 0
-314 50 0
-6 -50 314 0
-315 7 0
-315 51 0
-7 -51 315 0
-316 8 0
-316 52 0
-8 -52 316 0
-317 9 0
-317 53 0
-9 -53 317 0
-318 10 0
-318 54 0
-10 -54 318 0
-319 11 0
-319 55 0
-11 -55 319 0
-320 12 0
-320 56 0
-12 -56 320 0
-321 13 0
-321 57 0
-13 -57 321 0
-322 14 0
-322 58 0
-14 -58 322 0
-323 15 0
-323 59 0
-15 -59 323 0
-324 16 0
-324 60 0
-16 -60 324 0
-325 17 0
-325 61 0
-17 -61 325 0
-326 18 0
-326 62 0
-18 -62 326 0
-327 19 0
-327 63 0
-19 -63 327 0
-328 20 0
-328 64 0
-20 -64 328 0
-329 21 0
-329 65 0
-21 -65 329 0
-330 22 0
-330 66 0
-22 -66 330 0
-309 8428 0
-8428 8429 0
-310 -8428 0
-310 8429 0
-8429 8430 0
-311 -8429 0
-311 8430 0
-8430 8431 0
-312 -8430 0
-312 8431 0
-8431 8432 0
-313 -8431 0
-313 8432 0
-8432 8433 0
-314 -8432 0
-314 8433 0
-8433 8434 0
-315 -8433 0
-315 8434 0
-8434 8435 0
-316 -8434 0
-316 8435 0
-8435 8436 0
-317 -8435 0
-317 8436 0
-8436 8437 0
-318 -8436 0
-318 8437 0
-8437 8438 0
-319 -8437 0
-319 8438 0
-8438 8439 0
-320 -8438 0
-320 8439 0
-8439 8440 0
-321 -8439 0
-321 8440 0
-8440 8441 0
-322 -8440 0
-322 8441 0
-8441 8442 0
-323 -8441 0
-323 8442 0
-8442 8443 0
-324 -8442 0
-324 8443 0
-8443 8444 0
-325 -8443 0
-325 8444 0
-8444 8445 0
-326 -8444 0
-326 8445 0
-8445 8446 0
-327 -8445 0
-327 8446 0
-8446 8447 0
-328 -8446 0
-328 8447 0
-8447 8448 0
-329 -8447 0
-329 8448 0
-330 -8448 0
-309 1740 0
-310 1740 0
-311 1740 0
-312 1740 0
-313 1740 0
-314 1740 0
-315 1740 0
-316 1740 0
-317 1740 0
-318 1740 0
-319 1740 0
-320 1740 0
-321 1740 0
-322 1740 0
-323 1740 0
-324 1740 0
-325 1740 0
-326 1740 0
-327 1740 0
-328 1740 0
-329 1740 0
-330 1740 0
-1740 309 310 311 312 313 314 315 316 317 318 319 320 321 322 323 324 325 326 327 328 329 330 0
-331 1 0
-331 67 0
-1 -67 331 0
-332 2 0
-332 68 0
-2 -68 332 0
-333 3 0
-333 69 0
-3 -69 333 0
-334 4 0
-334 70 0
-4 -70 334 0
-335 5 0
-335 71 0
-5 -71 335 0
-336 6 0
-336 72 0
-6 -72 336 0
-337 7 0
-337 73 0
-7 -73 337 0
-338 8 0
-338 74 0
-8 -74 338 0
-339 9 0
-339 75 0
-9 -75 339 0
-340 10 0
-340 76 0
-10 -76 340 0
-341 11 0
-341 77 0
-11 -77 341 0
-342 12 0
-342 78 0
-12 -78 342 0
-343 13 0
-343 79 0
-13 -79 343 0
-344 14 0
-344 80 0
-14 -80 344 0
-345 15 0
-345 81 0
-15 -81 345 0
-346 16 0
-346 82 0
-16 -82 346 0
-347 17 0
-347 83 0
-17 -83 347 0
-348 18 0
-348 84 0
-18 -84 348 0
-349 19 0
-349 85 0
-19 -85 349 0
-350 20 0
-350 86 0
-20 -86 350 0
-351 21 0
-351 87 0
-21 -87 351 0
-352 22 0
-352 88 0
-22 -88 352 0
-331 8449 0
-8449 8450 0
-332 -8449 0
-332 8450 0
-8450 8451 0
-333 -8450 0
-333 8451 0
-8451 8452 0
-334 -8451 0
-334 8452 0
-8452 8453 0
-335 -8452 0
-335 8453 0
-8453 8454 0
-336 -8453 0
-336 8454 0
-8454 8455 0
-337 -8454 0
-337 8455 0
-8455 8456 0
-338 -8455 0
-338 8456 0
-8456 8457 0
-339 -8456 0
-339 8457 0
-8457 8458 0
-340 -8457 0
-340 8458 0
-8458 8459 0
-341 -8458 0
-341 8459 0
-8459 8460 0
-342 -8459 0
-342 8460 0
-8460 8461 0
-343 -8460 0
-343 8461 0
-8461 8462 0
-344 -8461 0
-344 8462 0
-8462 8463 0
-345 -8462 0
-345 8463 0
-8463 8464 0
-346 -8463 0
-346 8464 0
-8464 8465 0
-347 -8464 0
-347 8465 0
-8465 8466 0
-348 -8465 0
-348 8466 0
-8466 8467 0
-349 -8466 0
-349 8467 0
-8467 8468 0
-350 -8467 0
-350 8468 0
-8468 8469 0
-351 -8468 0
-351 8469 0
-352 -8469 0
-331 1741 0
-332 1741 0
-333 1741 0
-334 1741 0
-335 1741 0
-336 1741 0
-337 1741 0
-338 1741 0
-339 1741 0
-340 1741 0
-341 1741 0
-342 1741 0
-343 1741 0
-344 1741 0
-345 1741 0
-346 1741 0
-347 1741 0
-348 1741 0
-349 1741 0
-350 1741 0
-351 1741 0
-352 1741 0
-1741 331 332 333 334 335 336 337 338 339 340 341 342 343 344 345 346 347 348 349 350 351 352 0
-353 1 0
-353 89 0
-1 -89 353 0
-354 2 0
-354 90 0
-2 -90 354 0
-355 3 0
-355 91 0
-3 -91 355 0
-356 4 0
-356 92 0
-4 -92 356 0
-357 5 0
-357 93 0
-5 -93 357 0
-358 6 0
-358 94 0
-6 -94 358 0
-359 7 0
-359 95 0
-7 -95 359 0
-360 8 0
-360 96 0
-8 -96 360 0
-361 9 0
-361 97 0
-9 -97 361 0
-362 10 0
-362 98 0
-10 -98 362 0
-363 11 0
-363 99 0
-11 -99 363 0
-364 12 0
-364 100 0
-12 -100 364 0
-365 13 0
-365 101 0
-13 -101 365 0
-366 14 0
-366 102 0
-14 -102 366 0
-367 15 0
-367 103 0
-15 -103 367 0
-368 16 0
-368 104 0
-16 -104 368 0
-369 17 0
-369 105 0
-17 -105 369 0
-370 18 0
-370 106 0
-18 -106 370 0
-371 19 0
-371 107 0
-19 -107 371 0
-372 20 0
-372 108 0
-20 -108 372 0
-373 21 0
-373 109 0
-21 -109 373 0
-374 22 0
-374 110 0
-22 -110 374 0
-353 8470 0
-8470 8471 0
-354 -8470 0
-354 8471 0
-8471 8472 0
-355 -8471 0
-355 8472 0
-8472 8473 0
-356 -8472 0
-356 8473 0
-8473 8474 0
-357 -8473 0
-357 8474 0
-8474 8475 0
-358 -8474 0
-358 8475 0
-8475 8476 0
-359 -8475 0
-359 8476 0
-8476 8477 0
-360 -8476 0
-360 8477 0
-8477 8478 0
-361 -8477 0
-361 8478 0
-8478 8479 0
-362 -8478 0
-362 8479 0
-8479 8480 0
-363 -8479 0
-363 8480 0
-8480 8481 0
-364 -8480 0
-364 8481 0
-8481 8482 0
-365 -8481 0
-365 8482 0
-8482 8483 0
-366 -8482 0
-366 8483 0
-8483 8484 0
-367 -8483 0
-367 8484 0
-8484 8485 0
-368 -8484 0
-368 8485 0
-8485 8486 0
-369 -8485 0
-369 8486 0
-8486 8487 0
-370 -8486 0
-370 8487 0
-8487 8488 0
-371 -8487 0
-371 8488 0
-8488 8489 0
-372 -8488 0
-372 8489 0
-8489 8490 0
-373 -8489 0
-373 8490 0
-374 -8490 0
-353 1742 0
-354 1742 0
-355 1742 0
-356 1742 0
-357 1742 0
-358 1742 0
-359 1742 0
-360 1742 0
-361 1742 0
-362 1742 0
-363 1742 0
-364 1742 0
-365 1742 0
-366 1742 0
-367 1742 0
-368 1742 0
-369 1742 0
-370 1742 0
-371 1742 0
-372 1742 0
-373 1742 0
-374 1742 0
-1742 353 354 355 356 357 358 359 360 361 362 363 364 365 366 367 368 369 370 371 372 373 374 0
-375 1 0
-375 111 0
-1 -111 375 0
-376 2 0
-376 112 0
-2 -112 376 0
-377 3 0
-377 113 0
-3 -113 377 0
-378 4 0
-378 114 0
-4 -114 378 0
-379 5 0
-379 115 0
-5 -115 379 0
-380 6 0
-380 116 0
-6 -116 380 0
-381 7 0
-381 117 0
-7 -117 381 0
-382 8 0
-382 118 0
-8 -118 382 0
-383 9 0
-383 119 0
-9 -119 383 0
-384 10 0
-384 120 0
-10 -120 384 0
-385 11 0
-385 121 0
-11 -121 385 0
-386 12 0
-386 122 0
-12 -122 386 0
-387 13 0
-387 123 0
-13 -123 387 0
-388 14 0
-388 124 0
-14 -124 388 0
-389 15 0
-389 125 0
-15 -125 389 0
-390 16 0
-390 126 0
-16 -126 390 0
-391 17 0
-391 127 0
-17 -127 391 0
-392 18 0
-392 128 0
-18 -128 392 0
-393 19 0
-393 129 0
-19 -129 393 0
-394 20 0
-394 130 0
-20 -130 394 0
-395 21 0
-395 131 0
-21 -131 395 0
-396 22 0
-396 132 0
-22 -132 396 0
-375 8491 0
-8491 8492 0
-376 -8491 0
-376 8492 0
-8492 8493 0
-377 -8492 0
-377 8493 0
-8493 8494 0
-378 -8493 0
-378 8494 0
-8494 8495 0
-379 -8494 0
-379 8495 0
-8495 8496 0
-380 -8495 0
-380 8496 0
-8496 8497 0
-381 -8496 0
-381 8497 0
-8497 8498 0
-382 -8497 0
-382 8498 0
-8498 8499 0
-383 -8498 0
-383 8499 0
-8499 8500 0
-384 -8499 0
-384 8500 0
-8500 8501 0
-385 -8500 0
-385 8501 0
-8501 8502 0
-386 -8501 0
-386 8502 0
-8502 8503 0
-387 -8502 0
-387 8503 0
-8503 8504 0
-388 -8503 0
-388 8504 0
-8504 8505 0
-389 -8504 0
-389 8505 0
-8505 8506 0
-390 -8505 0
-390 8506 0
-8506 8507 0
-391 -8506 0
-391 8507 0
-8507 8508 0
-392 -8507 0
-392 8508 0
-8508 8509 0
-393 -8508 0
-393 8509 0
-8509 8510 0
-394 -8509 0
-394 8510 0
-8510 8511 0
-395 -8510 0
-395 8511 0
-396 -8511 0
-375 1743 0
-376 1743 0
-377 1743 0
-378 1743 0
-379 1743 0
-380 1743 0
-381 1743 0
-382 1743 0
-383 1743 0
-384 1743 0
-385 1743 0
-386 1743 0
-387 1743 0
-388 1743 0
-389 1743 0
-390 1743 0
-391 1743 0
-392 1743 0
-393 1743 0
-394 1743 0
-395 1743 0
-396 1743 0
-1743 375 376 377 378 379 380 381 382 383 384 385 386 387 388 389 390 391 392 393 394 395 396 0
-397 1 0
-397 133 0
-1 -133 397 0
-398 2 0
-398 134 0
-2 -134 398 0
-399 3 0
-399 135 0
-3 -135 399 0
-400 4 0
-400 136 0
-4 -136 400 0
-401 5 0
-401 137 0
-5 -137 401 0
-402 6 0
-402 138 0
-6 -138 402 0
-403 7 0
-403 139 0
-7 -139 403 0
-404 8 0
-404 140 0
-8 -140 404 0
-405 9 0
-405 141 0
-9 -141 405 0
-406 10 0
-406 142 0
-10 -142 406 0
-407 11 0
-407 143 0
-11 -143 407 0
-408 12 0
-408 144 0
-12 -144 408 0
-409 13 0
-409 145 0
-13 -145 409 0
-410 14 0
-410 146 0
-14 -146 410 0
-411 15 0
-411 147 0
-15 -147 411 0
-412 16 0
-412 148 0
-16 -148 412 0
-413 17 0
-413 149 0
-17 -149 413 0
-414 18 0
-414 150 0
-18 -150 414 0
-415 19 0
-415 151 0
-19 -151 415 0
-416 20 0
-416 152 0
-20 -152 416 0
-417 21 0
-417 153 0
-21 -153 417 0
-418 22 0
-418 154 0
-22 -154 418 0
-397 8512 0
-8512 8513 0
-398 -8512 0
-398 8513 0
-8513 8514 0
-399 -8513 0
-399 8514 0
-8514 8515 0
-400 -8514 0
-400 8515 0
-8515 8516 0
-401 -8515 0
-401 8516 0
-8516 8517 0
-402 -8516 0
-402 8517 0
-8517 8518 0
-403 -8517 0
-403 8518 0
-8518 8519 0
-404 -8518 0
-404 8519 0
-8519 8520 0
-405 -8519 0
-405 8520 0
-8520 8521 0
-406 -8520 0
-406 8521 0
-8521 8522 0
-407 -8521 0
-407 8522 0
-8522 8523 0
-408 -8522 0
-408 8523 0
-8523 8524 0
-409 -8523 0
-409 8524 0
-8524 8525 0
-410 -8524 0
-410 8525 0
-8525 8526 0
-411 -8525 0
-411 8526 0
-8526 8527 0
-412 -8526 0
-412 8527 0
-8527 8528 0
-413 -8527 0
-413 8528 0
-8528 8529 0
-414 -8528 0
-414 8529 0
-8529 8530 0
-415 -8529 0
-415 8530 0
-8530 8531 0
-416 -8530 0
-416 8531 0
-8531 8532 0
-417 -8531 0
-417 8532 0
-418 -8532 0
-397 1744 0
-398 1744 0
-399 1744 0
-400 1744 0
-401 1744 0
-402 1744 0
-403 1744 0
-404 1744 0
-405 1744 0
-406 1744 0
-407 1744 0
-408 1744 0
-409 1744 0
-410 1744 0
-411 1744 0
-412 1744 0
-413 1744 0
-414 1744 0
-415 1744 0
-416 1744 0
-417 1744 0
-418 1744 0
-1744 397 398 399 400 401 402 403 404 405 406 407 408 409 410 411 412 413 414 415 416 417 418 0
-419 1 0
-419 155 0
-1 -155 419 0
-420 2 0
-420 156 0
-2 -156 420 0
-421 3 0
-421 157 0
-3 -157 421 0
-422 4 0
-422 158 0
-4 -158 422 0
-423 5 0
-423 159 0
-5 -159 423 0
-424 6 0
-424 160 0
-6 -160 424 0
-425 7 0
-425 161 0
-7 -161 425 0
-426 8 0
-426 162 0
-8 -162 426 0
-427 9 0
-427 163 0
-9 -163 427 0
-428 10 0
-428 164 0
-10 -164 428 0
-429 11 0
-429 165 0
-11 -165 429 0
-430 12 0
-430 166 0
-12 -166 430 0
-431 13 0
-431 167 0
-13 -167 431 0
-432 14 0
-432 168 0
-14 -168 432 0
-433 15 0
-433 169 0
-15 -169 433 0
-434 16 0
-434 170 0
-16 -170 434 0
-435 17 0
-435 171 0
-17 -171 435 0
-436 18 0
-436 172 0
-18 -172 436 0
-437 19 0
-437 173 0
-19 -173 437 0
-438 20 0
-438 174 0
-20 -174 438 0
-439 21 0
-439 175 0
-21 -175 439 0
-440 22 0
-440 176 0
-22 -176 440 0
-419 8533 0
-8533 8534 0
-420 -8533 0
-420 8534 0
-8534 8535 0
-421 -8534 0
-421 8535 0
-8535 8536 0
-422 -8535 0
-422 8536 0
-8536 8537 0
-423 -8536 0
-423 8537 0
-8537 8538 0
-424 -8537 0
-424 8538 0
-8538 8539 0
-425 -8538 0
-425 8539 0
-8539 8540 0
-426 -8539 0
-426 8540 0
-8540 8541 0
-427 -8540 0
-427 8541 0
-8541 8542 0
-428 -8541 0
-428 8542 0
-8542 8543 0
-429 -8542 0
-429 8543 0
-8543 8544 0
-430 -8543 0
-430 8544 0
-8544 8545 0
-431 -8544 0
-431 8545 0
-8545 8546 0
-432 -8545 0
-432 8546 0
-8546 8547 0
-433 -8546 0
-433 8547 0
-8547 8548 0
-434 -8547 0
-434 8548 0
-8548 8549 0
-435 -8548 0
-435 8549 0
-8549 8550 0
-436 -8549 0
-436 8550 0
-8550 8551 0
-437 -8550 0
-437 8551 0
-8551 8552 0
-438 -8551 0
-438 8552 0
-8552 8553 0
-439 -8552 0
-439 8553 0
-440 -8553 0
-419 1745 0
-420 1745 0
-421 1745 0
-422 1745 0
-423 1745 0
-424 1745 0
-425 1745 0
-426 1745 0
-427 1745 0
-428 1745 0
-429 1745 0
-430 1745 0
-431 1745 0
-432 1745 0
-433 1745 0
-434 1745 0
-435 1745 0
-436 1745 0
-437 1745 0
-438 1745 0
-439 1745 0
-440 1745 0
-1745 419 420 421 422 423 424 425 426 427 428 429 430 431 432 433 434 435 436 437 438 439 440 0
-441 1 0
-441 177 0
-1 -177 441 0
-442 2 0
-442 178 0
-2 -178 442 0
-443 3 0
-443 179 0
-3 -179 443 0
-444 4 0
-444 180 0
-4 -180 444 0
-445 5 0
-445 181 0
-5 -181 445 0
-446 6 0
-446 182 0
-6 -182 446 0
-447 7 0
-447 183 0
-7 -183 447 0
-448 8 0
-448 184 0
-8 -184 448 0
-449 9 0
-449 185 0
-9 -185 449 0
-450 10 0
-450 186 0
-10 -186 450 0
-451 11 0
-451 187 0
-11 -187 451 0
-452 12 0
-452 188 0
-12 -188 452 0
-453 13 0
-453 189 0
-13 -189 453 0
-454 14 0
-454 190 0
-14 -190 454 0
-455 15 0
-455 191 0
-15 -191 455 0
-456 16 0
-456 192 0
-16 -192 456 0
-457 17 0
-457 193 0
-17 -193 457 0
-458 18 0
-458 194 0
-18 -194 458 0
-459 19 0
-459 195 0
-19 -195 459 0
-460 20 0
-460 196 0
-20 -196 460 0
-461 21 0
-461 197 0
-21 -197 461 0
-462 22 0
-462 198 0
-22 -198 462 0
-441 8554 0
-8554 8555 0
-442 -8554 0
-442 8555 0
-8555 8556 0
-443 -8555 0
-443 8556 0
-8556 8557 0
-444 -8556 0
-444 8557 0
-8557 8558 0
-445 -8557 0
-445 8558 0
-8558 8559 0
-446 -8558 0
-446 8559 0
-8559 8560 0
-447 -8559 0
-447 8560 0
-8560 8561 0
-448 -8560 0
-448 8561 0
-8561 8562 0
-449 -8561 0
-449 8562 0
-8562 8563 0
-450 -8562 0
-450 8563 0
-8563 8564 0
-451 -8563 0
-451 8564 0
-8564 8565 0
-452 -8564 0
-452 8565 0
-8565 8566 0
-453 -8565 0
-453 8566 0
-8566 8567 0
-454 -8566 0
-454 8567 0
-8567 8568 0
-455 -8567 0
-455 8568 0
-8568 8569 0
-456 -8568 0
-456 8569 0
-8569 8570 0
-457 -8569 0
-457 8570 0
-8570 8571 0
-458 -8570 0
-458 8571 0
-8571 8572 0
-459 -8571 0
-459 8572 0
-8572 8573 0
-460 -8572 0
-460 8573 0
-8573 8574 0
-461 -8573 0
-461 8574 0
-462 -8574 0
-441 1746 0
-442 1746 0
-443 1746 0
-444 1746 0
-445 1746 0
-446 1746 0
-447 1746 0
-448 1746 0
-449 1746 0
-450 1746 0
-451 1746 0
-452 1746 0
-453 1746 0
-454 1746 0
-455 1746 0
-456 1746 0
-457 1746 0
-458 1746 0
-459 1746 0
-460 1746 0
-461 1746 0
-462 1746 0
-1746 441 442 443 444 445 446 447 448 449 450 451 452 453 454 455 456 457 458 459 460 461 462 0
-463 1 0
-463 199 0
-1 -199 463 0
-464 2 0
-464 200 0
-2 -200 464 0
-465 3 0
-465 201 0
-3 -201 465 0
-466 4 0
-466 202 0
-4 -202 466 0
-467 5 0
-467 203 0
-5 -203 467 0
-468 6 0
-468 204 0
-6 -204 468 0
-469 7 0
-469 205 0
-7 -205 469 0
-470 8 0
-470 206 0
-8 -206 470 0
-471 9 0
-471 207 0
-9 -207 471 0
-472 10 0
-472 208 0
-10 -208 472 0
-473 11 0
-473 209 0
-11 -209 473 0
-474 12 0
-474 210 0
-12 -210 474 0
-475 13 0
-475 211 0
-13 -211 475 0
-476 14 0
-476 212 0
-14 -212 476 0
-477 15 0
-477 213 0
-15 -213 477 0
-478 16 0
-478 214 0
-16 -214 478 0
-479 17 0
-479 215 0
-17 -215 479 0
-480 18 0
-480 216 0
-18 -216 480 0
-481 19 0
-481 217 0
-19 -217 481 0
-482 20 0
-482 218 0
-20 -218 482 0
-483 21 0
-483 219 0
-21 -219 483 0
-484 22 0
-484 220 0
-22 -220 484 0
-463 8575 0
-8575 8576 0
-464 -8575 0
-464 8576 0
-8576 8577 0
-465 -8576 0
-465 8577 0
-8577 8578 0
-466 -8577 0
-466 8578 0
-8578 8579 0
-467 -8578 0
-467 8579 0
-8579 8580 0
-468 -8579 0
-468 8580 0
-8580 8581 0
-469 -8580 0
-469 8581 0
-8581 8582 0
-470 -8581 0
-470 8582 0
-8582 8583 0
-471 -8582 0
-471 8583 0
-8583 8584 0
-472 -8583 0
-472 8584 0
-8584 8585 0
-473 -8584 0
-473 8585 0
-8585 8586 0
-474 -8585 0
-474 8586 0
-8586 8587 0
-475 -8586 0
-475 8587 0
-8587 8588 0
-476 -8587 0
-476 8588 0
-8588 8589 0
-477 -8588 0
-477 8589 0
-8589 8590 0
-478 -8589 0
-478 8590 0
-8590 8591 0
-479 -8590 0
-479 8591 0
-8591 8592 0
-480 -8591 0
-480 8592 0
-8592 8593 0
-481 -8592 0
-481 8593 0
-8593 8594 0
-482 -8593 0
-482 8594 0
-8594 8595 0
-483 -8594 0
-483 8595 0
-484 -8595 0
-463 1747 0
-464 1747 0
-465 1747 0
-466 1747 0
-467 1747 0
-468 1747 0
-469 1747 0
-470 1747 0
-471 1747 0
-472 1747 0
-473 1747 0
-474 1747 0
-475 1747 0
-476 1747 0
-477 1747 0
-478 1747 0
-479 1747 0
-480 1747 0
-481 1747 0
-482 1747 0
-483 1747 0
-484 1747 0
-1747 463 464 465 466 467 468 469 470 471 472 473 474 475 476 477 478 479 480 481 482 483 484 0
-485 1 0
-485 221 0
-1 -221 485 0
-486 2 0
-486 222 0
-2 -222 486 0
-487 3 0
-487 223 0
-3 -223 487 0
-488 4 0
-488 224 0
-4 -224 488 0
-489 5 0
-489 225 0
-5 -225 489 0
-490 6 0
-490 226 0
-6 -226 490 0
-491 7 0
-491 227 0
-7 -227 491 0
-492 8 0
-492 228 0
-8 -228 492 0
-493 9 0
-493 229 0
-9 -229 493 0
-494 10 0
-494 230 0
-10 -230 494 0
-495 11 0
-495 231 0
-11 -231 495 0
-496 12 0
-496 232 0
-12 -232 496 0
-497 13 0
-497 233 0
-13 -233 497 0
-498 14 0
-498 234 0
-14 -234 498 0
-499 15 0
-499 235 0
-15 -235 499 0
-500 16 0
-500 236 0
-16 -236 500 0
-501 17 0
-501 237 0
-17 -237 501 0
-502 18 0
-502 238 0
-18 -238 502 0
-503 19 0
-503 239 0
-19 -239 503 0
-504 20 0
-504 240 0
-20 -240 504 0
-505 21 0
-505 241 0
-21 -241 505 0
-506 22 0
-506 242 0
-22 -242 506 0
-485 8596 0
-8596 8597 0
-486 -8596 0
-486 8597 0
-8597 8598 0
-487 -8597 0
-487 8598 0
-8598 8599 0
-488 -8598 0
-488 8599 0
-8599 8600 0
-489 -8599 0
-489 8600 0
-8600 8601 0
-490 -8600 0
-490 8601 0
-8601 8602 0
-491 -8601 0
-491 8602 0
-8602 8603 0
-492 -8602 0
-492 8603 0
-8603 8604 0
-493 -8603 0
-493 8604 0
-8604 8605 0
-494 -8604 0
-494 8605 0
-8605 8606 0
-495 -8605 0
-495 8606 0
-8606 8607 0
-496 -8606 0
-496 8607 0
-8607 8608 0
-497 -8607 0
-497 8608 0
-8608 8609 0
-498 -8608 0
-498 8609 0
-8609 8610 0
-499 -8609 0
-499 8610 0
-8610 8611 0
-500 -8610 0
-500 8611 0
-8611 8612 0
-501 -8611 0
-501 8612 0
-8612 8613 0
-502 -8612 0
-502 8613 0
-8613 8614 0
-503 -8613 0
-503 8614 0
-8614 8615 0
-504 -8614 0
-504 8615 0
-8615 8616 0
-505 -8615 0
-505 8616 0
-506 -8616 0
-485 1748 0
-486 1748 0
-487 1748 0
-488 1748 0
-489 1748 0
-490 1748 0
-491 1748 0
-492 1748 0
-493 1748 0
-494 1748 0
-495 1748 0
-496 1748 0
-497 1748 0
-498 1748 0
-499 1748 0
-500 1748 0
-501 1748 0
-502 1748 0
-503 1748 0
-504 1748 0
-505 1748 0
-506 1748 0
-1748 485 486 487 488 489 490 491 492 493 494 495 496 497 498 499 500 501 502 503 504 505 506 0
-507 1 0
-507 243 0
-1 -243 507 0
-508 2 0
-508 244 0
-2 -244 508 0
-509 3 0
-509 245 0
-3 -245 509 0
-510 4 0
-510 246 0
-4 -246 510 0
-511 5 0
-511 247 0
-5 -247 511 0
-512 6 0
-512 248 0
-6 -248 512 0
-513 7 0
-513 249 0
-7 -249 513 0
-514 8 0
-514 250 0
-8 -250 514 0
-515 9 0
-515 251 0
-9 -251 515 0
-516 10 0
-516 252 0
-10 -252 516 0
-517 11 0
-517 253 0
-11 -253 517 0
-518 12 0
-518 254 0
-12 -254 518 0
-519 13 0
-519 255 0
-13 -255 519 0
-520 14 0
-520 256 0
-14 -256 520 0
-521 15 0
-521 257 0
-15 -257 521 0
-522 16 0
-522 258 0
-16 -258 522 0
-523 17 0
-523 259 0
-17 -259 523 0
-524 18 0
-524 260 0
-18 -260 524 0
-525 19 0
-525 261 0
-19 -261 525 0
-526 20 0
-526 262 0
-20 -262 526 0
-527 21 0
-527 263 0
-21 -263 527 0
-528 22 0
-528 264 0
-22 -264 528 0
-507 8617 0
-8617 8618 0
-508 -8617 0
-508 8618 0
-8618 8619 0
-509 -8618 0
-509 8619 0
-8619 8620 0
-510 -8619 0
-510 8620 0
-8620 8621 0
-511 -8620 0
-511 8621 0
-8621 8622 0
-512 -8621 0
-512 8622 0
-8622 8623 0
-513 -8622 0
-513 8623 0
-8623 8624 0
-514 -8623 0
-514 8624 0
-8624 8625 0
-515 -8624 0
-515 8625 0
-8625 8626 0
-516 -8625 0
-516 8626 0
-8626 8627 0
-517 -8626 0
-517 8627 0
-8627 8628 0
-518 -8627 0
-518 8628 0
-8628 8629 0
-519 -8628 0
-519 8629 0
-8629 8630 0
-520 -8629 0
-520 8630 0
-8630 8631 0
-521 -8630 0
-521 8631 0
-8631 8632 0
-522 -8631 0
-522 8632 0
-8632 8633 0
-523 -8632 0
-523 8633 0
-8633 8634 0
-524 -8633 0
-524 8634 0
-8634 8635 0
-525 -8634 0
-525 8635 0
-8635 8636 0
-526 -8635 0
-526 8636 0
-8636 8637 0
-527 -8636 0
-527 8637 0
-528 -8637 0
-507 1749 0
-508 1749 0
-509 1749 0
-510 1749 0
-511 1749 0
-512 1749 0
-513 1749 0
-514 1749 0
-515 1749 0
-516 1749 0
-517 1749 0
-518 1749 0
-519 1749 0
-520 1749 0
-521 1749 0
-522 1749 0
-523 1749 0
-524 1749 0
-525 1749 0
-526 1749 0
-527 1749 0
-528 1749 0
-1749 507 508 509 510 511 512 513 514 515 516 517 518 519 520 521 522 523 524 525 526 527 528 0
-529 23 0
-529 45 0
-23 -45 529 0
-530 24 0
-530 46 0
-24 -46 530 0
-531 25 0
-531 47 0
-25 -47 531 0
-532 26 0
-532 48 0
-26 -48 532 0
-533 27 0
-533 49 0
-27 -49 533 0
-534 28 0
-534 50 0
-28 -50 534 0
-535 29 0
-535 51 0
-29 -51 535 0
-536 30 0
-536 52 0
-30 -52 536 0
-537 31 0
-537 53 0
-31 -53 537 0
-538 32 0
-538 54 0
-32 -54 538 0
-539 33 0
-539 55 0
-33 -55 539 0
-540 34 0
-540 56 0
-34 -56 540 0
-541 35 0
-541 57 0
-35 -57 541 0
-542 36 0
-542 58 0
-36 -58 542 0
-543 37 0
-543 59 0
-37 -59 543 0
-544 38 0
-544 60 0
-38 -60 544 0
-545 39 0
-545 61 0
-39 -61 545 0
-546 40 0
-546 62 0
-40 -62 546 0
-547 41 0
-547 63 0
-41 -63 547 0
-548 42 0
-548 64 0
-42 -64 548 0
-549 43 0
-549 65 0
-43 -65 549 0
-550 44 0
-550 66 0
-44 -66 550 0
-529 8638 0
-8638 8639 0
-530 -8638 0
-530 8639 0
-8639 8640 0
-531 -8639 0
-531 8640 0
-8640 8641 0
-532 -8640 0
-532 8641 0
-8641 8642 0
-533 -8641 0
-533 8642 0
-8642 8643 0
-534 -8642 0
-534 8643 0
-8643 8644 0
-535 -8643 0
-535 8644 0
-8644 8645 0
-536 -8644 0
-536 8645 0
-8645 8646 0
-537 -8645 0
-537 8646 0
-8646 8647 0
-538 -8646 0
-538 8647 0
-8647 8648 0
-539 -8647 0
-539 8648 0
-8648 8649 0
-540 -8648 0
-540 8649 0
-8649 8650 0
-541 -8649 0
-541 8650 0
-8650 8651 0
-542 -8650 0
-542 8651 0
-8651 8652 0
-543 -8651 0
-543 8652 0
-8652 8653 0
-544 -8652 0
-544 8653 0
-8653 8654 0
-545 -8653 0
-545 8654 0
-8654 8655 0
-546 -8654 0
-546 8655 0
-8655 8656 0
-547 -8655 0
-547 8656 0
-8656 8657 0
-548 -8656 0
-548 8657 0
-8657 8658 0
-549 -8657 0
-549 8658 0
-550 -8658 0
-529 1750 0
-530 1750 0
-531 1750 0
-532 1750 0
-533 1750 0
-534 1750 0
-535 1750 0
-536 1750 0
-537 1750 0
-538 1750 0
-539 1750 0
-540 1750 0
-541 1750 0
-542 1750 0
-543 1750 0
-544 1750 0
-545 1750 0
-546 1750 0
-547 1750 0
-548 1750 0
-549 1750 0
-550 1750 0
-1750 529 530 531 532 533 534 535 536 537 538 539 540 541 542 543 544 545 546 547 548 549 550 0
-551 23 0
-551 67 0
-23 -67 551 0
-552 24 0
-552 68 0
-24 -68 552 0
-553 25 0
-553 69 0
-25 -69 553 0
-554 26 0
-554 70 0
-26 -70 554 0
-555 27 0
-555 71 0
-27 -71 555 0
-556 28 0
-556 72 0
-28 -72 556 0
-557 29 0
-557 73 0
-29 -73 557 0
-558 30 0
-558 74 0
-30 -74 558 0
-559 31 0
-559 75 0
-31 -75 559 0
-560 32 0
-560 76 0
-32 -76 560 0
-561 33 0
-561 77 0
-33 -77 561 0
-562 34 0
-562 78 0
-34 -78 562 0
-563 35 0
-563 79 0
-35 -79 563 0
-564 36 0
-564 80 0
-36 -80 564 0
-565 37 0
-565 81 0
-37 -81 565 0
-566 38 0
-566 82 0
-38 -82 566 0
-567 39 0
-567 83 0
-39 -83 567 0
-568 40 0
-568 84 0
-40 -84 568 0
-569 41 0
-569 85 0
-41 -85 569 0
-570 42 0
-570 86 0
-42 -86 570 0
-571 43 0
-571 87 0
-43 -87 571 0
-572 44 0
-572 88 0
-44 -88 572 0
-551 8659 0
-8659 8660 0
-552 -8659 0
-552 8660 0
-8660 8661 0
-553 -8660 0
-553 8661 0
-8661 8662 0
-554 -8661 0
-554 8662 0
-8662 8663 0
-555 -8662 0
-555 8663 0
-8663 8664 0
-556 -8663 0
-556 8664 0
-8664 8665 0
-557 -8664 0
-557 8665 0
-8665 8666 0
-558 -8665 0
-558 8666 0
-8666 8667 0
-559 -8666 0
-559 8667 0
-8667 8668 0
-560 -8667 0
-560 8668 0
-8668 8669 0
-561 -8668 0
-561 8669 0
-8669 8670 0
-562 -8669 0
-562 8670 0
-8670 8671 0
-563 -8670 0
-563 8671 0
-8671 8672 0
-564 -8671 0
-564 8672 0
-8672 8673 0
-565 -8672 0
-565 8673 0
-8673 8674 0
-566 -8673 0
-566 8674 0
-8674 8675 0
-567 -8674 0
-567 8675 0
-8675 8676 0
-568 -8675 0
-568 8676 0
-8676 8677 0
-569 -8676 0
-569 8677 0
-8677 8678 0
-570 -8677 0
-570 8678 0
-8678 8679 0
-571 -8678 0
-571 8679 0
-572 -8679 0
-551 1751 0
-552 1751 0
-553 1751 0
-554 1751 0
-555 1751 0
-556 1751 0
-557 1751 0
-558 1751 0
-559 1751 0
-560 1751 0
-561 1751 0
-562 1751 0
-563 1751 0
-564 1751 0
-565 1751 0
-566 1751 0
-567 1751 0
-568 1751 0
-569 1751 0
-570 1751 0
-571 1751 0
-572 1751 0
-1751 551 552 553 554 555 556 557 558 559 560 561 562 563 564 565 566 567 568 569 570 571 572 0
-573 23 0
-573 89 0
-23 -89 573 0
-574 24 0
-574 90 0
-24 -90 574 0
-575 25 0
-575 91 0
-25 -91 575 0
-576 26 0
-576 92 0
-26 -92 576 0
-577 27 0
-577 93 0
-27 -93 577 0
-578 28 0
-578 94 0
-28 -94 578 0
-579 29 0
-579 95 0
-29 -95 579 0
-580 30 0
-580 96 0
-30 -96 580 0
-581 31 0
-581 97 0
-31 -97 581 0
-582 32 0
-582 98 0
-32 -98 582 0
-583 33 0
-583 99 0
-33 -99 583 0
-584 34 0
-584 100 0
-34 -100 584 0
-585 35 0
-585 101 0
-35 -101 585 0
-586 36 0
-586 102 0
-36 -102 586 0
-587 37 0
-587 103 0
-37 -103 587 0
-588 38 0
-588 104 0
-38 -104 588 0
-589 39 0
-589 105 0
-39 -105 589 0
-590 40 0
-590 106 0
-40 -106 590 0
-591 41 0
-591 107 0
-41 -107 591 0
-592 42 0
-592 108 0
-42 -108 592 0
-593 43 0
-593 109 0
-43 -109 593 0
-594 44 0
-594 110 0
-44 -110 594 0
-573 8680 0
-8680 8681 0
-574 -8680 0
-574 8681 0
-8681 8682 0
-575 -8681 0
-575 8682 0
-8682 8683 0
-576 -8682 0
-576 8683 0
-8683 8684 0
-577 -8683 0
-577 8684 0
-8684 8685 0
-578 -8684 0
-578 8685 0
-8685 8686 0
-579 -8685 0
-579 8686 0
-8686 8687 0
-580 -8686 0
-580 8687 0
-8687 8688 0
-581 -8687 0
-581 8688 0
-8688 8689 0
-582 -8688 0
-582 8689 0
-8689 8690 0
-583 -8689 0
-583 8690 0
-8690 8691 0
-584 -8690 0
-584 8691 0
-8691 8692 0
-585 -8691 0
-585 8692 0
-8692 8693 0
-586 -8692 0
-586 8693 0
-8693 8694 0
-587 -8693 0
-587 8694 0
-8694 8695 0
-588 -8694 0
-588 8695 0
-8695 8696 0
-589 -8695 0
-589 8696 0
-8696 8697 0
-590 -8696 0
-590 8697 0
-8697 8698 0
-591 -8697 0
-591 8698 0
-8698 8699 0
-592 -8698 0
-592 8699 0
-8699 8700 0
-593 -8699 0
-593 8700 0
-594 -8700 0
-573 1752 0
-574 1752 0
-575 1752 0
-576 1752 0
-577 1752 0
-578 1752 0
-579 1752 0
-580 1752 0
-581 1752 0
-582 1752 0
-583 1752 0
-584 1752 0
-585 1752 0
-586 1752 0
-587 1752 0
-588 1752 0
-589 1752 0
-590 1752 0
-591 1752 0
-592 1752 0
-593 1752 0
-594 1752 0
-1752 573 574 575 576 577 578 579 580 581 582 583 584 585 586 587 588 589 590 591 592 593 594 0
-595 23 0
-595 111 0
-23 -111 595 0
-596 24 0
-596 112 0
-24 -112 596 0
-597 25 0
-597 113 0
-25 -113 597 0
-598 26 0
-598 114 0
-26 -114 598 0
-599 27 0
-599 115 0
-27 -115 599 0
-600 28 0
-600 116 0
-28 -116 600 0
-601 29 0
-601 117 0
-29 -117 601 0
-602 30 0
-602 118 0
-30 -118 602 0
-603 31 0
-603 119 0
-31 -119 603 0
-604 32 0
-604 120 0
-32 -120 604 0
-605 33 0
-605 121 0
-33 -121 605 0
-606 34 0
-606 122 0
-34 -122 606 0
-607 35 0
-607 123 0
-35 -123 607 0
-608 36 0
-608 124 0
-36 -124 608 0
-609 37 0
-609 125 0
-37 -125 609 0
-610 38 0
-610 126 0
-38 -126 610 0
-611 39 0
-611 127 0
-39 -127 611 0
-612 40 0
-612 128 0
-40 -128 612 0
-613 41 0
-613 129 0
-41 -129 613 0
-614 42 0
-614 130 0
-42 -130 614 0
-615 43 0
-615 131 0
-43 -131 615 0
-616 44 0
-616 132 0
-44 -132 616 0
-595 8701 0
-8701 8702 0
-596 -8701 0
-596 8702 0
-8702 8703 0
-597 -8702 0
-597 8703 0
-8703 8704 0
-598 -8703 0
-598 8704 0
-8704 8705 0
-599 -8704 0
-599 8705 0
-8705 8706 0
-600 -8705 0
-600 8706 0
-8706 8707 0
-601 -8706 0
-601 8707 0
-8707 8708 0
-602 -8707 0
-602 8708 0
-8708 8709 0
-603 -8708 0
-603 8709 0
-8709 8710 0
-604 -8709 0
-604 8710 0
-8710 8711 0
-605 -8710 0
-605 8711 0
-8711 8712 0
-606 -8711 0
-606 8712 0
-8712 8713 0
-607 -8712 0
-607 8713 0
-8713 8714 0
-608 -8713 0
-608 8714 0
-8714 8715 0
-609 -8714 0
-609 8715 0
-8715 8716 0
-610 -8715 0
-610 8716 0
-8716 8717 0
-611 -8716 0
-611 8717 0
-8717 8718 0
-612 -8717 0
-612 8718 0
-8718 8719 0
-613 -8718 0
-613 8719 0
-8719 8720 0
-614 -8719 0
-614 8720 0
-8720 8721 0
-615 -8720 0
-615 8721 0
-616 -8721 0
-595 1753 0
-596 1753 0
-597 1753 0
-598 1753 0
-599 1753 0
-600 1753 0
-601 1753 0
-602 1753 0
-603 1753 0
-604 1753 0
-605 1753 0
-606 1753 0
-607 1753 0
-608 1753 0
-609 1753 0
-610 1753 0
-611 1753 0
-612 1753 0
-613 1753 0
-614 1753 0
-615 1753 0
-616 1753 0
-1753 595 596 597 598 599 600 601 602 603 604 605 606 607 608 609 610 611 612 613 614 615 616 0
-617 23 0
-617 133 0
-23 -133 617 0
-618 24 0
-618 134 0
-24 -134 618 0
-619 25 0
-619 135 0
-25 -135 619 0
-620 26 0
-620 136 0
-26 -136 620 0
-621 27 0
-621 137 0
-27 -137 621 0
-622 28 0
-622 138 0
-28 -138 622 0
-623 29 0
-623 139 0
-29 -139 623 0
-624 30 0
-624 140 0
-30 -140 624 0
-625 31 0
-625 141 0
-31 -141 625 0
-626 32 0
-626 142 0
-32 -142 626 0
-627 33 0
-627 143 0
-33 -143 627 0
-628 34 0
-628 144 0
-34 -144 628 0
-629 35 0
-629 145 0
-35 -145 629 0
-630 36 0
-630 146 0
-36 -146 630 0
-631 37 0
-631 147 0
-37 -147 631 0
-632 38 0
-632 148 0
-38 -148 632 0
-633 39 0
-633 149 0
-39 -149 633 0
-634 40 0
-634 150 0
-40 -150 634 0
-635 41 0
-635 151 0
-41 -151 635 0
-636 42 0
-636 152 0
-42 -152 636 0
-637 43 0
-637 153 0
-43 -153 637 0
-638 44 0
-638 154 0
-44 -154 638 0
-617 8722 0
-8722 8723 0
-618 -8722 0
-618 8723 0
-8723 8724 0
-619 -8723 0
-619 8724 0
-8724 8725 0
-620 -8724 0
-620 8725 0
-8725 8726 0
-621 -8725 0
-621 8726 0
-8726 8727 0
-622 -8726 0
-622 8727 0
-8727 8728 0
-623 -8727 0
-623 8728 0
-8728 8729 0
-624 -8728 0
-624 8729 0
-8729 8730 0
-625 -8729 0
-625 8730 0
-8730 8731 0
-626 -8730 0
-626 8731 0
-8731 8732 0
-627 -8731 0
-627 8732 0
-8732 8733 0
-628 -8732 0
-628 8733 0
-8733 8734 0
-629 -8733 0
-629 8734 0
-8734 8735 0
-630 -8734 0
-630 8735 0
-8735 8736 0
-631 -8735 0
-631 8736 0
-8736 8737 0
-632 -8736 0
-632 8737 0
-8737 8738 0
-633 -8737 0
-633 8738 0
-8738 8739 0
-634 -8738 0
-634 8739 0
-8739 8740 0
-635 -8739 0
-635 8740 0
-8740 8741 0
-636 -8740 0
-636 8741 0
-8741 8742 0
-637 -8741 0
-637 8742 0
-638 -8742 0
-617 1754 0
-618 1754 0
-619 1754 0
-620 1754 0
-621 1754 0
-622 1754 0
-623 1754 0
-624 1754 0
-625 1754 0
-626 1754 0
-627 1754 0
-628 1754 0
-629 1754 0
-630 1754 0
-631 1754 0
-632 1754 0
-633 1754 0
-634 1754 0
-635 1754 0
-636 1754 0
-637 1754 0
-638 1754 0
-1754 617 618 619 620 621 622 623 624 625 626 627 628 629 630 631 632 633 634 635 636 637 638 0
-639 23 0
-639 155 0
-23 -155 639 0
-640 24 0
-640 156 0
-24 -156 640 0
-641 25 0
-641 157 0
-25 -157 641 0
-642 26 0
-642 158 0
-26 -158 642 0
-643 27 0
-643 159 0
-27 -159 643 0
-644 28 0
-644 160 0
-28 -160 644 0
-645 29 0
-645 161 0
-29 -161 645 0
-646 30 0
-646 162 0
-30 -162 646 0
-647 31 0
-647 163 0
-31 -163 647 0
-648 32 0
-648 164 0
-32 -164 648 0
-649 33 0
-649 165 0
-33 -165 649 0
-650 34 0
-650 166 0
-34 -166 650 0
-651 35 0
-651 167 0
-35 -167 651 0
-652 36 0
-652 168 0
-36 -168 652 0
-653 37 0
-653 169 0
-37 -169 653 0
-654 38 0
-654 170 0
-38 -170 654 0
-655 39 0
-655 171 0
-39 -171 655 0
-656 40 0
-656 172 0
-40 -172 656 0
-657 41 0
-657 173 0
-41 -173 657 0
-658 42 0
-658 174 0
-42 -174 658 0
-659 43 0
-659 175 0
-43 -175 659 0
-660 44 0
-660 176 0
-44 -176 660 0
-639 8743 0
-8743 8744 0
-640 -8743 0
-640 8744 0
-8744 8745 0
-641 -8744 0
-641 8745 0
-8745 8746 0
-642 -8745 0
-642 8746 0
-8746 8747 0
-643 -8746 0
-643 8747 0
-8747 8748 0
-644 -8747 0
-644 8748 0
-8748 8749 0
-645 -8748 0
-645 8749 0
-8749 8750 0
-646 -8749 0
-646 8750 0
-8750 8751 0
-647 -8750 0
-647 8751 0
-8751 8752 0
-648 -8751 0
-648 8752 0
-8752 8753 0
-649 -8752 0
-649 8753 0
-8753 8754 0
-650 -8753 0
-650 8754 0
-8754 8755 0
-651 -8754 0
-651 8755 0
-8755 8756 0
-652 -8755 0
-652 8756 0
-8756 8757 0
-653 -8756 0
-653 8757 0
-8757 8758 0
-654 -8757 0
-654 8758 0
-8758 8759 0
-655 -8758 0
-655 8759 0
-8759 8760 0
-656 -8759 0
-656 8760 0
-8760 8761 0
-657 -8760 0
-657 8761 0
-8761 8762 0
-658 -8761 0
-658 8762 0
-8762 8763 0
-659 -8762 0
-659 8763 0
-660 -8763 0
-639 1755 0
-640 1755 0
-641 1755 0
-642 1755 0
-643 1755 0
-644 1755 0
-645 1755 0
-646 1755 0
-647 1755 0
-648 1755 0
-649 1755 0
-650 1755 0
-651 1755 0
-652 1755 0
-653 1755 0
-654 1755 0
-655 1755 0
-656 1755 0
-657 1755 0
-658 1755 0
-659 1755 0
-660 1755 0
-1755 639 640 641 642 643 644 645 646 647 648 649 650 651 652 653 654 655 656 657 658 659 660 0
-661 23 0
-661 177 0
-23 -177 661 0
-662 24 0
-662 178 0
-24 -178 662 0
-663 25 0
-663 179 0
-25 -179 663 0
-664 26 0
-664 180 0
-26 -180 664 0
-665 27 0
-665 181 0
-27 -181 665 0
-666 28 0
-666 182 0
-28 -182 666 0
-667 29 0
-667 183 0
-29 -183 667 0
-668 30 0
-668 184 0
-30 -184 668 0
-669 31 0
-669 185 0
-31 -185 669 0
-670 32 0
-670 186 0
-32 -186 670 0
-671 33 0
-671 187 0
-33 -187 671 0
-672 34 0
-672 188 0
-34 -188 672 0
-673 35 0
-673 189 0
-35 -189 673 0
-674 36 0
-674 190 0
-36 -190 674 0
-675 37 0
-675 191 0
-37 -191 675 0
-676 38 0
-676 192 0
-38 -192 676 0
-677 39 0
-677 193 0
-39 -193 677 0
-678 40 0
-678 194 0
-40 -194 678 0
-679 41 0
-679 195 0
-41 -195 679 0
-680 42 0
-680 196 0
-42 -196 680 0
-681 43 0
-681 197 0
-43 -197 681 0
-682 44 0
-682 198 0
-44 -198 682 0
-661 8764 0
-8764 8765 0
-662 -8764 0
-662 8765 0
-8765 8766 0
-663 -8765 0
-663 8766 0
-8766 8767 0
-664 -8766 0
-664 8767 0
-8767 8768 0
-665 -8767 0
-665 8768 0
-8768 8769 0
-666 -8768 0
-666 8769 0
-8769 8770 0
-667 -8769 0
-667 8770 0
-8770 8771 0
-668 -8770 0
-668 8771 0
-8771 8772 0
-669 -8771 0
-669 8772 0
-8772 8773 0
-670 -8772 0
-670 8773 0
-8773 8774 0
-671 -8773 0
-671 8774 0
-8774 8775 0
-672 -8774 0
-672 8775 0
-8775 8776 0
-673 -8775 0
-673 8776 0
-8776 8777 0
-674 -8776 0
-674 8777 0
-8777 8778 0
-675 -8777 0
-675 8778 0
-8778 8779 0
-676 -8778 0
-676 8779 0
-8779 8780 0
-677 -8779 0
-677 8780 0
-8780 8781 0
-678 -8780 0
-678 8781 0
-8781 8782 0
-679 -8781 0
-679 8782 0
-8782 8783 0
-680 -8782 0
-680 8783 0
-8783 8784 0
-681 -8783 0
-681 8784 0
-682 -8784 0
-661 1756 0
-662 1756 0
-663 1756 0
-664 1756 0
-665 1756 0
-666 1756 0
-667 1756 0
-668 1756 0
-669 1756 0
-670 1756 0
-671 1756 0
-672 1756 0
-673 1756 0
-674 1756 0
-675 1756 0
-676 1756 0
-677 1756 0
-678 1756 0
-679 1756 0
-680 1756 0
-681 1756 0
-682 1756 0
-1756 661 662 663 664 665 666 667 668 669 670 671 672 673 674 675 676 677 678 679 680 681 682 0
-683 23 0
-683 199 0
-23 -199 683 0
-684 24 0
-684 200 0
-24 -200 684 0
-685 25 0
-685 201 0
-25 -201 685 0
-686 26 0
-686 202 0
-26 -202 686 0
-687 27 0
-687 203 0
-27 -203 687 0
-688 28 0
-688 204 0
-28 -204 688 0
-689 29 0
-689 205 0
-29 -205 689 0
-690 30 0
-690 206 0
-30 -206 690 0
-691 31 0
-691 207 0
-31 -207 691 0
-692 32 0
-692 208 0
-32 -208 692 0
-693 33 0
-693 209 0
-33 -209 693 0
-694 34 0
-694 210 0
-34 -210 694 0
-695 35 0
-695 211 0
-35 -211 695 0
-696 36 0
-696 212 0
-36 -212 696 0
-697 37 0
-697 213 0
-37 -213 697 0
-698 38 0
-698 214 0
-38 -214 698 0
-699 39 0
-699 215 0
-39 -215 699 0
-700 40 0
-700 216 0
-40 -216 700 0
-701 41 0
-701 217 0
-41 -217 701 0
-702 42 0
-702 218 0
-42 -218 702 0
-703 43 0
-703 219 0
-43 -219 703 0
-704 44 0
-704 220 0
-44 -220 704 0
-683 8785 0
-8785 8786 0
-684 -8785 0
-684 8786 0
-8786 8787 0
-685 -8786 0
-685 8787 0
-8787 8788 0
-686 -8787 0
-686 8788 0
-8788 8789 0
-687 -8788 0
-687 8789 0
-8789 8790 0
-688 -8789 0
-688 8790 0
-8790 8791 0
-689 -8790 0
-689 8791 0
-8791 8792 0
-690 -8791 0
-690 8792 0
-8792 8793 0
-691 -8792 0
-691 8793 0
-8793 8794 0
-692 -8793 0
-692 8794 0
-8794 8795 0
-693 -8794 0
-693 8795 0
-8795 8796 0
-694 -8795 0
-694 8796 0
-8796 8797 0
-695 -8796 0
-695 8797 0
-8797 8798 0
-696 -8797 0
-696 8798 0
-8798 8799 0
-697 -8798 0
-697 8799 0
-8799 8800 0
-698 -8799 0
-698 8800 0
-8800 8801 0
-699 -8800 0
-699 8801 0
-8801 8802 0
-700 -8801 0
-700 8802 0
-8802 8803 0
-701 -8802 0
-701 8803 0
-8803 8804 0
-702 -8803 0
-702 8804 0
-8804 8805 0
-703 -8804 0
-703 8805 0
-704 -8805 0
-683 1757 0
-684 1757 0
-685 1757 0
-686 1757 0
-687 1757 0
-688 1757 0
-689 1757 0
-690 1757 0
-691 1757 0
-692 1757 0
-693 1757 0
-694 1757 0
-695 1757 0
-696 1757 0
-697 1757 0
-698 1757 0
-699 1757 0
-700 1757 0
-701 1757 0
-702 1757 0
-703 1757 0
-704 1757 0
-1757 683 684 685 686 687 688 689 690 691 692 693 694 695 696 697 698 699 700 701 702 703 704 0
-705 23 0
-705 221 0
-23 -221 705 0
-706 24 0
-706 222 0
-24 -222 706 0
-707 25 0
-707 223 0
-25 -223 707 0
-708 26 0
-708 224 0
-26 -224 708 0
-709 27 0
-709 225 0
-27 -225 709 0
-710 28 0
-710 226 0
-28 -226 710 0
-711 29 0
-711 227 0
-29 -227 711 0
-712 30 0
-712 228 0
-30 -228 712 0
-713 31 0
-713 229 0
-31 -229 713 0
-714 32 0
-714 230 0
-32 -230 714 0
-715 33 0
-715 231 0
-33 -231 715 0
-716 34 0
-716 232 0
-34 -232 716 0
-717 35 0
-717 233 0
-35 -233 717 0
-718 36 0
-718 234 0
-36 -234 718 0
-719 37 0
-719 235 0
-37 -235 719 0
-720 38 0
-720 236 0
-38 -236 720 0
-721 39 0
-721 237 0
-39 -237 721 0
-722 40 0
-722 238 0
-40 -238 722 0
-723 41 0
-723 239 0
-41 -239 723 0
-724 42 0
-724 240 0
-42 -240 724 0
-725 43 0
-725 241 0
-43 -241 725 0
-726 44 0
-726 242 0
-44 -242 726 0
-705 8806 0
-8806 8807 0
-706 -8806 0
-706 8807 0
-8807 8808 0
-707 -8807 0
-707 8808 0
-8808 8809 0
-708 -8808 0
-708 8809 0
-8809 8810 0
-709 -8809 0
-709 8810 0
-8810 8811 0
-710 -8810 0
-710 8811 0
-8811 8812 0
-711 -8811 0
-711 8812 0
-8812 8813 0
-712 -8812 0
-712 8813 0
-8813 8814 0
-713 -8813 0
-713 8814 0
-8814 8815 0
-714 -8814 0
-714 8815 0
-8815 8816 0
-715 -8815 0
-715 8816 0
-8816 8817 0
-716 -8816 0
-716 8817 0
-8817 8818 0
-717 -8817 0
-717 8818 0
-8818 8819 0
-718 -8818 0
-718 8819 0
-8819 8820 0
-719 -8819 0
-719 8820 0
-8820 8821 0
-720 -8820 0
-720 8821 0
-8821 8822 0
-721 -8821 0
-721 8822 0
-8822 8823 0
-722 -8822 0
-722 8823 0
-8823 8824 0
-723 -8823 0
-723 8824 0
-8824 8825 0
-724 -8824 0
-724 8825 0
-8825 8826 0
-725 -8825 0
-725 8826 0
-726 -8826 0
-705 1758 0
-706 1758 0
-707 1758 0
-708 1758 0
-709 1758 0
-710 1758 0
-711 1758 0
-712 1758 0
-713 1758 0
-714 1758 0
-715 1758 0
-716 1758 0
-717 1758 0
-718 1758 0
-719 1758 0
-720 1758 0
-721 1758 0
-722 1758 0
-723 1758 0
-724 1758 0
-725 1758 0
-726 1758 0
-1758 705 706 707 708 709 710 711 712 713 714 715 716 717 718 719 720 721 722 723 724 725 726 0
-727 23 0
-727 243 0
-23 -243 727 0
-728 24 0
-728 244 0
-24 -244 728 0
-729 25 0
-729 245 0
-25 -245 729 0
-730 26 0
-730 246 0
-26 -246 730 0
-731 27 0
-731 247 0
-27 -247 731 0
-732 28 0
-732 248 0
-28 -248 732 0
-733 29 0
-733 249 0
-29 -249 733 0
-734 30 0
-734 250 0
-30 -250 734 0
-735 31 0
-735 251 0
-31 -251 735 0
-736 32 0
-736 252 0
-32 -252 736 0
-737 33 0
-737 253 0
-33 -253 737 0
-738 34 0
-738 254 0
-34 -254 738 0
-739 35 0
-739 255 0
-35 -255 739 0
-740 36 0
-740 256 0
-36 -256 740 0
-741 37 0
-741 257 0
-37 -257 741 0
-742 38 0
-742 258 0
-38 -258 742 0
-743 39 0
-743 259 0
-39 -259 743 0
-744 40 0
-744 260 0
-40 -260 744 0
-745 41 0
-745 261 0
-41 -261 745 0
-746 42 0
-746 262 0
-42 -262 746 0
-747 43 0
-747 263 0
-43 -263 747 0
-748 44 0
-748 264 0
-44 -264 748 0
-727 8827 0
-8827 8828 0
-728 -8827 0
-728 8828 0
-8828 8829 0
-729 -8828 0
-729 8829 0
-8829 8830 0
-730 -8829 0
-730 8830 0
-8830 8831 0
-731 -8830 0
-731 8831 0
-8831 8832 0
-732 -8831 0
-732 8832 0
-8832 8833 0
-733 -8832 0
-733 8833 0
-8833 8834 0
-734 -8833 0
-734 8834 0
-8834 8835 0
-735 -8834 0
-735 8835 0
-8835 8836 0
-736 -8835 0
-736 8836 0
-8836 8837 0
-737 -8836 0
-737 8837 0
-8837 8838 0
-738 -8837 0
-738 8838 0
-8838 8839 0
-739 -8838 0
-739 8839 0
-8839 8840 0
-740 -8839 0
-740 8840 0
-8840 8841 0
-741 -8840 0
-741 8841 0
-8841 8842 0
-742 -8841 0
-742 8842 0
-8842 8843 0
-743 -8842 0
-743 8843 0
-8843 8844 0
-744 -8843 0
-744 8844 0
-8844 8845 0
-745 -8844 0
-745 8845 0
-8845 8846 0
-746 -8845 0
-746 8846 0
-8846 8847 0
-747 -8846 0
-747 8847 0
-748 -8847 0
-727 1759 0
-728 1759 0
-729 1759 0
-730 1759 0
-731 1759 0
-732 1759 0
-733 1759 0
-734 1759 0
-735 1759 0
-736 1759 0
-737 1759 0
-738 1759 0
-739 1759 0
-740 1759 0
-741 1759 0
-742 1759 0
-743 1759 0
-744 1759 0
-745 1759 0
-746 1759 0
-747 1759 0
-748 1759 0
-1759 727 728 729 730 731 732 733 734 735 736 737 738 739 740 741 742 743 744 745 746 747 748 0
-749 45 0
-749 67 0
-45 -67 749 0
-750 46 0
-750 68 0
-46 -68 750 0
-751 47 0
-751 69 0
-47 -69 751 0
-752 48 0
-752 70 0
-48 -70 752 0
-753 49 0
-753 71 0
-49 -71 753 0
-754 50 0
-754 72 0
-50 -72 754 0
-755 51 0
-755 73 0
-51 -73 755 0
-756 52 0
-756 74 0
-52 -74 756 0
-757 53 0
-757 75 0
-53 -75 757 0
-758 54 0
-758 76 0
-54 -76 758 0
-759 55 0
-759 77 0
-55 -77 759 0
-760 56 0
-760 78 0
-56 -78 760 0
-761 57 0
-761 79 0
-57 -79 761 0
-762 58 0
-762 80 0
-58 -80 762 0
-763 59 0
-763 81 0
-59 -81 763 0
-764 60 0
-764 82 0
-60 -82 764 0
-765 61 0
-765 83 0
-61 -83 765 0
-766 62 0
-766 84 0
-62 -84 766 0
-767 63 0
-767 85 0
-63 -85 767 0
-768 64 0
-768 86 0
-64 -86 768 0
-769 65 0
-769 87 0
-65 -87 769 0
-770 66 0
-770 88 0
-66 -88 770 0
-749 8848 0
-8848 8849 0
-750 -8848 0
-750 8849 0
-8849 8850 0
-751 -8849 0
-751 8850 0
-8850 8851 0
-752 -8850 0
-752 8851 0
-8851 8852 0
-753 -8851 0
-753 8852 0
-8852 8853 0
-754 -8852 0
-754 8853 0
-8853 8854 0
-755 -8853 0
-755 8854 0
-8854 8855 0
-756 -8854 0
-756 8855 0
-8855 8856 0
-757 -8855 0
-757 8856 0
-8856 8857 0
-758 -8856 0
-758 8857 0
-8857 8858 0
-759 -8857 0
-759 8858 0
-8858 8859 0
-760 -8858 0
-760 8859 0
-8859 8860 0
-761 -8859 0
-761 8860 0
-8860 8861 0
-762 -8860 0
-762 8861 0
-8861 8862 0
-763 -8861 0
-763 8862 0
-8862 8863 0
-764 -8862 0
-764 8863 0
-8863 8864 0
-765 -8863 0
-765 8864 0
-8864 8865 0
-766 -8864 0
-766 8865 0
-8865 8866 0
-767 -8865 0
-767 8866 0
-8866 8867 0
-768 -8866 0
-768 8867 0
-8867 8868 0
-769 -8867 0
-769 8868 0
-770 -8868 0
-749 1760 0
-750 1760 0
-751 1760 0
-752 1760 0
-753 1760 0
-754 1760 0
-755 1760 0
-756 1760 0
-757 1760 0
-758 1760 0
-759 1760 0
-760 1760 0
-761 1760 0
-762 1760 0
-763 1760 0
-764 1760 0
-765 1760 0
-766 1760 0
-767 1760 0
-768 1760 0
-769 1760 0
-770 1760 0
-1760 749 750 751 752 753 754 755 756 757 758 759 760 761 762 763 764 765 766 767 768 769 770 0
-771 45 0
-771 89 0
-45 -89 771 0
-772 46 0
-772 90 0
-46 -90 772 0
-773 47 0
-773 91 0
-47 -91 773 0
-774 48 0
-774 92 0
-48 -92 774 0
-775 49 0
-775 93 0
-49 -93 775 0
-776 50 0
-776 94 0
-50 -94 776 0
-777 51 0
-777 95 0
-51 -95 777 0
-778 52 0
-778 96 0
-52 -96 778 0
-779 53 0
-779 97 0
-53 -97 779 0
-780 54 0
-780 98 0
-54 -98 780 0
-781 55 0
-781 99 0
-55 -99 781 0
-782 56 0
-782 100 0
-56 -100 782 0
-783 57 0
-783 101 0
-57 -101 783 0
-784 58 0
-784 102 0
-58 -102 784 0
-785 59 0
-785 103 0
-59 -103 785 0
-786 60 0
-786 104 0
-60 -104 786 0
-787 61 0
-787 105 0
-61 -105 787 0
-788 62 0
-788 106 0
-62 -106 788 0
-789 63 0
-789 107 0
-63 -107 789 0
-790 64 0
-790 108 0
-64 -108 790 0
-791 65 0
-791 109 0
-65 -109 791 0
-792 66 0
-792 110 0
-66 -110 792 0
-771 8869 0
-8869 8870 0
-772 -8869 0
-772 8870 0
-8870 8871 0
-773 -8870 0
-773 8871 0
-8871 8872 0
-774 -8871 0
-774 8872 0
-8872 8873 0
-775 -8872 0
-775 8873 0
-8873 8874 0
-776 -8873 0
-776 8874 0
-8874 8875 0
-777 -8874 0
-777 8875 0
-8875 8876 0
-778 -8875 0
-778 8876 0
-8876 8877 0
-779 -8876 0
-779 8877 0
-8877 8878 0
-780 -8877 0
-780 8878 0
-8878 8879 0
-781 -8878 0
-781 8879 0
-8879 8880 0
-782 -8879 0
-782 8880 0
-8880 8881 0
-783 -8880 0
-783 8881 0
-8881 8882 0
-784 -8881 0
-784 8882 0
-8882 8883 0
-785 -8882 0
-785 8883 0
-8883 8884 0
-786 -8883 0
-786 8884 0
-8884 8885 0
-787 -8884 0
-787 8885 0
-8885 8886 0
-788 -8885 0
-788 8886 0
-8886 8887 0
-789 -8886 0
-789 8887 0
-8887 8888 0
-790 -8887 0
-790 8888 0
-8888 8889 0
-791 -8888 0
-791 8889 0
-792 -8889 0
-771 1761 0
-772 1761 0
-773 1761 0
-774 1761 0
-775 1761 0
-776 1761 0
-777 1761 0
-778 1761 0
-779 1761 0
-780 1761 0
-781 1761 0
-782 1761 0
-783 1761 0
-784 1761 0
-785 1761 0
-786 1761 0
-787 1761 0
-788 1761 0
-789 1761 0
-790 1761 0
-791 1761 0
-792 1761 0
-1761 771 772 773 774 775 776 777 778 779 780 781 782 783 784 785 786 787 788 789 790 791 792 0
-793 45 0
-793 111 0
-45 -111 793 0
-794 46 0
-794 112 0
-46 -112 794 0
-795 47 0
-795 113 0
-47 -113 795 0
-796 48 0
-796 114 0
-48 -114 796 0
-797 49 0
-797 115 0
-49 -115 797 0
-798 50 0
-798 116 0
-50 -116 798 0
-799 51 0
-799 117 0
-51 -117 799 0
-800 52 0
-800 118 0
-52 -118 800 0
-801 53 0
-801 119 0
-53 -119 801 0
-802 54 0
-802 120 0
-54 -120 802 0
-803 55 0
-803 121 0
-55 -121 803 0
-804 56 0
-804 122 0
-56 -122 804 0
-805 57 0
-805 123 0
-57 -123 805 0
-806 58 0
-806 124 0
-58 -124 806 0
-807 59 0
-807 125 0
-59 -125 807 0
-808 60 0
-808 126 0
-60 -126 808 0
-809 61 0
-809 127 0
-61 -127 809 0
-810 62 0
-810 128 0
-62 -128 810 0
-811 63 0
-811 129 0
-63 -129 811 0
-812 64 0
-812 130 0
-64 -130 812 0
-813 65 0
-813 131 0
-65 -131 813 0
-814 66 0
-814 132 0
-66 -132 814 0
-793 8890 0
-8890 8891 0
-794 -8890 0
-794 8891 0
-8891 8892 0
-795 -8891 0
-795 8892 0
-8892 8893 0
-796 -8892 0
-796 8893 0
-8893 8894 0
-797 -8893 0
-797 8894 0
-8894 8895 0
-798 -8894 0
-798 8895 0
-8895 8896 0
-799 -8895 0
-799 8896 0
-8896 8897 0
-800 -8896 0
-800 8897 0
-8897 8898 0
-801 -8897 0
-801 8898 0
-8898 8899 0
-802 -8898 0
-802 8899 0
-8899 8900 0
-803 -8899 0
-803 8900 0
-8900 8901 0
-804 -8900 0
-804 8901 0
-8901 8902 0
-805 -8901 0
-805 8902 0
-8902 8903 0
-806 -8902 0
-806 8903 0
-8903 8904 0
-807 -8903 0
-807 8904 0
-8904 8905 0
-808 -8904 0
-808 8905 0
-8905 8906 0
-809 -8905 0
-809 8906 0
-8906 8907 0
-810 -8906 0
-810 8907 0
-8907 8908 0
-811 -8907 0
-811 8908 0
-8908 8909 0
-812 -8908 0
-812 8909 0
-8909 8910 0
-813 -8909 0
-813 8910 0
-814 -8910 0
-793 1762 0
-794 1762 0
-795 1762 0
-796 1762 0
-797 1762 0
-798 1762 0
-799 1762 0
-800 1762 0
-801 1762 0
-802 1762 0
-803 1762 0
-804 1762 0
-805 1762 0
-806 1762 0
-807 1762 0
-808 1762 0
-809 1762 0
-810 1762 0
-811 1762 0
-812 1762 0
-813 1762 0
-814 1762 0
-1762 793 794 795 796 797 798 799 800 801 802 803 804 805 806 807 808 809 810 811 812 813 814 0
-815 45 0
-815 133 0
-45 -133 815 0
-816 46 0
-816 134 0
-46 -134 816 0
-817 47 0
-817 135 0
-47 -135 817 0
-818 48 0
-818 136 0
-48 -136 818 0
-819 49 0
-819 137 0
-49 -137 819 0
-820 50 0
-820 138 0
-50 -138 820 0
-821 51 0
-821 139 0
-51 -139 821 0
-822 52 0
-822 140 0
-52 -140 822 0
-823 53 0
-823 141 0
-53 -141 823 0
-824 54 0
-824 142 0
-54 -142 824 0
-825 55 0
-825 143 0
-55 -143 825 0
-826 56 0
-826 144 0
-56 -144 826 0
-827 57 0
-827 145 0
-57 -145 827 0
-828 58 0
-828 146 0
-58 -146 828 0
-829 59 0
-829 147 0
-59 -147 829 0
-830 60 0
-830 148 0
-60 -148 830 0
-831 61 0
-831 149 0
-61 -149 831 0
-832 62 0
-832 150 0
-62 -150 832 0
-833 63 0
-833 151 0
-63 -151 833 0
-834 64 0
-834 152 0
-64 -152 834 0
-835 65 0
-835 153 0
-65 -153 835 0
-836 66 0
-836 154 0
-66 -154 836 0
-815 8911 0
-8911 8912 0
-816 -8911 0
-816 8912 0
-8912 8913 0
-817 -8912 0
-817 8913 0
-8913 8914 0
-818 -8913 0
-818 8914 0
-8914 8915 0
-819 -8914 0
-819 8915 0
-8915 8916 0
-820 -8915 0
-820 8916 0
-8916 8917 0
-821 -8916 0
-821 8917 0
-8917 8918 0
-822 -8917 0
-822 8918 0
-8918 8919 0
-823 -8918 0
-823 8919 0
-8919 8920 0
-824 -8919 0
-824 8920 0
-8920 8921 0
-825 -8920 0
-825 8921 0
-8921 8922 0
-826 -8921 0
-826 8922 0
-8922 8923 0
-827 -8922 0
-827 8923 0
-8923 8924 0
-828 -8923 0
-828 8924 0
-8924 8925 0
-829 -8924 0
-829 8925 0
-8925 8926 0
-830 -8925 0
-830 8926 0
-8926 8927 0
-831 -8926 0
-831 8927 0
-8927 8928 0
-832 -8927 0
-832 8928 0
-8928 8929 0
-833 -8928 0
-833 8929 0
-8929 8930 0
-834 -8929 0
-834 8930 0
-8930 8931 0
-835 -8930 0
-835 8931 0
-836 -8931 0
-815 1763 0
-816 1763 0
-817 1763 0
-818 1763 0
-819 1763 0
-820 1763 0
-821 1763 0
-822 1763 0
-823 1763 0
-824 1763 0
-825 1763 0
-826 1763 0
-827 1763 0
-828 1763 0
-829 1763 0
-830 1763 0
-831 1763 0
-832 1763 0
-833 1763 0
-834 1763 0
-835 1763 0
-836 1763 0
-1763 815 816 817 818 819 820 821 822 823 824 825 826 827 828 829 830 831 832 833 834 835 836 0
-837 45 0
-837 155 0
-45 -155 837 0
-838 46 0
-838 156 0
-46 -156 838 0
-839 47 0
-839 157 0
-47 -157 839 0
-840 48 0
-840 158 0
-48 -158 840 0
-841 49 0
-841 159 0
-49 -159 841 0
-842 50 0
-842 160 0
-50 -160 842 0
-843 51 0
-843 161 0
-51 -161 843 0
-844 52 0
-844 162 0
-52 -162 844 0
-845 53 0
-845 163 0
-53 -163 845 0
-846 54 0
-846 164 0
-54 -164 846 0
-847 55 0
-847 165 0
-55 -165 847 0
-848 56 0
-848 166 0
-56 -166 848 0
-849 57 0
-849 167 0
-57 -167 849 0
-850 58 0
-850 168 0
-58 -168 850 0
-851 59 0
-851 169 0
-59 -169 851 0
-852 60 0
-852 170 0
-60 -170 852 0
-853 61 0
-853 171 0
-61 -171 853 0
-854 62 0
-854 172 0
-62 -172 854 0
-855 63 0
-855 173 0
-63 -173 855 0
-856 64 0
-856 174 0
-64 -174 856 0
-857 65 0
-857 175 0
-65 -175 857 0
-858 66 0
-858 176 0
-66 -176 858 0
-837 8932 0
-8932 8933 0
-838 -8932 0
-838 8933 0
-8933 8934 0
-839 -8933 0
-839 8934 0
-8934 8935 0
-840 -8934 0
-840 8935 0
-8935 8936 0
-841 -8935 0
-841 8936 0
-8936 8937 0
-842 -8936 0
-842 8937 0
-8937 8938 0
-843 -8937 0
-843 8938 0
-8938 8939 0
-844 -8938 0
-844 8939 0
-8939 8940 0
-845 -8939 0
-845 8940 0
-8940 8941 0
-846 -8940 0
-846 8941 0
-8941 8942 0
-847 -8941 0
-847 8942 0
-8942 8943 0
-848 -8942 0
-848 8943 0
-8943 8944 0
-849 -8943 0
-849 8944 0
-8944 8945 0
-850 -8944 0
-850 8945 0
-8945 8946 0
-851 -8945 0
-851 8946 0
-8946 8947 0
-852 -8946 0
-852 8947 0
-8947 8948 0
-853 -8947 0
-853 8948 0
-8948 8949 0
-854 -8948 0
-854 8949 0
-8949 8950 0
-855 -8949 0
-855 8950 0
-8950 8951 0
-856 -8950 0
-856 8951 0
-8951 8952 0
-857 -8951 0
-857 8952 0
-858 -8952 0
-837 1764 0
-838 1764 0
-839 1764 0
-840 1764 0
-841 1764 0
-842 1764 0
-843 1764 0
-844 1764 0
-845 1764 0
-846 1764 0
-847 1764 0
-848 1764 0
-849 1764 0
-850 1764 0
-851 1764 0
-852 1764 0
-853 1764 0
-854 1764 0
-855 1764 0
-856 1764 0
-857 1764 0
-858 1764 0
-1764 837 838 839 840 841 842 843 844 845 846 847 848 849 850 851 852 853 854 855 856 857 858 0
-859 45 0
-859 177 0
-45 -177 859 0
-860 46 0
-860 178 0
-46 -178 860 0
-861 47 0
-861 179 0
-47 -179 861 0
-862 48 0
-862 180 0
-48 -180 862 0
-863 49 0
-863 181 0
-49 -181 863 0
-864 50 0
-864 182 0
-50 -182 864 0
-865 51 0
-865 183 0
-51 -183 865 0
-866 52 0
-866 184 0
-52 -184 866 0
-867 53 0
-867 185 0
-53 -185 867 0
-868 54 0
-868 186 0
-54 -186 868 0
-869 55 0
-869 187 0
-55 -187 869 0
-870 56 0
-870 188 0
-56 -188 870 0
-871 57 0
-871 189 0
-57 -189 871 0
-872 58 0
-872 190 0
-58 -190 872 0
-873 59 0
-873 191 0
-59 -191 873 0
-874 60 0
-874 192 0
-60 -192 874 0
-875 61 0
-875 193 0
-61 -193 875 0
-876 62 0
-876 194 0
-62 -194 876 0
-877 63 0
-877 195 0
-63 -195 877 0
-878 64 0
-878 196 0
-64 -196 878 0
-879 65 0
-879 197 0
-65 -197 879 0
-880 66 0
-880 198 0
-66 -198 880 0
-859 8953 0
-8953 8954 0
-860 -8953 0
-860 8954 0
-8954 8955 0
-861 -8954 0
-861 8955 0
-8955 8956 0
-862 -8955 0
-862 8956 0
-8956 8957 0
-863 -8956 0
-863 8957 0
-8957 8958 0
-864 -8957 0
-864 8958 0
-8958 8959 0
-865 -8958 0
-865 8959 0
-8959 8960 0
-866 -8959 0
-866 8960 0
-8960 8961 0
-867 -8960 0
-867 8961 0
-8961 8962 0
-868 -8961 0
-868 8962 0
-8962 8963 0
-869 -8962 0
-869 8963 0
-8963 8964 0
-870 -8963 0
-870 8964 0
-8964 8965 0
-871 -8964 0
-871 8965 0
-8965 8966 0
-872 -8965 0
-872 8966 0
-8966 8967 0
-873 -8966 0
-873 8967 0
-8967 8968 0
-874 -8967 0
-874 8968 0
-8968 8969 0
-875 -8968 0
-875 8969 0
-8969 8970 0
-876 -8969 0
-876 8970 0
-8970 8971 0
-877 -8970 0
-877 8971 0
-8971 8972 0
-878 -8971 0
-878 8972 0
-8972 8973 0
-879 -8972 0
-879 8973 0
-880 -8973 0
-859 1765 0
-860 1765 0
-861 1765 0
-862 1765 0
-863 1765 0
-864 1765 0
-865 1765 0
-866 1765 0
-867 1765 0
-868 1765 0
-869 1765 0
-870 1765 0
-871 1765 0
-872 1765 0
-873 1765 0
-874 1765 0
-875 1765 0
-876 1765 0
-877 1765 0
-878 1765 0
-879 1765 0
-880 1765 0
-1765 859 860 861 862 863 864 865 866 867 868 869 870 871 872 873 874 875 876 877 878 879 880 0
-881 45 0
-881 199 0
-45 -199 881 0
-882 46 0
-882 200 0
-46 -200 882 0
-883 47 0
-883 201 0
-47 -201 883 0
-884 48 0
-884 202 0
-48 -202 884 0
-885 49 0
-885 203 0
-49 -203 885 0
-886 50 0
-886 204 0
-50 -204 886 0
-887 51 0
-887 205 0
-51 -205 887 0
-888 52 0
-888 206 0
-52 -206 888 0
-889 53 0
-889 207 0
-53 -207 889 0
-890 54 0
-890 208 0
-54 -208 890 0
-891 55 0
-891 209 0
-55 -209 891 0
-892 56 0
-892 210 0
-56 -210 892 0
-893 57 0
-893 211 0
-57 -211 893 0
-894 58 0
-894 212 0
-58 -212 894 0
-895 59 0
-895 213 0
-59 -213 895 0
-896 60 0
-896 214 0
-60 -214 896 0
-897 61 0
-897 215 0
-61 -215 897 0
-898 62 0
-898 216 0
-62 -216 898 0
-899 63 0
-899 217 0
-63 -217 899 0
-900 64 0
-900 218 0
-64 -218 900 0
-901 65 0
-901 219 0
-65 -219 901 0
-902 66 0
-902 220 0
-66 -220 902 0
-881 8974 0
-8974 8975 0
-882 -8974 0
-882 8975 0
-8975 8976 0
-883 -8975 0
-883 8976 0
-8976 8977 0
-884 -8976 0
-884 8977 0
-8977 8978 0
-885 -8977 0
-885 8978 0
-8978 8979 0
-886 -8978 0
-886 8979 0
-8979 8980 0
-887 -8979 0
-887 8980 0
-8980 8981 0
-888 -8980 0
-888 8981 0
-8981 8982 0
-889 -8981 0
-889 8982 0
-8982 8983 0
-890 -8982 0
-890 8983 0
-8983 8984 0
-891 -8983 0
-891 8984 0
-8984 8985 0
-892 -8984 0
-892 8985 0
-8985 8986 0
-893 -8985 0
-893 8986 0
-8986 8987 0
-894 -8986 0
-894 8987 0
-8987 8988 0
-895 -8987 0
-895 8988 0
-8988 8989 0
-896 -8988 0
-896 8989 0
-8989 8990 0
-897 -8989 0
-897 8990 0
-8990 8991 0
-898 -8990 0
-898 8991 0
-8991 8992 0
-899 -8991 0
-899 8992 0
-8992 8993 0
-900 -8992 0
-900 8993 0
-8993 8994 0
-901 -8993 0
-901 8994 0
-902 -8994 0
-881 1766 0
-882 1766 0
-883 1766 0
-884 1766 0
-885 1766 0
-886 1766 0
-887 1766 0
-888 1766 0
-889 1766 0
-890 1766 0
-891 1766 0
-892 1766 0
-893 1766 0
-894 1766 0
-895 1766 0
-896 1766 0
-897 1766 0
-898 1766 0
-899 1766 0
-900 1766 0
-901 1766 0
-902 1766 0
-1766 881 882 883 884 885 886 887 888 889 890 891 892 893 894 895 896 897 898 899 900 901 902 0
-903 45 0
-903 221 0
-45 -221 903 0
-904 46 0
-904 222 0
-46 -222 904 0
-905 47 0
-905 223 0
-47 -223 905 0
-906 48 0
-906 224 0
-48 -224 906 0
-907 49 0
-907 225 0
-49 -225 907 0
-908 50 0
-908 226 0
-50 -226 908 0
-909 51 0
-909 227 0
-51 -227 909 0
-910 52 0
-910 228 0
-52 -228 910 0
-911 53 0
-911 229 0
-53 -229 911 0
-912 54 0
-912 230 0
-54 -230 912 0
-913 55 0
-913 231 0
-55 -231 913 0
-914 56 0
-914 232 0
-56 -232 914 0
-915 57 0
-915 233 0
-57 -233 915 0
-916 58 0
-916 234 0
-58 -234 916 0
-917 59 0
-917 235 0
-59 -235 917 0
-918 60 0
-918 236 0
-60 -236 918 0
-919 61 0
-919 237 0
-61 -237 919 0
-920 62 0
-920 238 0
-62 -238 920 0
-921 63 0
-921 239 0
-63 -239 921 0
-922 64 0
-922 240 0
-64 -240 922 0
-923 65 0
-923 241 0
-65 -241 923 0
-924 66 0
-924 242 0
-66 -242 924 0
-903 8995 0
-8995 8996 0
-904 -8995 0
-904 8996 0
-8996 8997 0
-905 -8996 0
-905 8997 0
-8997 8998 0
-906 -8997 0
-906 8998 0
-8998 8999 0
-907 -8998 0
-907 8999 0
-8999 9000 0
-908 -8999 0
-908 9000 0
-9000 9001 0
-909 -9000 0
-909 9001 0
-9001 9002 0
-910 -9001 0
-910 9002 0
-9002 9003 0
-911 -9002 0
-911 9003 0
-9003 9004 0
-912 -9003 0
-912 9004 0
-9004 9005 0
-913 -9004 0
-913 9005 0
-9005 9006 0
-914 -9005 0
-914 9006 0
-9006 9007 0
-915 -9006 0
-915 9007 0
-9007 9008 0
-916 -9007 0
-916 9008 0
-9008 9009 0
-917 -9008 0
-917 9009 0
-9009 9010 0
-918 -9009 0
-918 9010 0
-9010 9011 0
-919 -9010 0
-919 9011 0
-9011 9012 0
-920 -9011 0
-920 9012 0
-9012 9013 0
-921 -9012 0
-921 9013 0
-9013 9014 0
-922 -9013 0
-922 9014 0
-9014 9015 0
-923 -9014 0
-923 9015 0
-924 -9015 0
-903 1767 0
-904 1767 0
-905 1767 0
-906 1767 0
-907 1767 0
-908 1767 0
-909 1767 0
-910 1767 0
-911 1767 0
-912 1767 0
-913 1767 0
-914 1767 0
-915 1767 0
-916 1767 0
-917 1767 0
-918 1767 0
-919 1767 0
-920 1767 0
-921 1767 0
-922 1767 0
-923 1767 0
-924 1767 0
-1767 903 904 905 906 907 908 909 910 911 912 913 914 915 916 917 918 919 920 921 922 923 924 0
-925 45 0
-925 243 0
-45 -243 925 0
-926 46 0
-926 244 0
-46 -244 926 0
-927 47 0
-927 245 0
-47 -245 927 0
-928 48 0
-928 246 0
-48 -246 928 0
-929 49 0
-929 247 0
-49 -247 929 0
-930 50 0
-930 248 0
-50 -248 930 0
-931 51 0
-931 249 0
-51 -249 931 0
-932 52 0
-932 250 0
-52 -250 932 0
-933 53 0
-933 251 0
-53 -251 933 0
-934 54 0
-934 252 0
-54 -252 934 0
-935 55 0
-935 253 0
-55 -253 935 0
-936 56 0
-936 254 0
-56 -254 936 0
-937 57 0
-937 255 0
-57 -255 937 0
-938 58 0
-938 256 0
-58 -256 938 0
-939 59 0
-939 257 0
-59 -257 939 0
-940 60 0
-940 258 0
-60 -258 940 0
-941 61 0
-941 259 0
-61 -259 941 0
-942 62 0
-942 260 0
-62 -260 942 0
-943 63 0
-943 261 0
-63 -261 943 0
-944 64 0
-944 262 0
-64 -262 944 0
-945 65 0
-945 263 0
-65 -263 945 0
-946 66 0
-946 264 0
-66 -264 946 0
-925 9016 0
-9016 9017 0
-926 -9016 0
-926 9017 0
-9017 9018 0
-927 -9017 0
-927 9018 0
-9018 9019 0
-928 -9018 0
-928 9019 0
-9019 9020 0
-929 -9019 0
-929 9020 0
-9020 9021 0
-930 -9020 0
-930 9021 0
-9021 9022 0
-931 -9021 0
-931 9022 0
-9022 9023 0
-932 -9022 0
-932 9023 0
-9023 9024 0
-933 -9023 0
-933 9024 0
-9024 9025 0
-934 -9024 0
-934 9025 0
-9025 9026 0
-935 -9025 0
-935 9026 0
-9026 9027 0
-936 -9026 0
-936 9027 0
-9027 9028 0
-937 -9027 0
-937 9028 0
-9028 9029 0
-938 -9028 0
-938 9029 0
-9029 9030 0
-939 -9029 0
-939 9030 0
-9030 9031 0
-940 -9030 0
-940 9031 0
-9031 9032 0
-941 -9031 0
-941 9032 0
-9032 9033 0
-942 -9032 0
-942 9033 0
-9033 9034 0
-943 -9033 0
-943 9034 0
-9034 9035 0
-944 -9034 0
-944 9035 0
-9035 9036 0
-945 -9035 0
-945 9036 0
-946 -9036 0
-925 1768 0
-926 1768 0
-927 1768 0
-928 1768 0
-929 1768 0
-930 1768 0
-931 1768 0
-932 1768 0
-933 1768 0
-934 1768 0
-935 1768 0
-936 1768 0
-937 1768 0
-938 1768 0
-939 1768 0
-940 1768 0
-941 1768 0
-942 1768 0
-943 1768 0
-944 1768 0
-945 1768 0
-946 1768 0
-1768 925 926 927 928 929 930 931 932 933 934 935 936 937 938 939 940 941 942 943 944 945 946 0
-947 67 0
-947 89 0
-67 -89 947 0
-948 68 0
-948 90 0
-68 -90 948 0
-949 69 0
-949 91 0
-69 -91 949 0
-950 70 0
-950 92 0
-70 -92 950 0
-951 71 0
-951 93 0
-71 -93 951 0
-952 72 0
-952 94 0
-72 -94 952 0
-953 73 0
-953 95 0
-73 -95 953 0
-954 74 0
-954 96 0
-74 -96 954 0
-955 75 0
-955 97 0
-75 -97 955 0
-956 76 0
-956 98 0
-76 -98 956 0
-957 77 0
-957 99 0
-77 -99 957 0
-958 78 0
-958 100 0
-78 -100 958 0
-959 79 0
-959 101 0
-79 -101 959 0
-960 80 0
-960 102 0
-80 -102 960 0
-961 81 0
-961 103 0
-81 -103 961 0
-962 82 0
-962 104 0
-82 -104 962 0
-963 83 0
-963 105 0
-83 -105 963 0
-964 84 0
-964 106 0
-84 -106 964 0
-965 85 0
-965 107 0
-85 -107 965 0
-966 86 0
-966 108 0
-86 -108 966 0
-967 87 0
-967 109 0
-87 -109 967 0
-968 88 0
-968 110 0
-88 -110 968 0
-947 9037 0
-9037 9038 0
-948 -9037 0
-948 9038 0
-9038 9039 0
-949 -9038 0
-949 9039 0
-9039 9040 0
-950 -9039 0
-950 9040 0
-9040 9041 0
-951 -9040 0
-951 9041 0
-9041 9042 0
-952 -9041 0
-952 9042 0
-9042 9043 0
-953 -9042 0
-953 9043 0
-9043 9044 0
-954 -9043 0
-954 9044 0
-9044 9045 0
-955 -9044 0
-955 9045 0
-9045 9046 0
-956 -9045 0
-956 9046 0
-9046 9047 0
-957 -9046 0
-957 9047 0
-9047 9048 0
-958 -9047 0
-958 9048 0
-9048 9049 0
-959 -9048 0
-959 9049 0
-9049 9050 0
-960 -9049 0
-960 9050 0
-9050 9051 0
-961 -9050 0
-961 9051 0
-9051 9052 0
-962 -9051 0
-962 9052 0
-9052 9053 0
-963 -9052 0
-963 9053 0
-9053 9054 0
-964 -9053 0
-964 9054 0
-9054 9055 0
-965 -9054 0
-965 9055 0
-9055 9056 0
-966 -9055 0
-966 9056 0
-9056 9057 0
-967 -9056 0
-967 9057 0
-968 -9057 0
-947 1769 0
-948 1769 0
-949 1769 0
-950 1769 0
-951 1769 0
-952 1769 0
-953 1769 0
-954 1769 0
-955 1769 0
-956 1769 0
-957 1769 0
-958 1769 0
-959 1769 0
-960 1769 0
-961 1769 0
-962 1769 0
-963 1769 0
-964 1769 0
-965 1769 0
-966 1769 0
-967 1769 0
-968 1769 0
-1769 947 948 949 950 951 952 953 954 955 956 957 958 959 960 961 962 963 964 965 966 967 968 0
-969 67 0
-969 111 0
-67 -111 969 0
-970 68 0
-970 112 0
-68 -112 970 0
-971 69 0
-971 113 0
-69 -113 971 0
-972 70 0
-972 114 0
-70 -114 972 0
-973 71 0
-973 115 0
-71 -115 973 0
-974 72 0
-974 116 0
-72 -116 974 0
-975 73 0
-975 117 0
-73 -117 975 0
-976 74 0
-976 118 0
-74 -118 976 0
-977 75 0
-977 119 0
-75 -119 977 0
-978 76 0
-978 120 0
-76 -120 978 0
-979 77 0
-979 121 0
-77 -121 979 0
-980 78 0
-980 122 0
-78 -122 980 0
-981 79 0
-981 123 0
-79 -123 981 0
-982 80 0
-982 124 0
-80 -124 982 0
-983 81 0
-983 125 0
-81 -125 983 0
-984 82 0
-984 126 0
-82 -126 984 0
-985 83 0
-985 127 0
-83 -127 985 0
-986 84 0
-986 128 0
-84 -128 986 0
-987 85 0
-987 129 0
-85 -129 987 0
-988 86 0
-988 130 0
-86 -130 988 0
-989 87 0
-989 131 0
-87 -131 989 0
-990 88 0
-990 132 0
-88 -132 990 0
-969 9058 0
-9058 9059 0
-970 -9058 0
-970 9059 0
-9059 9060 0
-971 -9059 0
-971 9060 0
-9060 9061 0
-972 -9060 0
-972 9061 0
-9061 9062 0
-973 -9061 0
-973 9062 0
-9062 9063 0
-974 -9062 0
-974 9063 0
-9063 9064 0
-975 -9063 0
-975 9064 0
-9064 9065 0
-976 -9064 0
-976 9065 0
-9065 9066 0
-977 -9065 0
-977 9066 0
-9066 9067 0
-978 -9066 0
-978 9067 0
-9067 9068 0
-979 -9067 0
-979 9068 0
-9068 9069 0
-980 -9068 0
-980 9069 0
-9069 9070 0
-981 -9069 0
-981 9070 0
-9070 9071 0
-982 -9070 0
-982 9071 0
-9071 9072 0
-983 -9071 0
-983 9072 0
-9072 9073 0
-984 -9072 0
-984 9073 0
-9073 9074 0
-985 -9073 0
-985 9074 0
-9074 9075 0
-986 -9074 0
-986 9075 0
-9075 9076 0
-987 -9075 0
-987 9076 0
-9076 9077 0
-988 -9076 0
-988 9077 0
-9077 9078 0
-989 -9077 0
-989 9078 0
-990 -9078 0
-969 1770 0
-970 1770 0
-971 1770 0
-972 1770 0
-973 1770 0
-974 1770 0
-975 1770 0
-976 1770 0
-977 1770 0
-978 1770 0
-979 1770 0
-980 1770 0
-981 1770 0
-982 1770 0
-983 1770 0
-984 1770 0
-985 1770 0
-986 1770 0
-987 1770 0
-988 1770 0
-989 1770 0
-990 1770 0
-1770 969 970 971 972 973 974 975 976 977 978 979 980 981 982 983 984 985 986 987 988 989 990 0
-991 67 0
-991 133 0
-67 -133 991 0
-992 68 0
-992 134 0
-68 -134 992 0
-993 69 0
-993 135 0
-69 -135 993 0
-994 70 0
-994 136 0
-70 -136 994 0
-995 71 0
-995 137 0
-71 -137 995 0
-996 72 0
-996 138 0
-72 -138 996 0
-997 73 0
-997 139 0
-73 -139 997 0
-998 74 0
-998 140 0
-74 -140 998 0
-999 75 0
-999 141 0
-75 -141 999 0
-1000 76 0
-1000 142 0
-76 -142 1000 0
-1001 77 0
-1001 143 0
-77 -143 1001 0
-1002 78 0
-1002 144 0
-78 -144 1002 0
-1003 79 0
-1003 145 0
-79 -145 1003 0
-1004 80 0
-1004 146 0
-80 -146 1004 0
-1005 81 0
-1005 147 0
-81 -147 1005 0
-1006 82 0
-1006 148 0
-82 -148 1006 0
-1007 83 0
-1007 149 0
-83 -149 1007 0
-1008 84 0
-1008 150 0
-84 -150 1008 0
-1009 85 0
-1009 151 0
-85 -151 1009 0
-1010 86 0
-1010 152 0
-86 -152 1010 0
-1011 87 0
-1011 153 0
-87 -153 1011 0
-1012 88 0
-1012 154 0
-88 -154 1012 0
-991 9079 0
-9079 9080 0
-992 -9079 0
-992 9080 0
-9080 9081 0
-993 -9080 0
-993 9081 0
-9081 9082 0
-994 -9081 0
-994 9082 0
-9082 9083 0
-995 -9082 0
-995 9083 0
-9083 9084 0
-996 -9083 0
-996 9084 0
-9084 9085 0
-997 -9084 0
-997 9085 0
-9085 9086 0
-998 -9085 0
-998 9086 0
-9086 9087 0
-999 -9086 0
-999 9087 0
-9087 9088 0
-1000 -9087 0
-1000 9088 0
-9088 9089 0
-1001 -9088 0
-1001 9089 0
-9089 9090 0
-1002 -9089 0
-1002 9090 0
-9090 9091 0
-1003 -9090 0
-1003 9091 0
-9091 9092 0
-1004 -9091 0
-1004 9092 0
-9092 9093 0
-1005 -9092 0
-1005 9093 0
-9093 9094 0
-1006 -9093 0
-1006 9094 0
-9094 9095 0
-1007 -9094 0
-1007 9095 0
-9095 9096 0
-1008 -9095 0
-1008 9096 0
-9096 9097 0
-1009 -9096 0
-1009 9097 0
-9097 9098 0
-1010 -9097 0
-1010 9098 0
-9098 9099 0
-1011 -9098 0
-1011 9099 0
-1012 -9099 0
-991 1771 0
-992 1771 0
-993 1771 0
-994 1771 0
-995 1771 0
-996 1771 0
-997 1771 0
-998 1771 0
-999 1771 0
-1000 1771 0
-1001 1771 0
-1002 1771 0
-1003 1771 0
-1004 1771 0
-1005 1771 0
-1006 1771 0
-1007 1771 0
-1008 1771 0
-1009 1771 0
-1010 1771 0
-1011 1771 0
-1012 1771 0
-1771 991 992 993 994 995 996 997 998 999 1000 1001 1002 1003 1004 1005 1006 1007 1008 1009 1010 1011 1012 0
-1013 67 0
-1013 155 0
-67 -155 1013 0
-1014 68 0
-1014 156 0
-68 -156 1014 0
-1015 69 0
-1015 157 0
-69 -157 1015 0
-1016 70 0
-1016 158 0
-70 -158 1016 0
-1017 71 0
-1017 159 0
-71 -159 1017 0
-1018 72 0
-1018 160 0
-72 -160 1018 0
-1019 73 0
-1019 161 0
-73 -161 1019 0
-1020 74 0
-1020 162 0
-74 -162 1020 0
-1021 75 0
-1021 163 0
-75 -163 1021 0
-1022 76 0
-1022 164 0
-76 -164 1022 0
-1023 77 0
-1023 165 0
-77 -165 1023 0
-1024 78 0
-1024 166 0
-78 -166 1024 0
-1025 79 0
-1025 167 0
-79 -167 1025 0
-1026 80 0
-1026 168 0
-80 -168 1026 0
-1027 81 0
-1027 169 0
-81 -169 1027 0
-1028 82 0
-1028 170 0
-82 -170 1028 0
-1029 83 0
-1029 171 0
-83 -171 1029 0
-1030 84 0
-1030 172 0
-84 -172 1030 0
-1031 85 0
-1031 173 0
-85 -173 1031 0
-1032 86 0
-1032 174 0
-86 -174 1032 0
-1033 87 0
-1033 175 0
-87 -175 1033 0
-1034 88 0
-1034 176 0
-88 -176 1034 0
-1013 9100 0
-9100 9101 0
-1014 -9100 0
-1014 9101 0
-9101 9102 0
-1015 -9101 0
-1015 9102 0
-9102 9103 0
-1016 -9102 0
-1016 9103 0
-9103 9104 0
-1017 -9103 0
-1017 9104 0
-9104 9105 0
-1018 -9104 0
-1018 9105 0
-9105 9106 0
-1019 -9105 0
-1019 9106 0
-9106 9107 0
-1020 -9106 0
-1020 9107 0
-9107 9108 0
-1021 -9107 0
-1021 9108 0
-9108 9109 0
-1022 -9108 0
-1022 9109 0
-9109 9110 0
-1023 -9109 0
-1023 9110 0
-9110 9111 0
-1024 -9110 0
-1024 9111 0
-9111 9112 0
-1025 -9111 0
-1025 9112 0
-9112 9113 0
-1026 -9112 0
-1026 9113 0
-9113 9114 0
-1027 -9113 0
-1027 9114 0
-9114 9115 0
-1028 -9114 0
-1028 9115 0
-9115 9116 0
-1029 -9115 0
-1029 9116 0
-9116 9117 0
-1030 -9116 0
-1030 9117 0
-9117 9118 0
-1031 -9117 0
-1031 9118 0
-9118 9119 0
-1032 -9118 0
-1032 9119 0
-9119 9120 0
-1033 -9119 0
-1033 9120 0
-1034 -9120 0
-1013 1772 0
-1014 1772 0
-1015 1772 0
-1016 1772 0
-1017 1772 0
-1018 1772 0
-1019 1772 0
-1020 1772 0
-1021 1772 0
-1022 1772 0
-1023 1772 0
-1024 1772 0
-1025 1772 0
-1026 1772 0
-1027 1772 0
-1028 1772 0
-1029 1772 0
-1030 1772 0
-1031 1772 0
-1032 1772 0
-1033 1772 0
-1034 1772 0
-1772 1013 1014 1015 1016 1017 1018 1019 1020 1021 1022 1023 1024 1025 1026 1027 1028 1029 1030 1031 1032 1033 1034 0
-1035 67 0
-1035 177 0
-67 -177 1035 0
-1036 68 0
-1036 178 0
-68 -178 1036 0
-1037 69 0
-1037 179 0
-69 -179 1037 0
-1038 70 0
-1038 180 0
-70 -180 1038 0
-1039 71 0
-1039 181 0
-71 -181 1039 0
-1040 72 0
-1040 182 0
-72 -182 1040 0
-1041 73 0
-1041 183 0
-73 -183 1041 0
-1042 74 0
-1042 184 0
-74 -184 1042 0
-1043 75 0
-1043 185 0
-75 -185 1043 0
-1044 76 0
-1044 186 0
-76 -186 1044 0
-1045 77 0
-1045 187 0
-77 -187 1045 0
-1046 78 0
-1046 188 0
-78 -188 1046 0
-1047 79 0
-1047 189 0
-79 -189 1047 0
-1048 80 0
-1048 190 0
-80 -190 1048 0
-1049 81 0
-1049 191 0
-81 -191 1049 0
-1050 82 0
-1050 192 0
-82 -192 1050 0
-1051 83 0
-1051 193 0
-83 -193 1051 0
-1052 84 0
-1052 194 0
-84 -194 1052 0
-1053 85 0
-1053 195 0
-85 -195 1053 0
-1054 86 0
-1054 196 0
-86 -196 1054 0
-1055 87 0
-1055 197 0
-87 -197 1055 0
-1056 88 0
-1056 198 0
-88 -198 1056 0
-1035 9121 0
-9121 9122 0
-1036 -9121 0
-1036 9122 0
-9122 9123 0
-1037 -9122 0
-1037 9123 0
-9123 9124 0
-1038 -9123 0
-1038 9124 0
-9124 9125 0
-1039 -9124 0
-1039 9125 0
-9125 9126 0
-1040 -9125 0
-1040 9126 0
-9126 9127 0
-1041 -9126 0
-1041 9127 0
-9127 9128 0
-1042 -9127 0
-1042 9128 0
-9128 9129 0
-1043 -9128 0
-1043 9129 0
-9129 9130 0
-1044 -9129 0
-1044 9130 0
-9130 9131 0
-1045 -9130 0
-1045 9131 0
-9131 9132 0
-1046 -9131 0
-1046 9132 0
-9132 9133 0
-1047 -9132 0
-1047 9133 0
-9133 9134 0
-1048 -9133 0
-1048 9134 0
-9134 9135 0
-1049 -9134 0
-1049 9135 0
-9135 9136 0
-1050 -9135 0
-1050 9136 0
-9136 9137 0
-1051 -9136 0
-1051 9137 0
-9137 9138 0
-1052 -9137 0
-1052 9138 0
-9138 9139 0
-1053 -9138 0
-1053 9139 0
-9139 9140 0
-1054 -9139 0
-1054 9140 0
-9140 9141 0
-1055 -9140 0
-1055 9141 0
-1056 -9141 0
-1035 1773 0
-1036 1773 0
-1037 1773 0
-1038 1773 0
-1039 1773 0
-1040 1773 0
-1041 1773 0
-1042 1773 0
-1043 1773 0
-1044 1773 0
-1045 1773 0
-1046 1773 0
-1047 1773 0
-1048 1773 0
-1049 1773 0
-1050 1773 0
-1051 1773 0
-1052 1773 0
-1053 1773 0
-1054 1773 0
-1055 1773 0
-1056 1773 0
-1773 1035 1036 1037 1038 1039 1040 1041 1042 1043 1044 1045 1046 1047 1048 1049 1050 1051 1052 1053 1054 1055 1056 0
-1057 67 0
-1057 199 0
-67 -199 1057 0
-1058 68 0
-1058 200 0
-68 -200 1058 0
-1059 69 0
-1059 201 0
-69 -201 1059 0
-1060 70 0
-1060 202 0
-70 -202 1060 0
-1061 71 0
-1061 203 0
-71 -203 1061 0
-1062 72 0
-1062 204 0
-72 -204 1062 0
-1063 73 0
-1063 205 0
-73 -205 1063 0
-1064 74 0
-1064 206 0
-74 -206 1064 0
-1065 75 0
-1065 207 0
-75 -207 1065 0
-1066 76 0
-1066 208 0
-76 -208 1066 0
-1067 77 0
-1067 209 0
-77 -209 1067 0
-1068 78 0
-1068 210 0
-78 -210 1068 0
-1069 79 0
-1069 211 0
-79 -211 1069 0
-1070 80 0
-1070 212 0
-80 -212 1070 0
-1071 81 0
-1071 213 0
-81 -213 1071 0
-1072 82 0
-1072 214 0
-82 -214 1072 0
-1073 83 0
-1073 215 0
-83 -215 1073 0
-1074 84 0
-1074 216 0
-84 -216 1074 0
-1075 85 0
-1075 217 0
-85 -217 1075 0
-1076 86 0
-1076 218 0
-86 -218 1076 0
-1077 87 0
-1077 219 0
-87 -219 1077 0
-1078 88 0
-1078 220 0
-88 -220 1078 0
-1057 9142 0
-9142 9143 0
-1058 -9142 0
-1058 9143 0
-9143 9144 0
-1059 -9143 0
-1059 9144 0
-9144 9145 0
-1060 -9144 0
-1060 9145 0
-9145 9146 0
-1061 -9145 0
-1061 9146 0
-9146 9147 0
-1062 -9146 0
-1062 9147 0
-9147 9148 0
-1063 -9147 0
-1063 9148 0
-9148 9149 0
-1064 -9148 0
-1064 9149 0
-9149 9150 0
-1065 -9149 0
-1065 9150 0
-9150 9151 0
-1066 -9150 0
-1066 9151 0
-9151 9152 0
-1067 -9151 0
-1067 9152 0
-9152 9153 0
-1068 -9152 0
-1068 9153 0
-9153 9154 0
-1069 -9153 0
-1069 9154 0
-9154 9155 0
-1070 -9154 0
-1070 9155 0
-9155 9156 0
-1071 -9155 0
-1071 9156 0
-9156 9157 0
-1072 -9156 0
-1072 9157 0
-9157 9158 0
-1073 -9157 0
-1073 9158 0
-9158 9159 0
-1074 -9158 0
-1074 9159 0
-9159 9160 0
-1075 -9159 0
-1075 9160 0
-9160 9161 0
-1076 -9160 0
-1076 9161 0
-9161 9162 0
-1077 -9161 0
-1077 9162 0
-1078 -9162 0
-1057 1774 0
-1058 1774 0
-1059 1774 0
-1060 1774 0
-1061 1774 0
-1062 1774 0
-1063 1774 0
-1064 1774 0
-1065 1774 0
-1066 1774 0
-1067 1774 0
-1068 1774 0
-1069 1774 0
-1070 1774 0
-1071 1774 0
-1072 1774 0
-1073 1774 0
-1074 1774 0
-1075 1774 0
-1076 1774 0
-1077 1774 0
-1078 1774 0
-1774 1057 1058 1059 1060 1061 1062 1063 1064 1065 1066 1067 1068 1069 1070 1071 1072 1073 1074 1075 1076 1077 1078 0
-1079 67 0
-1079 221 0
-67 -221 1079 0
-1080 68 0
-1080 222 0
-68 -222 1080 0
-1081 69 0
-1081 223 0
-69 -223 1081 0
-1082 70 0
-1082 224 0
-70 -224 1082 0
-1083 71 0
-1083 225 0
-71 -225 1083 0
-1084 72 0
-1084 226 0
-72 -226 1084 0
-1085 73 0
-1085 227 0
-73 -227 1085 0
-1086 74 0
-1086 228 0
-74 -228 1086 0
-1087 75 0
-1087 229 0
-75 -229 1087 0
-1088 76 0
-1088 230 0
-76 -230 1088 0
-1089 77 0
-1089 231 0
-77 -231 1089 0
-1090 78 0
-1090 232 0
-78 -232 1090 0
-1091 79 0
-1091 233 0
-79 -233 1091 0
-1092 80 0
-1092 234 0
-80 -234 1092 0
-1093 81 0
-1093 235 0
-81 -235 1093 0
-1094 82 0
-1094 236 0
-82 -236 1094 0
-1095 83 0
-1095 237 0
-83 -237 1095 0
-1096 84 0
-1096 238 0
-84 -238 1096 0
-1097 85 0
-1097 239 0
-85 -239 1097 0
-1098 86 0
-1098 240 0
-86 -240 1098 0
-1099 87 0
-1099 241 0
-87 -241 1099 0
-1100 88 0
-1100 242 0
-88 -242 1100 0
-1079 9163 0
-9163 9164 0
-1080 -9163 0
-1080 9164 0
-9164 9165 0
-1081 -9164 0
-1081 9165 0
-9165 9166 0
-1082 -9165 0
-1082 9166 0
-9166 9167 0
-1083 -9166 0
-1083 9167 0
-9167 9168 0
-1084 -9167 0
-1084 9168 0
-9168 9169 0
-1085 -9168 0
-1085 9169 0
-9169 9170 0
-1086 -9169 0
-1086 9170 0
-9170 9171 0
-1087 -9170 0
-1087 9171 0
-9171 9172 0
-1088 -9171 0
-1088 9172 0
-9172 9173 0
-1089 -9172 0
-1089 9173 0
-9173 9174 0
-1090 -9173 0
-1090 9174 0
-9174 9175 0
-1091 -9174 0
-1091 9175 0
-9175 9176 0
-1092 -9175 0
-1092 9176 0
-9176 9177 0
-1093 -9176 0
-1093 9177 0
-9177 9178 0
-1094 -9177 0
-1094 9178 0
-9178 9179 0
-1095 -9178 0
-1095 9179 0
-9179 9180 0
-1096 -9179 0
-1096 9180 0
-9180 9181 0
-1097 -9180 0
-1097 9181 0
-9181 9182 0
-1098 -9181 0
-1098 9182 0
-9182 9183 0
-1099 -9182 0
-1099 9183 0
-1100 -9183 0
-1079 1775 0
-1080 1775 0
-1081 1775 0
-1082 1775 0
-1083 1775 0
-1084 1775 0
-1085 1775 0
-1086 1775 0
-1087 1775 0
-1088 1775 0
-1089 1775 0
-1090 1775 0
-1091 1775 0
-1092 1775 0
-1093 1775 0
-1094 1775 0
-1095 1775 0
-1096 1775 0
-1097 1775 0
-1098 1775 0
-1099 1775 0
-1100 1775 0
-1775 1079 1080 1081 1082 1083 1084 1085 1086 1087 1088 1089 1090 1091 1092 1093 1094 1095 1096 1097 1098 1099 1100 0
-1101 67 0
-1101 243 0
-67 -243 1101 0
-1102 68 0
-1102 244 0
-68 -244 1102 0
-1103 69 0
-1103 245 0
-69 -245 1103 0
-1104 70 0
-1104 246 0
-70 -246 1104 0
-1105 71 0
-1105 247 0
-71 -247 1105 0
-1106 72 0
-1106 248 0
-72 -248 1106 0
-1107 73 0
-1107 249 0
-73 -249 1107 0
-1108 74 0
-1108 250 0
-74 -250 1108 0
-1109 75 0
-1109 251 0
-75 -251 1109 0
-1110 76 0
-1110 252 0
-76 -252 1110 0
-1111 77 0
-1111 253 0
-77 -253 1111 0
-1112 78 0
-1112 254 0
-78 -254 1112 0
-1113 79 0
-1113 255 0
-79 -255 1113 0
-1114 80 0
-1114 256 0
-80 -256 1114 0
-1115 81 0
-1115 257 0
-81 -257 1115 0
-1116 82 0
-1116 258 0
-82 -258 1116 0
-1117 83 0
-1117 259 0
-83 -259 1117 0
-1118 84 0
-1118 260 0
-84 -260 1118 0
-1119 85 0
-1119 261 0
-85 -261 1119 0
-1120 86 0
-1120 262 0
-86 -262 1120 0
-1121 87 0
-1121 263 0
-87 -263 1121 0
-1122 88 0
-1122 264 0
-88 -264 1122 0
-1101 9184 0
-9184 9185 0
-1102 -9184 0
-1102 9185 0
-9185 9186 0
-1103 -9185 0
-1103 9186 0
-9186 9187 0
-1104 -9186 0
-1104 9187 0
-9187 9188 0
-1105 -9187 0
-1105 9188 0
-9188 9189 0
-1106 -9188 0
-1106 9189 0
-9189 9190 0
-1107 -9189 0
-1107 9190 0
-9190 9191 0
-1108 -9190 0
-1108 9191 0
-9191 9192 0
-1109 -9191 0
-1109 9192 0
-9192 9193 0
-1110 -9192 0
-1110 9193 0
-9193 9194 0
-1111 -9193 0
-1111 9194 0
-9194 9195 0
-1112 -9194 0
-1112 9195 0
-9195 9196 0
-1113 -9195 0
-1113 9196 0
-9196 9197 0
-1114 -9196 0
-1114 9197 0
-9197 9198 0
-1115 -9197 0
-1115 9198 0
-9198 9199 0
-1116 -9198 0
-1116 9199 0
-9199 9200 0
-1117 -9199 0
-1117 9200 0
-9200 9201 0
-1118 -9200 0
-1118 9201 0
-9201 9202 0
-1119 -9201 0
-1119 9202 0
-9202 9203 0
-1120 -9202 0
-1120 9203 0
-9203 9204 0
-1121 -9203 0
-1121 9204 0
-1122 -9204 0
-1101 1776 0
-1102 1776 0
-1103 1776 0
-1104 1776 0
-1105 1776 0
-1106 1776 0
-1107 1776 0
-1108 1776 0
-1109 1776 0
-1110 1776 0
-1111 1776 0
-1112 1776 0
-1113 1776 0
-1114 1776 0
-1115 1776 0
-1116 1776 0
-1117 1776 0
-1118 1776 0
-1119 1776 0
-1120 1776 0
-1121 1776 0
-1122 1776 0
-1776 1101 1102 1103 1104 1105 1106 1107 1108 1109 1110 1111 1112 1113 1114 1115 1116 1117 1118 1119 1120 1121 1122 0
-1123 89 0
-1123 111 0
-89 -111 1123 0
-1124 90 0
-1124 112 0
-90 -112 1124 0
-1125 91 0
-1125 113 0
-91 -113 1125 0
-1126 92 0
-1126 114 0
-92 -114 1126 0
-1127 93 0
-1127 115 0
-93 -115 1127 0
-1128 94 0
-1128 116 0
-94 -116 1128 0
-1129 95 0
-1129 117 0
-95 -117 1129 0
-1130 96 0
-1130 118 0
-96 -118 1130 0
-1131 97 0
-1131 119 0
-97 -119 1131 0
-1132 98 0
-1132 120 0
-98 -120 1132 0
-1133 99 0
-1133 121 0
-99 -121 1133 0
-1134 100 0
-1134 122 0
-100 -122 1134 0
-1135 101 0
-1135 123 0
-101 -123 1135 0
-1136 102 0
-1136 124 0
-102 -124 1136 0
-1137 103 0
-1137 125 0
-103 -125 1137 0
-1138 104 0
-1138 126 0
-104 -126 1138 0
-1139 105 0
-1139 127 0
-105 -127 1139 0
-1140 106 0
-1140 128 0
-106 -128 1140 0
-1141 107 0
-1141 129 0
-107 -129 1141 0
-1142 108 0
-1142 130 0
-108 -130 1142 0
-1143 109 0
-1143 131 0
-109 -131 1143 0
-1144 110 0
-1144 132 0
-110 -132 1144 0
-1123 9205 0
-9205 9206 0
-1124 -9205 0
-1124 9206 0
-9206 9207 0
-1125 -9206 0
-1125 9207 0
-9207 9208 0
-1126 -9207 0
-1126 9208 0
-9208 9209 0
-1127 -9208 0
-1127 9209 0
-9209 9210 0
-1128 -9209 0
-1128 9210 0
-9210 9211 0
-1129 -9210 0
-1129 9211 0
-9211 9212 0
-1130 -9211 0
-1130 9212 0
-9212 9213 0
-1131 -9212 0
-1131 9213 0
-9213 9214 0
-1132 -9213 0
-1132 9214 0
-9214 9215 0
-1133 -9214 0
-1133 9215 0
-9215 9216 0
-1134 -9215 0
-1134 9216 0
-9216 9217 0
-1135 -9216 0
-1135 9217 0
-9217 9218 0
-1136 -9217 0
-1136 9218 0
-9218 9219 0
-1137 -9218 0
-1137 9219 0
-9219 9220 0
-1138 -9219 0
-1138 9220 0
-9220 9221 0
-1139 -9220 0
-1139 9221 0
-9221 9222 0
-1140 -9221 0
-1140 9222 0
-9222 9223 0
-1141 -9222 0
-1141 9223 0
-9223 9224 0
-1142 -9223 0
-1142 9224 0
-9224 9225 0
-1143 -9224 0
-1143 9225 0
-1144 -9225 0
-1123 1777 0
-1124 1777 0
-1125 1777 0
-1126 1777 0
-1127 1777 0
-1128 1777 0
-1129 1777 0
-1130 1777 0
-1131 1777 0
-1132 1777 0
-1133 1777 0
-1134 1777 0
-1135 1777 0
-1136 1777 0
-1137 1777 0
-1138 1777 0
-1139 1777 0
-1140 1777 0
-1141 1777 0
-1142 1777 0
-1143 1777 0
-1144 1777 0
-1777 1123 1124 1125 1126 1127 1128 1129 1130 1131 1132 1133 1134 1135 1136 1137 1138 1139 1140 1141 1142 1143 1144 0
-1145 89 0
-1145 133 0
-89 -133 1145 0
-1146 90 0
-1146 134 0
-90 -134 1146 0
-1147 91 0
-1147 135 0
-91 -135 1147 0
-1148 92 0
-1148 136 0
-92 -136 1148 0
-1149 93 0
-1149 137 0
-93 -137 1149 0
-1150 94 0
-1150 138 0
-94 -138 1150 0
-1151 95 0
-1151 139 0
-95 -139 1151 0
-1152 96 0
-1152 140 0
-96 -140 1152 0
-1153 97 0
-1153 141 0
-97 -141 1153 0
-1154 98 0
-1154 142 0
-98 -142 1154 0
-1155 99 0
-1155 143 0
-99 -143 1155 0
-1156 100 0
-1156 144 0
-100 -144 1156 0
-1157 101 0
-1157 145 0
-101 -145 1157 0
-1158 102 0
-1158 146 0
-102 -146 1158 0
-1159 103 0
-1159 147 0
-103 -147 1159 0
-1160 104 0
-1160 148 0
-104 -148 1160 0
-1161 105 0
-1161 149 0
-105 -149 1161 0
-1162 106 0
-1162 150 0
-106 -150 1162 0
-1163 107 0
-1163 151 0
-107 -151 1163 0
-1164 108 0
-1164 152 0
-108 -152 1164 0
-1165 109 0
-1165 153 0
-109 -153 1165 0
-1166 110 0
-1166 154 0
-110 -154 1166 0
-1145 9226 0
-9226 9227 0
-1146 -9226 0
-1146 9227 0
-9227 9228 0
-1147 -9227 0
-1147 9228 0
-9228 9229 0
-1148 -9228 0
-1148 9229 0
-9229 9230 0
-1149 -9229 0
-1149 9230 0
-9230 9231 0
-1150 -9230 0
-1150 9231 0
-9231 9232 0
-1151 -9231 0
-1151 9232 0
-9232 9233 0
-1152 -9232 0
-1152 9233 0
-9233 9234 0
-1153 -9233 0
-1153 9234 0
-9234 9235 0
-1154 -9234 0
-1154 9235 0
-9235 9236 0
-1155 -9235 0
-1155 9236 0
-9236 9237 0
-1156 -9236 0
-1156 9237 0
-9237 9238 0
-1157 -9237 0
-1157 9238 0
-9238 9239 0
-1158 -9238 0
-1158 9239 0
-9239 9240 0
-1159 -9239 0
-1159 9240 0
-9240 9241 0
-1160 -9240 0
-1160 9241 0
-9241 9242 0
-1161 -9241 0
-1161 9242 0
-9242 9243 0
-1162 -9242 0
-1162 9243 0
-9243 9244 0
-1163 -9243 0
-1163 9244 0
-9244 9245 0
-1164 -9244 0
-1164 9245 0
-9245 9246 0
-1165 -9245 0
-1165 9246 0
-1166 -9246 0
-1145 1778 0
-1146 1778 0
-1147 1778 0
-1148 1778 0
-1149 1778 0
-1150 1778 0
-1151 1778 0
-1152 1778 0
-1153 1778 0
-1154 1778 0
-1155 1778 0
-1156 1778 0
-1157 1778 0
-1158 1778 0
-1159 1778 0
-1160 1778 0
-1161 1778 0
-1162 1778 0
-1163 1778 0
-1164 1778 0
-1165 1778 0
-1166 1778 0
-1778 1145 1146 1147 1148 1149 1150 1151 1152 1153 1154 1155 1156 1157 1158 1159 1160 1161 1162 1163 1164 1165 1166 0
-1167 89 0
-1167 155 0
-89 -155 1167 0
-1168 90 0
-1168 156 0
-90 -156 1168 0
-1169 91 0
-1169 157 0
-91 -157 1169 0
-1170 92 0
-1170 158 0
-92 -158 1170 0
-1171 93 0
-1171 159 0
-93 -159 1171 0
-1172 94 0
-1172 160 0
-94 -160 1172 0
-1173 95 0
-1173 161 0
-95 -161 1173 0
-1174 96 0
-1174 162 0
-96 -162 1174 0
-1175 97 0
-1175 163 0
-97 -163 1175 0
-1176 98 0
-1176 164 0
-98 -164 1176 0
-1177 99 0
-1177 165 0
-99 -165 1177 0
-1178 100 0
-1178 166 0
-100 -166 1178 0
-1179 101 0
-1179 167 0
-101 -167 1179 0
-1180 102 0
-1180 168 0
-102 -168 1180 0
-1181 103 0
-1181 169 0
-103 -169 1181 0
-1182 104 0
-1182 170 0
-104 -170 1182 0
-1183 105 0
-1183 171 0
-105 -171 1183 0
-1184 106 0
-1184 172 0
-106 -172 1184 0
-1185 107 0
-1185 173 0
-107 -173 1185 0
-1186 108 0
-1186 174 0
-108 -174 1186 0
-1187 109 0
-1187 175 0
-109 -175 1187 0
-1188 110 0
-1188 176 0
-110 -176 1188 0
-1167 9247 0
-9247 9248 0
-1168 -9247 0
-1168 9248 0
-9248 9249 0
-1169 -9248 0
-1169 9249 0
-9249 9250 0
-1170 -9249 0
-1170 9250 0
-9250 9251 0
-1171 -9250 0
-1171 9251 0
-9251 9252 0
-1172 -9251 0
-1172 9252 0
-9252 9253 0
-1173 -9252 0
-1173 9253 0
-9253 9254 0
-1174 -9253 0
-1174 9254 0
-9254 9255 0
-1175 -9254 0
-1175 9255 0
-9255 9256 0
-1176 -9255 0
-1176 9256 0
-9256 9257 0
-1177 -9256 0
-1177 9257 0
-9257 9258 0
-1178 -9257 0
-1178 9258 0
-9258 9259 0
-1179 -9258 0
-1179 9259 0
-9259 9260 0
-1180 -9259 0
-1180 9260 0
-9260 9261 0
-1181 -9260 0
-1181 9261 0
-9261 9262 0
-1182 -9261 0
-1182 9262 0
-9262 9263 0
-1183 -9262 0
-1183 9263 0
-9263 9264 0
-1184 -9263 0
-1184 9264 0
-9264 9265 0
-1185 -9264 0
-1185 9265 0
-9265 9266 0
-1186 -9265 0
-1186 9266 0
-9266 9267 0
-1187 -9266 0
-1187 9267 0
-1188 -9267 0
-1167 1779 0
-1168 1779 0
-1169 1779 0
-1170 1779 0
-1171 1779 0
-1172 1779 0
-1173 1779 0
-1174 1779 0
-1175 1779 0
-1176 1779 0
-1177 1779 0
-1178 1779 0
-1179 1779 0
-1180 1779 0
-1181 1779 0
-1182 1779 0
-1183 1779 0
-1184 1779 0
-1185 1779 0
-1186 1779 0
-1187 1779 0
-1188 1779 0
-1779 1167 1168 1169 1170 1171 1172 1173 1174 1175 1176 1177 1178 1179 1180 1181 1182 1183 1184 1185 1186 1187 1188 0
-1189 89 0
-1189 177 0
-89 -177 1189 0
-1190 90 0
-1190 178 0
-90 -178 1190 0
-1191 91 0
-1191 179 0
-91 -179 1191 0
-1192 92 0
-1192 180 0
-92 -180 1192 0
-1193 93 0
-1193 181 0
-93 -181 1193 0
-1194 94 0
-1194 182 0
-94 -182 1194 0
-1195 95 0
-1195 183 0
-95 -183 1195 0
-1196 96 0
-1196 184 0
-96 -184 1196 0
-1197 97 0
-1197 185 0
-97 -185 1197 0
-1198 98 0
-1198 186 0
-98 -186 1198 0
-1199 99 0
-1199 187 0
-99 -187 1199 0
-1200 100 0
-1200 188 0
-100 -188 1200 0
-1201 101 0
-1201 189 0
-101 -189 1201 0
-1202 102 0
-1202 190 0
-102 -190 1202 0
-1203 103 0
-1203 191 0
-103 -191 1203 0
-1204 104 0
-1204 192 0
-104 -192 1204 0
-1205 105 0
-1205 193 0
-105 -193 1205 0
-1206 106 0
-1206 194 0
-106 -194 1206 0
-1207 107 0
-1207 195 0
-107 -195 1207 0
-1208 108 0
-1208 196 0
-108 -196 1208 0
-1209 109 0
-1209 197 0
-109 -197 1209 0
-1210 110 0
-1210 198 0
-110 -198 1210 0
-1189 9268 0
-9268 9269 0
-1190 -9268 0
-1190 9269 0
-9269 9270 0
-1191 -9269 0
-1191 9270 0
-9270 9271 0
-1192 -9270 0
-1192 9271 0
-9271 9272 0
-1193 -9271 0
-1193 9272 0
-9272 9273 0
-1194 -9272 0
-1194 9273 0
-9273 9274 0
-1195 -9273 0
-1195 9274 0
-9274 9275 0
-1196 -9274 0
-1196 9275 0
-9275 9276 0
-1197 -9275 0
-1197 9276 0
-9276 9277 0
-1198 -9276 0
-1198 9277 0
-9277 9278 0
-1199 -9277 0
-1199 9278 0
-9278 9279 0
-1200 -9278 0
-1200 9279 0
-9279 9280 0
-1201 -9279 0
-1201 9280 0
-9280 9281 0
-1202 -9280 0
-1202 9281 0
-9281 9282 0
-1203 -9281 0
-1203 9282 0
-9282 9283 0
-1204 -9282 0
-1204 9283 0
-9283 9284 0
-1205 -9283 0
-1205 9284 0
-9284 9285 0
-1206 -9284 0
-1206 9285 0
-9285 9286 0
-1207 -9285 0
-1207 9286 0
-9286 9287 0
-1208 -9286 0
-1208 9287 0
-9287 9288 0
-1209 -9287 0
-1209 9288 0
-1210 -9288 0
-1189 1780 0
-1190 1780 0
-1191 1780 0
-1192 1780 0
-1193 1780 0
-1194 1780 0
-1195 1780 0
-1196 1780 0
-1197 1780 0
-1198 1780 0
-1199 1780 0
-1200 1780 0
-1201 1780 0
-1202 1780 0
-1203 1780 0
-1204 1780 0
-1205 1780 0
-1206 1780 0
-1207 1780 0
-1208 1780 0
-1209 1780 0
-1210 1780 0
-1780 1189 1190 1191 1192 1193 1194 1195 1196 1197 1198 1199 1200 1201 1202 1203 1204 1205 1206 1207 1208 1209 1210 0
-1211 89 0
-1211 199 0
-89 -199 1211 0
-1212 90 0
-1212 200 0
-90 -200 1212 0
-1213 91 0
-1213 201 0
-91 -201 1213 0
-1214 92 0
-1214 202 0
-92 -202 1214 0
-1215 93 0
-1215 203 0
-93 -203 1215 0
-1216 94 0
-1216 204 0
-94 -204 1216 0
-1217 95 0
-1217 205 0
-95 -205 1217 0
-1218 96 0
-1218 206 0
-96 -206 1218 0
-1219 97 0
-1219 207 0
-97 -207 1219 0
-1220 98 0
-1220 208 0
-98 -208 1220 0
-1221 99 0
-1221 209 0
-99 -209 1221 0
-1222 100 0
-1222 210 0
-100 -210 1222 0
-1223 101 0
-1223 211 0
-101 -211 1223 0
-1224 102 0
-1224 212 0
-102 -212 1224 0
-1225 103 0
-1225 213 0
-103 -213 1225 0
-1226 104 0
-1226 214 0
-104 -214 1226 0
-1227 105 0
-1227 215 0
-105 -215 1227 0
-1228 106 0
-1228 216 0
-106 -216 1228 0
-1229 107 0
-1229 217 0
-107 -217 1229 0
-1230 108 0
-1230 218 0
-108 -218 1230 0
-1231 109 0
-1231 219 0
-109 -219 1231 0
-1232 110 0
-1232 220 0
-110 -220 1232 0
-1211 9289 0
-9289 9290 0
-1212 -9289 0
-1212 9290 0
-9290 9291 0
-1213 -9290 0
-1213 9291 0
-9291 9292 0
-1214 -9291 0
-1214 9292 0
-9292 9293 0
-1215 -9292 0
-1215 9293 0
-9293 9294 0
-1216 -9293 0
-1216 9294 0
-9294 9295 0
-1217 -9294 0
-1217 9295 0
-9295 9296 0
-1218 -9295 0
-1218 9296 0
-9296 9297 0
-1219 -9296 0
-1219 9297 0
-9297 9298 0
-1220 -9297 0
-1220 9298 0
-9298 9299 0
-1221 -9298 0
-1221 9299 0
-9299 9300 0
-1222 -9299 0
-1222 9300 0
-9300 9301 0
-1223 -9300 0
-1223 9301 0
-9301 9302 0
-1224 -9301 0
-1224 9302 0
-9302 9303 0
-1225 -9302 0
-1225 9303 0
-9303 9304 0
-1226 -9303 0
-1226 9304 0
-9304 9305 0
-1227 -9304 0
-1227 9305 0
-9305 9306 0
-1228 -9305 0
-1228 9306 0
-9306 9307 0
-1229 -9306 0
-1229 9307 0
-9307 9308 0
-1230 -9307 0
-1230 9308 0
-9308 9309 0
-1231 -9308 0
-1231 9309 0
-1232 -9309 0
-1211 1781 0
-1212 1781 0
-1213 1781 0
-1214 1781 0
-1215 1781 0
-1216 1781 0
-1217 1781 0
-1218 1781 0
-1219 1781 0
-1220 1781 0
-1221 1781 0
-1222 1781 0
-1223 1781 0
-1224 1781 0
-1225 1781 0
-1226 1781 0
-1227 1781 0
-1228 1781 0
-1229 1781 0
-1230 1781 0
-1231 1781 0
-1232 1781 0
-1781 1211 1212 1213 1214 1215 1216 1217 1218 1219 1220 1221 1222 1223 1224 1225 1226 1227 1228 1229 1230 1231 1232 0
-1233 89 0
-1233 221 0
-89 -221 1233 0
-1234 90 0
-1234 222 0
-90 -222 1234 0
-1235 91 0
-1235 223 0
-91 -223 1235 0
-1236 92 0
-1236 224 0
-92 -224 1236 0
-1237 93 0
-1237 225 0
-93 -225 1237 0
-1238 94 0
-1238 226 0
-94 -226 1238 0
-1239 95 0
-1239 227 0
-95 -227 1239 0
-1240 96 0
-1240 228 0
-96 -228 1240 0
-1241 97 0
-1241 229 0
-97 -229 1241 0
-1242 98 0
-1242 230 0
-98 -230 1242 0
-1243 99 0
-1243 231 0
-99 -231 1243 0
-1244 100 0
-1244 232 0
-100 -232 1244 0
-1245 101 0
-1245 233 0
-101 -233 1245 0
-1246 102 0
-1246 234 0
-102 -234 1246 0
-1247 103 0
-1247 235 0
-103 -235 1247 0
-1248 104 0
-1248 236 0
-104 -236 1248 0
-1249 105 0
-1249 237 0
-105 -237 1249 0
-1250 106 0
-1250 238 0
-106 -238 1250 0
-1251 107 0
-1251 239 0
-107 -239 1251 0
-1252 108 0
-1252 240 0
-108 -240 1252 0
-1253 109 0
-1253 241 0
-109 -241 1253 0
-1254 110 0
-1254 242 0
-110 -242 1254 0
-1233 9310 0
-9310 9311 0
-1234 -9310 0
-1234 9311 0
-9311 9312 0
-1235 -9311 0
-1235 9312 0
-9312 9313 0
-1236 -9312 0
-1236 9313 0
-9313 9314 0
-1237 -9313 0
-1237 9314 0
-9314 9315 0
-1238 -9314 0
-1238 9315 0
-9315 9316 0
-1239 -9315 0
-1239 9316 0
-9316 9317 0
-1240 -9316 0
-1240 9317 0
-9317 9318 0
-1241 -9317 0
-1241 9318 0
-9318 9319 0
-1242 -9318 0
-1242 9319 0
-9319 9320 0
-1243 -9319 0
-1243 9320 0
-9320 9321 0
-1244 -9320 0
-1244 9321 0
-9321 9322 0
-1245 -9321 0
-1245 9322 0
-9322 9323 0
-1246 -9322 0
-1246 9323 0
-9323 9324 0
-1247 -9323 0
-1247 9324 0
-9324 9325 0
-1248 -9324 0
-1248 9325 0
-9325 9326 0
-1249 -9325 0
-1249 9326 0
-9326 9327 0
-1250 -9326 0
-1250 9327 0
-9327 9328 0
-1251 -9327 0
-1251 9328 0
-9328 9329 0
-1252 -9328 0
-1252 9329 0
-9329 9330 0
-1253 -9329 0
-1253 9330 0
-1254 -9330 0
-1233 1782 0
-1234 1782 0
-1235 1782 0
-1236 1782 0
-1237 1782 0
-1238 1782 0
-1239 1782 0
-1240 1782 0
-1241 1782 0
-1242 1782 0
-1243 1782 0
-1244 1782 0
-1245 1782 0
-1246 1782 0
-1247 1782 0
-1248 1782 0
-1249 1782 0
-1250 1782 0
-1251 1782 0
-1252 1782 0
-1253 1782 0
-1254 1782 0
-1782 1233 1234 1235 1236 1237 1238 1239 1240 1241 1242 1243 1244 1245 1246 1247 1248 1249 1250 1251 1252 1253 1254 0
-1255 89 0
-1255 243 0
-89 -243 1255 0
-1256 90 0
-1256 244 0
-90 -244 1256 0
-1257 91 0
-1257 245 0
-91 -245 1257 0
-1258 92 0
-1258 246 0
-92 -246 1258 0
-1259 93 0
-1259 247 0
-93 -247 1259 0
-1260 94 0
-1260 248 0
-94 -248 1260 0
-1261 95 0
-1261 249 0
-95 -249 1261 0
-1262 96 0
-1262 250 0
-96 -250 1262 0
-1263 97 0
-1263 251 0
-97 -251 1263 0
-1264 98 0
-1264 252 0
-98 -252 1264 0
-1265 99 0
-1265 253 0
-99 -253 1265 0
-1266 100 0
-1266 254 0
-100 -254 1266 0
-1267 101 0
-1267 255 0
-101 -255 1267 0
-1268 102 0
-1268 256 0
-102 -256 1268 0
-1269 103 0
-1269 257 0
-103 -257 1269 0
-1270 104 0
-1270 258 0
-104 -258 1270 0
-1271 105 0
-1271 259 0
-105 -259 1271 0
-1272 106 0
-1272 260 0
-106 -260 1272 0
-1273 107 0
-1273 261 0
-107 -261 1273 0
-1274 108 0
-1274 262 0
-108 -262 1274 0
-1275 109 0
-1275 263 0
-109 -263 1275 0
-1276 110 0
-1276 264 0
-110 -264 1276 0
-1255 9331 0
-9331 9332 0
-1256 -9331 0
-1256 9332 0
-9332 9333 0
-1257 -9332 0
-1257 9333 0
-9333 9334 0
-1258 -9333 0
-1258 9334 0
-9334 9335 0
-1259 -9334 0
-1259 9335 0
-9335 9336 0
-1260 -9335 0
-1260 9336 0
-9336 9337 0
-1261 -9336 0
-1261 9337 0
-9337 9338 0
-1262 -9337 0
-1262 9338 0
-9338 9339 0
-1263 -9338 0
-1263 9339 0
-9339 9340 0
-1264 -9339 0
-1264 9340 0
-9340 9341 0
-1265 -9340 0
-1265 9341 0
-9341 9342 0
-1266 -9341 0
-1266 9342 0
-9342 9343 0
-1267 -9342 0
-1267 9343 0
-9343 9344 0
-1268 -9343 0
-1268 9344 0
-9344 9345 0
-1269 -9344 0
-1269 9345 0
-9345 9346 0
-1270 -9345 0
-1270 9346 0
-9346 9347 0
-1271 -9346 0
-1271 9347 0
-9347 9348 0
-1272 -9347 0
-1272 9348 0
-9348 9349 0
-1273 -9348 0
-1273 9349 0
-9349 9350 0
-1274 -9349 0
-1274 9350 0
-9350 9351 0
-1275 -9350 0
-1275 9351 0
-1276 -9351 0
-1255 1783 0
-1256 1783 0
-1257 1783 0
-1258 1783 0
-1259 1783 0
-1260 1783 0
-1261 1783 0
-1262 1783 0
-1263 1783 0
-1264 1783 0
-1265 1783 0
-1266 1783 0
-1267 1783 0
-1268 1783 0
-1269 1783 0
-1270 1783 0
-1271 1783 0
-1272 1783 0
-1273 1783 0
-1274 1783 0
-1275 1783 0
-1276 1783 0
-1783 1255 1256 1257 1258 1259 1260 1261 1262 1263 1264 1265 1266 1267 1268 1269 1270 1271 1272 1273 1274 1275 1276 0
-1277 111 0
-1277 133 0
-111 -133 1277 0
-1278 112 0
-1278 134 0
-112 -134 1278 0
-1279 113 0
-1279 135 0
-113 -135 1279 0
-1280 114 0
-1280 136 0
-114 -136 1280 0
-1281 115 0
-1281 137 0
-115 -137 1281 0
-1282 116 0
-1282 138 0
-116 -138 1282 0
-1283 117 0
-1283 139 0
-117 -139 1283 0
-1284 118 0
-1284 140 0
-118 -140 1284 0
-1285 119 0
-1285 141 0
-119 -141 1285 0
-1286 120 0
-1286 142 0
-120 -142 1286 0
-1287 121 0
-1287 143 0
-121 -143 1287 0
-1288 122 0
-1288 144 0
-122 -144 1288 0
-1289 123 0
-1289 145 0
-123 -145 1289 0
-1290 124 0
-1290 146 0
-124 -146 1290 0
-1291 125 0
-1291 147 0
-125 -147 1291 0
-1292 126 0
-1292 148 0
-126 -148 1292 0
-1293 127 0
-1293 149 0
-127 -149 1293 0
-1294 128 0
-1294 150 0
-128 -150 1294 0
-1295 129 0
-1295 151 0
-129 -151 1295 0
-1296 130 0
-1296 152 0
-130 -152 1296 0
-1297 131 0
-1297 153 0
-131 -153 1297 0
-1298 132 0
-1298 154 0
-132 -154 1298 0
-1277 9352 0
-9352 9353 0
-1278 -9352 0
-1278 9353 0
-9353 9354 0
-1279 -9353 0
-1279 9354 0
-9354 9355 0
-1280 -9354 0
-1280 9355 0
-9355 9356 0
-1281 -9355 0
-1281 9356 0
-9356 9357 0
-1282 -9356 0
-1282 9357 0
-9357 9358 0
-1283 -9357 0
-1283 9358 0
-9358 9359 0
-1284 -9358 0
-1284 9359 0
-9359 9360 0
-1285 -9359 0
-1285 9360 0
-9360 9361 0
-1286 -9360 0
-1286 9361 0
-9361 9362 0
-1287 -9361 0
-1287 9362 0
-9362 9363 0
-1288 -9362 0
-1288 9363 0
-9363 9364 0
-1289 -9363 0
-1289 9364 0
-9364 9365 0
-1290 -9364 0
-1290 9365 0
-9365 9366 0
-1291 -9365 0
-1291 9366 0
-9366 9367 0
-1292 -9366 0
-1292 9367 0
-9367 9368 0
-1293 -9367 0
-1293 9368 0
-9368 9369 0
-1294 -9368 0
-1294 9369 0
-9369 9370 0
-1295 -9369 0
-1295 9370 0
-9370 9371 0
-1296 -9370 0
-1296 9371 0
-9371 9372 0
-1297 -9371 0
-1297 9372 0
-1298 -9372 0
-1277 1784 0
-1278 1784 0
-1279 1784 0
-1280 1784 0
-1281 1784 0
-1282 1784 0
-1283 1784 0
-1284 1784 0
-1285 1784 0
-1286 1784 0
-1287 1784 0
-1288 1784 0
-1289 1784 0
-1290 1784 0
-1291 1784 0
-1292 1784 0
-1293 1784 0
-1294 1784 0
-1295 1784 0
-1296 1784 0
-1297 1784 0
-1298 1784 0
-1784 1277 1278 1279 1280 1281 1282 1283 1284 1285 1286 1287 1288 1289 1290 1291 1292 1293 1294 1295 1296 1297 1298 0
-1299 111 0
-1299 155 0
-111 -155 1299 0
-1300 112 0
-1300 156 0
-112 -156 1300 0
-1301 113 0
-1301 157 0
-113 -157 1301 0
-1302 114 0
-1302 158 0
-114 -158 1302 0
-1303 115 0
-1303 159 0
-115 -159 1303 0
-1304 116 0
-1304 160 0
-116 -160 1304 0
-1305 117 0
-1305 161 0
-117 -161 1305 0
-1306 118 0
-1306 162 0
-118 -162 1306 0
-1307 119 0
-1307 163 0
-119 -163 1307 0
-1308 120 0
-1308 164 0
-120 -164 1308 0
-1309 121 0
-1309 165 0
-121 -165 1309 0
-1310 122 0
-1310 166 0
-122 -166 1310 0
-1311 123 0
-1311 167 0
-123 -167 1311 0
-1312 124 0
-1312 168 0
-124 -168 1312 0
-1313 125 0
-1313 169 0
-125 -169 1313 0
-1314 126 0
-1314 170 0
-126 -170 1314 0
-1315 127 0
-1315 171 0
-127 -171 1315 0
-1316 128 0
-1316 172 0
-128 -172 1316 0
-1317 129 0
-1317 173 0
-129 -173 1317 0
-1318 130 0
-1318 174 0
-130 -174 1318 0
-1319 131 0
-1319 175 0
-131 -175 1319 0
-1320 132 0
-1320 176 0
-132 -176 1320 0
-1299 9373 0
-9373 9374 0
-1300 -9373 0
-1300 9374 0
-9374 9375 0
-1301 -9374 0
-1301 9375 0
-9375 9376 0
-1302 -9375 0
-1302 9376 0
-9376 9377 0
-1303 -9376 0
-1303 9377 0
-9377 9378 0
-1304 -9377 0
-1304 9378 0
-9378 9379 0
-1305 -9378 0
-1305 9379 0
-9379 9380 0
-1306 -9379 0
-1306 9380 0
-9380 9381 0
-1307 -9380 0
-1307 9381 0
-9381 9382 0
-1308 -9381 0
-1308 9382 0
-9382 9383 0
-1309 -9382 0
-1309 9383 0
-9383 9384 0
-1310 -9383 0
-1310 9384 0
-9384 9385 0
-1311 -9384 0
-1311 9385 0
-9385 9386 0
-1312 -9385 0
-1312 9386 0
-9386 9387 0
-1313 -9386 0
-1313 9387 0
-9387 9388 0
-1314 -9387 0
-1314 9388 0
-9388 9389 0
-1315 -9388 0
-1315 9389 0
-9389 9390 0
-1316 -9389 0
-1316 9390 0
-9390 9391 0
-1317 -9390 0
-1317 9391 0
-9391 9392 0
-1318 -9391 0
-1318 9392 0
-9392 9393 0
-1319 -9392 0
-1319 9393 0
-1320 -9393 0
-1299 1785 0
-1300 1785 0
-1301 1785 0
-1302 1785 0
-1303 1785 0
-1304 1785 0
-1305 1785 0
-1306 1785 0
-1307 1785 0
-1308 1785 0
-1309 1785 0
-1310 1785 0
-1311 1785 0
-1312 1785 0
-1313 1785 0
-1314 1785 0
-1315 1785 0
-1316 1785 0
-1317 1785 0
-1318 1785 0
-1319 1785 0
-1320 1785 0
-1785 1299 1300 1301 1302 1303 1304 1305 1306 1307 1308 1309 1310 1311 1312 1313 1314 1315 1316 1317 1318 1319 1320 0
-1321 111 0
-1321 177 0
-111 -177 1321 0
-1322 112 0
-1322 178 0
-112 -178 1322 0
-1323 113 0
-1323 179 0
-113 -179 1323 0
-1324 114 0
-1324 180 0
-114 -180 1324 0
-1325 115 0
-1325 181 0
-115 -181 1325 0
-1326 116 0
-1326 182 0
-116 -182 1326 0
-1327 117 0
-1327 183 0
-117 -183 1327 0
-1328 118 0
-1328 184 0
-118 -184 1328 0
-1329 119 0
-1329 185 0
-119 -185 1329 0
-1330 120 0
-1330 186 0
-120 -186 1330 0
-1331 121 0
-1331 187 0
-121 -187 1331 0
-1332 122 0
-1332 188 0
-122 -188 1332 0
-1333 123 0
-1333 189 0
-123 -189 1333 0
-1334 124 0
-1334 190 0
-124 -190 1334 0
-1335 125 0
-1335 191 0
-125 -191 1335 0
-1336 126 0
-1336 192 0
-126 -192 1336 0
-1337 127 0
-1337 193 0
-127 -193 1337 0
-1338 128 0
-1338 194 0
-128 -194 1338 0
-1339 129 0
-1339 195 0
-129 -195 1339 0
-1340 130 0
-1340 196 0
-130 -196 1340 0
-1341 131 0
-1341 197 0
-131 -197 1341 0
-1342 132 0
-1342 198 0
-132 -198 1342 0
-1321 9394 0
-9394 9395 0
-1322 -9394 0
-1322 9395 0
-9395 9396 0
-1323 -9395 0
-1323 9396 0
-9396 9397 0
-1324 -9396 0
-1324 9397 0
-9397 9398 0
-1325 -9397 0
-1325 9398 0
-9398 9399 0
-1326 -9398 0
-1326 9399 0
-9399 9400 0
-1327 -9399 0
-1327 9400 0
-9400 9401 0
-1328 -9400 0
-1328 9401 0
-9401 9402 0
-1329 -9401 0
-1329 9402 0
-9402 9403 0
-1330 -9402 0
-1330 9403 0
-9403 9404 0
-1331 -9403 0
-1331 9404 0
-9404 9405 0
-1332 -9404 0
-1332 9405 0
-9405 9406 0
-1333 -9405 0
-1333 9406 0
-9406 9407 0
-1334 -9406 0
-1334 9407 0
-9407 9408 0
-1335 -9407 0
-1335 9408 0
-9408 9409 0
-1336 -9408 0
-1336 9409 0
-9409 9410 0
-1337 -9409 0
-1337 9410 0
-9410 9411 0
-1338 -9410 0
-1338 9411 0
-9411 9412 0
-1339 -9411 0
-1339 9412 0
-9412 9413 0
-1340 -9412 0
-1340 9413 0
-9413 9414 0
-1341 -9413 0
-1341 9414 0
-1342 -9414 0
-1321 1786 0
-1322 1786 0
-1323 1786 0
-1324 1786 0
-1325 1786 0
-1326 1786 0
-1327 1786 0
-1328 1786 0
-1329 1786 0
-1330 1786 0
-1331 1786 0
-1332 1786 0
-1333 1786 0
-1334 1786 0
-1335 1786 0
-1336 1786 0
-1337 1786 0
-1338 1786 0
-1339 1786 0
-1340 1786 0
-1341 1786 0
-1342 1786 0
-1786 1321 1322 1323 1324 1325 1326 1327 1328 1329 1330 1331 1332 1333 1334 1335 1336 1337 1338 1339 1340 1341 1342 0
-1343 111 0
-1343 199 0
-111 -199 1343 0
-1344 112 0
-1344 200 0
-112 -200 1344 0
-1345 113 0
-1345 201 0
-113 -201 1345 0
-1346 114 0
-1346 202 0
-114 -202 1346 0
-1347 115 0
-1347 203 0
-115 -203 1347 0
-1348 116 0
-1348 204 0
-116 -204 1348 0
-1349 117 0
-1349 205 0
-117 -205 1349 0
-1350 118 0
-1350 206 0
-118 -206 1350 0
-1351 119 0
-1351 207 0
-119 -207 1351 0
-1352 120 0
-1352 208 0
-120 -208 1352 0
-1353 121 0
-1353 209 0
-121 -209 1353 0
-1354 122 0
-1354 210 0
-122 -210 1354 0
-1355 123 0
-1355 211 0
-123 -211 1355 0
-1356 124 0
-1356 212 0
-124 -212 1356 0
-1357 125 0
-1357 213 0
-125 -213 1357 0
-1358 126 0
-1358 214 0
-126 -214 1358 0
-1359 127 0
-1359 215 0
-127 -215 1359 0
-1360 128 0
-1360 216 0
-128 -216 1360 0
-1361 129 0
-1361 217 0
-129 -217 1361 0
-1362 130 0
-1362 218 0
-130 -218 1362 0
-1363 131 0
-1363 219 0
-131 -219 1363 0
-1364 132 0
-1364 220 0
-132 -220 1364 0
-1343 9415 0
-9415 9416 0
-1344 -9415 0
-1344 9416 0
-9416 9417 0
-1345 -9416 0
-1345 9417 0
-9417 9418 0
-1346 -9417 0
-1346 9418 0
-9418 9419 0
-1347 -9418 0
-1347 9419 0
-9419 9420 0
-1348 -9419 0
-1348 9420 0
-9420 9421 0
-1349 -9420 0
-1349 9421 0
-9421 9422 0
-1350 -9421 0
-1350 9422 0
-9422 9423 0
-1351 -9422 0
-1351 9423 0
-9423 9424 0
-1352 -9423 0
-1352 9424 0
-9424 9425 0
-1353 -9424 0
-1353 9425 0
-9425 9426 0
-1354 -9425 0
-1354 9426 0
-9426 9427 0
-1355 -9426 0
-1355 9427 0
-9427 9428 0
-1356 -9427 0
-1356 9428 0
-9428 9429 0
-1357 -9428 0
-1357 9429 0
-9429 9430 0
-1358 -9429 0
-1358 9430 0
-9430 9431 0
-1359 -9430 0
-1359 9431 0
-9431 9432 0
-1360 -9431 0
-1360 9432 0
-9432 9433 0
-1361 -9432 0
-1361 9433 0
-9433 9434 0
-1362 -9433 0
-1362 9434 0
-9434 9435 0
-1363 -9434 0
-1363 9435 0
-1364 -9435 0
-1343 1787 0
-1344 1787 0
-1345 1787 0
-1346 1787 0
-1347 1787 0
-1348 1787 0
-1349 1787 0
-1350 1787 0
-1351 1787 0
-1352 1787 0
-1353 1787 0
-1354 1787 0
-1355 1787 0
-1356 1787 0
-1357 1787 0
-1358 1787 0
-1359 1787 0
-1360 1787 0
-1361 1787 0
-1362 1787 0
-1363 1787 0
-1364 1787 0
-1787 1343 1344 1345 1346 1347 1348 1349 1350 1351 1352 1353 1354 1355 1356 1357 1358 1359 1360 1361 1362 1363 1364 0
-1365 111 0
-1365 221 0
-111 -221 1365 0
-1366 112 0
-1366 222 0
-112 -222 1366 0
-1367 113 0
-1367 223 0
-113 -223 1367 0
-1368 114 0
-1368 224 0
-114 -224 1368 0
-1369 115 0
-1369 225 0
-115 -225 1369 0
-1370 116 0
-1370 226 0
-116 -226 1370 0
-1371 117 0
-1371 227 0
-117 -227 1371 0
-1372 118 0
-1372 228 0
-118 -228 1372 0
-1373 119 0
-1373 229 0
-119 -229 1373 0
-1374 120 0
-1374 230 0
-120 -230 1374 0
-1375 121 0
-1375 231 0
-121 -231 1375 0
-1376 122 0
-1376 232 0
-122 -232 1376 0
-1377 123 0
-1377 233 0
-123 -233 1377 0
-1378 124 0
-1378 234 0
-124 -234 1378 0
-1379 125 0
-1379 235 0
-125 -235 1379 0
-1380 126 0
-1380 236 0
-126 -236 1380 0
-1381 127 0
-1381 237 0
-127 -237 1381 0
-1382 128 0
-1382 238 0
-128 -238 1382 0
-1383 129 0
-1383 239 0
-129 -239 1383 0
-1384 130 0
-1384 240 0
-130 -240 1384 0
-1385 131 0
-1385 241 0
-131 -241 1385 0
-1386 132 0
-1386 242 0
-132 -242 1386 0
-1365 9436 0
-9436 9437 0
-1366 -9436 0
-1366 9437 0
-9437 9438 0
-1367 -9437 0
-1367 9438 0
-9438 9439 0
-1368 -9438 0
-1368 9439 0
-9439 9440 0
-1369 -9439 0
-1369 9440 0
-9440 9441 0
-1370 -9440 0
-1370 9441 0
-9441 9442 0
-1371 -9441 0
-1371 9442 0
-9442 9443 0
-1372 -9442 0
-1372 9443 0
-9443 9444 0
-1373 -9443 0
-1373 9444 0
-9444 9445 0
-1374 -9444 0
-1374 9445 0
-9445 9446 0
-1375 -9445 0
-1375 9446 0
-9446 9447 0
-1376 -9446 0
-1376 9447 0
-9447 9448 0
-1377 -9447 0
-1377 9448 0
-9448 9449 0
-1378 -9448 0
-1378 9449 0
-9449 9450 0
-1379 -9449 0
-1379 9450 0
-9450 9451 0
-1380 -9450 0
-1380 9451 0
-9451 9452 0
-1381 -9451 0
-1381 9452 0
-9452 9453 0
-1382 -9452 0
-1382 9453 0
-9453 9454 0
-1383 -9453 0
-1383 9454 0
-9454 9455 0
-1384 -9454 0
-1384 9455 0
-9455 9456 0
-1385 -9455 0
-1385 9456 0
-1386 -9456 0
-1365 1788 0
-1366 1788 0
-1367 1788 0
-1368 1788 0
-1369 1788 0
-1370 1788 0
-1371 1788 0
-1372 1788 0
-1373 1788 0
-1374 1788 0
-1375 1788 0
-1376 1788 0
-1377 1788 0
-1378 1788 0
-1379 1788 0
-1380 1788 0
-1381 1788 0
-1382 1788 0
-1383 1788 0
-1384 1788 0
-1385 1788 0
-1386 1788 0
-1788 1365 1366 1367 1368 1369 1370 1371 1372 1373 1374 1375 1376 1377 1378 1379 1380 1381 1382 1383 1384 1385 1386 0
-1387 111 0
-1387 243 0
-111 -243 1387 0
-1388 112 0
-1388 244 0
-112 -244 1388 0
-1389 113 0
-1389 245 0
-113 -245 1389 0
-1390 114 0
-1390 246 0
-114 -246 1390 0
-1391 115 0
-1391 247 0
-115 -247 1391 0
-1392 116 0
-1392 248 0
-116 -248 1392 0
-1393 117 0
-1393 249 0
-117 -249 1393 0
-1394 118 0
-1394 250 0
-118 -250 1394 0
-1395 119 0
-1395 251 0
-119 -251 1395 0
-1396 120 0
-1396 252 0
-120 -252 1396 0
-1397 121 0
-1397 253 0
-121 -253 1397 0
-1398 122 0
-1398 254 0
-122 -254 1398 0
-1399 123 0
-1399 255 0
-123 -255 1399 0
-1400 124 0
-1400 256 0
-124 -256 1400 0
-1401 125 0
-1401 257 0
-125 -257 1401 0
-1402 126 0
-1402 258 0
-126 -258 1402 0
-1403 127 0
-1403 259 0
-127 -259 1403 0
-1404 128 0
-1404 260 0
-128 -260 1404 0
-1405 129 0
-1405 261 0
-129 -261 1405 0
-1406 130 0
-1406 262 0
-130 -262 1406 0
-1407 131 0
-1407 263 0
-131 -263 1407 0
-1408 132 0
-1408 264 0
-132 -264 1408 0
-1387 9457 0
-9457 9458 0
-1388 -9457 0
-1388 9458 0
-9458 9459 0
-1389 -9458 0
-1389 9459 0
-9459 9460 0
-1390 -9459 0
-1390 9460 0
-9460 9461 0
-1391 -9460 0
-1391 9461 0
-9461 9462 0
-1392 -9461 0
-1392 9462 0
-9462 9463 0
-1393 -9462 0
-1393 9463 0
-9463 9464 0
-1394 -9463 0
-1394 9464 0
-9464 9465 0
-1395 -9464 0
-1395 9465 0
-9465 9466 0
-1396 -9465 0
-1396 9466 0
-9466 9467 0
-1397 -9466 0
-1397 9467 0
-9467 9468 0
-1398 -9467 0
-1398 9468 0
-9468 9469 0
-1399 -9468 0
-1399 9469 0
-9469 9470 0
-1400 -9469 0
-1400 9470 0
-9470 9471 0
-1401 -9470 0
-1401 9471 0
-9471 9472 0
-1402 -9471 0
-1402 9472 0
-9472 9473 0
-1403 -9472 0
-1403 9473 0
-9473 9474 0
-1404 -9473 0
-1404 9474 0
-9474 9475 0
-1405 -9474 0
-1405 9475 0
-9475 9476 0
-1406 -9475 0
-1406 9476 0
-9476 9477 0
-1407 -9476 0
-1407 9477 0
-1408 -9477 0
-1387 1789 0
-1388 1789 0
-1389 1789 0
-1390 1789 0
-1391 1789 0
-1392 1789 0
-1393 1789 0
-1394 1789 0
-1395 1789 0
-1396 1789 0
-1397 1789 0
-1398 1789 0
-1399 1789 0
-1400 1789 0
-1401 1789 0
-1402 1789 0
-1403 1789 0
-1404 1789 0
-1405 1789 0
-1406 1789 0
-1407 1789 0
-1408 1789 0
-1789 1387 1388 1389 1390 1391 1392 1393 1394 1395 1396 1397 1398 1399 1400 1401 1402 1403 1404 1405 1406 1407 1408 0
-1409 133 0
-1409 155 0
-133 -155 1409 0
-1410 134 0
-1410 156 0
-134 -156 1410 0
-1411 135 0
-1411 157 0
-135 -157 1411 0
-1412 136 0
-1412 158 0
-136 -158 1412 0
-1413 137 0
-1413 159 0
-137 -159 1413 0
-1414 138 0
-1414 160 0
-138 -160 1414 0
-1415 139 0
-1415 161 0
-139 -161 1415 0
-1416 140 0
-1416 162 0
-140 -162 1416 0
-1417 141 0
-1417 163 0
-141 -163 1417 0
-1418 142 0
-1418 164 0
-142 -164 1418 0
-1419 143 0
-1419 165 0
-143 -165 1419 0
-1420 144 0
-1420 166 0
-144 -166 1420 0
-1421 145 0
-1421 167 0
-145 -167 1421 0
-1422 146 0
-1422 168 0
-146 -168 1422 0
-1423 147 0
-1423 169 0
-147 -169 1423 0
-1424 148 0
-1424 170 0
-148 -170 1424 0
-1425 149 0
-1425 171 0
-149 -171 1425 0
-1426 150 0
-1426 172 0
-150 -172 1426 0
-1427 151 0
-1427 173 0
-151 -173 1427 0
-1428 152 0
-1428 174 0
-152 -174 1428 0
-1429 153 0
-1429 175 0
-153 -175 1429 0
-1430 154 0
-1430 176 0
-154 -176 1430 0
-1409 9478 0
-9478 9479 0
-1410 -9478 0
-1410 9479 0
-9479 9480 0
-1411 -9479 0
-1411 9480 0
-9480 9481 0
-1412 -9480 0
-1412 9481 0
-9481 9482 0
-1413 -9481 0
-1413 9482 0
-9482 9483 0
-1414 -9482 0
-1414 9483 0
-9483 9484 0
-1415 -9483 0
-1415 9484 0
-9484 9485 0
-1416 -9484 0
-1416 9485 0
-9485 9486 0
-1417 -9485 0
-1417 9486 0
-9486 9487 0
-1418 -9486 0
-1418 9487 0
-9487 9488 0
-1419 -9487 0
-1419 9488 0
-9488 9489 0
-1420 -9488 0
-1420 9489 0
-9489 9490 0
-1421 -9489 0
-1421 9490 0
-9490 9491 0
-1422 -9490 0
-1422 9491 0
-9491 9492 0
-1423 -9491 0
-1423 9492 0
-9492 9493 0
-1424 -9492 0
-1424 9493 0
-9493 9494 0
-1425 -9493 0
-1425 9494 0
-9494 9495 0
-1426 -9494 0
-1426 9495 0
-9495 9496 0
-1427 -9495 0
-1427 9496 0
-9496 9497 0
-1428 -9496 0
-1428 9497 0
-9497 9498 0
-1429 -9497 0
-1429 9498 0
-1430 -9498 0
-1409 1790 0
-1410 1790 0
-1411 1790 0
-1412 1790 0
-1413 1790 0
-1414 1790 0
-1415 1790 0
-1416 1790 0
-1417 1790 0
-1418 1790 0
-1419 1790 0
-1420 1790 0
-1421 1790 0
-1422 1790 0
-1423 1790 0
-1424 1790 0
-1425 1790 0
-1426 1790 0
-1427 1790 0
-1428 1790 0
-1429 1790 0
-1430 1790 0
-1790 1409 1410 1411 1412 1413 1414 1415 1416 1417 1418 1419 1420 1421 1422 1423 1424 1425 1426 1427 1428 1429 1430 0
-1431 133 0
-1431 177 0
-133 -177 1431 0
-1432 134 0
-1432 178 0
-134 -178 1432 0
-1433 135 0
-1433 179 0
-135 -179 1433 0
-1434 136 0
-1434 180 0
-136 -180 1434 0
-1435 137 0
-1435 181 0
-137 -181 1435 0
-1436 138 0
-1436 182 0
-138 -182 1436 0
-1437 139 0
-1437 183 0
-139 -183 1437 0
-1438 140 0
-1438 184 0
-140 -184 1438 0
-1439 141 0
-1439 185 0
-141 -185 1439 0
-1440 142 0
-1440 186 0
-142 -186 1440 0
-1441 143 0
-1441 187 0
-143 -187 1441 0
-1442 144 0
-1442 188 0
-144 -188 1442 0
-1443 145 0
-1443 189 0
-145 -189 1443 0
-1444 146 0
-1444 190 0
-146 -190 1444 0
-1445 147 0
-1445 191 0
-147 -191 1445 0
-1446 148 0
-1446 192 0
-148 -192 1446 0
-1447 149 0
-1447 193 0
-149 -193 1447 0
-1448 150 0
-1448 194 0
-150 -194 1448 0
-1449 151 0
-1449 195 0
-151 -195 1449 0
-1450 152 0
-1450 196 0
-152 -196 1450 0
-1451 153 0
-1451 197 0
-153 -197 1451 0
-1452 154 0
-1452 198 0
-154 -198 1452 0
-1431 9499 0
-9499 9500 0
-1432 -9499 0
-1432 9500 0
-9500 9501 0
-1433 -9500 0
-1433 9501 0
-9501 9502 0
-1434 -9501 0
-1434 9502 0
-9502 9503 0
-1435 -9502 0
-1435 9503 0
-9503 9504 0
-1436 -9503 0
-1436 9504 0
-9504 9505 0
-1437 -9504 0
-1437 9505 0
-9505 9506 0
-1438 -9505 0
-1438 9506 0
-9506 9507 0
-1439 -9506 0
-1439 9507 0
-9507 9508 0
-1440 -9507 0
-1440 9508 0
-9508 9509 0
-1441 -9508 0
-1441 9509 0
-9509 9510 0
-1442 -9509 0
-1442 9510 0
-9510 9511 0
-1443 -9510 0
-1443 9511 0
-9511 9512 0
-1444 -9511 0
-1444 9512 0
-9512 9513 0
-1445 -9512 0
-1445 9513 0
-9513 9514 0
-1446 -9513 0
-1446 9514 0
-9514 9515 0
-1447 -9514 0
-1447 9515 0
-9515 9516 0
-1448 -9515 0
-1448 9516 0
-9516 9517 0
-1449 -9516 0
-1449 9517 0
-9517 9518 0
-1450 -9517 0
-1450 9518 0
-9518 9519 0
-1451 -9518 0
-1451 9519 0
-1452 -9519 0
-1431 1791 0
-1432 1791 0
-1433 1791 0
-1434 1791 0
-1435 1791 0
-1436 1791 0
-1437 1791 0
-1438 1791 0
-1439 1791 0
-1440 1791 0
-1441 1791 0
-1442 1791 0
-1443 1791 0
-1444 1791 0
-1445 1791 0
-1446 1791 0
-1447 1791 0
-1448 1791 0
-1449 1791 0
-1450 1791 0
-1451 1791 0
-1452 1791 0
-1791 1431 1432 1433 1434 1435 1436 1437 1438 1439 1440 1441 1442 1443 1444 1445 1446 1447 1448 1449 1450 1451 1452 0
-1453 133 0
-1453 199 0
-133 -199 1453 0
-1454 134 0
-1454 200 0
-134 -200 1454 0
-1455 135 0
-1455 201 0
-135 -201 1455 0
-1456 136 0
-1456 202 0
-136 -202 1456 0
-1457 137 0
-1457 203 0
-137 -203 1457 0
-1458 138 0
-1458 204 0
-138 -204 1458 0
-1459 139 0
-1459 205 0
-139 -205 1459 0
-1460 140 0
-1460 206 0
-140 -206 1460 0
-1461 141 0
-1461 207 0
-141 -207 1461 0
-1462 142 0
-1462 208 0
-142 -208 1462 0
-1463 143 0
-1463 209 0
-143 -209 1463 0
-1464 144 0
-1464 210 0
-144 -210 1464 0
-1465 145 0
-1465 211 0
-145 -211 1465 0
-1466 146 0
-1466 212 0
-146 -212 1466 0
-1467 147 0
-1467 213 0
-147 -213 1467 0
-1468 148 0
-1468 214 0
-148 -214 1468 0
-1469 149 0
-1469 215 0
-149 -215 1469 0
-1470 150 0
-1470 216 0
-150 -216 1470 0
-1471 151 0
-1471 217 0
-151 -217 1471 0
-1472 152 0
-1472 218 0
-152 -218 1472 0
-1473 153 0
-1473 219 0
-153 -219 1473 0
-1474 154 0
-1474 220 0
-154 -220 1474 0
-1453 9520 0
-9520 9521 0
-1454 -9520 0
-1454 9521 0
-9521 9522 0
-1455 -9521 0
-1455 9522 0
-9522 9523 0
-1456 -9522 0
-1456 9523 0
-9523 9524 0
-1457 -9523 0
-1457 9524 0
-9524 9525 0
-1458 -9524 0
-1458 9525 0
-9525 9526 0
-1459 -9525 0
-1459 9526 0
-9526 9527 0
-1460 -9526 0
-1460 9527 0
-9527 9528 0
-1461 -9527 0
-1461 9528 0
-9528 9529 0
-1462 -9528 0
-1462 9529 0
-9529 9530 0
-1463 -9529 0
-1463 9530 0
-9530 9531 0
-1464 -9530 0
-1464 9531 0
-9531 9532 0
-1465 -9531 0
-1465 9532 0
-9532 9533 0
-1466 -9532 0
-1466 9533 0
-9533 9534 0
-1467 -9533 0
-1467 9534 0
-9534 9535 0
-1468 -9534 0
-1468 9535 0
-9535 9536 0
-1469 -9535 0
-1469 9536 0
-9536 9537 0
-1470 -9536 0
-1470 9537 0
-9537 9538 0
-1471 -9537 0
-1471 9538 0
-9538 9539 0
-1472 -9538 0
-1472 9539 0
-9539 9540 0
-1473 -9539 0
-1473 9540 0
-1474 -9540 0
-1453 1792 0
-1454 1792 0
-1455 1792 0
-1456 1792 0
-1457 1792 0
-1458 1792 0
-1459 1792 0
-1460 1792 0
-1461 1792 0
-1462 1792 0
-1463 1792 0
-1464 1792 0
-1465 1792 0
-1466 1792 0
-1467 1792 0
-1468 1792 0
-1469 1792 0
-1470 1792 0
-1471 1792 0
-1472 1792 0
-1473 1792 0
-1474 1792 0
-1792 1453 1454 1455 1456 1457 1458 1459 1460 1461 1462 1463 1464 1465 1466 1467 1468 1469 1470 1471 1472 1473 1474 0
-1475 133 0
-1475 221 0
-133 -221 1475 0
-1476 134 0
-1476 222 0
-134 -222 1476 0
-1477 135 0
-1477 223 0
-135 -223 1477 0
-1478 136 0
-1478 224 0
-136 -224 1478 0
-1479 137 0
-1479 225 0
-137 -225 1479 0
-1480 138 0
-1480 226 0
-138 -226 1480 0
-1481 139 0
-1481 227 0
-139 -227 1481 0
-1482 140 0
-1482 228 0
-140 -228 1482 0
-1483 141 0
-1483 229 0
-141 -229 1483 0
-1484 142 0
-1484 230 0
-142 -230 1484 0
-1485 143 0
-1485 231 0
-143 -231 1485 0
-1486 144 0
-1486 232 0
-144 -232 1486 0
-1487 145 0
-1487 233 0
-145 -233 1487 0
-1488 146 0
-1488 234 0
-146 -234 1488 0
-1489 147 0
-1489 235 0
-147 -235 1489 0
-1490 148 0
-1490 236 0
-148 -236 1490 0
-1491 149 0
-1491 237 0
-149 -237 1491 0
-1492 150 0
-1492 238 0
-150 -238 1492 0
-1493 151 0
-1493 239 0
-151 -239 1493 0
-1494 152 0
-1494 240 0
-152 -240 1494 0
-1495 153 0
-1495 241 0
-153 -241 1495 0
-1496 154 0
-1496 242 0
-154 -242 1496 0
-1475 9541 0
-9541 9542 0
-1476 -9541 0
-1476 9542 0
-9542 9543 0
-1477 -9542 0
-1477 9543 0
-9543 9544 0
-1478 -9543 0
-1478 9544 0
-9544 9545 0
-1479 -9544 0
-1479 9545 0
-9545 9546 0
-1480 -9545 0
-1480 9546 0
-9546 9547 0
-1481 -9546 0
-1481 9547 0
-9547 9548 0
-1482 -9547 0
-1482 9548 0
-9548 9549 0
-1483 -9548 0
-1483 9549 0
-9549 9550 0
-1484 -9549 0
-1484 9550 0
-9550 9551 0
-1485 -9550 0
-1485 9551 0
-9551 9552 0
-1486 -9551 0
-1486 9552 0
-9552 9553 0
-1487 -9552 0
-1487 9553 0
-9553 9554 0
-1488 -9553 0
-1488 9554 0
-9554 9555 0
-1489 -9554 0
-1489 9555 0
-9555 9556 0
-1490 -9555 0
-1490 9556 0
-9556 9557 0
-1491 -9556 0
-1491 9557 0
-9557 9558 0
-1492 -9557 0
-1492 9558 0
-9558 9559 0
-1493 -9558 0
-1493 9559 0
-9559 9560 0
-1494 -9559 0
-1494 9560 0
-9560 9561 0
-1495 -9560 0
-1495 9561 0
-1496 -9561 0
-1475 1793 0
-1476 1793 0
-1477 1793 0
-1478 1793 0
-1479 1793 0
-1480 1793 0
-1481 1793 0
-1482 1793 0
-1483 1793 0
-1484 1793 0
-1485 1793 0
-1486 1793 0
-1487 1793 0
-1488 1793 0
-1489 1793 0
-1490 1793 0
-1491 1793 0
-1492 1793 0
-1493 1793 0
-1494 1793 0
-1495 1793 0
-1496 1793 0
-1793 1475 1476 1477 1478 1479 1480 1481 1482 1483 1484 1485 1486 1487 1488 1489 1490 1491 1492 1493 1494 1495 1496 0
-1497 133 0
-1497 243 0
-133 -243 1497 0
-1498 134 0
-1498 244 0
-134 -244 1498 0
-1499 135 0
-1499 245 0
-135 -245 1499 0
-1500 136 0
-1500 246 0
-136 -246 1500 0
-1501 137 0
-1501 247 0
-137 -247 1501 0
-1502 138 0
-1502 248 0
-138 -248 1502 0
-1503 139 0
-1503 249 0
-139 -249 1503 0
-1504 140 0
-1504 250 0
-140 -250 1504 0
-1505 141 0
-1505 251 0
-141 -251 1505 0
-1506 142 0
-1506 252 0
-142 -252 1506 0
-1507 143 0
-1507 253 0
-143 -253 1507 0
-1508 144 0
-1508 254 0
-144 -254 1508 0
-1509 145 0
-1509 255 0
-145 -255 1509 0
-1510 146 0
-1510 256 0
-146 -256 1510 0
-1511 147 0
-1511 257 0
-147 -257 1511 0
-1512 148 0
-1512 258 0
-148 -258 1512 0
-1513 149 0
-1513 259 0
-149 -259 1513 0
-1514 150 0
-1514 260 0
-150 -260 1514 0
-1515 151 0
-1515 261 0
-151 -261 1515 0
-1516 152 0
-1516 262 0
-152 -262 1516 0
-1517 153 0
-1517 263 0
-153 -263 1517 0
-1518 154 0
-1518 264 0
-154 -264 1518 0
-1497 9562 0
-9562 9563 0
-1498 -9562 0
-1498 9563 0
-9563 9564 0
-1499 -9563 0
-1499 9564 0
-9564 9565 0
-1500 -9564 0
-1500 9565 0
-9565 9566 0
-1501 -9565 0
-1501 9566 0
-9566 9567 0
-1502 -9566 0
-1502 9567 0
-9567 9568 0
-1503 -9567 0
-1503 9568 0
-9568 9569 0
-1504 -9568 0
-1504 9569 0
-9569 9570 0
-1505 -9569 0
-1505 9570 0
-9570 9571 0
-1506 -9570 0
-1506 9571 0
-9571 9572 0
-1507 -9571 0
-1507 9572 0
-9572 9573 0
-1508 -9572 0
-1508 9573 0
-9573 9574 0
-1509 -9573 0
-1509 9574 0
-9574 9575 0
-1510 -9574 0
-1510 9575 0
-9575 9576 0
-1511 -9575 0
-1511 9576 0
-9576 9577 0
-1512 -9576 0
-1512 9577 0
-9577 9578 0
-1513 -9577 0
-1513 9578 0
-9578 9579 0
-1514 -9578 0
-1514 9579 0
-9579 9580 0
-1515 -9579 0
-1515 9580 0
-9580 9581 0
-1516 -9580 0
-1516 9581 0
-9581 9582 0
-1517 -9581 0
-1517 9582 0
-1518 -9582 0
-1497 1794 0
-1498 1794 0
-1499 1794 0
-1500 1794 0
-1501 1794 0
-1502 1794 0
-1503 1794 0
-1504 1794 0
-1505 1794 0
-1506 1794 0
-1507 1794 0
-1508 1794 0
-1509 1794 0
-1510 1794 0
-1511 1794 0
-1512 1794 0
-1513 1794 0
-1514 1794 0
-1515 1794 0
-1516 1794 0
-1517 1794 0
-1518 1794 0
-1794 1497 1498 1499 1500 1501 1502 1503 1504 1505 1506 1507 1508 1509 1510 1511 1512 1513 1514 1515 1516 1517 1518 0
-1519 155 0
-1519 177 0
-155 -177 1519 0
-1520 156 0
-1520 178 0
-156 -178 1520 0
-1521 157 0
-1521 179 0
-157 -179 1521 0
-1522 158 0
-1522 180 0
-158 -180 1522 0
-1523 159 0
-1523 181 0
-159 -181 1523 0
-1524 160 0
-1524 182 0
-160 -182 1524 0
-1525 161 0
-1525 183 0
-161 -183 1525 0
-1526 162 0
-1526 184 0
-162 -184 1526 0
-1527 163 0
-1527 185 0
-163 -185 1527 0
-1528 164 0
-1528 186 0
-164 -186 1528 0
-1529 165 0
-1529 187 0
-165 -187 1529 0
-1530 166 0
-1530 188 0
-166 -188 1530 0
-1531 167 0
-1531 189 0
-167 -189 1531 0
-1532 168 0
-1532 190 0
-168 -190 1532 0
-1533 169 0
-1533 191 0
-169 -191 1533 0
-1534 170 0
-1534 192 0
-170 -192 1534 0
-1535 171 0
-1535 193 0
-171 -193 1535 0
-1536 172 0
-1536 194 0
-172 -194 1536 0
-1537 173 0
-1537 195 0
-173 -195 1537 0
-1538 174 0
-1538 196 0
-174 -196 1538 0
-1539 175 0
-1539 197 0
-175 -197 1539 0
-1540 176 0
-1540 198 0
-176 -198 1540 0
-1519 9583 0
-9583 9584 0
-1520 -9583 0
-1520 9584 0
-9584 9585 0
-1521 -9584 0
-1521 9585 0
-9585 9586 0
-1522 -9585 0
-1522 9586 0
-9586 9587 0
-1523 -9586 0
-1523 9587 0
-9587 9588 0
-1524 -9587 0
-1524 9588 0
-9588 9589 0
-1525 -9588 0
-1525 9589 0
-9589 9590 0
-1526 -9589 0
-1526 9590 0
-9590 9591 0
-1527 -9590 0
-1527 9591 0
-9591 9592 0
-1528 -9591 0
-1528 9592 0
-9592 9593 0
-1529 -9592 0
-1529 9593 0
-9593 9594 0
-1530 -9593 0
-1530 9594 0
-9594 9595 0
-1531 -9594 0
-1531 9595 0
-9595 9596 0
-1532 -9595 0
-1532 9596 0
-9596 9597 0
-1533 -9596 0
-1533 9597 0
-9597 9598 0
-1534 -9597 0
-1534 9598 0
-9598 9599 0
-1535 -9598 0
-1535 9599 0
-9599 9600 0
-1536 -9599 0
-1536 9600 0
-9600 9601 0
-1537 -9600 0
-1537 9601 0
-9601 9602 0
-1538 -9601 0
-1538 9602 0
-9602 9603 0
-1539 -9602 0
-1539 9603 0
-1540 -9603 0
-1519 1795 0
-1520 1795 0
-1521 1795 0
-1522 1795 0
-1523 1795 0
-1524 1795 0
-1525 1795 0
-1526 1795 0
-1527 1795 0
-1528 1795 0
-1529 1795 0
-1530 1795 0
-1531 1795 0
-1532 1795 0
-1533 1795 0
-1534 1795 0
-1535 1795 0
-1536 1795 0
-1537 1795 0
-1538 1795 0
-1539 1795 0
-1540 1795 0
-1795 1519 1520 1521 1522 1523 1524 1525 1526 1527 1528 1529 1530 1531 1532 1533 1534 1535 1536 1537 1538 1539 1540 0
-1541 155 0
-1541 199 0
-155 -199 1541 0
-1542 156 0
-1542 200 0
-156 -200 1542 0
-1543 157 0
-1543 201 0
-157 -201 1543 0
-1544 158 0
-1544 202 0
-158 -202 1544 0
-1545 159 0
-1545 203 0
-159 -203 1545 0
-1546 160 0
-1546 204 0
-160 -204 1546 0
-1547 161 0
-1547 205 0
-161 -205 1547 0
-1548 162 0
-1548 206 0
-162 -206 1548 0
-1549 163 0
-1549 207 0
-163 -207 1549 0
-1550 164 0
-1550 208 0
-164 -208 1550 0
-1551 165 0
-1551 209 0
-165 -209 1551 0
-1552 166 0
-1552 210 0
-166 -210 1552 0
-1553 167 0
-1553 211 0
-167 -211 1553 0
-1554 168 0
-1554 212 0
-168 -212 1554 0
-1555 169 0
-1555 213 0
-169 -213 1555 0
-1556 170 0
-1556 214 0
-170 -214 1556 0
-1557 171 0
-1557 215 0
-171 -215 1557 0
-1558 172 0
-1558 216 0
-172 -216 1558 0
-1559 173 0
-1559 217 0
-173 -217 1559 0
-1560 174 0
-1560 218 0
-174 -218 1560 0
-1561 175 0
-1561 219 0
-175 -219 1561 0
-1562 176 0
-1562 220 0
-176 -220 1562 0
-1541 9604 0
-9604 9605 0
-1542 -9604 0
-1542 9605 0
-9605 9606 0
-1543 -9605 0
-1543 9606 0
-9606 9607 0
-1544 -9606 0
-1544 9607 0
-9607 9608 0
-1545 -9607 0
-1545 9608 0
-9608 9609 0
-1546 -9608 0
-1546 9609 0
-9609 9610 0
-1547 -9609 0
-1547 9610 0
-9610 9611 0
-1548 -9610 0
-1548 9611 0
-9611 9612 0
-1549 -9611 0
-1549 9612 0
-9612 9613 0
-1550 -9612 0
-1550 9613 0
-9613 9614 0
-1551 -9613 0
-1551 9614 0
-9614 9615 0
-1552 -9614 0
-1552 9615 0
-9615 9616 0
-1553 -9615 0
-1553 9616 0
-9616 9617 0
-1554 -9616 0
-1554 9617 0
-9617 9618 0
-1555 -9617 0
-1555 9618 0
-9618 9619 0
-1556 -9618 0
-1556 9619 0
-9619 9620 0
-1557 -9619 0
-1557 9620 0
-9620 9621 0
-1558 -9620 0
-1558 9621 0
-9621 9622 0
-1559 -9621 0
-1559 9622 0
-9622 9623 0
-1560 -9622 0
-1560 9623 0
-9623 9624 0
-1561 -9623 0
-1561 9624 0
-1562 -9624 0
-1541 1796 0
-1542 1796 0
-1543 1796 0
-1544 1796 0
-1545 1796 0
-1546 1796 0
-1547 1796 0
-1548 1796 0
-1549 1796 0
-1550 1796 0
-1551 1796 0
-1552 1796 0
-1553 1796 0
-1554 1796 0
-1555 1796 0
-1556 1796 0
-1557 1796 0
-1558 1796 0
-1559 1796 0
-1560 1796 0
-1561 1796 0
-1562 1796 0
-1796 1541 1542 1543 1544 1545 1546 1547 1548 1549 1550 1551 1552 1553 1554 1555 1556 1557 1558 1559 1560 1561 1562 0
-1563 155 0
-1563 221 0
-155 -221 1563 0
-1564 156 0
-1564 222 0
-156 -222 1564 0
-1565 157 0
-1565 223 0
-157 -223 1565 0
-1566 158 0
-1566 224 0
-158 -224 1566 0
-1567 159 0
-1567 225 0
-159 -225 1567 0
-1568 160 0
-1568 226 0
-160 -226 1568 0
-1569 161 0
-1569 227 0
-161 -227 1569 0
-1570 162 0
-1570 228 0
-162 -228 1570 0
-1571 163 0
-1571 229 0
-163 -229 1571 0
-1572 164 0
-1572 230 0
-164 -230 1572 0
-1573 165 0
-1573 231 0
-165 -231 1573 0
-1574 166 0
-1574 232 0
-166 -232 1574 0
-1575 167 0
-1575 233 0
-167 -233 1575 0
-1576 168 0
-1576 234 0
-168 -234 1576 0
-1577 169 0
-1577 235 0
-169 -235 1577 0
-1578 170 0
-1578 236 0
-170 -236 1578 0
-1579 171 0
-1579 237 0
-171 -237 1579 0
-1580 172 0
-1580 238 0
-172 -238 1580 0
-1581 173 0
-1581 239 0
-173 -239 1581 0
-1582 174 0
-1582 240 0
-174 -240 1582 0
-1583 175 0
-1583 241 0
-175 -241 1583 0
-1584 176 0
-1584 242 0
-176 -242 1584 0
-1563 9625 0
-9625 9626 0
-1564 -9625 0
-1564 9626 0
-9626 9627 0
-1565 -9626 0
-1565 9627 0
-9627 9628 0
-1566 -9627 0
-1566 9628 0
-9628 9629 0
-1567 -9628 0
-1567 9629 0
-9629 9630 0
-1568 -9629 0
-1568 9630 0
-9630 9631 0
-1569 -9630 0
-1569 9631 0
-9631 9632 0
-1570 -9631 0
-1570 9632 0
-9632 9633 0
-1571 -9632 0
-1571 9633 0
-9633 9634 0
-1572 -9633 0
-1572 9634 0
-9634 9635 0
-1573 -9634 0
-1573 9635 0
-9635 9636 0
-1574 -9635 0
-1574 9636 0
-9636 9637 0
-1575 -9636 0
-1575 9637 0
-9637 9638 0
-1576 -9637 0
-1576 9638 0
-9638 9639 0
-1577 -9638 0
-1577 9639 0
-9639 9640 0
-1578 -9639 0
-1578 9640 0
-9640 9641 0
-1579 -9640 0
-1579 9641 0
-9641 9642 0
-1580 -9641 0
-1580 9642 0
-9642 9643 0
-1581 -9642 0
-1581 9643 0
-9643 9644 0
-1582 -9643 0
-1582 9644 0
-9644 9645 0
-1583 -9644 0
-1583 9645 0
-1584 -9645 0
-1563 1797 0
-1564 1797 0
-1565 1797 0
-1566 1797 0
-1567 1797 0
-1568 1797 0
-1569 1797 0
-1570 1797 0
-1571 1797 0
-1572 1797 0
-1573 1797 0
-1574 1797 0
-1575 1797 0
-1576 1797 0
-1577 1797 0
-1578 1797 0
-1579 1797 0
-1580 1797 0
-1581 1797 0
-1582 1797 0
-1583 1797 0
-1584 1797 0
-1797 1563 1564 1565 1566 1567 1568 1569 1570 1571 1572 1573 1574 1575 1576 1577 1578 1579 1580 1581 1582 1583 1584 0
-1585 155 0
-1585 243 0
-155 -243 1585 0
-1586 156 0
-1586 244 0
-156 -244 1586 0
-1587 157 0
-1587 245 0
-157 -245 1587 0
-1588 158 0
-1588 246 0
-158 -246 1588 0
-1589 159 0
-1589 247 0
-159 -247 1589 0
-1590 160 0
-1590 248 0
-160 -248 1590 0
-1591 161 0
-1591 249 0
-161 -249 1591 0
-1592 162 0
-1592 250 0
-162 -250 1592 0
-1593 163 0
-1593 251 0
-163 -251 1593 0
-1594 164 0
-1594 252 0
-164 -252 1594 0
-1595 165 0
-1595 253 0
-165 -253 1595 0
-1596 166 0
-1596 254 0
-166 -254 1596 0
-1597 167 0
-1597 255 0
-167 -255 1597 0
-1598 168 0
-1598 256 0
-168 -256 1598 0
-1599 169 0
-1599 257 0
-169 -257 1599 0
-1600 170 0
-1600 258 0
-170 -258 1600 0
-1601 171 0
-1601 259 0
-171 -259 1601 0
-1602 172 0
-1602 260 0
-172 -260 1602 0
-1603 173 0
-1603 261 0
-173 -261 1603 0
-1604 174 0
-1604 262 0
-174 -262 1604 0
-1605 175 0
-1605 263 0
-175 -263 1605 0
-1606 176 0
-1606 264 0
-176 -264 1606 0
-1585 9646 0
-9646 9647 0
-1586 -9646 0
-1586 9647 0
-9647 9648 0
-1587 -9647 0
-1587 9648 0
-9648 9649 0
-1588 -9648 0
-1588 9649 0
-9649 9650 0
-1589 -9649 0
-1589 9650 0
-9650 9651 0
-1590 -9650 0
-1590 9651 0
-9651 9652 0
-1591 -9651 0
-1591 9652 0
-9652 9653 0
-1592 -9652 0
-1592 9653 0
-9653 9654 0
-1593 -9653 0
-1593 9654 0
-9654 9655 0
-1594 -9654 0
-1594 9655 0
-9655 9656 0
-1595 -9655 0
-1595 9656 0
-9656 9657 0
-1596 -9656 0
-1596 9657 0
-9657 9658 0
-1597 -9657 0
-1597 9658 0
-9658 9659 0
-1598 -9658 0
-1598 9659 0
-9659 9660 0
-1599 -9659 0
-1599 9660 0
-9660 9661 0
-1600 -9660 0
-1600 9661 0
-9661 9662 0
-1601 -9661 0
-1601 9662 0
-9662 9663 0
-1602 -9662 0
-1602 9663 0
-9663 9664 0
-1603 -9663 0
-1603 9664 0
-9664 9665 0
-1604 -9664 0
-1604 9665 0
-9665 9666 0
-1605 -9665 0
-1605 9666 0
-1606 -9666 0
-1585 1798 0
-1586 1798 0
-1587 1798 0
-1588 1798 0
-1589 1798 0
-1590 1798 0
-1591 1798 0
-1592 1798 0
-1593 1798 0
-1594 1798 0
-1595 1798 0
-1596 1798 0
-1597 1798 0
-1598 1798 0
-1599 1798 0
-1600 1798 0
-1601 1798 0
-1602 1798 0
-1603 1798 0
-1604 1798 0
-1605 1798 0
-1606 1798 0
-1798 1585 1586 1587 1588 1589 1590 1591 1592 1593 1594 1595 1596 1597 1598 1599 1600 1601 1602 1603 1604 1605 1606 0
-1607 177 0
-1607 199 0
-177 -199 1607 0
-1608 178 0
-1608 200 0
-178 -200 1608 0
-1609 179 0
-1609 201 0
-179 -201 1609 0
-1610 180 0
-1610 202 0
-180 -202 1610 0
-1611 181 0
-1611 203 0
-181 -203 1611 0
-1612 182 0
-1612 204 0
-182 -204 1612 0
-1613 183 0
-1613 205 0
-183 -205 1613 0
-1614 184 0
-1614 206 0
-184 -206 1614 0
-1615 185 0
-1615 207 0
-185 -207 1615 0
-1616 186 0
-1616 208 0
-186 -208 1616 0
-1617 187 0
-1617 209 0
-187 -209 1617 0
-1618 188 0
-1618 210 0
-188 -210 1618 0
-1619 189 0
-1619 211 0
-189 -211 1619 0
-1620 190 0
-1620 212 0
-190 -212 1620 0
-1621 191 0
-1621 213 0
-191 -213 1621 0
-1622 192 0
-1622 214 0
-192 -214 1622 0
-1623 193 0
-1623 215 0
-193 -215 1623 0
-1624 194 0
-1624 216 0
-194 -216 1624 0
-1625 195 0
-1625 217 0
-195 -217 1625 0
-1626 196 0
-1626 218 0
-196 -218 1626 0
-1627 197 0
-1627 219 0
-197 -219 1627 0
-1628 198 0
-1628 220 0
-198 -220 1628 0
-1607 9667 0
-9667 9668 0
-1608 -9667 0
-1608 9668 0
-9668 9669 0
-1609 -9668 0
-1609 9669 0
-9669 9670 0
-1610 -9669 0
-1610 9670 0
-9670 9671 0
-1611 -9670 0
-1611 9671 0
-9671 9672 0
-1612 -9671 0
-1612 9672 0
-9672 9673 0
-1613 -9672 0
-1613 9673 0
-9673 9674 0
-1614 -9673 0
-1614 9674 0
-9674 9675 0
-1615 -9674 0
-1615 9675 0
-9675 9676 0
-1616 -9675 0
-1616 9676 0
-9676 9677 0
-1617 -9676 0
-1617 9677 0
-9677 9678 0
-1618 -9677 0
-1618 9678 0
-9678 9679 0
-1619 -9678 0
-1619 9679 0
-9679 9680 0
-1620 -9679 0
-1620 9680 0
-9680 9681 0
-1621 -9680 0
-1621 9681 0
-9681 9682 0
-1622 -9681 0
-1622 9682 0
-9682 9683 0
-1623 -9682 0
-1623 9683 0
-9683 9684 0
-1624 -9683 0
-1624 9684 0
-9684 9685 0
-1625 -9684 0
-1625 9685 0
-9685 9686 0
-1626 -9685 0
-1626 9686 0
-9686 9687 0
-1627 -9686 0
-1627 9687 0
-1628 -9687 0
-1607 1799 0
-1608 1799 0
-1609 1799 0
-1610 1799 0
-1611 1799 0
-1612 1799 0
-1613 1799 0
-1614 1799 0
-1615 1799 0
-1616 1799 0
-1617 1799 0
-1618 1799 0
-1619 1799 0
-1620 1799 0
-1621 1799 0
-1622 1799 0
-1623 1799 0
-1624 1799 0
-1625 1799 0
-1626 1799 0
-1627 1799 0
-1628 1799 0
-1799 1607 1608 1609 1610 1611 1612 1613 1614 1615 1616 1617 1618 1619 1620 1621 1622 1623 1624 1625 1626 1627 1628 0
-1629 177 0
-1629 221 0
-177 -221 1629 0
-1630 178 0
-1630 222 0
-178 -222 1630 0
-1631 179 0
-1631 223 0
-179 -223 1631 0
-1632 180 0
-1632 224 0
-180 -224 1632 0
-1633 181 0
-1633 225 0
-181 -225 1633 0
-1634 182 0
-1634 226 0
-182 -226 1634 0
-1635 183 0
-1635 227 0
-183 -227 1635 0
-1636 184 0
-1636 228 0
-184 -228 1636 0
-1637 185 0
-1637 229 0
-185 -229 1637 0
-1638 186 0
-1638 230 0
-186 -230 1638 0
-1639 187 0
-1639 231 0
-187 -231 1639 0
-1640 188 0
-1640 232 0
-188 -232 1640 0
-1641 189 0
-1641 233 0
-189 -233 1641 0
-1642 190 0
-1642 234 0
-190 -234 1642 0
-1643 191 0
-1643 235 0
-191 -235 1643 0
-1644 192 0
-1644 236 0
-192 -236 1644 0
-1645 193 0
-1645 237 0
-193 -237 1645 0
-1646 194 0
-1646 238 0
-194 -238 1646 0
-1647 195 0
-1647 239 0
-195 -239 1647 0
-1648 196 0
-1648 240 0
-196 -240 1648 0
-1649 197 0
-1649 241 0
-197 -241 1649 0
-1650 198 0
-1650 242 0
-198 -242 1650 0
-1629 9688 0
-9688 9689 0
-1630 -9688 0
-1630 9689 0
-9689 9690 0
-1631 -9689 0
-1631 9690 0
-9690 9691 0
-1632 -9690 0
-1632 9691 0
-9691 9692 0
-1633 -9691 0
-1633 9692 0
-9692 9693 0
-1634 -9692 0
-1634 9693 0
-9693 9694 0
-1635 -9693 0
-1635 9694 0
-9694 9695 0
-1636 -9694 0
-1636 9695 0
-9695 9696 0
-1637 -9695 0
-1637 9696 0
-9696 9697 0
-1638 -9696 0
-1638 9697 0
-9697 9698 0
-1639 -9697 0
-1639 9698 0
-9698 9699 0
-1640 -9698 0
-1640 9699 0
-9699 9700 0
-1641 -9699 0
-1641 9700 0
-9700 9701 0
-1642 -9700 0
-1642 9701 0
-9701 9702 0
-1643 -9701 0
-1643 9702 0
-9702 9703 0
-1644 -9702 0
-1644 9703 0
-9703 9704 0
-1645 -9703 0
-1645 9704 0
-9704 9705 0
-1646 -9704 0
-1646 9705 0
-9705 9706 0
-1647 -9705 0
-1647 9706 0
-9706 9707 0
-1648 -9706 0
-1648 9707 0
-9707 9708 0
-1649 -9707 0
-1649 9708 0
-1650 -9708 0
-1629 1800 0
-1630 1800 0
-1631 1800 0
-1632 1800 0
-1633 1800 0
-1634 1800 0
-1635 1800 0
-1636 1800 0
-1637 1800 0
-1638 1800 0
-1639 1800 0
-1640 1800 0
-1641 1800 0
-1642 1800 0
-1643 1800 0
-1644 1800 0
-1645 1800 0
-1646 1800 0
-1647 1800 0
-1648 1800 0
-1649 1800 0
-1650 1800 0
-1800 1629 1630 1631 1632 1633 1634 1635 1636 1637 1638 1639 1640 1641 1642 1643 1644 1645 1646 1647 1648 1649 1650 0
-1651 177 0
-1651 243 0
-177 -243 1651 0
-1652 178 0
-1652 244 0
-178 -244 1652 0
-1653 179 0
-1653 245 0
-179 -245 1653 0
-1654 180 0
-1654 246 0
-180 -246 1654 0
-1655 181 0
-1655 247 0
-181 -247 1655 0
-1656 182 0
-1656 248 0
-182 -248 1656 0
-1657 183 0
-1657 249 0
-183 -249 1657 0
-1658 184 0
-1658 250 0
-184 -250 1658 0
-1659 185 0
-1659 251 0
-185 -251 1659 0
-1660 186 0
-1660 252 0
-186 -252 1660 0
-1661 187 0
-1661 253 0
-187 -253 1661 0
-1662 188 0
-1662 254 0
-188 -254 1662 0
-1663 189 0
-1663 255 0
-189 -255 1663 0
-1664 190 0
-1664 256 0
-190 -256 1664 0
-1665 191 0
-1665 257 0
-191 -257 1665 0
-1666 192 0
-1666 258 0
-192 -258 1666 0
-1667 193 0
-1667 259 0
-193 -259 1667 0
-1668 194 0
-1668 260 0
-194 -260 1668 0
-1669 195 0
-1669 261 0
-195 -261 1669 0
-1670 196 0
-1670 262 0
-196 -262 1670 0
-1671 197 0
-1671 263 0
-197 -263 1671 0
-1672 198 0
-1672 264 0
-198 -264 1672 0
-1651 9709 0
-9709 9710 0
-1652 -9709 0
-1652 9710 0
-9710 9711 0
-1653 -9710 0
-1653 9711 0
-9711 9712 0
-1654 -9711 0
-1654 9712 0
-9712 9713 0
-1655 -9712 0
-1655 9713 0
-9713 9714 0
-1656 -9713 0
-1656 9714 0
-9714 9715 0
-1657 -9714 0
-1657 9715 0
-9715 9716 0
-1658 -9715 0
-1658 9716 0
-9716 9717 0
-1659 -9716 0
-1659 9717 0
-9717 9718 0
-1660 -9717 0
-1660 9718 0
-9718 9719 0
-1661 -9718 0
-1661 9719 0
-9719 9720 0
-1662 -9719 0
-1662 9720 0
-9720 9721 0
-1663 -9720 0
-1663 9721 0
-9721 9722 0
-1664 -9721 0
-1664 9722 0
-9722 9723 0
-1665 -9722 0
-1665 9723 0
-9723 9724 0
-1666 -9723 0
-1666 9724 0
-9724 9725 0
-1667 -9724 0
-1667 9725 0
-9725 9726 0
-1668 -9725 0
-1668 9726 0
-9726 9727 0
-1669 -9726 0
-1669 9727 0
-9727 9728 0
-1670 -9727 0
-1670 9728 0
-9728 9729 0
-1671 -9728 0
-1671 9729 0
-1672 -9729 0
-1651 1801 0
-1652 1801 0
-1653 1801 0
-1654 1801 0
-1655 1801 0
-1656 1801 0
-1657 1801 0
-1658 1801 0
-1659 1801 0
-1660 1801 0
-1661 1801 0
-1662 1801 0
-1663 1801 0
-1664 1801 0
-1665 1801 0
-1666 1801 0
-1667 1801 0
-1668 1801 0
-1669 1801 0
-1670 1801 0
-1671 1801 0
-1672 1801 0
-1801 1651 1652 1653 1654 1655 1656 1657 1658 1659 1660 1661 1662 1663 1664 1665 1666 1667 1668 1669 1670 1671 1672 0
-1673 199 0
-1673 221 0
-199 -221 1673 0
-1674 200 0
-1674 222 0
-200 -222 1674 0
-1675 201 0
-1675 223 0
-201 -223 1675 0
-1676 202 0
-1676 224 0
-202 -224 1676 0
-1677 203 0
-1677 225 0
-203 -225 1677 0
-1678 204 0
-1678 226 0
-204 -226 1678 0
-1679 205 0
-1679 227 0
-205 -227 1679 0
-1680 206 0
-1680 228 0
-206 -228 1680 0
-1681 207 0
-1681 229 0
-207 -229 1681 0
-1682 208 0
-1682 230 0
-208 -230 1682 0
-1683 209 0
-1683 231 0
-209 -231 1683 0
-1684 210 0
-1684 232 0
-210 -232 1684 0
-1685 211 0
-1685 233 0
-211 -233 1685 0
-1686 212 0
-1686 234 0
-212 -234 1686 0
-1687 213 0
-1687 235 0
-213 -235 1687 0
-1688 214 0
-1688 236 0
-214 -236 1688 0
-1689 215 0
-1689 237 0
-215 -237 1689 0
-1690 216 0
-1690 238 0
-216 -238 1690 0
-1691 217 0
-1691 239 0
-217 -239 1691 0
-1692 218 0
-1692 240 0
-218 -240 1692 0
-1693 219 0
-1693 241 0
-219 -241 1693 0
-1694 220 0
-1694 242 0
-220 -242 1694 0
-1673 9730 0
-9730 9731 0
-1674 -9730 0
-1674 9731 0
-9731 9732 0
-1675 -9731 0
-1675 9732 0
-9732 9733 0
-1676 -9732 0
-1676 9733 0
-9733 9734 0
-1677 -9733 0
-1677 9734 0
-9734 9735 0
-1678 -9734 0
-1678 9735 0
-9735 9736 0
-1679 -9735 0
-1679 9736 0
-9736 9737 0
-1680 -9736 0
-1680 9737 0
-9737 9738 0
-1681 -9737 0
-1681 9738 0
-9738 9739 0
-1682 -9738 0
-1682 9739 0
-9739 9740 0
-1683 -9739 0
-1683 9740 0
-9740 9741 0
-1684 -9740 0
-1684 9741 0
-9741 9742 0
-1685 -9741 0
-1685 9742 0
-9742 9743 0
-1686 -9742 0
-1686 9743 0
-9743 9744 0
-1687 -9743 0
-1687 9744 0
-9744 9745 0
-1688 -9744 0
-1688 9745 0
-9745 9746 0
-1689 -9745 0
-1689 9746 0
-9746 9747 0
-1690 -9746 0
-1690 9747 0
-9747 9748 0
-1691 -9747 0
-1691 9748 0
-9748 9749 0
-1692 -9748 0
-1692 9749 0
-9749 9750 0
-1693 -9749 0
-1693 9750 0
-1694 -9750 0
-1673 1802 0
-1674 1802 0
-1675 1802 0
-1676 1802 0
-1677 1802 0
-1678 1802 0
-1679 1802 0
-1680 1802 0
-1681 1802 0
-1682 1802 0
-1683 1802 0
-1684 1802 0
-1685 1802 0
-1686 1802 0
-1687 1802 0
-1688 1802 0
-1689 1802 0
-1690 1802 0
-1691 1802 0
-1692 1802 0
-1693 1802 0
-1694 1802 0
-1802 1673 1674 1675 1676 1677 1678 1679 1680 1681 1682 1683 1684 1685 1686 1687 1688 1689 1690 1691 1692 1693 1694 0
-1695 199 0
-1695 243 0
-199 -243 1695 0
-1696 200 0
-1696 244 0
-200 -244 1696 0
-1697 201 0
-1697 245 0
-201 -245 1697 0
-1698 202 0
-1698 246 0
-202 -246 1698 0
-1699 203 0
-1699 247 0
-203 -247 1699 0
-1700 204 0
-1700 248 0
-204 -248 1700 0
-1701 205 0
-1701 249 0
-205 -249 1701 0
-1702 206 0
-1702 250 0
-206 -250 1702 0
-1703 207 0
-1703 251 0
-207 -251 1703 0
-1704 208 0
-1704 252 0
-208 -252 1704 0
-1705 209 0
-1705 253 0
-209 -253 1705 0
-1706 210 0
-1706 254 0
-210 -254 1706 0
-1707 211 0
-1707 255 0
-211 -255 1707 0
-1708 212 0
-1708 256 0
-212 -256 1708 0
-1709 213 0
-1709 257 0
-213 -257 1709 0
-1710 214 0
-1710 258 0
-214 -258 1710 0
-1711 215 0
-1711 259 0
-215 -259 1711 0
-1712 216 0
-1712 260 0
-216 -260 1712 0
-1713 217 0
-1713 261 0
-217 -261 1713 0
-1714 218 0
-1714 262 0
-218 -262 1714 0
-1715 219 0
-1715 263 0
-219 -263 1715 0
-1716 220 0
-1716 264 0
-220 -264 1716 0
-1695 9751 0
-9751 9752 0
-1696 -9751 0
-1696 9752 0
-9752 9753 0
-1697 -9752 0
-1697 9753 0
-9753 9754 0
-1698 -9753 0
-1698 9754 0
-9754 9755 0
-1699 -9754 0
-1699 9755 0
-9755 9756 0
-1700 -9755 0
-1700 9756 0
-9756 9757 0
-1701 -9756 0
-1701 9757 0
-9757 9758 0
-1702 -9757 0
-1702 9758 0
-9758 9759 0
-1703 -9758 0
-1703 9759 0
-9759 9760 0
-1704 -9759 0
-1704 9760 0
-9760 9761 0
-1705 -9760 0
-1705 9761 0
-9761 9762 0
-1706 -9761 0
-1706 9762 0
-9762 9763 0
-1707 -9762 0
-1707 9763 0
-9763 9764 0
-1708 -9763 0
-1708 9764 0
-9764 9765 0
-1709 -9764 0
-1709 9765 0
-9765 9766 0
-1710 -9765 0
-1710 9766 0
-9766 9767 0
-1711 -9766 0
-1711 9767 0
-9767 9768 0
-1712 -9767 0
-1712 9768 0
-9768 9769 0
-1713 -9768 0
-1713 9769 0
-9769 9770 0
-1714 -9769 0
-1714 9770 0
-9770 9771 0
-1715 -9770 0
-1715 9771 0
-1716 -9771 0
-1695 1803 0
-1696 1803 0
-1697 1803 0
-1698 1803 0
-1699 1803 0
-1700 1803 0
-1701 1803 0
-1702 1803 0
-1703 1803 0
-1704 1803 0
-1705 1803 0
-1706 1803 0
-1707 1803 0
-1708 1803 0
-1709 1803 0
-1710 1803 0
-1711 1803 0
-1712 1803 0
-1713 1803 0
-1714 1803 0
-1715 1803 0
-1716 1803 0
-1803 1695 1696 1697 1698 1699 1700 1701 1702 1703 1704 1705 1706 1707 1708 1709 1710 1711 1712 1713 1714 1715 1716 0
-1717 221 0
-1717 243 0
-221 -243 1717 0
-1718 222 0
-1718 244 0
-222 -244 1718 0
-1719 223 0
-1719 245 0
-223 -245 1719 0
-1720 224 0
-1720 246 0
-224 -246 1720 0
-1721 225 0
-1721 247 0
-225 -247 1721 0
-1722 226 0
-1722 248 0
-226 -248 1722 0
-1723 227 0
-1723 249 0
-227 -249 1723 0
-1724 228 0
-1724 250 0
-228 -250 1724 0
-1725 229 0
-1725 251 0
-229 -251 1725 0
-1726 230 0
-1726 252 0
-230 -252 1726 0
-1727 231 0
-1727 253 0
-231 -253 1727 0
-1728 232 0
-1728 254 0
-232 -254 1728 0
-1729 233 0
-1729 255 0
-233 -255 1729 0
-1730 234 0
-1730 256 0
-234 -256 1730 0
-1731 235 0
-1731 257 0
-235 -257 1731 0
-1732 236 0
-1732 258 0
-236 -258 1732 0
-1733 237 0
-1733 259 0
-237 -259 1733 0
-1734 238 0
-1734 260 0
-238 -260 1734 0
-1735 239 0
-1735 261 0
-239 -261 1735 0
-1736 240 0
-1736 262 0
-240 -262 1736 0
-1737 241 0
-1737 263 0
-241 -263 1737 0
-1738 242 0
-1738 264 0
-242 -264 1738 0
-1717 9772 0
-9772 9773 0
-1718 -9772 0
-1718 9773 0
-9773 9774 0
-1719 -9773 0
-1719 9774 0
-9774 9775 0
-1720 -9774 0
-1720 9775 0
-9775 9776 0
-1721 -9775 0
-1721 9776 0
-9776 9777 0
-1722 -9776 0
-1722 9777 0
-9777 9778 0
-1723 -9777 0
-1723 9778 0
-9778 9779 0
-1724 -9778 0
-1724 9779 0
-9779 9780 0
-1725 -9779 0
-1725 9780 0
-9780 9781 0
-1726 -9780 0
-1726 9781 0
-9781 9782 0
-1727 -9781 0
-1727 9782 0
-9782 9783 0
-1728 -9782 0
-1728 9783 0
-9783 9784 0
-1729 -9783 0
-1729 9784 0
-9784 9785 0
-1730 -9784 0
-1730 9785 0
-9785 9786 0
-1731 -9785 0
-1731 9786 0
-9786 9787 0
-1732 -9786 0
-1732 9787 0
-9787 9788 0
-1733 -9787 0
-1733 9788 0
-9788 9789 0
-1734 -9788 0
-1734 9789 0
-9789 9790 0
-1735 -9789 0
-1735 9790 0
-9790 9791 0
-1736 -9790 0
-1736 9791 0
-9791 9792 0
-1737 -9791 0
-1737 9792 0
-1738 -9792 0
-1717 1804 0
-1718 1804 0
-1719 1804 0
-1720 1804 0
-1721 1804 0
-1722 1804 0
-1723 1804 0
-1724 1804 0
-1725 1804 0
-1726 1804 0
-1727 1804 0
-1728 1804 0
-1729 1804 0
-1730 1804 0
-1731 1804 0
-1732 1804 0
-1733 1804 0
-1734 1804 0
-1735 1804 0
-1736 1804 0
-1737 1804 0
-1738 1804 0
-1804 1717 1718 1719 1720 1721 1722 1723 1724 1725 1726 1727 1728 1729 1730 1731 1732 1733 1734 1735 1736 1737 1738 0
-1805 1 0
-1805 23 0
-1805 45 0
-1 -23 -45 1805 0
-1806 2 0
-1806 24 0
-1806 46 0
-2 -24 -46 1806 0
-1807 3 0
-1807 25 0
-1807 47 0
-3 -25 -47 1807 0
-1808 4 0
-1808 26 0
-1808 48 0
-4 -26 -48 1808 0
-1809 5 0
-1809 27 0
-1809 49 0
-5 -27 -49 1809 0
-1810 6 0
-1810 28 0
-1810 50 0
-6 -28 -50 1810 0
-1811 7 0
-1811 29 0
-1811 51 0
-7 -29 -51 1811 0
-1812 8 0
-1812 30 0
-1812 52 0
-8 -30 -52 1812 0
-1813 9 0
-1813 31 0
-1813 53 0
-9 -31 -53 1813 0
-1814 10 0
-1814 32 0
-1814 54 0
-10 -32 -54 1814 0
-1815 11 0
-1815 33 0
-1815 55 0
-11 -33 -55 1815 0
-1816 12 0
-1816 34 0
-1816 56 0
-12 -34 -56 1816 0
-1817 13 0
-1817 35 0
-1817 57 0
-13 -35 -57 1817 0
-1818 14 0
-1818 36 0
-1818 58 0
-14 -36 -58 1818 0
-1819 15 0
-1819 37 0
-1819 59 0
-15 -37 -59 1819 0
-1820 16 0
-1820 38 0
-1820 60 0
-16 -38 -60 1820 0
-1821 17 0
-1821 39 0
-1821 61 0
-17 -39 -61 1821 0
-1822 18 0
-1822 40 0
-1822 62 0
-18 -40 -62 1822 0
-1823 19 0
-1823 41 0
-1823 63 0
-19 -41 -63 1823 0
-1824 20 0
-1824 42 0
-1824 64 0
-20 -42 -64 1824 0
-1825 21 0
-1825 43 0
-1825 65 0
-21 -43 -65 1825 0
-1826 22 0
-1826 44 0
-1826 66 0
-22 -44 -66 1826 0
-1805 6645 0
-1806 6645 0
-1807 6645 0
-1808 6645 0
-1809 6645 0
-1810 6645 0
-1811 6645 0
-1812 6645 0
-1813 6645 0
-1814 6645 0
-1815 6645 0
-1816 6645 0
-1817 6645 0
-1818 6645 0
-1819 6645 0
-1820 6645 0
-1821 6645 0
-1822 6645 0
-1823 6645 0
-1824 6645 0
-1825 6645 0
-1826 6645 0
-6645 1805 1806 1807 1808 1809 1810 1811 1812 1813 1814 1815 1816 1817 1818 1819 1820 1821 1822 1823 1824 1825 1826 0
-1827 1 0
-1827 23 0
-1827 67 0
-1 -23 -67 1827 0
-1828 2 0
-1828 24 0
-1828 68 0
-2 -24 -68 1828 0
-1829 3 0
-1829 25 0
-1829 69 0
-3 -25 -69 1829 0
-1830 4 0
-1830 26 0
-1830 70 0
-4 -26 -70 1830 0
-1831 5 0
-1831 27 0
-1831 71 0
-5 -27 -71 1831 0
-1832 6 0
-1832 28 0
-1832 72 0
-6 -28 -72 1832 0
-1833 7 0
-1833 29 0
-1833 73 0
-7 -29 -73 1833 0
-1834 8 0
-1834 30 0
-1834 74 0
-8 -30 -74 1834 0
-1835 9 0
-1835 31 0
-1835 75 0
-9 -31 -75 1835 0
-1836 10 0
-1836 32 0
-1836 76 0
-10 -32 -76 1836 0
-1837 11 0
-1837 33 0
-1837 77 0
-11 -33 -77 1837 0
-1838 12 0
-1838 34 0
-1838 78 0
-12 -34 -78 1838 0
-1839 13 0
-1839 35 0
-1839 79 0
-13 -35 -79 1839 0
-1840 14 0
-1840 36 0
-1840 80 0
-14 -36 -80 1840 0
-1841 15 0
-1841 37 0
-1841 81 0
-15 -37 -81 1841 0
-1842 16 0
-1842 38 0
-1842 82 0
-16 -38 -82 1842 0
-1843 17 0
-1843 39 0
-1843 83 0
-17 -39 -83 1843 0
-1844 18 0
-1844 40 0
-1844 84 0
-18 -40 -84 1844 0
-1845 19 0
-1845 41 0
-1845 85 0
-19 -41 -85 1845 0
-1846 20 0
-1846 42 0
-1846 86 0
-20 -42 -86 1846 0
-1847 21 0
-1847 43 0
-1847 87 0
-21 -43 -87 1847 0
-1848 22 0
-1848 44 0
-1848 88 0
-22 -44 -88 1848 0
-1827 6646 0
-1828 6646 0
-1829 6646 0
-1830 6646 0
-1831 6646 0
-1832 6646 0
-1833 6646 0
-1834 6646 0
-1835 6646 0
-1836 6646 0
-1837 6646 0
-1838 6646 0
-1839 6646 0
-1840 6646 0
-1841 6646 0
-1842 6646 0
-1843 6646 0
-1844 6646 0
-1845 6646 0
-1846 6646 0
-1847 6646 0
-1848 6646 0
-6646 1827 1828 1829 1830 1831 1832 1833 1834 1835 1836 1837 1838 1839 1840 1841 1842 1843 1844 1845 1846 1847 1848 0
-1849 1 0
-1849 23 0
-1849 89 0
-1 -23 -89 1849 0
-1850 2 0
-1850 24 0
-1850 90 0
-2 -24 -90 1850 0
-1851 3 0
-1851 25 0
-1851 91 0
-3 -25 -91 1851 0
-1852 4 0
-1852 26 0
-1852 92 0
-4 -26 -92 1852 0
-1853 5 0
-1853 27 0
-1853 93 0
-5 -27 -93 1853 0
-1854 6 0
-1854 28 0
-1854 94 0
-6 -28 -94 1854 0
-1855 7 0
-1855 29 0
-1855 95 0
-7 -29 -95 1855 0
-1856 8 0
-1856 30 0
-1856 96 0
-8 -30 -96 1856 0
-1857 9 0
-1857 31 0
-1857 97 0
-9 -31 -97 1857 0
-1858 10 0
-1858 32 0
-1858 98 0
-10 -32 -98 1858 0
-1859 11 0
-1859 33 0
-1859 99 0
-11 -33 -99 1859 0
-1860 12 0
-1860 34 0
-1860 100 0
-12 -34 -100 1860 0
-1861 13 0
-1861 35 0
-1861 101 0
-13 -35 -101 1861 0
-1862 14 0
-1862 36 0
-1862 102 0
-14 -36 -102 1862 0
-1863 15 0
-1863 37 0
-1863 103 0
-15 -37 -103 1863 0
-1864 16 0
-1864 38 0
-1864 104 0
-16 -38 -104 1864 0
-1865 17 0
-1865 39 0
-1865 105 0
-17 -39 -105 1865 0
-1866 18 0
-1866 40 0
-1866 106 0
-18 -40 -106 1866 0
-1867 19 0
-1867 41 0
-1867 107 0
-19 -41 -107 1867 0
-1868 20 0
-1868 42 0
-1868 108 0
-20 -42 -108 1868 0
-1869 21 0
-1869 43 0
-1869 109 0
-21 -43 -109 1869 0
-1870 22 0
-1870 44 0
-1870 110 0
-22 -44 -110 1870 0
-1849 6647 0
-1850 6647 0
-1851 6647 0
-1852 6647 0
-1853 6647 0
-1854 6647 0
-1855 6647 0
-1856 6647 0
-1857 6647 0
-1858 6647 0
-1859 6647 0
-1860 6647 0
-1861 6647 0
-1862 6647 0
-1863 6647 0
-1864 6647 0
-1865 6647 0
-1866 6647 0
-1867 6647 0
-1868 6647 0
-1869 6647 0
-1870 6647 0
-6647 1849 1850 1851 1852 1853 1854 1855 1856 1857 1858 1859 1860 1861 1862 1863 1864 1865 1866 1867 1868 1869 1870 0
-1871 1 0
-1871 23 0
-1871 111 0
-1 -23 -111 1871 0
-1872 2 0
-1872 24 0
-1872 112 0
-2 -24 -112 1872 0
-1873 3 0
-1873 25 0
-1873 113 0
-3 -25 -113 1873 0
-1874 4 0
-1874 26 0
-1874 114 0
-4 -26 -114 1874 0
-1875 5 0
-1875 27 0
-1875 115 0
-5 -27 -115 1875 0
-1876 6 0
-1876 28 0
-1876 116 0
-6 -28 -116 1876 0
-1877 7 0
-1877 29 0
-1877 117 0
-7 -29 -117 1877 0
-1878 8 0
-1878 30 0
-1878 118 0
-8 -30 -118 1878 0
-1879 9 0
-1879 31 0
-1879 119 0
-9 -31 -119 1879 0
-1880 10 0
-1880 32 0
-1880 120 0
-10 -32 -120 1880 0
-1881 11 0
-1881 33 0
-1881 121 0
-11 -33 -121 1881 0
-1882 12 0
-1882 34 0
-1882 122 0
-12 -34 -122 1882 0
-1883 13 0
-1883 35 0
-1883 123 0
-13 -35 -123 1883 0
-1884 14 0
-1884 36 0
-1884 124 0
-14 -36 -124 1884 0
-1885 15 0
-1885 37 0
-1885 125 0
-15 -37 -125 1885 0
-1886 16 0
-1886 38 0
-1886 126 0
-16 -38 -126 1886 0
-1887 17 0
-1887 39 0
-1887 127 0
-17 -39 -127 1887 0
-1888 18 0
-1888 40 0
-1888 128 0
-18 -40 -128 1888 0
-1889 19 0
-1889 41 0
-1889 129 0
-19 -41 -129 1889 0
-1890 20 0
-1890 42 0
-1890 130 0
-20 -42 -130 1890 0
-1891 21 0
-1891 43 0
-1891 131 0
-21 -43 -131 1891 0
-1892 22 0
-1892 44 0
-1892 132 0
-22 -44 -132 1892 0
-1871 6648 0
-1872 6648 0
-1873 6648 0
-1874 6648 0
-1875 6648 0
-1876 6648 0
-1877 6648 0
-1878 6648 0
-1879 6648 0
-1880 6648 0
-1881 6648 0
-1882 6648 0
-1883 6648 0
-1884 6648 0
-1885 6648 0
-1886 6648 0
-1887 6648 0
-1888 6648 0
-1889 6648 0
-1890 6648 0
-1891 6648 0
-1892 6648 0
-6648 1871 1872 1873 1874 1875 1876 1877 1878 1879 1880 1881 1882 1883 1884 1885 1886 1887 1888 1889 1890 1891 1892 0
-1893 1 0
-1893 23 0
-1893 133 0
-1 -23 -133 1893 0
-1894 2 0
-1894 24 0
-1894 134 0
-2 -24 -134 1894 0
-1895 3 0
-1895 25 0
-1895 135 0
-3 -25 -135 1895 0
-1896 4 0
-1896 26 0
-1896 136 0
-4 -26 -136 1896 0
-1897 5 0
-1897 27 0
-1897 137 0
-5 -27 -137 1897 0
-1898 6 0
-1898 28 0
-1898 138 0
-6 -28 -138 1898 0
-1899 7 0
-1899 29 0
-1899 139 0
-7 -29 -139 1899 0
-1900 8 0
-1900 30 0
-1900 140 0
-8 -30 -140 1900 0
-1901 9 0
-1901 31 0
-1901 141 0
-9 -31 -141 1901 0
-1902 10 0
-1902 32 0
-1902 142 0
-10 -32 -142 1902 0
-1903 11 0
-1903 33 0
-1903 143 0
-11 -33 -143 1903 0
-1904 12 0
-1904 34 0
-1904 144 0
-12 -34 -144 1904 0
-1905 13 0
-1905 35 0
-1905 145 0
-13 -35 -145 1905 0
-1906 14 0
-1906 36 0
-1906 146 0
-14 -36 -146 1906 0
-1907 15 0
-1907 37 0
-1907 147 0
-15 -37 -147 1907 0
-1908 16 0
-1908 38 0
-1908 148 0
-16 -38 -148 1908 0
-1909 17 0
-1909 39 0
-1909 149 0
-17 -39 -149 1909 0
-1910 18 0
-1910 40 0
-1910 150 0
-18 -40 -150 1910 0
-1911 19 0
-1911 41 0
-1911 151 0
-19 -41 -151 1911 0
-1912 20 0
-1912 42 0
-1912 152 0
-20 -42 -152 1912 0
-1913 21 0
-1913 43 0
-1913 153 0
-21 -43 -153 1913 0
-1914 22 0
-1914 44 0
-1914 154 0
-22 -44 -154 1914 0
-1893 6649 0
-1894 6649 0
-1895 6649 0
-1896 6649 0
-1897 6649 0
-1898 6649 0
-1899 6649 0
-1900 6649 0
-1901 6649 0
-1902 6649 0
-1903 6649 0
-1904 6649 0
-1905 6649 0
-1906 6649 0
-1907 6649 0
-1908 6649 0
-1909 6649 0
-1910 6649 0
-1911 6649 0
-1912 6649 0
-1913 6649 0
-1914 6649 0
-6649 1893 1894 1895 1896 1897 1898 1899 1900 1901 1902 1903 1904 1905 1906 1907 1908 1909 1910 1911 1912 1913 1914 0
-1915 1 0
-1915 23 0
-1915 155 0
-1 -23 -155 1915 0
-1916 2 0
-1916 24 0
-1916 156 0
-2 -24 -156 1916 0
-1917 3 0
-1917 25 0
-1917 157 0
-3 -25 -157 1917 0
-1918 4 0
-1918 26 0
-1918 158 0
-4 -26 -158 1918 0
-1919 5 0
-1919 27 0
-1919 159 0
-5 -27 -159 1919 0
-1920 6 0
-1920 28 0
-1920 160 0
-6 -28 -160 1920 0
-1921 7 0
-1921 29 0
-1921 161 0
-7 -29 -161 1921 0
-1922 8 0
-1922 30 0
-1922 162 0
-8 -30 -162 1922 0
-1923 9 0
-1923 31 0
-1923 163 0
-9 -31 -163 1923 0
-1924 10 0
-1924 32 0
-1924 164 0
-10 -32 -164 1924 0
-1925 11 0
-1925 33 0
-1925 165 0
-11 -33 -165 1925 0
-1926 12 0
-1926 34 0
-1926 166 0
-12 -34 -166 1926 0
-1927 13 0
-1927 35 0
-1927 167 0
-13 -35 -167 1927 0
-1928 14 0
-1928 36 0
-1928 168 0
-14 -36 -168 1928 0
-1929 15 0
-1929 37 0
-1929 169 0
-15 -37 -169 1929 0
-1930 16 0
-1930 38 0
-1930 170 0
-16 -38 -170 1930 0
-1931 17 0
-1931 39 0
-1931 171 0
-17 -39 -171 1931 0
-1932 18 0
-1932 40 0
-1932 172 0
-18 -40 -172 1932 0
-1933 19 0
-1933 41 0
-1933 173 0
-19 -41 -173 1933 0
-1934 20 0
-1934 42 0
-1934 174 0
-20 -42 -174 1934 0
-1935 21 0
-1935 43 0
-1935 175 0
-21 -43 -175 1935 0
-1936 22 0
-1936 44 0
-1936 176 0
-22 -44 -176 1936 0
-1915 6650 0
-1916 6650 0
-1917 6650 0
-1918 6650 0
-1919 6650 0
-1920 6650 0
-1921 6650 0
-1922 6650 0
-1923 6650 0
-1924 6650 0
-1925 6650 0
-1926 6650 0
-1927 6650 0
-1928 6650 0
-1929 6650 0
-1930 6650 0
-1931 6650 0
-1932 6650 0
-1933 6650 0
-1934 6650 0
-1935 6650 0
-1936 6650 0
-6650 1915 1916 1917 1918 1919 1920 1921 1922 1923 1924 1925 1926 1927 1928 1929 1930 1931 1932 1933 1934 1935 1936 0
-1937 1 0
-1937 23 0
-1937 177 0
-1 -23 -177 1937 0
-1938 2 0
-1938 24 0
-1938 178 0
-2 -24 -178 1938 0
-1939 3 0
-1939 25 0
-1939 179 0
-3 -25 -179 1939 0
-1940 4 0
-1940 26 0
-1940 180 0
-4 -26 -180 1940 0
-1941 5 0
-1941 27 0
-1941 181 0
-5 -27 -181 1941 0
-1942 6 0
-1942 28 0
-1942 182 0
-6 -28 -182 1942 0
-1943 7 0
-1943 29 0
-1943 183 0
-7 -29 -183 1943 0
-1944 8 0
-1944 30 0
-1944 184 0
-8 -30 -184 1944 0
-1945 9 0
-1945 31 0
-1945 185 0
-9 -31 -185 1945 0
-1946 10 0
-1946 32 0
-1946 186 0
-10 -32 -186 1946 0
-1947 11 0
-1947 33 0
-1947 187 0
-11 -33 -187 1947 0
-1948 12 0
-1948 34 0
-1948 188 0
-12 -34 -188 1948 0
-1949 13 0
-1949 35 0
-1949 189 0
-13 -35 -189 1949 0
-1950 14 0
-1950 36 0
-1950 190 0
-14 -36 -190 1950 0
-1951 15 0
-1951 37 0
-1951 191 0
-15 -37 -191 1951 0
-1952 16 0
-1952 38 0
-1952 192 0
-16 -38 -192 1952 0
-1953 17 0
-1953 39 0
-1953 193 0
-17 -39 -193 1953 0
-1954 18 0
-1954 40 0
-1954 194 0
-18 -40 -194 1954 0
-1955 19 0
-1955 41 0
-1955 195 0
-19 -41 -195 1955 0
-1956 20 0
-1956 42 0
-1956 196 0
-20 -42 -196 1956 0
-1957 21 0
-1957 43 0
-1957 197 0
-21 -43 -197 1957 0
-1958 22 0
-1958 44 0
-1958 198 0
-22 -44 -198 1958 0
-1937 6651 0
-1938 6651 0
-1939 6651 0
-1940 6651 0
-1941 6651 0
-1942 6651 0
-1943 6651 0
-1944 6651 0
-1945 6651 0
-1946 6651 0
-1947 6651 0
-1948 6651 0
-1949 6651 0
-1950 6651 0
-1951 6651 0
-1952 6651 0
-1953 6651 0
-1954 6651 0
-1955 6651 0
-1956 6651 0
-1957 6651 0
-1958 6651 0
-6651 1937 1938 1939 1940 1941 1942 1943 1944 1945 1946 1947 1948 1949 1950 1951 1952 1953 1954 1955 1956 1957 1958 0
-1959 1 0
-1959 23 0
-1959 199 0
-1 -23 -199 1959 0
-1960 2 0
-1960 24 0
-1960 200 0
-2 -24 -200 1960 0
-1961 3 0
-1961 25 0
-1961 201 0
-3 -25 -201 1961 0
-1962 4 0
-1962 26 0
-1962 202 0
-4 -26 -202 1962 0
-1963 5 0
-1963 27 0
-1963 203 0
-5 -27 -203 1963 0
-1964 6 0
-1964 28 0
-1964 204 0
-6 -28 -204 1964 0
-1965 7 0
-1965 29 0
-1965 205 0
-7 -29 -205 1965 0
-1966 8 0
-1966 30 0
-1966 206 0
-8 -30 -206 1966 0
-1967 9 0
-1967 31 0
-1967 207 0
-9 -31 -207 1967 0
-1968 10 0
-1968 32 0
-1968 208 0
-10 -32 -208 1968 0
-1969 11 0
-1969 33 0
-1969 209 0
-11 -33 -209 1969 0
-1970 12 0
-1970 34 0
-1970 210 0
-12 -34 -210 1970 0
-1971 13 0
-1971 35 0
-1971 211 0
-13 -35 -211 1971 0
-1972 14 0
-1972 36 0
-1972 212 0
-14 -36 -212 1972 0
-1973 15 0
-1973 37 0
-1973 213 0
-15 -37 -213 1973 0
-1974 16 0
-1974 38 0
-1974 214 0
-16 -38 -214 1974 0
-1975 17 0
-1975 39 0
-1975 215 0
-17 -39 -215 1975 0
-1976 18 0
-1976 40 0
-1976 216 0
-18 -40 -216 1976 0
-1977 19 0
-1977 41 0
-1977 217 0
-19 -41 -217 1977 0
-1978 20 0
-1978 42 0
-1978 218 0
-20 -42 -218 1978 0
-1979 21 0
-1979 43 0
-1979 219 0
-21 -43 -219 1979 0
-1980 22 0
-1980 44 0
-1980 220 0
-22 -44 -220 1980 0
-1959 6652 0
-1960 6652 0
-1961 6652 0
-1962 6652 0
-1963 6652 0
-1964 6652 0
-1965 6652 0
-1966 6652 0
-1967 6652 0
-1968 6652 0
-1969 6652 0
-1970 6652 0
-1971 6652 0
-1972 6652 0
-1973 6652 0
-1974 6652 0
-1975 6652 0
-1976 6652 0
-1977 6652 0
-1978 6652 0
-1979 6652 0
-1980 6652 0
-6652 1959 1960 1961 1962 1963 1964 1965 1966 1967 1968 1969 1970 1971 1972 1973 1974 1975 1976 1977 1978 1979 1980 0
-1981 1 0
-1981 23 0
-1981 221 0
-1 -23 -221 1981 0
-1982 2 0
-1982 24 0
-1982 222 0
-2 -24 -222 1982 0
-1983 3 0
-1983 25 0
-1983 223 0
-3 -25 -223 1983 0
-1984 4 0
-1984 26 0
-1984 224 0
-4 -26 -224 1984 0
-1985 5 0
-1985 27 0
-1985 225 0
-5 -27 -225 1985 0
-1986 6 0
-1986 28 0
-1986 226 0
-6 -28 -226 1986 0
-1987 7 0
-1987 29 0
-1987 227 0
-7 -29 -227 1987 0
-1988 8 0
-1988 30 0
-1988 228 0
-8 -30 -228 1988 0
-1989 9 0
-1989 31 0
-1989 229 0
-9 -31 -229 1989 0
-1990 10 0
-1990 32 0
-1990 230 0
-10 -32 -230 1990 0
-1991 11 0
-1991 33 0
-1991 231 0
-11 -33 -231 1991 0
-1992 12 0
-1992 34 0
-1992 232 0
-12 -34 -232 1992 0
-1993 13 0
-1993 35 0
-1993 233 0
-13 -35 -233 1993 0
-1994 14 0
-1994 36 0
-1994 234 0
-14 -36 -234 1994 0
-1995 15 0
-1995 37 0
-1995 235 0
-15 -37 -235 1995 0
-1996 16 0
-1996 38 0
-1996 236 0
-16 -38 -236 1996 0
-1997 17 0
-1997 39 0
-1997 237 0
-17 -39 -237 1997 0
-1998 18 0
-1998 40 0
-1998 238 0
-18 -40 -238 1998 0
-1999 19 0
-1999 41 0
-1999 239 0
-19 -41 -239 1999 0
-2000 20 0
-2000 42 0
-2000 240 0
-20 -42 -240 2000 0
-2001 21 0
-2001 43 0
-2001 241 0
-21 -43 -241 2001 0
-2002 22 0
-2002 44 0
-2002 242 0
-22 -44 -242 2002 0
-1981 6653 0
-1982 6653 0
-1983 6653 0
-1984 6653 0
-1985 6653 0
-1986 6653 0
-1987 6653 0
-1988 6653 0
-1989 6653 0
-1990 6653 0
-1991 6653 0
-1992 6653 0
-1993 6653 0
-1994 6653 0
-1995 6653 0
-1996 6653 0
-1997 6653 0
-1998 6653 0
-1999 6653 0
-2000 6653 0
-2001 6653 0
-2002 6653 0
-6653 1981 1982 1983 1984 1985 1986 1987 1988 1989 1990 1991 1992 1993 1994 1995 1996 1997 1998 1999 2000 2001 2002 0
-2003 1 0
-2003 23 0
-2003 243 0
-1 -23 -243 2003 0
-2004 2 0
-2004 24 0
-2004 244 0
-2 -24 -244 2004 0
-2005 3 0
-2005 25 0
-2005 245 0
-3 -25 -245 2005 0
-2006 4 0
-2006 26 0
-2006 246 0
-4 -26 -246 2006 0
-2007 5 0
-2007 27 0
-2007 247 0
-5 -27 -247 2007 0
-2008 6 0
-2008 28 0
-2008 248 0
-6 -28 -248 2008 0
-2009 7 0
-2009 29 0
-2009 249 0
-7 -29 -249 2009 0
-2010 8 0
-2010 30 0
-2010 250 0
-8 -30 -250 2010 0
-2011 9 0
-2011 31 0
-2011 251 0
-9 -31 -251 2011 0
-2012 10 0
-2012 32 0
-2012 252 0
-10 -32 -252 2012 0
-2013 11 0
-2013 33 0
-2013 253 0
-11 -33 -253 2013 0
-2014 12 0
-2014 34 0
-2014 254 0
-12 -34 -254 2014 0
-2015 13 0
-2015 35 0
-2015 255 0
-13 -35 -255 2015 0
-2016 14 0
-2016 36 0
-2016 256 0
-14 -36 -256 2016 0
-2017 15 0
-2017 37 0
-2017 257 0
-15 -37 -257 2017 0
-2018 16 0
-2018 38 0
-2018 258 0
-16 -38 -258 2018 0
-2019 17 0
-2019 39 0
-2019 259 0
-17 -39 -259 2019 0
-2020 18 0
-2020 40 0
-2020 260 0
-18 -40 -260 2020 0
-2021 19 0
-2021 41 0
-2021 261 0
-19 -41 -261 2021 0
-2022 20 0
-2022 42 0
-2022 262 0
-20 -42 -262 2022 0
-2023 21 0
-2023 43 0
-2023 263 0
-21 -43 -263 2023 0
-2024 22 0
-2024 44 0
-2024 264 0
-22 -44 -264 2024 0
-2003 6654 0
-2004 6654 0
-2005 6654 0
-2006 6654 0
-2007 6654 0
-2008 6654 0
-2009 6654 0
-2010 6654 0
-2011 6654 0
-2012 6654 0
-2013 6654 0
-2014 6654 0
-2015 6654 0
-2016 6654 0
-2017 6654 0
-2018 6654 0
-2019 6654 0
-2020 6654 0
-2021 6654 0
-2022 6654 0
-2023 6654 0
-2024 6654 0
-6654 2003 2004 2005 2006 2007 2008 2009 2010 2011 2012 2013 2014 2015 2016 2017 2018 2019 2020 2021 2022 2023 2024 0
-2025 1 0
-2025 45 0
-2025 67 0
-1 -45 -67 2025 0
-2026 2 0
-2026 46 0
-2026 68 0
-2 -46 -68 2026 0
-2027 3 0
-2027 47 0
-2027 69 0
-3 -47 -69 2027 0
-2028 4 0
-2028 48 0
-2028 70 0
-4 -48 -70 2028 0
-2029 5 0
-2029 49 0
-2029 71 0
-5 -49 -71 2029 0
-2030 6 0
-2030 50 0
-2030 72 0
-6 -50 -72 2030 0
-2031 7 0
-2031 51 0
-2031 73 0
-7 -51 -73 2031 0
-2032 8 0
-2032 52 0
-2032 74 0
-8 -52 -74 2032 0
-2033 9 0
-2033 53 0
-2033 75 0
-9 -53 -75 2033 0
-2034 10 0
-2034 54 0
-2034 76 0
-10 -54 -76 2034 0
-2035 11 0
-2035 55 0
-2035 77 0
-11 -55 -77 2035 0
-2036 12 0
-2036 56 0
-2036 78 0
-12 -56 -78 2036 0
-2037 13 0
-2037 57 0
-2037 79 0
-13 -57 -79 2037 0
-2038 14 0
-2038 58 0
-2038 80 0
-14 -58 -80 2038 0
-2039 15 0
-2039 59 0
-2039 81 0
-15 -59 -81 2039 0
-2040 16 0
-2040 60 0
-2040 82 0
-16 -60 -82 2040 0
-2041 17 0
-2041 61 0
-2041 83 0
-17 -61 -83 2041 0
-2042 18 0
-2042 62 0
-2042 84 0
-18 -62 -84 2042 0
-2043 19 0
-2043 63 0
-2043 85 0
-19 -63 -85 2043 0
-2044 20 0
-2044 64 0
-2044 86 0
-20 -64 -86 2044 0
-2045 21 0
-2045 65 0
-2045 87 0
-21 -65 -87 2045 0
-2046 22 0
-2046 66 0
-2046 88 0
-22 -66 -88 2046 0
-2025 6655 0
-2026 6655 0
-2027 6655 0
-2028 6655 0
-2029 6655 0
-2030 6655 0
-2031 6655 0
-2032 6655 0
-2033 6655 0
-2034 6655 0
-2035 6655 0
-2036 6655 0
-2037 6655 0
-2038 6655 0
-2039 6655 0
-2040 6655 0
-2041 6655 0
-2042 6655 0
-2043 6655 0
-2044 6655 0
-2045 6655 0
-2046 6655 0
-6655 2025 2026 2027 2028 2029 2030 2031 2032 2033 2034 2035 2036 2037 2038 2039 2040 2041 2042 2043 2044 2045 2046 0
-2047 1 0
-2047 45 0
-2047 89 0
-1 -45 -89 2047 0
-2048 2 0
-2048 46 0
-2048 90 0
-2 -46 -90 2048 0
-2049 3 0
-2049 47 0
-2049 91 0
-3 -47 -91 2049 0
-2050 4 0
-2050 48 0
-2050 92 0
-4 -48 -92 2050 0
-2051 5 0
-2051 49 0
-2051 93 0
-5 -49 -93 2051 0
-2052 6 0
-2052 50 0
-2052 94 0
-6 -50 -94 2052 0
-2053 7 0
-2053 51 0
-2053 95 0
-7 -51 -95 2053 0
-2054 8 0
-2054 52 0
-2054 96 0
-8 -52 -96 2054 0
-2055 9 0
-2055 53 0
-2055 97 0
-9 -53 -97 2055 0
-2056 10 0
-2056 54 0
-2056 98 0
-10 -54 -98 2056 0
-2057 11 0
-2057 55 0
-2057 99 0
-11 -55 -99 2057 0
-2058 12 0
-2058 56 0
-2058 100 0
-12 -56 -100 2058 0
-2059 13 0
-2059 57 0
-2059 101 0
-13 -57 -101 2059 0
-2060 14 0
-2060 58 0
-2060 102 0
-14 -58 -102 2060 0
-2061 15 0
-2061 59 0
-2061 103 0
-15 -59 -103 2061 0
-2062 16 0
-2062 60 0
-2062 104 0
-16 -60 -104 2062 0
-2063 17 0
-2063 61 0
-2063 105 0
-17 -61 -105 2063 0
-2064 18 0
-2064 62 0
-2064 106 0
-18 -62 -106 2064 0
-2065 19 0
-2065 63 0
-2065 107 0
-19 -63 -107 2065 0
-2066 20 0
-2066 64 0
-2066 108 0
-20 -64 -108 2066 0
-2067 21 0
-2067 65 0
-2067 109 0
-21 -65 -109 2067 0
-2068 22 0
-2068 66 0
-2068 110 0
-22 -66 -110 2068 0
-2047 6656 0
-2048 6656 0
-2049 6656 0
-2050 6656 0
-2051 6656 0
-2052 6656 0
-2053 6656 0
-2054 6656 0
-2055 6656 0
-2056 6656 0
-2057 6656 0
-2058 6656 0
-2059 6656 0
-2060 6656 0
-2061 6656 0
-2062 6656 0
-2063 6656 0
-2064 6656 0
-2065 6656 0
-2066 6656 0
-2067 6656 0
-2068 6656 0
-6656 2047 2048 2049 2050 2051 2052 2053 2054 2055 2056 2057 2058 2059 2060 2061 2062 2063 2064 2065 2066 2067 2068 0
-2069 1 0
-2069 45 0
-2069 111 0
-1 -45 -111 2069 0
-2070 2 0
-2070 46 0
-2070 112 0
-2 -46 -112 2070 0
-2071 3 0
-2071 47 0
-2071 113 0
-3 -47 -113 2071 0
-2072 4 0
-2072 48 0
-2072 114 0
-4 -48 -114 2072 0
-2073 5 0
-2073 49 0
-2073 115 0
-5 -49 -115 2073 0
-2074 6 0
-2074 50 0
-2074 116 0
-6 -50 -116 2074 0
-2075 7 0
-2075 51 0
-2075 117 0
-7 -51 -117 2075 0
-2076 8 0
-2076 52 0
-2076 118 0
-8 -52 -118 2076 0
-2077 9 0
-2077 53 0
-2077 119 0
-9 -53 -119 2077 0
-2078 10 0
-2078 54 0
-2078 120 0
-10 -54 -120 2078 0
-2079 11 0
-2079 55 0
-2079 121 0
-11 -55 -121 2079 0
-2080 12 0
-2080 56 0
-2080 122 0
-12 -56 -122 2080 0
-2081 13 0
-2081 57 0
-2081 123 0
-13 -57 -123 2081 0
-2082 14 0
-2082 58 0
-2082 124 0
-14 -58 -124 2082 0
-2083 15 0
-2083 59 0
-2083 125 0
-15 -59 -125 2083 0
-2084 16 0
-2084 60 0
-2084 126 0
-16 -60 -126 2084 0
-2085 17 0
-2085 61 0
-2085 127 0
-17 -61 -127 2085 0
-2086 18 0
-2086 62 0
-2086 128 0
-18 -62 -128 2086 0
-2087 19 0
-2087 63 0
-2087 129 0
-19 -63 -129 2087 0
-2088 20 0
-2088 64 0
-2088 130 0
-20 -64 -130 2088 0
-2089 21 0
-2089 65 0
-2089 131 0
-21 -65 -131 2089 0
-2090 22 0
-2090 66 0
-2090 132 0
-22 -66 -132 2090 0
-2069 6657 0
-2070 6657 0
-2071 6657 0
-2072 6657 0
-2073 6657 0
-2074 6657 0
-2075 6657 0
-2076 6657 0
-2077 6657 0
-2078 6657 0
-2079 6657 0
-2080 6657 0
-2081 6657 0
-2082 6657 0
-2083 6657 0
-2084 6657 0
-2085 6657 0
-2086 6657 0
-2087 6657 0
-2088 6657 0
-2089 6657 0
-2090 6657 0
-6657 2069 2070 2071 2072 2073 2074 2075 2076 2077 2078 2079 2080 2081 2082 2083 2084 2085 2086 2087 2088 2089 2090 0
-2091 1 0
-2091 45 0
-2091 133 0
-1 -45 -133 2091 0
-2092 2 0
-2092 46 0
-2092 134 0
-2 -46 -134 2092 0
-2093 3 0
-2093 47 0
-2093 135 0
-3 -47 -135 2093 0
-2094 4 0
-2094 48 0
-2094 136 0
-4 -48 -136 2094 0
-2095 5 0
-2095 49 0
-2095 137 0
-5 -49 -137 2095 0
-2096 6 0
-2096 50 0
-2096 138 0
-6 -50 -138 2096 0
-2097 7 0
-2097 51 0
-2097 139 0
-7 -51 -139 2097 0
-2098 8 0
-2098 52 0
-2098 140 0
-8 -52 -140 2098 0
-2099 9 0
-2099 53 0
-2099 141 0
-9 -53 -141 2099 0
-2100 10 0
-2100 54 0
-2100 142 0
-10 -54 -142 2100 0
-2101 11 0
-2101 55 0
-2101 143 0
-11 -55 -143 2101 0
-2102 12 0
-2102 56 0
-2102 144 0
-12 -56 -144 2102 0
-2103 13 0
-2103 57 0
-2103 145 0
-13 -57 -145 2103 0
-2104 14 0
-2104 58 0
-2104 146 0
-14 -58 -146 2104 0
-2105 15 0
-2105 59 0
-2105 147 0
-15 -59 -147 2105 0
-2106 16 0
-2106 60 0
-2106 148 0
-16 -60 -148 2106 0
-2107 17 0
-2107 61 0
-2107 149 0
-17 -61 -149 2107 0
-2108 18 0
-2108 62 0
-2108 150 0
-18 -62 -150 2108 0
-2109 19 0
-2109 63 0
-2109 151 0
-19 -63 -151 2109 0
-2110 20 0
-2110 64 0
-2110 152 0
-20 -64 -152 2110 0
-2111 21 0
-2111 65 0
-2111 153 0
-21 -65 -153 2111 0
-2112 22 0
-2112 66 0
-2112 154 0
-22 -66 -154 2112 0
-2091 6658 0
-2092 6658 0
-2093 6658 0
-2094 6658 0
-2095 6658 0
-2096 6658 0
-2097 6658 0
-2098 6658 0
-2099 6658 0
-2100 6658 0
-2101 6658 0
-2102 6658 0
-2103 6658 0
-2104 6658 0
-2105 6658 0
-2106 6658 0
-2107 6658 0
-2108 6658 0
-2109 6658 0
-2110 6658 0
-2111 6658 0
-2112 6658 0
-6658 2091 2092 2093 2094 2095 2096 2097 2098 2099 2100 2101 2102 2103 2104 2105 2106 2107 2108 2109 2110 2111 2112 0
-2113 1 0
-2113 45 0
-2113 155 0
-1 -45 -155 2113 0
-2114 2 0
-2114 46 0
-2114 156 0
-2 -46 -156 2114 0
-2115 3 0
-2115 47 0
-2115 157 0
-3 -47 -157 2115 0
-2116 4 0
-2116 48 0
-2116 158 0
-4 -48 -158 2116 0
-2117 5 0
-2117 49 0
-2117 159 0
-5 -49 -159 2117 0
-2118 6 0
-2118 50 0
-2118 160 0
-6 -50 -160 2118 0
-2119 7 0
-2119 51 0
-2119 161 0
-7 -51 -161 2119 0
-2120 8 0
-2120 52 0
-2120 162 0
-8 -52 -162 2120 0
-2121 9 0
-2121 53 0
-2121 163 0
-9 -53 -163 2121 0
-2122 10 0
-2122 54 0
-2122 164 0
-10 -54 -164 2122 0
-2123 11 0
-2123 55 0
-2123 165 0
-11 -55 -165 2123 0
-2124 12 0
-2124 56 0
-2124 166 0
-12 -56 -166 2124 0
-2125 13 0
-2125 57 0
-2125 167 0
-13 -57 -167 2125 0
-2126 14 0
-2126 58 0
-2126 168 0
-14 -58 -168 2126 0
-2127 15 0
-2127 59 0
-2127 169 0
-15 -59 -169 2127 0
-2128 16 0
-2128 60 0
-2128 170 0
-16 -60 -170 2128 0
-2129 17 0
-2129 61 0
-2129 171 0
-17 -61 -171 2129 0
-2130 18 0
-2130 62 0
-2130 172 0
-18 -62 -172 2130 0
-2131 19 0
-2131 63 0
-2131 173 0
-19 -63 -173 2131 0
-2132 20 0
-2132 64 0
-2132 174 0
-20 -64 -174 2132 0
-2133 21 0
-2133 65 0
-2133 175 0
-21 -65 -175 2133 0
-2134 22 0
-2134 66 0
-2134 176 0
-22 -66 -176 2134 0
-2113 6659 0
-2114 6659 0
-2115 6659 0
-2116 6659 0
-2117 6659 0
-2118 6659 0
-2119 6659 0
-2120 6659 0
-2121 6659 0
-2122 6659 0
-2123 6659 0
-2124 6659 0
-2125 6659 0
-2126 6659 0
-2127 6659 0
-2128 6659 0
-2129 6659 0
-2130 6659 0
-2131 6659 0
-2132 6659 0
-2133 6659 0
-2134 6659 0
-6659 2113 2114 2115 2116 2117 2118 2119 2120 2121 2122 2123 2124 2125 2126 2127 2128 2129 2130 2131 2132 2133 2134 0
-2135 1 0
-2135 45 0
-2135 177 0
-1 -45 -177 2135 0
-2136 2 0
-2136 46 0
-2136 178 0
-2 -46 -178 2136 0
-2137 3 0
-2137 47 0
-2137 179 0
-3 -47 -179 2137 0
-2138 4 0
-2138 48 0
-2138 180 0
-4 -48 -180 2138 0
-2139 5 0
-2139 49 0
-2139 181 0
-5 -49 -181 2139 0
-2140 6 0
-2140 50 0
-2140 182 0
-6 -50 -182 2140 0
-2141 7 0
-2141 51 0
-2141 183 0
-7 -51 -183 2141 0
-2142 8 0
-2142 52 0
-2142 184 0
-8 -52 -184 2142 0
-2143 9 0
-2143 53 0
-2143 185 0
-9 -53 -185 2143 0
-2144 10 0
-2144 54 0
-2144 186 0
-10 -54 -186 2144 0
-2145 11 0
-2145 55 0
-2145 187 0
-11 -55 -187 2145 0
-2146 12 0
-2146 56 0
-2146 188 0
-12 -56 -188 2146 0
-2147 13 0
-2147 57 0
-2147 189 0
-13 -57 -189 2147 0
-2148 14 0
-2148 58 0
-2148 190 0
-14 -58 -190 2148 0
-2149 15 0
-2149 59 0
-2149 191 0
-15 -59 -191 2149 0
-2150 16 0
-2150 60 0
-2150 192 0
-16 -60 -192 2150 0
-2151 17 0
-2151 61 0
-2151 193 0
-17 -61 -193 2151 0
-2152 18 0
-2152 62 0
-2152 194 0
-18 -62 -194 2152 0
-2153 19 0
-2153 63 0
-2153 195 0
-19 -63 -195 2153 0
-2154 20 0
-2154 64 0
-2154 196 0
-20 -64 -196 2154 0
-2155 21 0
-2155 65 0
-2155 197 0
-21 -65 -197 2155 0
-2156 22 0
-2156 66 0
-2156 198 0
-22 -66 -198 2156 0
-2135 6660 0
-2136 6660 0
-2137 6660 0
-2138 6660 0
-2139 6660 0
-2140 6660 0
-2141 6660 0
-2142 6660 0
-2143 6660 0
-2144 6660 0
-2145 6660 0
-2146 6660 0
-2147 6660 0
-2148 6660 0
-2149 6660 0
-2150 6660 0
-2151 6660 0
-2152 6660 0
-2153 6660 0
-2154 6660 0
-2155 6660 0
-2156 6660 0
-6660 2135 2136 2137 2138 2139 2140 2141 2142 2143 2144 2145 2146 2147 2148 2149 2150 2151 2152 2153 2154 2155 2156 0
-2157 1 0
-2157 45 0
-2157 199 0
-1 -45 -199 2157 0
-2158 2 0
-2158 46 0
-2158 200 0
-2 -46 -200 2158 0
-2159 3 0
-2159 47 0
-2159 201 0
-3 -47 -201 2159 0
-2160 4 0
-2160 48 0
-2160 202 0
-4 -48 -202 2160 0
-2161 5 0
-2161 49 0
-2161 203 0
-5 -49 -203 2161 0
-2162 6 0
-2162 50 0
-2162 204 0
-6 -50 -204 2162 0
-2163 7 0
-2163 51 0
-2163 205 0
-7 -51 -205 2163 0
-2164 8 0
-2164 52 0
-2164 206 0
-8 -52 -206 2164 0
-2165 9 0
-2165 53 0
-2165 207 0
-9 -53 -207 2165 0
-2166 10 0
-2166 54 0
-2166 208 0
-10 -54 -208 2166 0
-2167 11 0
-2167 55 0
-2167 209 0
-11 -55 -209 2167 0
-2168 12 0
-2168 56 0
-2168 210 0
-12 -56 -210 2168 0
-2169 13 0
-2169 57 0
-2169 211 0
-13 -57 -211 2169 0
-2170 14 0
-2170 58 0
-2170 212 0
-14 -58 -212 2170 0
-2171 15 0
-2171 59 0
-2171 213 0
-15 -59 -213 2171 0
-2172 16 0
-2172 60 0
-2172 214 0
-16 -60 -214 2172 0
-2173 17 0
-2173 61 0
-2173 215 0
-17 -61 -215 2173 0
-2174 18 0
-2174 62 0
-2174 216 0
-18 -62 -216 2174 0
-2175 19 0
-2175 63 0
-2175 217 0
-19 -63 -217 2175 0
-2176 20 0
-2176 64 0
-2176 218 0
-20 -64 -218 2176 0
-2177 21 0
-2177 65 0
-2177 219 0
-21 -65 -219 2177 0
-2178 22 0
-2178 66 0
-2178 220 0
-22 -66 -220 2178 0
-2157 6661 0
-2158 6661 0
-2159 6661 0
-2160 6661 0
-2161 6661 0
-2162 6661 0
-2163 6661 0
-2164 6661 0
-2165 6661 0
-2166 6661 0
-2167 6661 0
-2168 6661 0
-2169 6661 0
-2170 6661 0
-2171 6661 0
-2172 6661 0
-2173 6661 0
-2174 6661 0
-2175 6661 0
-2176 6661 0
-2177 6661 0
-2178 6661 0
-6661 2157 2158 2159 2160 2161 2162 2163 2164 2165 2166 2167 2168 2169 2170 2171 2172 2173 2174 2175 2176 2177 2178 0
-2179 1 0
-2179 45 0
-2179 221 0
-1 -45 -221 2179 0
-2180 2 0
-2180 46 0
-2180 222 0
-2 -46 -222 2180 0
-2181 3 0
-2181 47 0
-2181 223 0
-3 -47 -223 2181 0
-2182 4 0
-2182 48 0
-2182 224 0
-4 -48 -224 2182 0
-2183 5 0
-2183 49 0
-2183 225 0
-5 -49 -225 2183 0
-2184 6 0
-2184 50 0
-2184 226 0
-6 -50 -226 2184 0
-2185 7 0
-2185 51 0
-2185 227 0
-7 -51 -227 2185 0
-2186 8 0
-2186 52 0
-2186 228 0
-8 -52 -228 2186 0
-2187 9 0
-2187 53 0
-2187 229 0
-9 -53 -229 2187 0
-2188 10 0
-2188 54 0
-2188 230 0
-10 -54 -230 2188 0
-2189 11 0
-2189 55 0
-2189 231 0
-11 -55 -231 2189 0
-2190 12 0
-2190 56 0
-2190 232 0
-12 -56 -232 2190 0
-2191 13 0
-2191 57 0
-2191 233 0
-13 -57 -233 2191 0
-2192 14 0
-2192 58 0
-2192 234 0
-14 -58 -234 2192 0
-2193 15 0
-2193 59 0
-2193 235 0
-15 -59 -235 2193 0
-2194 16 0
-2194 60 0
-2194 236 0
-16 -60 -236 2194 0
-2195 17 0
-2195 61 0
-2195 237 0
-17 -61 -237 2195 0
-2196 18 0
-2196 62 0
-2196 238 0
-18 -62 -238 2196 0
-2197 19 0
-2197 63 0
-2197 239 0
-19 -63 -239 2197 0
-2198 20 0
-2198 64 0
-2198 240 0
-20 -64 -240 2198 0
-2199 21 0
-2199 65 0
-2199 241 0
-21 -65 -241 2199 0
-2200 22 0
-2200 66 0
-2200 242 0
-22 -66 -242 2200 0
-2179 6662 0
-2180 6662 0
-2181 6662 0
-2182 6662 0
-2183 6662 0
-2184 6662 0
-2185 6662 0
-2186 6662 0
-2187 6662 0
-2188 6662 0
-2189 6662 0
-2190 6662 0
-2191 6662 0
-2192 6662 0
-2193 6662 0
-2194 6662 0
-2195 6662 0
-2196 6662 0
-2197 6662 0
-2198 6662 0
-2199 6662 0
-2200 6662 0
-6662 2179 2180 2181 2182 2183 2184 2185 2186 2187 2188 2189 2190 2191 2192 2193 2194 2195 2196 2197 2198 2199 2200 0
-2201 1 0
-2201 45 0
-2201 243 0
-1 -45 -243 2201 0
-2202 2 0
-2202 46 0
-2202 244 0
-2 -46 -244 2202 0
-2203 3 0
-2203 47 0
-2203 245 0
-3 -47 -245 2203 0
-2204 4 0
-2204 48 0
-2204 246 0
-4 -48 -246 2204 0
-2205 5 0
-2205 49 0
-2205 247 0
-5 -49 -247 2205 0
-2206 6 0
-2206 50 0
-2206 248 0
-6 -50 -248 2206 0
-2207 7 0
-2207 51 0
-2207 249 0
-7 -51 -249 2207 0
-2208 8 0
-2208 52 0
-2208 250 0
-8 -52 -250 2208 0
-2209 9 0
-2209 53 0
-2209 251 0
-9 -53 -251 2209 0
-2210 10 0
-2210 54 0
-2210 252 0
-10 -54 -252 2210 0
-2211 11 0
-2211 55 0
-2211 253 0
-11 -55 -253 2211 0
-2212 12 0
-2212 56 0
-2212 254 0
-12 -56 -254 2212 0
-2213 13 0
-2213 57 0
-2213 255 0
-13 -57 -255 2213 0
-2214 14 0
-2214 58 0
-2214 256 0
-14 -58 -256 2214 0
-2215 15 0
-2215 59 0
-2215 257 0
-15 -59 -257 2215 0
-2216 16 0
-2216 60 0
-2216 258 0
-16 -60 -258 2216 0
-2217 17 0
-2217 61 0
-2217 259 0
-17 -61 -259 2217 0
-2218 18 0
-2218 62 0
-2218 260 0
-18 -62 -260 2218 0
-2219 19 0
-2219 63 0
-2219 261 0
-19 -63 -261 2219 0
-2220 20 0
-2220 64 0
-2220 262 0
-20 -64 -262 2220 0
-2221 21 0
-2221 65 0
-2221 263 0
-21 -65 -263 2221 0
-2222 22 0
-2222 66 0
-2222 264 0
-22 -66 -264 2222 0
-2201 6663 0
-2202 6663 0
-2203 6663 0
-2204 6663 0
-2205 6663 0
-2206 6663 0
-2207 6663 0
-2208 6663 0
-2209 6663 0
-2210 6663 0
-2211 6663 0
-2212 6663 0
-2213 6663 0
-2214 6663 0
-2215 6663 0
-2216 6663 0
-2217 6663 0
-2218 6663 0
-2219 6663 0
-2220 6663 0
-2221 6663 0
-2222 6663 0
-6663 2201 2202 2203 2204 2205 2206 2207 2208 2209 2210 2211 2212 2213 2214 2215 2216 2217 2218 2219 2220 2221 2222 0
-2223 1 0
-2223 67 0
-2223 89 0
-1 -67 -89 2223 0
-2224 2 0
-2224 68 0
-2224 90 0
-2 -68 -90 2224 0
-2225 3 0
-2225 69 0
-2225 91 0
-3 -69 -91 2225 0
-2226 4 0
-2226 70 0
-2226 92 0
-4 -70 -92 2226 0
-2227 5 0
-2227 71 0
-2227 93 0
-5 -71 -93 2227 0
-2228 6 0
-2228 72 0
-2228 94 0
-6 -72 -94 2228 0
-2229 7 0
-2229 73 0
-2229 95 0
-7 -73 -95 2229 0
-2230 8 0
-2230 74 0
-2230 96 0
-8 -74 -96 2230 0
-2231 9 0
-2231 75 0
-2231 97 0
-9 -75 -97 2231 0
-2232 10 0
-2232 76 0
-2232 98 0
-10 -76 -98 2232 0
-2233 11 0
-2233 77 0
-2233 99 0
-11 -77 -99 2233 0
-2234 12 0
-2234 78 0
-2234 100 0
-12 -78 -100 2234 0
-2235 13 0
-2235 79 0
-2235 101 0
-13 -79 -101 2235 0
-2236 14 0
-2236 80 0
-2236 102 0
-14 -80 -102 2236 0
-2237 15 0
-2237 81 0
-2237 103 0
-15 -81 -103 2237 0
-2238 16 0
-2238 82 0
-2238 104 0
-16 -82 -104 2238 0
-2239 17 0
-2239 83 0
-2239 105 0
-17 -83 -105 2239 0
-2240 18 0
-2240 84 0
-2240 106 0
-18 -84 -106 2240 0
-2241 19 0
-2241 85 0
-2241 107 0
-19 -85 -107 2241 0
-2242 20 0
-2242 86 0
-2242 108 0
-20 -86 -108 2242 0
-2243 21 0
-2243 87 0
-2243 109 0
-21 -87 -109 2243 0
-2244 22 0
-2244 88 0
-2244 110 0
-22 -88 -110 2244 0
-2223 6664 0
-2224 6664 0
-2225 6664 0
-2226 6664 0
-2227 6664 0
-2228 6664 0
-2229 6664 0
-2230 6664 0
-2231 6664 0
-2232 6664 0
-2233 6664 0
-2234 6664 0
-2235 6664 0
-2236 6664 0
-2237 6664 0
-2238 6664 0
-2239 6664 0
-2240 6664 0
-2241 6664 0
-2242 6664 0
-2243 6664 0
-2244 6664 0
-6664 2223 2224 2225 2226 2227 2228 2229 2230 2231 2232 2233 2234 2235 2236 2237 2238 2239 2240 2241 2242 2243 2244 0
-2245 1 0
-2245 67 0
-2245 111 0
-1 -67 -111 2245 0
-2246 2 0
-2246 68 0
-2246 112 0
-2 -68 -112 2246 0
-2247 3 0
-2247 69 0
-2247 113 0
-3 -69 -113 2247 0
-2248 4 0
-2248 70 0
-2248 114 0
-4 -70 -114 2248 0
-2249 5 0
-2249 71 0
-2249 115 0
-5 -71 -115 2249 0
-2250 6 0
-2250 72 0
-2250 116 0
-6 -72 -116 2250 0
-2251 7 0
-2251 73 0
-2251 117 0
-7 -73 -117 2251 0
-2252 8 0
-2252 74 0
-2252 118 0
-8 -74 -118 2252 0
-2253 9 0
-2253 75 0
-2253 119 0
-9 -75 -119 2253 0
-2254 10 0
-2254 76 0
-2254 120 0
-10 -76 -120 2254 0
-2255 11 0
-2255 77 0
-2255 121 0
-11 -77 -121 2255 0
-2256 12 0
-2256 78 0
-2256 122 0
-12 -78 -122 2256 0
-2257 13 0
-2257 79 0
-2257 123 0
-13 -79 -123 2257 0
-2258 14 0
-2258 80 0
-2258 124 0
-14 -80 -124 2258 0
-2259 15 0
-2259 81 0
-2259 125 0
-15 -81 -125 2259 0
-2260 16 0
-2260 82 0
-2260 126 0
-16 -82 -126 2260 0
-2261 17 0
-2261 83 0
-2261 127 0
-17 -83 -127 2261 0
-2262 18 0
-2262 84 0
-2262 128 0
-18 -84 -128 2262 0
-2263 19 0
-2263 85 0
-2263 129 0
-19 -85 -129 2263 0
-2264 20 0
-2264 86 0
-2264 130 0
-20 -86 -130 2264 0
-2265 21 0
-2265 87 0
-2265 131 0
-21 -87 -131 2265 0
-2266 22 0
-2266 88 0
-2266 132 0
-22 -88 -132 2266 0
-2245 6665 0
-2246 6665 0
-2247 6665 0
-2248 6665 0
-2249 6665 0
-2250 6665 0
-2251 6665 0
-2252 6665 0
-2253 6665 0
-2254 6665 0
-2255 6665 0
-2256 6665 0
-2257 6665 0
-2258 6665 0
-2259 6665 0
-2260 6665 0
-2261 6665 0
-2262 6665 0
-2263 6665 0
-2264 6665 0
-2265 6665 0
-2266 6665 0
-6665 2245 2246 2247 2248 2249 2250 2251 2252 2253 2254 2255 2256 2257 2258 2259 2260 2261 2262 2263 2264 2265 2266 0
-2267 1 0
-2267 67 0
-2267 133 0
-1 -67 -133 2267 0
-2268 2 0
-2268 68 0
-2268 134 0
-2 -68 -134 2268 0
-2269 3 0
-2269 69 0
-2269 135 0
-3 -69 -135 2269 0
-2270 4 0
-2270 70 0
-2270 136 0
-4 -70 -136 2270 0
-2271 5 0
-2271 71 0
-2271 137 0
-5 -71 -137 2271 0
-2272 6 0
-2272 72 0
-2272 138 0
-6 -72 -138 2272 0
-2273 7 0
-2273 73 0
-2273 139 0
-7 -73 -139 2273 0
-2274 8 0
-2274 74 0
-2274 140 0
-8 -74 -140 2274 0
-2275 9 0
-2275 75 0
-2275 141 0
-9 -75 -141 2275 0
-2276 10 0
-2276 76 0
-2276 142 0
-10 -76 -142 2276 0
-2277 11 0
-2277 77 0
-2277 143 0
-11 -77 -143 2277 0
-2278 12 0
-2278 78 0
-2278 144 0
-12 -78 -144 2278 0
-2279 13 0
-2279 79 0
-2279 145 0
-13 -79 -145 2279 0
-2280 14 0
-2280 80 0
-2280 146 0
-14 -80 -146 2280 0
-2281 15 0
-2281 81 0
-2281 147 0
-15 -81 -147 2281 0
-2282 16 0
-2282 82 0
-2282 148 0
-16 -82 -148 2282 0
-2283 17 0
-2283 83 0
-2283 149 0
-17 -83 -149 2283 0
-2284 18 0
-2284 84 0
-2284 150 0
-18 -84 -150 2284 0
-2285 19 0
-2285 85 0
-2285 151 0
-19 -85 -151 2285 0
-2286 20 0
-2286 86 0
-2286 152 0
-20 -86 -152 2286 0
-2287 21 0
-2287 87 0
-2287 153 0
-21 -87 -153 2287 0
-2288 22 0
-2288 88 0
-2288 154 0
-22 -88 -154 2288 0
-2267 6666 0
-2268 6666 0
-2269 6666 0
-2270 6666 0
-2271 6666 0
-2272 6666 0
-2273 6666 0
-2274 6666 0
-2275 6666 0
-2276 6666 0
-2277 6666 0
-2278 6666 0
-2279 6666 0
-2280 6666 0
-2281 6666 0
-2282 6666 0
-2283 6666 0
-2284 6666 0
-2285 6666 0
-2286 6666 0
-2287 6666 0
-2288 6666 0
-6666 2267 2268 2269 2270 2271 2272 2273 2274 2275 2276 2277 2278 2279 2280 2281 2282 2283 2284 2285 2286 2287 2288 0
-2289 1 0
-2289 67 0
-2289 155 0
-1 -67 -155 2289 0
-2290 2 0
-2290 68 0
-2290 156 0
-2 -68 -156 2290 0
-2291 3 0
-2291 69 0
-2291 157 0
-3 -69 -157 2291 0
-2292 4 0
-2292 70 0
-2292 158 0
-4 -70 -158 2292 0
-2293 5 0
-2293 71 0
-2293 159 0
-5 -71 -159 2293 0
-2294 6 0
-2294 72 0
-2294 160 0
-6 -72 -160 2294 0
-2295 7 0
-2295 73 0
-2295 161 0
-7 -73 -161 2295 0
-2296 8 0
-2296 74 0
-2296 162 0
-8 -74 -162 2296 0
-2297 9 0
-2297 75 0
-2297 163 0
-9 -75 -163 2297 0
-2298 10 0
-2298 76 0
-2298 164 0
-10 -76 -164 2298 0
-2299 11 0
-2299 77 0
-2299 165 0
-11 -77 -165 2299 0
-2300 12 0
-2300 78 0
-2300 166 0
-12 -78 -166 2300 0
-2301 13 0
-2301 79 0
-2301 167 0
-13 -79 -167 2301 0
-2302 14 0
-2302 80 0
-2302 168 0
-14 -80 -168 2302 0
-2303 15 0
-2303 81 0
-2303 169 0
-15 -81 -169 2303 0
-2304 16 0
-2304 82 0
-2304 170 0
-16 -82 -170 2304 0
-2305 17 0
-2305 83 0
-2305 171 0
-17 -83 -171 2305 0
-2306 18 0
-2306 84 0
-2306 172 0
-18 -84 -172 2306 0
-2307 19 0
-2307 85 0
-2307 173 0
-19 -85 -173 2307 0
-2308 20 0
-2308 86 0
-2308 174 0
-20 -86 -174 2308 0
-2309 21 0
-2309 87 0
-2309 175 0
-21 -87 -175 2309 0
-2310 22 0
-2310 88 0
-2310 176 0
-22 -88 -176 2310 0
-2289 6667 0
-2290 6667 0
-2291 6667 0
-2292 6667 0
-2293 6667 0
-2294 6667 0
-2295 6667 0
-2296 6667 0
-2297 6667 0
-2298 6667 0
-2299 6667 0
-2300 6667 0
-2301 6667 0
-2302 6667 0
-2303 6667 0
-2304 6667 0
-2305 6667 0
-2306 6667 0
-2307 6667 0
-2308 6667 0
-2309 6667 0
-2310 6667 0
-6667 2289 2290 2291 2292 2293 2294 2295 2296 2297 2298 2299 2300 2301 2302 2303 2304 2305 2306 2307 2308 2309 2310 0
-2311 1 0
-2311 67 0
-2311 177 0
-1 -67 -177 2311 0
-2312 2 0
-2312 68 0
-2312 178 0
-2 -68 -178 2312 0
-2313 3 0
-2313 69 0
-2313 179 0
-3 -69 -179 2313 0
-2314 4 0
-2314 70 0
-2314 180 0
-4 -70 -180 2314 0
-2315 5 0
-2315 71 0
-2315 181 0
-5 -71 -181 2315 0
-2316 6 0
-2316 72 0
-2316 182 0
-6 -72 -182 2316 0
-2317 7 0
-2317 73 0
-2317 183 0
-7 -73 -183 2317 0
-2318 8 0
-2318 74 0
-2318 184 0
-8 -74 -184 2318 0
-2319 9 0
-2319 75 0
-2319 185 0
-9 -75 -185 2319 0
-2320 10 0
-2320 76 0
-2320 186 0
-10 -76 -186 2320 0
-2321 11 0
-2321 77 0
-2321 187 0
-11 -77 -187 2321 0
-2322 12 0
-2322 78 0
-2322 188 0
-12 -78 -188 2322 0
-2323 13 0
-2323 79 0
-2323 189 0
-13 -79 -189 2323 0
-2324 14 0
-2324 80 0
-2324 190 0
-14 -80 -190 2324 0
-2325 15 0
-2325 81 0
-2325 191 0
-15 -81 -191 2325 0
-2326 16 0
-2326 82 0
-2326 192 0
-16 -82 -192 2326 0
-2327 17 0
-2327 83 0
-2327 193 0
-17 -83 -193 2327 0
-2328 18 0
-2328 84 0
-2328 194 0
-18 -84 -194 2328 0
-2329 19 0
-2329 85 0
-2329 195 0
-19 -85 -195 2329 0
-2330 20 0
-2330 86 0
-2330 196 0
-20 -86 -196 2330 0
-2331 21 0
-2331 87 0
-2331 197 0
-21 -87 -197 2331 0
-2332 22 0
-2332 88 0
-2332 198 0
-22 -88 -198 2332 0
-2311 6668 0
-2312 6668 0
-2313 6668 0
-2314 6668 0
-2315 6668 0
-2316 6668 0
-2317 6668 0
-2318 6668 0
-2319 6668 0
-2320 6668 0
-2321 6668 0
-2322 6668 0
-2323 6668 0
-2324 6668 0
-2325 6668 0
-2326 6668 0
-2327 6668 0
-2328 6668 0
-2329 6668 0
-2330 6668 0
-2331 6668 0
-2332 6668 0
-6668 2311 2312 2313 2314 2315 2316 2317 2318 2319 2320 2321 2322 2323 2324 2325 2326 2327 2328 2329 2330 2331 2332 0
-2333 1 0
-2333 67 0
-2333 199 0
-1 -67 -199 2333 0
-2334 2 0
-2334 68 0
-2334 200 0
-2 -68 -200 2334 0
-2335 3 0
-2335 69 0
-2335 201 0
-3 -69 -201 2335 0
-2336 4 0
-2336 70 0
-2336 202 0
-4 -70 -202 2336 0
-2337 5 0
-2337 71 0
-2337 203 0
-5 -71 -203 2337 0
-2338 6 0
-2338 72 0
-2338 204 0
-6 -72 -204 2338 0
-2339 7 0
-2339 73 0
-2339 205 0
-7 -73 -205 2339 0
-2340 8 0
-2340 74 0
-2340 206 0
-8 -74 -206 2340 0
-2341 9 0
-2341 75 0
-2341 207 0
-9 -75 -207 2341 0
-2342 10 0
-2342 76 0
-2342 208 0
-10 -76 -208 2342 0
-2343 11 0
-2343 77 0
-2343 209 0
-11 -77 -209 2343 0
-2344 12 0
-2344 78 0
-2344 210 0
-12 -78 -210 2344 0
-2345 13 0
-2345 79 0
-2345 211 0
-13 -79 -211 2345 0
-2346 14 0
-2346 80 0
-2346 212 0
-14 -80 -212 2346 0
-2347 15 0
-2347 81 0
-2347 213 0
-15 -81 -213 2347 0
-2348 16 0
-2348 82 0
-2348 214 0
-16 -82 -214 2348 0
-2349 17 0
-2349 83 0
-2349 215 0
-17 -83 -215 2349 0
-2350 18 0
-2350 84 0
-2350 216 0
-18 -84 -216 2350 0
-2351 19 0
-2351 85 0
-2351 217 0
-19 -85 -217 2351 0
-2352 20 0
-2352 86 0
-2352 218 0
-20 -86 -218 2352 0
-2353 21 0
-2353 87 0
-2353 219 0
-21 -87 -219 2353 0
-2354 22 0
-2354 88 0
-2354 220 0
-22 -88 -220 2354 0
-2333 6669 0
-2334 6669 0
-2335 6669 0
-2336 6669 0
-2337 6669 0
-2338 6669 0
-2339 6669 0
-2340 6669 0
-2341 6669 0
-2342 6669 0
-2343 6669 0
-2344 6669 0
-2345 6669 0
-2346 6669 0
-2347 6669 0
-2348 6669 0
-2349 6669 0
-2350 6669 0
-2351 6669 0
-2352 6669 0
-2353 6669 0
-2354 6669 0
-6669 2333 2334 2335 2336 2337 2338 2339 2340 2341 2342 2343 2344 2345 2346 2347 2348 2349 2350 2351 2352 2353 2354 0
-2355 1 0
-2355 67 0
-2355 221 0
-1 -67 -221 2355 0
-2356 2 0
-2356 68 0
-2356 222 0
-2 -68 -222 2356 0
-2357 3 0
-2357 69 0
-2357 223 0
-3 -69 -223 2357 0
-2358 4 0
-2358 70 0
-2358 224 0
-4 -70 -224 2358 0
-2359 5 0
-2359 71 0
-2359 225 0
-5 -71 -225 2359 0
-2360 6 0
-2360 72 0
-2360 226 0
-6 -72 -226 2360 0
-2361 7 0
-2361 73 0
-2361 227 0
-7 -73 -227 2361 0
-2362 8 0
-2362 74 0
-2362 228 0
-8 -74 -228 2362 0
-2363 9 0
-2363 75 0
-2363 229 0
-9 -75 -229 2363 0
-2364 10 0
-2364 76 0
-2364 230 0
-10 -76 -230 2364 0
-2365 11 0
-2365 77 0
-2365 231 0
-11 -77 -231 2365 0
-2366 12 0
-2366 78 0
-2366 232 0
-12 -78 -232 2366 0
-2367 13 0
-2367 79 0
-2367 233 0
-13 -79 -233 2367 0
-2368 14 0
-2368 80 0
-2368 234 0
-14 -80 -234 2368 0
-2369 15 0
-2369 81 0
-2369 235 0
-15 -81 -235 2369 0
-2370 16 0
-2370 82 0
-2370 236 0
-16 -82 -236 2370 0
-2371 17 0
-2371 83 0
-2371 237 0
-17 -83 -237 2371 0
-2372 18 0
-2372 84 0
-2372 238 0
-18 -84 -238 2372 0
-2373 19 0
-2373 85 0
-2373 239 0
-19 -85 -239 2373 0
-2374 20 0
-2374 86 0
-2374 240 0
-20 -86 -240 2374 0
-2375 21 0
-2375 87 0
-2375 241 0
-21 -87 -241 2375 0
-2376 22 0
-2376 88 0
-2376 242 0
-22 -88 -242 2376 0
-2355 6670 0
-2356 6670 0
-2357 6670 0
-2358 6670 0
-2359 6670 0
-2360 6670 0
-2361 6670 0
-2362 6670 0
-2363 6670 0
-2364 6670 0
-2365 6670 0
-2366 6670 0
-2367 6670 0
-2368 6670 0
-2369 6670 0
-2370 6670 0
-2371 6670 0
-2372 6670 0
-2373 6670 0
-2374 6670 0
-2375 6670 0
-2376 6670 0
-6670 2355 2356 2357 2358 2359 2360 2361 2362 2363 2364 2365 2366 2367 2368 2369 2370 2371 2372 2373 2374 2375 2376 0
-2377 1 0
-2377 67 0
-2377 243 0
-1 -67 -243 2377 0
-2378 2 0
-2378 68 0
-2378 244 0
-2 -68 -244 2378 0
-2379 3 0
-2379 69 0
-2379 245 0
-3 -69 -245 2379 0
-2380 4 0
-2380 70 0
-2380 246 0
-4 -70 -246 2380 0
-2381 5 0
-2381 71 0
-2381 247 0
-5 -71 -247 2381 0
-2382 6 0
-2382 72 0
-2382 248 0
-6 -72 -248 2382 0
-2383 7 0
-2383 73 0
-2383 249 0
-7 -73 -249 2383 0
-2384 8 0
-2384 74 0
-2384 250 0
-8 -74 -250 2384 0
-2385 9 0
-2385 75 0
-2385 251 0
-9 -75 -251 2385 0
-2386 10 0
-2386 76 0
-2386 252 0
-10 -76 -252 2386 0
-2387 11 0
-2387 77 0
-2387 253 0
-11 -77 -253 2387 0
-2388 12 0
-2388 78 0
-2388 254 0
-12 -78 -254 2388 0
-2389 13 0
-2389 79 0
-2389 255 0
-13 -79 -255 2389 0
-2390 14 0
-2390 80 0
-2390 256 0
-14 -80 -256 2390 0
-2391 15 0
-2391 81 0
-2391 257 0
-15 -81 -257 2391 0
-2392 16 0
-2392 82 0
-2392 258 0
-16 -82 -258 2392 0
-2393 17 0
-2393 83 0
-2393 259 0
-17 -83 -259 2393 0
-2394 18 0
-2394 84 0
-2394 260 0
-18 -84 -260 2394 0
-2395 19 0
-2395 85 0
-2395 261 0
-19 -85 -261 2395 0
-2396 20 0
-2396 86 0
-2396 262 0
-20 -86 -262 2396 0
-2397 21 0
-2397 87 0
-2397 263 0
-21 -87 -263 2397 0
-2398 22 0
-2398 88 0
-2398 264 0
-22 -88 -264 2398 0
-2377 6671 0
-2378 6671 0
-2379 6671 0
-2380 6671 0
-2381 6671 0
-2382 6671 0
-2383 6671 0
-2384 6671 0
-2385 6671 0
-2386 6671 0
-2387 6671 0
-2388 6671 0
-2389 6671 0
-2390 6671 0
-2391 6671 0
-2392 6671 0
-2393 6671 0
-2394 6671 0
-2395 6671 0
-2396 6671 0
-2397 6671 0
-2398 6671 0
-6671 2377 2378 2379 2380 2381 2382 2383 2384 2385 2386 2387 2388 2389 2390 2391 2392 2393 2394 2395 2396 2397 2398 0
-2399 1 0
-2399 89 0
-2399 111 0
-1 -89 -111 2399 0
-2400 2 0
-2400 90 0
-2400 112 0
-2 -90 -112 2400 0
-2401 3 0
-2401 91 0
-2401 113 0
-3 -91 -113 2401 0
-2402 4 0
-2402 92 0
-2402 114 0
-4 -92 -114 2402 0
-2403 5 0
-2403 93 0
-2403 115 0
-5 -93 -115 2403 0
-2404 6 0
-2404 94 0
-2404 116 0
-6 -94 -116 2404 0
-2405 7 0
-2405 95 0
-2405 117 0
-7 -95 -117 2405 0
-2406 8 0
-2406 96 0
-2406 118 0
-8 -96 -118 2406 0
-2407 9 0
-2407 97 0
-2407 119 0
-9 -97 -119 2407 0
-2408 10 0
-2408 98 0
-2408 120 0
-10 -98 -120 2408 0
-2409 11 0
-2409 99 0
-2409 121 0
-11 -99 -121 2409 0
-2410 12 0
-2410 100 0
-2410 122 0
-12 -100 -122 2410 0
-2411 13 0
-2411 101 0
-2411 123 0
-13 -101 -123 2411 0
-2412 14 0
-2412 102 0
-2412 124 0
-14 -102 -124 2412 0
-2413 15 0
-2413 103 0
-2413 125 0
-15 -103 -125 2413 0
-2414 16 0
-2414 104 0
-2414 126 0
-16 -104 -126 2414 0
-2415 17 0
-2415 105 0
-2415 127 0
-17 -105 -127 2415 0
-2416 18 0
-2416 106 0
-2416 128 0
-18 -106 -128 2416 0
-2417 19 0
-2417 107 0
-2417 129 0
-19 -107 -129 2417 0
-2418 20 0
-2418 108 0
-2418 130 0
-20 -108 -130 2418 0
-2419 21 0
-2419 109 0
-2419 131 0
-21 -109 -131 2419 0
-2420 22 0
-2420 110 0
-2420 132 0
-22 -110 -132 2420 0
-2399 6672 0
-2400 6672 0
-2401 6672 0
-2402 6672 0
-2403 6672 0
-2404 6672 0
-2405 6672 0
-2406 6672 0
-2407 6672 0
-2408 6672 0
-2409 6672 0
-2410 6672 0
-2411 6672 0
-2412 6672 0
-2413 6672 0
-2414 6672 0
-2415 6672 0
-2416 6672 0
-2417 6672 0
-2418 6672 0
-2419 6672 0
-2420 6672 0
-6672 2399 2400 2401 2402 2403 2404 2405 2406 2407 2408 2409 2410 2411 2412 2413 2414 2415 2416 2417 2418 2419 2420 0
-2421 1 0
-2421 89 0
-2421 133 0
-1 -89 -133 2421 0
-2422 2 0
-2422 90 0
-2422 134 0
-2 -90 -134 2422 0
-2423 3 0
-2423 91 0
-2423 135 0
-3 -91 -135 2423 0
-2424 4 0
-2424 92 0
-2424 136 0
-4 -92 -136 2424 0
-2425 5 0
-2425 93 0
-2425 137 0
-5 -93 -137 2425 0
-2426 6 0
-2426 94 0
-2426 138 0
-6 -94 -138 2426 0
-2427 7 0
-2427 95 0
-2427 139 0
-7 -95 -139 2427 0
-2428 8 0
-2428 96 0
-2428 140 0
-8 -96 -140 2428 0
-2429 9 0
-2429 97 0
-2429 141 0
-9 -97 -141 2429 0
-2430 10 0
-2430 98 0
-2430 142 0
-10 -98 -142 2430 0
-2431 11 0
-2431 99 0
-2431 143 0
-11 -99 -143 2431 0
-2432 12 0
-2432 100 0
-2432 144 0
-12 -100 -144 2432 0
-2433 13 0
-2433 101 0
-2433 145 0
-13 -101 -145 2433 0
-2434 14 0
-2434 102 0
-2434 146 0
-14 -102 -146 2434 0
-2435 15 0
-2435 103 0
-2435 147 0
-15 -103 -147 2435 0
-2436 16 0
-2436 104 0
-2436 148 0
-16 -104 -148 2436 0
-2437 17 0
-2437 105 0
-2437 149 0
-17 -105 -149 2437 0
-2438 18 0
-2438 106 0
-2438 150 0
-18 -106 -150 2438 0
-2439 19 0
-2439 107 0
-2439 151 0
-19 -107 -151 2439 0
-2440 20 0
-2440 108 0
-2440 152 0
-20 -108 -152 2440 0
-2441 21 0
-2441 109 0
-2441 153 0
-21 -109 -153 2441 0
-2442 22 0
-2442 110 0
-2442 154 0
-22 -110 -154 2442 0
-2421 6673 0
-2422 6673 0
-2423 6673 0
-2424 6673 0
-2425 6673 0
-2426 6673 0
-2427 6673 0
-2428 6673 0
-2429 6673 0
-2430 6673 0
-2431 6673 0
-2432 6673 0
-2433 6673 0
-2434 6673 0
-2435 6673 0
-2436 6673 0
-2437 6673 0
-2438 6673 0
-2439 6673 0
-2440 6673 0
-2441 6673 0
-2442 6673 0
-6673 2421 2422 2423 2424 2425 2426 2427 2428 2429 2430 2431 2432 2433 2434 2435 2436 2437 2438 2439 2440 2441 2442 0
-2443 1 0
-2443 89 0
-2443 155 0
-1 -89 -155 2443 0
-2444 2 0
-2444 90 0
-2444 156 0
-2 -90 -156 2444 0
-2445 3 0
-2445 91 0
-2445 157 0
-3 -91 -157 2445 0
-2446 4 0
-2446 92 0
-2446 158 0
-4 -92 -158 2446 0
-2447 5 0
-2447 93 0
-2447 159 0
-5 -93 -159 2447 0
-2448 6 0
-2448 94 0
-2448 160 0
-6 -94 -160 2448 0
-2449 7 0
-2449 95 0
-2449 161 0
-7 -95 -161 2449 0
-2450 8 0
-2450 96 0
-2450 162 0
-8 -96 -162 2450 0
-2451 9 0
-2451 97 0
-2451 163 0
-9 -97 -163 2451 0
-2452 10 0
-2452 98 0
-2452 164 0
-10 -98 -164 2452 0
-2453 11 0
-2453 99 0
-2453 165 0
-11 -99 -165 2453 0
-2454 12 0
-2454 100 0
-2454 166 0
-12 -100 -166 2454 0
-2455 13 0
-2455 101 0
-2455 167 0
-13 -101 -167 2455 0
-2456 14 0
-2456 102 0
-2456 168 0
-14 -102 -168 2456 0
-2457 15 0
-2457 103 0
-2457 169 0
-15 -103 -169 2457 0
-2458 16 0
-2458 104 0
-2458 170 0
-16 -104 -170 2458 0
-2459 17 0
-2459 105 0
-2459 171 0
-17 -105 -171 2459 0
-2460 18 0
-2460 106 0
-2460 172 0
-18 -106 -172 2460 0
-2461 19 0
-2461 107 0
-2461 173 0
-19 -107 -173 2461 0
-2462 20 0
-2462 108 0
-2462 174 0
-20 -108 -174 2462 0
-2463 21 0
-2463 109 0
-2463 175 0
-21 -109 -175 2463 0
-2464 22 0
-2464 110 0
-2464 176 0
-22 -110 -176 2464 0
-2443 6674 0
-2444 6674 0
-2445 6674 0
-2446 6674 0
-2447 6674 0
-2448 6674 0
-2449 6674 0
-2450 6674 0
-2451 6674 0
-2452 6674 0
-2453 6674 0
-2454 6674 0
-2455 6674 0
-2456 6674 0
-2457 6674 0
-2458 6674 0
-2459 6674 0
-2460 6674 0
-2461 6674 0
-2462 6674 0
-2463 6674 0
-2464 6674 0
-6674 2443 2444 2445 2446 2447 2448 2449 2450 2451 2452 2453 2454 2455 2456 2457 2458 2459 2460 2461 2462 2463 2464 0
-2465 1 0
-2465 89 0
-2465 177 0
-1 -89 -177 2465 0
-2466 2 0
-2466 90 0
-2466 178 0
-2 -90 -178 2466 0
-2467 3 0
-2467 91 0
-2467 179 0
-3 -91 -179 2467 0
-2468 4 0
-2468 92 0
-2468 180 0
-4 -92 -180 2468 0
-2469 5 0
-2469 93 0
-2469 181 0
-5 -93 -181 2469 0
-2470 6 0
-2470 94 0
-2470 182 0
-6 -94 -182 2470 0
-2471 7 0
-2471 95 0
-2471 183 0
-7 -95 -183 2471 0
-2472 8 0
-2472 96 0
-2472 184 0
-8 -96 -184 2472 0
-2473 9 0
-2473 97 0
-2473 185 0
-9 -97 -185 2473 0
-2474 10 0
-2474 98 0
-2474 186 0
-10 -98 -186 2474 0
-2475 11 0
-2475 99 0
-2475 187 0
-11 -99 -187 2475 0
-2476 12 0
-2476 100 0
-2476 188 0
-12 -100 -188 2476 0
-2477 13 0
-2477 101 0
-2477 189 0
-13 -101 -189 2477 0
-2478 14 0
-2478 102 0
-2478 190 0
-14 -102 -190 2478 0
-2479 15 0
-2479 103 0
-2479 191 0
-15 -103 -191 2479 0
-2480 16 0
-2480 104 0
-2480 192 0
-16 -104 -192 2480 0
-2481 17 0
-2481 105 0
-2481 193 0
-17 -105 -193 2481 0
-2482 18 0
-2482 106 0
-2482 194 0
-18 -106 -194 2482 0
-2483 19 0
-2483 107 0
-2483 195 0
-19 -107 -195 2483 0
-2484 20 0
-2484 108 0
-2484 196 0
-20 -108 -196 2484 0
-2485 21 0
-2485 109 0
-2485 197 0
-21 -109 -197 2485 0
-2486 22 0
-2486 110 0
-2486 198 0
-22 -110 -198 2486 0
-2465 6675 0
-2466 6675 0
-2467 6675 0
-2468 6675 0
-2469 6675 0
-2470 6675 0
-2471 6675 0
-2472 6675 0
-2473 6675 0
-2474 6675 0
-2475 6675 0
-2476 6675 0
-2477 6675 0
-2478 6675 0
-2479 6675 0
-2480 6675 0
-2481 6675 0
-2482 6675 0
-2483 6675 0
-2484 6675 0
-2485 6675 0
-2486 6675 0
-6675 2465 2466 2467 2468 2469 2470 2471 2472 2473 2474 2475 2476 2477 2478 2479 2480 2481 2482 2483 2484 2485 2486 0
-2487 1 0
-2487 89 0
-2487 199 0
-1 -89 -199 2487 0
-2488 2 0
-2488 90 0
-2488 200 0
-2 -90 -200 2488 0
-2489 3 0
-2489 91 0
-2489 201 0
-3 -91 -201 2489 0
-2490 4 0
-2490 92 0
-2490 202 0
-4 -92 -202 2490 0
-2491 5 0
-2491 93 0
-2491 203 0
-5 -93 -203 2491 0
-2492 6 0
-2492 94 0
-2492 204 0
-6 -94 -204 2492 0
-2493 7 0
-2493 95 0
-2493 205 0
-7 -95 -205 2493 0
-2494 8 0
-2494 96 0
-2494 206 0
-8 -96 -206 2494 0
-2495 9 0
-2495 97 0
-2495 207 0
-9 -97 -207 2495 0
-2496 10 0
-2496 98 0
-2496 208 0
-10 -98 -208 2496 0
-2497 11 0
-2497 99 0
-2497 209 0
-11 -99 -209 2497 0
-2498 12 0
-2498 100 0
-2498 210 0
-12 -100 -210 2498 0
-2499 13 0
-2499 101 0
-2499 211 0
-13 -101 -211 2499 0
-2500 14 0
-2500 102 0
-2500 212 0
-14 -102 -212 2500 0
-2501 15 0
-2501 103 0
-2501 213 0
-15 -103 -213 2501 0
-2502 16 0
-2502 104 0
-2502 214 0
-16 -104 -214 2502 0
-2503 17 0
-2503 105 0
-2503 215 0
-17 -105 -215 2503 0
-2504 18 0
-2504 106 0
-2504 216 0
-18 -106 -216 2504 0
-2505 19 0
-2505 107 0
-2505 217 0
-19 -107 -217 2505 0
-2506 20 0
-2506 108 0
-2506 218 0
-20 -108 -218 2506 0
-2507 21 0
-2507 109 0
-2507 219 0
-21 -109 -219 2507 0
-2508 22 0
-2508 110 0
-2508 220 0
-22 -110 -220 2508 0
-2487 6676 0
-2488 6676 0
-2489 6676 0
-2490 6676 0
-2491 6676 0
-2492 6676 0
-2493 6676 0
-2494 6676 0
-2495 6676 0
-2496 6676 0
-2497 6676 0
-2498 6676 0
-2499 6676 0
-2500 6676 0
-2501 6676 0
-2502 6676 0
-2503 6676 0
-2504 6676 0
-2505 6676 0
-2506 6676 0
-2507 6676 0
-2508 6676 0
-6676 2487 2488 2489 2490 2491 2492 2493 2494 2495 2496 2497 2498 2499 2500 2501 2502 2503 2504 2505 2506 2507 2508 0
-2509 1 0
-2509 89 0
-2509 221 0
-1 -89 -221 2509 0
-2510 2 0
-2510 90 0
-2510 222 0
-2 -90 -222 2510 0
-2511 3 0
-2511 91 0
-2511 223 0
-3 -91 -223 2511 0
-2512 4 0
-2512 92 0
-2512 224 0
-4 -92 -224 2512 0
-2513 5 0
-2513 93 0
-2513 225 0
-5 -93 -225 2513 0
-2514 6 0
-2514 94 0
-2514 226 0
-6 -94 -226 2514 0
-2515 7 0
-2515 95 0
-2515 227 0
-7 -95 -227 2515 0
-2516 8 0
-2516 96 0
-2516 228 0
-8 -96 -228 2516 0
-2517 9 0
-2517 97 0
-2517 229 0
-9 -97 -229 2517 0
-2518 10 0
-2518 98 0
-2518 230 0
-10 -98 -230 2518 0
-2519 11 0
-2519 99 0
-2519 231 0
-11 -99 -231 2519 0
-2520 12 0
-2520 100 0
-2520 232 0
-12 -100 -232 2520 0
-2521 13 0
-2521 101 0
-2521 233 0
-13 -101 -233 2521 0
-2522 14 0
-2522 102 0
-2522 234 0
-14 -102 -234 2522 0
-2523 15 0
-2523 103 0
-2523 235 0
-15 -103 -235 2523 0
-2524 16 0
-2524 104 0
-2524 236 0
-16 -104 -236 2524 0
-2525 17 0
-2525 105 0
-2525 237 0
-17 -105 -237 2525 0
-2526 18 0
-2526 106 0
-2526 238 0
-18 -106 -238 2526 0
-2527 19 0
-2527 107 0
-2527 239 0
-19 -107 -239 2527 0
-2528 20 0
-2528 108 0
-2528 240 0
-20 -108 -240 2528 0
-2529 21 0
-2529 109 0
-2529 241 0
-21 -109 -241 2529 0
-2530 22 0
-2530 110 0
-2530 242 0
-22 -110 -242 2530 0
-2509 6677 0
-2510 6677 0
-2511 6677 0
-2512 6677 0
-2513 6677 0
-2514 6677 0
-2515 6677 0
-2516 6677 0
-2517 6677 0
-2518 6677 0
-2519 6677 0
-2520 6677 0
-2521 6677 0
-2522 6677 0
-2523 6677 0
-2524 6677 0
-2525 6677 0
-2526 6677 0
-2527 6677 0
-2528 6677 0
-2529 6677 0
-2530 6677 0
-6677 2509 2510 2511 2512 2513 2514 2515 2516 2517 2518 2519 2520 2521 2522 2523 2524 2525 2526 2527 2528 2529 2530 0
-2531 1 0
-2531 89 0
-2531 243 0
-1 -89 -243 2531 0
-2532 2 0
-2532 90 0
-2532 244 0
-2 -90 -244 2532 0
-2533 3 0
-2533 91 0
-2533 245 0
-3 -91 -245 2533 0
-2534 4 0
-2534 92 0
-2534 246 0
-4 -92 -246 2534 0
-2535 5 0
-2535 93 0
-2535 247 0
-5 -93 -247 2535 0
-2536 6 0
-2536 94 0
-2536 248 0
-6 -94 -248 2536 0
-2537 7 0
-2537 95 0
-2537 249 0
-7 -95 -249 2537 0
-2538 8 0
-2538 96 0
-2538 250 0
-8 -96 -250 2538 0
-2539 9 0
-2539 97 0
-2539 251 0
-9 -97 -251 2539 0
-2540 10 0
-2540 98 0
-2540 252 0
-10 -98 -252 2540 0
-2541 11 0
-2541 99 0
-2541 253 0
-11 -99 -253 2541 0
-2542 12 0
-2542 100 0
-2542 254 0
-12 -100 -254 2542 0
-2543 13 0
-2543 101 0
-2543 255 0
-13 -101 -255 2543 0
-2544 14 0
-2544 102 0
-2544 256 0
-14 -102 -256 2544 0
-2545 15 0
-2545 103 0
-2545 257 0
-15 -103 -257 2545 0
-2546 16 0
-2546 104 0
-2546 258 0
-16 -104 -258 2546 0
-2547 17 0
-2547 105 0
-2547 259 0
-17 -105 -259 2547 0
-2548 18 0
-2548 106 0
-2548 260 0
-18 -106 -260 2548 0
-2549 19 0
-2549 107 0
-2549 261 0
-19 -107 -261 2549 0
-2550 20 0
-2550 108 0
-2550 262 0
-20 -108 -262 2550 0
-2551 21 0
-2551 109 0
-2551 263 0
-21 -109 -263 2551 0
-2552 22 0
-2552 110 0
-2552 264 0
-22 -110 -264 2552 0
-2531 6678 0
-2532 6678 0
-2533 6678 0
-2534 6678 0
-2535 6678 0
-2536 6678 0
-2537 6678 0
-2538 6678 0
-2539 6678 0
-2540 6678 0
-2541 6678 0
-2542 6678 0
-2543 6678 0
-2544 6678 0
-2545 6678 0
-2546 6678 0
-2547 6678 0
-2548 6678 0
-2549 6678 0
-2550 6678 0
-2551 6678 0
-2552 6678 0
-6678 2531 2532 2533 2534 2535 2536 2537 2538 2539 2540 2541 2542 2543 2544 2545 2546 2547 2548 2549 2550 2551 2552 0
-2553 1 0
-2553 111 0
-2553 133 0
-1 -111 -133 2553 0
-2554 2 0
-2554 112 0
-2554 134 0
-2 -112 -134 2554 0
-2555 3 0
-2555 113 0
-2555 135 0
-3 -113 -135 2555 0
-2556 4 0
-2556 114 0
-2556 136 0
-4 -114 -136 2556 0
-2557 5 0
-2557 115 0
-2557 137 0
-5 -115 -137 2557 0
-2558 6 0
-2558 116 0
-2558 138 0
-6 -116 -138 2558 0
-2559 7 0
-2559 117 0
-2559 139 0
-7 -117 -139 2559 0
-2560 8 0
-2560 118 0
-2560 140 0
-8 -118 -140 2560 0
-2561 9 0
-2561 119 0
-2561 141 0
-9 -119 -141 2561 0
-2562 10 0
-2562 120 0
-2562 142 0
-10 -120 -142 2562 0
-2563 11 0
-2563 121 0
-2563 143 0
-11 -121 -143 2563 0
-2564 12 0
-2564 122 0
-2564 144 0
-12 -122 -144 2564 0
-2565 13 0
-2565 123 0
-2565 145 0
-13 -123 -145 2565 0
-2566 14 0
-2566 124 0
-2566 146 0
-14 -124 -146 2566 0
-2567 15 0
-2567 125 0
-2567 147 0
-15 -125 -147 2567 0
-2568 16 0
-2568 126 0
-2568 148 0
-16 -126 -148 2568 0
-2569 17 0
-2569 127 0
-2569 149 0
-17 -127 -149 2569 0
-2570 18 0
-2570 128 0
-2570 150 0
-18 -128 -150 2570 0
-2571 19 0
-2571 129 0
-2571 151 0
-19 -129 -151 2571 0
-2572 20 0
-2572 130 0
-2572 152 0
-20 -130 -152 2572 0
-2573 21 0
-2573 131 0
-2573 153 0
-21 -131 -153 2573 0
-2574 22 0
-2574 132 0
-2574 154 0
-22 -132 -154 2574 0
-2553 6679 0
-2554 6679 0
-2555 6679 0
-2556 6679 0
-2557 6679 0
-2558 6679 0
-2559 6679 0
-2560 6679 0
-2561 6679 0
-2562 6679 0
-2563 6679 0
-2564 6679 0
-2565 6679 0
-2566 6679 0
-2567 6679 0
-2568 6679 0
-2569 6679 0
-2570 6679 0
-2571 6679 0
-2572 6679 0
-2573 6679 0
-2574 6679 0
-6679 2553 2554 2555 2556 2557 2558 2559 2560 2561 2562 2563 2564 2565 2566 2567 2568 2569 2570 2571 2572 2573 2574 0
-2575 1 0
-2575 111 0
-2575 155 0
-1 -111 -155 2575 0
-2576 2 0
-2576 112 0
-2576 156 0
-2 -112 -156 2576 0
-2577 3 0
-2577 113 0
-2577 157 0
-3 -113 -157 2577 0
-2578 4 0
-2578 114 0
-2578 158 0
-4 -114 -158 2578 0
-2579 5 0
-2579 115 0
-2579 159 0
-5 -115 -159 2579 0
-2580 6 0
-2580 116 0
-2580 160 0
-6 -116 -160 2580 0
-2581 7 0
-2581 117 0
-2581 161 0
-7 -117 -161 2581 0
-2582 8 0
-2582 118 0
-2582 162 0
-8 -118 -162 2582 0
-2583 9 0
-2583 119 0
-2583 163 0
-9 -119 -163 2583 0
-2584 10 0
-2584 120 0
-2584 164 0
-10 -120 -164 2584 0
-2585 11 0
-2585 121 0
-2585 165 0
-11 -121 -165 2585 0
-2586 12 0
-2586 122 0
-2586 166 0
-12 -122 -166 2586 0
-2587 13 0
-2587 123 0
-2587 167 0
-13 -123 -167 2587 0
-2588 14 0
-2588 124 0
-2588 168 0
-14 -124 -168 2588 0
-2589 15 0
-2589 125 0
-2589 169 0
-15 -125 -169 2589 0
-2590 16 0
-2590 126 0
-2590 170 0
-16 -126 -170 2590 0
-2591 17 0
-2591 127 0
-2591 171 0
-17 -127 -171 2591 0
-2592 18 0
-2592 128 0
-2592 172 0
-18 -128 -172 2592 0
-2593 19 0
-2593 129 0
-2593 173 0
-19 -129 -173 2593 0
-2594 20 0
-2594 130 0
-2594 174 0
-20 -130 -174 2594 0
-2595 21 0
-2595 131 0
-2595 175 0
-21 -131 -175 2595 0
-2596 22 0
-2596 132 0
-2596 176 0
-22 -132 -176 2596 0
-2575 6680 0
-2576 6680 0
-2577 6680 0
-2578 6680 0
-2579 6680 0
-2580 6680 0
-2581 6680 0
-2582 6680 0
-2583 6680 0
-2584 6680 0
-2585 6680 0
-2586 6680 0
-2587 6680 0
-2588 6680 0
-2589 6680 0
-2590 6680 0
-2591 6680 0
-2592 6680 0
-2593 6680 0
-2594 6680 0
-2595 6680 0
-2596 6680 0
-6680 2575 2576 2577 2578 2579 2580 2581 2582 2583 2584 2585 2586 2587 2588 2589 2590 2591 2592 2593 2594 2595 2596 0
-2597 1 0
-2597 111 0
-2597 177 0
-1 -111 -177 2597 0
-2598 2 0
-2598 112 0
-2598 178 0
-2 -112 -178 2598 0
-2599 3 0
-2599 113 0
-2599 179 0
-3 -113 -179 2599 0
-2600 4 0
-2600 114 0
-2600 180 0
-4 -114 -180 2600 0
-2601 5 0
-2601 115 0
-2601 181 0
-5 -115 -181 2601 0
-2602 6 0
-2602 116 0
-2602 182 0
-6 -116 -182 2602 0
-2603 7 0
-2603 117 0
-2603 183 0
-7 -117 -183 2603 0
-2604 8 0
-2604 118 0
-2604 184 0
-8 -118 -184 2604 0
-2605 9 0
-2605 119 0
-2605 185 0
-9 -119 -185 2605 0
-2606 10 0
-2606 120 0
-2606 186 0
-10 -120 -186 2606 0
-2607 11 0
-2607 121 0
-2607 187 0
-11 -121 -187 2607 0
-2608 12 0
-2608 122 0
-2608 188 0
-12 -122 -188 2608 0
-2609 13 0
-2609 123 0
-2609 189 0
-13 -123 -189 2609 0
-2610 14 0
-2610 124 0
-2610 190 0
-14 -124 -190 2610 0
-2611 15 0
-2611 125 0
-2611 191 0
-15 -125 -191 2611 0
-2612 16 0
-2612 126 0
-2612 192 0
-16 -126 -192 2612 0
-2613 17 0
-2613 127 0
-2613 193 0
-17 -127 -193 2613 0
-2614 18 0
-2614 128 0
-2614 194 0
-18 -128 -194 2614 0
-2615 19 0
-2615 129 0
-2615 195 0
-19 -129 -195 2615 0
-2616 20 0
-2616 130 0
-2616 196 0
-20 -130 -196 2616 0
-2617 21 0
-2617 131 0
-2617 197 0
-21 -131 -197 2617 0
-2618 22 0
-2618 132 0
-2618 198 0
-22 -132 -198 2618 0
-2597 6681 0
-2598 6681 0
-2599 6681 0
-2600 6681 0
-2601 6681 0
-2602 6681 0
-2603 6681 0
-2604 6681 0
-2605 6681 0
-2606 6681 0
-2607 6681 0
-2608 6681 0
-2609 6681 0
-2610 6681 0
-2611 6681 0
-2612 6681 0
-2613 6681 0
-2614 6681 0
-2615 6681 0
-2616 6681 0
-2617 6681 0
-2618 6681 0
-6681 2597 2598 2599 2600 2601 2602 2603 2604 2605 2606 2607 2608 2609 2610 2611 2612 2613 2614 2615 2616 2617 2618 0
-2619 1 0
-2619 111 0
-2619 199 0
-1 -111 -199 2619 0
-2620 2 0
-2620 112 0
-2620 200 0
-2 -112 -200 2620 0
-2621 3 0
-2621 113 0
-2621 201 0
-3 -113 -201 2621 0
-2622 4 0
-2622 114 0
-2622 202 0
-4 -114 -202 2622 0
-2623 5 0
-2623 115 0
-2623 203 0
-5 -115 -203 2623 0
-2624 6 0
-2624 116 0
-2624 204 0
-6 -116 -204 2624 0
-2625 7 0
-2625 117 0
-2625 205 0
-7 -117 -205 2625 0
-2626 8 0
-2626 118 0
-2626 206 0
-8 -118 -206 2626 0
-2627 9 0
-2627 119 0
-2627 207 0
-9 -119 -207 2627 0
-2628 10 0
-2628 120 0
-2628 208 0
-10 -120 -208 2628 0
-2629 11 0
-2629 121 0
-2629 209 0
-11 -121 -209 2629 0
-2630 12 0
-2630 122 0
-2630 210 0
-12 -122 -210 2630 0
-2631 13 0
-2631 123 0
-2631 211 0
-13 -123 -211 2631 0
-2632 14 0
-2632 124 0
-2632 212 0
-14 -124 -212 2632 0
-2633 15 0
-2633 125 0
-2633 213 0
-15 -125 -213 2633 0
-2634 16 0
-2634 126 0
-2634 214 0
-16 -126 -214 2634 0
-2635 17 0
-2635 127 0
-2635 215 0
-17 -127 -215 2635 0
-2636 18 0
-2636 128 0
-2636 216 0
-18 -128 -216 2636 0
-2637 19 0
-2637 129 0
-2637 217 0
-19 -129 -217 2637 0
-2638 20 0
-2638 130 0
-2638 218 0
-20 -130 -218 2638 0
-2639 21 0
-2639 131 0
-2639 219 0
-21 -131 -219 2639 0
-2640 22 0
-2640 132 0
-2640 220 0
-22 -132 -220 2640 0
-2619 6682 0
-2620 6682 0
-2621 6682 0
-2622 6682 0
-2623 6682 0
-2624 6682 0
-2625 6682 0
-2626 6682 0
-2627 6682 0
-2628 6682 0
-2629 6682 0
-2630 6682 0
-2631 6682 0
-2632 6682 0
-2633 6682 0
-2634 6682 0
-2635 6682 0
-2636 6682 0
-2637 6682 0
-2638 6682 0
-2639 6682 0
-2640 6682 0
-6682 2619 2620 2621 2622 2623 2624 2625 2626 2627 2628 2629 2630 2631 2632 2633 2634 2635 2636 2637 2638 2639 2640 0
-2641 1 0
-2641 111 0
-2641 221 0
-1 -111 -221 2641 0
-2642 2 0
-2642 112 0
-2642 222 0
-2 -112 -222 2642 0
-2643 3 0
-2643 113 0
-2643 223 0
-3 -113 -223 2643 0
-2644 4 0
-2644 114 0
-2644 224 0
-4 -114 -224 2644 0
-2645 5 0
-2645 115 0
-2645 225 0
-5 -115 -225 2645 0
-2646 6 0
-2646 116 0
-2646 226 0
-6 -116 -226 2646 0
-2647 7 0
-2647 117 0
-2647 227 0
-7 -117 -227 2647 0
-2648 8 0
-2648 118 0
-2648 228 0
-8 -118 -228 2648 0
-2649 9 0
-2649 119 0
-2649 229 0
-9 -119 -229 2649 0
-2650 10 0
-2650 120 0
-2650 230 0
-10 -120 -230 2650 0
-2651 11 0
-2651 121 0
-2651 231 0
-11 -121 -231 2651 0
-2652 12 0
-2652 122 0
-2652 232 0
-12 -122 -232 2652 0
-2653 13 0
-2653 123 0
-2653 233 0
-13 -123 -233 2653 0
-2654 14 0
-2654 124 0
-2654 234 0
-14 -124 -234 2654 0
-2655 15 0
-2655 125 0
-2655 235 0
-15 -125 -235 2655 0
-2656 16 0
-2656 126 0
-2656 236 0
-16 -126 -236 2656 0
-2657 17 0
-2657 127 0
-2657 237 0
-17 -127 -237 2657 0
-2658 18 0
-2658 128 0
-2658 238 0
-18 -128 -238 2658 0
-2659 19 0
-2659 129 0
-2659 239 0
-19 -129 -239 2659 0
-2660 20 0
-2660 130 0
-2660 240 0
-20 -130 -240 2660 0
-2661 21 0
-2661 131 0
-2661 241 0
-21 -131 -241 2661 0
-2662 22 0
-2662 132 0
-2662 242 0
-22 -132 -242 2662 0
-2641 6683 0
-2642 6683 0
-2643 6683 0
-2644 6683 0
-2645 6683 0
-2646 6683 0
-2647 6683 0
-2648 6683 0
-2649 6683 0
-2650 6683 0
-2651 6683 0
-2652 6683 0
-2653 6683 0
-2654 6683 0
-2655 6683 0
-2656 6683 0
-2657 6683 0
-2658 6683 0
-2659 6683 0
-2660 6683 0
-2661 6683 0
-2662 6683 0
-6683 2641 2642 2643 2644 2645 2646 2647 2648 2649 2650 2651 2652 2653 2654 2655 2656 2657 2658 2659 2660 2661 2662 0
-2663 1 0
-2663 111 0
-2663 243 0
-1 -111 -243 2663 0
-2664 2 0
-2664 112 0
-2664 244 0
-2 -112 -244 2664 0
-2665 3 0
-2665 113 0
-2665 245 0
-3 -113 -245 2665 0
-2666 4 0
-2666 114 0
-2666 246 0
-4 -114 -246 2666 0
-2667 5 0
-2667 115 0
-2667 247 0
-5 -115 -247 2667 0
-2668 6 0
-2668 116 0
-2668 248 0
-6 -116 -248 2668 0
-2669 7 0
-2669 117 0
-2669 249 0
-7 -117 -249 2669 0
-2670 8 0
-2670 118 0
-2670 250 0
-8 -118 -250 2670 0
-2671 9 0
-2671 119 0
-2671 251 0
-9 -119 -251 2671 0
-2672 10 0
-2672 120 0
-2672 252 0
-10 -120 -252 2672 0
-2673 11 0
-2673 121 0
-2673 253 0
-11 -121 -253 2673 0
-2674 12 0
-2674 122 0
-2674 254 0
-12 -122 -254 2674 0
-2675 13 0
-2675 123 0
-2675 255 0
-13 -123 -255 2675 0
-2676 14 0
-2676 124 0
-2676 256 0
-14 -124 -256 2676 0
-2677 15 0
-2677 125 0
-2677 257 0
-15 -125 -257 2677 0
-2678 16 0
-2678 126 0
-2678 258 0
-16 -126 -258 2678 0
-2679 17 0
-2679 127 0
-2679 259 0
-17 -127 -259 2679 0
-2680 18 0
-2680 128 0
-2680 260 0
-18 -128 -260 2680 0
-2681 19 0
-2681 129 0
-2681 261 0
-19 -129 -261 2681 0
-2682 20 0
-2682 130 0
-2682 262 0
-20 -130 -262 2682 0
-2683 21 0
-2683 131 0
-2683 263 0
-21 -131 -263 2683 0
-2684 22 0
-2684 132 0
-2684 264 0
-22 -132 -264 2684 0
-2663 6684 0
-2664 6684 0
-2665 6684 0
-2666 6684 0
-2667 6684 0
-2668 6684 0
-2669 6684 0
-2670 6684 0
-2671 6684 0
-2672 6684 0
-2673 6684 0
-2674 6684 0
-2675 6684 0
-2676 6684 0
-2677 6684 0
-2678 6684 0
-2679 6684 0
-2680 6684 0
-2681 6684 0
-2682 6684 0
-2683 6684 0
-2684 6684 0
-6684 2663 2664 2665 2666 2667 2668 2669 2670 2671 2672 2673 2674 2675 2676 2677 2678 2679 2680 2681 2682 2683 2684 0
-2685 1 0
-2685 133 0
-2685 155 0
-1 -133 -155 2685 0
-2686 2 0
-2686 134 0
-2686 156 0
-2 -134 -156 2686 0
-2687 3 0
-2687 135 0
-2687 157 0
-3 -135 -157 2687 0
-2688 4 0
-2688 136 0
-2688 158 0
-4 -136 -158 2688 0
-2689 5 0
-2689 137 0
-2689 159 0
-5 -137 -159 2689 0
-2690 6 0
-2690 138 0
-2690 160 0
-6 -138 -160 2690 0
-2691 7 0
-2691 139 0
-2691 161 0
-7 -139 -161 2691 0
-2692 8 0
-2692 140 0
-2692 162 0
-8 -140 -162 2692 0
-2693 9 0
-2693 141 0
-2693 163 0
-9 -141 -163 2693 0
-2694 10 0
-2694 142 0
-2694 164 0
-10 -142 -164 2694 0
-2695 11 0
-2695 143 0
-2695 165 0
-11 -143 -165 2695 0
-2696 12 0
-2696 144 0
-2696 166 0
-12 -144 -166 2696 0
-2697 13 0
-2697 145 0
-2697 167 0
-13 -145 -167 2697 0
-2698 14 0
-2698 146 0
-2698 168 0
-14 -146 -168 2698 0
-2699 15 0
-2699 147 0
-2699 169 0
-15 -147 -169 2699 0
-2700 16 0
-2700 148 0
-2700 170 0
-16 -148 -170 2700 0
-2701 17 0
-2701 149 0
-2701 171 0
-17 -149 -171 2701 0
-2702 18 0
-2702 150 0
-2702 172 0
-18 -150 -172 2702 0
-2703 19 0
-2703 151 0
-2703 173 0
-19 -151 -173 2703 0
-2704 20 0
-2704 152 0
-2704 174 0
-20 -152 -174 2704 0
-2705 21 0
-2705 153 0
-2705 175 0
-21 -153 -175 2705 0
-2706 22 0
-2706 154 0
-2706 176 0
-22 -154 -176 2706 0
-2685 6685 0
-2686 6685 0
-2687 6685 0
-2688 6685 0
-2689 6685 0
-2690 6685 0
-2691 6685 0
-2692 6685 0
-2693 6685 0
-2694 6685 0
-2695 6685 0
-2696 6685 0
-2697 6685 0
-2698 6685 0
-2699 6685 0
-2700 6685 0
-2701 6685 0
-2702 6685 0
-2703 6685 0
-2704 6685 0
-2705 6685 0
-2706 6685 0
-6685 2685 2686 2687 2688 2689 2690 2691 2692 2693 2694 2695 2696 2697 2698 2699 2700 2701 2702 2703 2704 2705 2706 0
-2707 1 0
-2707 133 0
-2707 177 0
-1 -133 -177 2707 0
-2708 2 0
-2708 134 0
-2708 178 0
-2 -134 -178 2708 0
-2709 3 0
-2709 135 0
-2709 179 0
-3 -135 -179 2709 0
-2710 4 0
-2710 136 0
-2710 180 0
-4 -136 -180 2710 0
-2711 5 0
-2711 137 0
-2711 181 0
-5 -137 -181 2711 0
-2712 6 0
-2712 138 0
-2712 182 0
-6 -138 -182 2712 0
-2713 7 0
-2713 139 0
-2713 183 0
-7 -139 -183 2713 0
-2714 8 0
-2714 140 0
-2714 184 0
-8 -140 -184 2714 0
-2715 9 0
-2715 141 0
-2715 185 0
-9 -141 -185 2715 0
-2716 10 0
-2716 142 0
-2716 186 0
-10 -142 -186 2716 0
-2717 11 0
-2717 143 0
-2717 187 0
-11 -143 -187 2717 0
-2718 12 0
-2718 144 0
-2718 188 0
-12 -144 -188 2718 0
-2719 13 0
-2719 145 0
-2719 189 0
-13 -145 -189 2719 0
-2720 14 0
-2720 146 0
-2720 190 0
-14 -146 -190 2720 0
-2721 15 0
-2721 147 0
-2721 191 0
-15 -147 -191 2721 0
-2722 16 0
-2722 148 0
-2722 192 0
-16 -148 -192 2722 0
-2723 17 0
-2723 149 0
-2723 193 0
-17 -149 -193 2723 0
-2724 18 0
-2724 150 0
-2724 194 0
-18 -150 -194 2724 0
-2725 19 0
-2725 151 0
-2725 195 0
-19 -151 -195 2725 0
-2726 20 0
-2726 152 0
-2726 196 0
-20 -152 -196 2726 0
-2727 21 0
-2727 153 0
-2727 197 0
-21 -153 -197 2727 0
-2728 22 0
-2728 154 0
-2728 198 0
-22 -154 -198 2728 0
-2707 6686 0
-2708 6686 0
-2709 6686 0
-2710 6686 0
-2711 6686 0
-2712 6686 0
-2713 6686 0
-2714 6686 0
-2715 6686 0
-2716 6686 0
-2717 6686 0
-2718 6686 0
-2719 6686 0
-2720 6686 0
-2721 6686 0
-2722 6686 0
-2723 6686 0
-2724 6686 0
-2725 6686 0
-2726 6686 0
-2727 6686 0
-2728 6686 0
-6686 2707 2708 2709 2710 2711 2712 2713 2714 2715 2716 2717 2718 2719 2720 2721 2722 2723 2724 2725 2726 2727 2728 0
-2729 1 0
-2729 133 0
-2729 199 0
-1 -133 -199 2729 0
-2730 2 0
-2730 134 0
-2730 200 0
-2 -134 -200 2730 0
-2731 3 0
-2731 135 0
-2731 201 0
-3 -135 -201 2731 0
-2732 4 0
-2732 136 0
-2732 202 0
-4 -136 -202 2732 0
-2733 5 0
-2733 137 0
-2733 203 0
-5 -137 -203 2733 0
-2734 6 0
-2734 138 0
-2734 204 0
-6 -138 -204 2734 0
-2735 7 0
-2735 139 0
-2735 205 0
-7 -139 -205 2735 0
-2736 8 0
-2736 140 0
-2736 206 0
-8 -140 -206 2736 0
-2737 9 0
-2737 141 0
-2737 207 0
-9 -141 -207 2737 0
-2738 10 0
-2738 142 0
-2738 208 0
-10 -142 -208 2738 0
-2739 11 0
-2739 143 0
-2739 209 0
-11 -143 -209 2739 0
-2740 12 0
-2740 144 0
-2740 210 0
-12 -144 -210 2740 0
-2741 13 0
-2741 145 0
-2741 211 0
-13 -145 -211 2741 0
-2742 14 0
-2742 146 0
-2742 212 0
-14 -146 -212 2742 0
-2743 15 0
-2743 147 0
-2743 213 0
-15 -147 -213 2743 0
-2744 16 0
-2744 148 0
-2744 214 0
-16 -148 -214 2744 0
-2745 17 0
-2745 149 0
-2745 215 0
-17 -149 -215 2745 0
-2746 18 0
-2746 150 0
-2746 216 0
-18 -150 -216 2746 0
-2747 19 0
-2747 151 0
-2747 217 0
-19 -151 -217 2747 0
-2748 20 0
-2748 152 0
-2748 218 0
-20 -152 -218 2748 0
-2749 21 0
-2749 153 0
-2749 219 0
-21 -153 -219 2749 0
-2750 22 0
-2750 154 0
-2750 220 0
-22 -154 -220 2750 0
-2729 6687 0
-2730 6687 0
-2731 6687 0
-2732 6687 0
-2733 6687 0
-2734 6687 0
-2735 6687 0
-2736 6687 0
-2737 6687 0
-2738 6687 0
-2739 6687 0
-2740 6687 0
-2741 6687 0
-2742 6687 0
-2743 6687 0
-2744 6687 0
-2745 6687 0
-2746 6687 0
-2747 6687 0
-2748 6687 0
-2749 6687 0
-2750 6687 0
-6687 2729 2730 2731 2732 2733 2734 2735 2736 2737 2738 2739 2740 2741 2742 2743 2744 2745 2746 2747 2748 2749 2750 0
-2751 1 0
-2751 133 0
-2751 221 0
-1 -133 -221 2751 0
-2752 2 0
-2752 134 0
-2752 222 0
-2 -134 -222 2752 0
-2753 3 0
-2753 135 0
-2753 223 0
-3 -135 -223 2753 0
-2754 4 0
-2754 136 0
-2754 224 0
-4 -136 -224 2754 0
-2755 5 0
-2755 137 0
-2755 225 0
-5 -137 -225 2755 0
-2756 6 0
-2756 138 0
-2756 226 0
-6 -138 -226 2756 0
-2757 7 0
-2757 139 0
-2757 227 0
-7 -139 -227 2757 0
-2758 8 0
-2758 140 0
-2758 228 0
-8 -140 -228 2758 0
-2759 9 0
-2759 141 0
-2759 229 0
-9 -141 -229 2759 0
-2760 10 0
-2760 142 0
-2760 230 0
-10 -142 -230 2760 0
-2761 11 0
-2761 143 0
-2761 231 0
-11 -143 -231 2761 0
-2762 12 0
-2762 144 0
-2762 232 0
-12 -144 -232 2762 0
-2763 13 0
-2763 145 0
-2763 233 0
-13 -145 -233 2763 0
-2764 14 0
-2764 146 0
-2764 234 0
-14 -146 -234 2764 0
-2765 15 0
-2765 147 0
-2765 235 0
-15 -147 -235 2765 0
-2766 16 0
-2766 148 0
-2766 236 0
-16 -148 -236 2766 0
-2767 17 0
-2767 149 0
-2767 237 0
-17 -149 -237 2767 0
-2768 18 0
-2768 150 0
-2768 238 0
-18 -150 -238 2768 0
-2769 19 0
-2769 151 0
-2769 239 0
-19 -151 -239 2769 0
-2770 20 0
-2770 152 0
-2770 240 0
-20 -152 -240 2770 0
-2771 21 0
-2771 153 0
-2771 241 0
-21 -153 -241 2771 0
-2772 22 0
-2772 154 0
-2772 242 0
-22 -154 -242 2772 0
-2751 6688 0
-2752 6688 0
-2753 6688 0
-2754 6688 0
-2755 6688 0
-2756 6688 0
-2757 6688 0
-2758 6688 0
-2759 6688 0
-2760 6688 0
-2761 6688 0
-2762 6688 0
-2763 6688 0
-2764 6688 0
-2765 6688 0
-2766 6688 0
-2767 6688 0
-2768 6688 0
-2769 6688 0
-2770 6688 0
-2771 6688 0
-2772 6688 0
-6688 2751 2752 2753 2754 2755 2756 2757 2758 2759 2760 2761 2762 2763 2764 2765 2766 2767 2768 2769 2770 2771 2772 0
-2773 1 0
-2773 133 0
-2773 243 0
-1 -133 -243 2773 0
-2774 2 0
-2774 134 0
-2774 244 0
-2 -134 -244 2774 0
-2775 3 0
-2775 135 0
-2775 245 0
-3 -135 -245 2775 0
-2776 4 0
-2776 136 0
-2776 246 0
-4 -136 -246 2776 0
-2777 5 0
-2777 137 0
-2777 247 0
-5 -137 -247 2777 0
-2778 6 0
-2778 138 0
-2778 248 0
-6 -138 -248 2778 0
-2779 7 0
-2779 139 0
-2779 249 0
-7 -139 -249 2779 0
-2780 8 0
-2780 140 0
-2780 250 0
-8 -140 -250 2780 0
-2781 9 0
-2781 141 0
-2781 251 0
-9 -141 -251 2781 0
-2782 10 0
-2782 142 0
-2782 252 0
-10 -142 -252 2782 0
-2783 11 0
-2783 143 0
-2783 253 0
-11 -143 -253 2783 0
-2784 12 0
-2784 144 0
-2784 254 0
-12 -144 -254 2784 0
-2785 13 0
-2785 145 0
-2785 255 0
-13 -145 -255 2785 0
-2786 14 0
-2786 146 0
-2786 256 0
-14 -146 -256 2786 0
-2787 15 0
-2787 147 0
-2787 257 0
-15 -147 -257 2787 0
-2788 16 0
-2788 148 0
-2788 258 0
-16 -148 -258 2788 0
-2789 17 0
-2789 149 0
-2789 259 0
-17 -149 -259 2789 0
-2790 18 0
-2790 150 0
-2790 260 0
-18 -150 -260 2790 0
-2791 19 0
-2791 151 0
-2791 261 0
-19 -151 -261 2791 0
-2792 20 0
-2792 152 0
-2792 262 0
-20 -152 -262 2792 0
-2793 21 0
-2793 153 0
-2793 263 0
-21 -153 -263 2793 0
-2794 22 0
-2794 154 0
-2794 264 0
-22 -154 -264 2794 0
-2773 6689 0
-2774 6689 0
-2775 6689 0
-2776 6689 0
-2777 6689 0
-2778 6689 0
-2779 6689 0
-2780 6689 0
-2781 6689 0
-2782 6689 0
-2783 6689 0
-2784 6689 0
-2785 6689 0
-2786 6689 0
-2787 6689 0
-2788 6689 0
-2789 6689 0
-2790 6689 0
-2791 6689 0
-2792 6689 0
-2793 6689 0
-2794 6689 0
-6689 2773 2774 2775 2776 2777 2778 2779 2780 2781 2782 2783 2784 2785 2786 2787 2788 2789 2790 2791 2792 2793 2794 0
-2795 1 0
-2795 155 0
-2795 177 0
-1 -155 -177 2795 0
-2796 2 0
-2796 156 0
-2796 178 0
-2 -156 -178 2796 0
-2797 3 0
-2797 157 0
-2797 179 0
-3 -157 -179 2797 0
-2798 4 0
-2798 158 0
-2798 180 0
-4 -158 -180 2798 0
-2799 5 0
-2799 159 0
-2799 181 0
-5 -159 -181 2799 0
-2800 6 0
-2800 160 0
-2800 182 0
-6 -160 -182 2800 0
-2801 7 0
-2801 161 0
-2801 183 0
-7 -161 -183 2801 0
-2802 8 0
-2802 162 0
-2802 184 0
-8 -162 -184 2802 0
-2803 9 0
-2803 163 0
-2803 185 0
-9 -163 -185 2803 0
-2804 10 0
-2804 164 0
-2804 186 0
-10 -164 -186 2804 0
-2805 11 0
-2805 165 0
-2805 187 0
-11 -165 -187 2805 0
-2806 12 0
-2806 166 0
-2806 188 0
-12 -166 -188 2806 0
-2807 13 0
-2807 167 0
-2807 189 0
-13 -167 -189 2807 0
-2808 14 0
-2808 168 0
-2808 190 0
-14 -168 -190 2808 0
-2809 15 0
-2809 169 0
-2809 191 0
-15 -169 -191 2809 0
-2810 16 0
-2810 170 0
-2810 192 0
-16 -170 -192 2810 0
-2811 17 0
-2811 171 0
-2811 193 0
-17 -171 -193 2811 0
-2812 18 0
-2812 172 0
-2812 194 0
-18 -172 -194 2812 0
-2813 19 0
-2813 173 0
-2813 195 0
-19 -173 -195 2813 0
-2814 20 0
-2814 174 0
-2814 196 0
-20 -174 -196 2814 0
-2815 21 0
-2815 175 0
-2815 197 0
-21 -175 -197 2815 0
-2816 22 0
-2816 176 0
-2816 198 0
-22 -176 -198 2816 0
-2795 6690 0
-2796 6690 0
-2797 6690 0
-2798 6690 0
-2799 6690 0
-2800 6690 0
-2801 6690 0
-2802 6690 0
-2803 6690 0
-2804 6690 0
-2805 6690 0
-2806 6690 0
-2807 6690 0
-2808 6690 0
-2809 6690 0
-2810 6690 0
-2811 6690 0
-2812 6690 0
-2813 6690 0
-2814 6690 0
-2815 6690 0
-2816 6690 0
-6690 2795 2796 2797 2798 2799 2800 2801 2802 2803 2804 2805 2806 2807 2808 2809 2810 2811 2812 2813 2814 2815 2816 0
-2817 1 0
-2817 155 0
-2817 199 0
-1 -155 -199 2817 0
-2818 2 0
-2818 156 0
-2818 200 0
-2 -156 -200 2818 0
-2819 3 0
-2819 157 0
-2819 201 0
-3 -157 -201 2819 0
-2820 4 0
-2820 158 0
-2820 202 0
-4 -158 -202 2820 0
-2821 5 0
-2821 159 0
-2821 203 0
-5 -159 -203 2821 0
-2822 6 0
-2822 160 0
-2822 204 0
-6 -160 -204 2822 0
-2823 7 0
-2823 161 0
-2823 205 0
-7 -161 -205 2823 0
-2824 8 0
-2824 162 0
-2824 206 0
-8 -162 -206 2824 0
-2825 9 0
-2825 163 0
-2825 207 0
-9 -163 -207 2825 0
-2826 10 0
-2826 164 0
-2826 208 0
-10 -164 -208 2826 0
-2827 11 0
-2827 165 0
-2827 209 0
-11 -165 -209 2827 0
-2828 12 0
-2828 166 0
-2828 210 0
-12 -166 -210 2828 0
-2829 13 0
-2829 167 0
-2829 211 0
-13 -167 -211 2829 0
-2830 14 0
-2830 168 0
-2830 212 0
-14 -168 -212 2830 0
-2831 15 0
-2831 169 0
-2831 213 0
-15 -169 -213 2831 0
-2832 16 0
-2832 170 0
-2832 214 0
-16 -170 -214 2832 0
-2833 17 0
-2833 171 0
-2833 215 0
-17 -171 -215 2833 0
-2834 18 0
-2834 172 0
-2834 216 0
-18 -172 -216 2834 0
-2835 19 0
-2835 173 0
-2835 217 0
-19 -173 -217 2835 0
-2836 20 0
-2836 174 0
-2836 218 0
-20 -174 -218 2836 0
-2837 21 0
-2837 175 0
-2837 219 0
-21 -175 -219 2837 0
-2838 22 0
-2838 176 0
-2838 220 0
-22 -176 -220 2838 0
-2817 6691 0
-2818 6691 0
-2819 6691 0
-2820 6691 0
-2821 6691 0
-2822 6691 0
-2823 6691 0
-2824 6691 0
-2825 6691 0
-2826 6691 0
-2827 6691 0
-2828 6691 0
-2829 6691 0
-2830 6691 0
-2831 6691 0
-2832 6691 0
-2833 6691 0
-2834 6691 0
-2835 6691 0
-2836 6691 0
-2837 6691 0
-2838 6691 0
-6691 2817 2818 2819 2820 2821 2822 2823 2824 2825 2826 2827 2828 2829 2830 2831 2832 2833 2834 2835 2836 2837 2838 0
-2839 1 0
-2839 155 0
-2839 221 0
-1 -155 -221 2839 0
-2840 2 0
-2840 156 0
-2840 222 0
-2 -156 -222 2840 0
-2841 3 0
-2841 157 0
-2841 223 0
-3 -157 -223 2841 0
-2842 4 0
-2842 158 0
-2842 224 0
-4 -158 -224 2842 0
-2843 5 0
-2843 159 0
-2843 225 0
-5 -159 -225 2843 0
-2844 6 0
-2844 160 0
-2844 226 0
-6 -160 -226 2844 0
-2845 7 0
-2845 161 0
-2845 227 0
-7 -161 -227 2845 0
-2846 8 0
-2846 162 0
-2846 228 0
-8 -162 -228 2846 0
-2847 9 0
-2847 163 0
-2847 229 0
-9 -163 -229 2847 0
-2848 10 0
-2848 164 0
-2848 230 0
-10 -164 -230 2848 0
-2849 11 0
-2849 165 0
-2849 231 0
-11 -165 -231 2849 0
-2850 12 0
-2850 166 0
-2850 232 0
-12 -166 -232 2850 0
-2851 13 0
-2851 167 0
-2851 233 0
-13 -167 -233 2851 0
-2852 14 0
-2852 168 0
-2852 234 0
-14 -168 -234 2852 0
-2853 15 0
-2853 169 0
-2853 235 0
-15 -169 -235 2853 0
-2854 16 0
-2854 170 0
-2854 236 0
-16 -170 -236 2854 0
-2855 17 0
-2855 171 0
-2855 237 0
-17 -171 -237 2855 0
-2856 18 0
-2856 172 0
-2856 238 0
-18 -172 -238 2856 0
-2857 19 0
-2857 173 0
-2857 239 0
-19 -173 -239 2857 0
-2858 20 0
-2858 174 0
-2858 240 0
-20 -174 -240 2858 0
-2859 21 0
-2859 175 0
-2859 241 0
-21 -175 -241 2859 0
-2860 22 0
-2860 176 0
-2860 242 0
-22 -176 -242 2860 0
-2839 6692 0
-2840 6692 0
-2841 6692 0
-2842 6692 0
-2843 6692 0
-2844 6692 0
-2845 6692 0
-2846 6692 0
-2847 6692 0
-2848 6692 0
-2849 6692 0
-2850 6692 0
-2851 6692 0
-2852 6692 0
-2853 6692 0
-2854 6692 0
-2855 6692 0
-2856 6692 0
-2857 6692 0
-2858 6692 0
-2859 6692 0
-2860 6692 0
-6692 2839 2840 2841 2842 2843 2844 2845 2846 2847 2848 2849 2850 2851 2852 2853 2854 2855 2856 2857 2858 2859 2860 0
-2861 1 0
-2861 155 0
-2861 243 0
-1 -155 -243 2861 0
-2862 2 0
-2862 156 0
-2862 244 0
-2 -156 -244 2862 0
-2863 3 0
-2863 157 0
-2863 245 0
-3 -157 -245 2863 0
-2864 4 0
-2864 158 0
-2864 246 0
-4 -158 -246 2864 0
-2865 5 0
-2865 159 0
-2865 247 0
-5 -159 -247 2865 0
-2866 6 0
-2866 160 0
-2866 248 0
-6 -160 -248 2866 0
-2867 7 0
-2867 161 0
-2867 249 0
-7 -161 -249 2867 0
-2868 8 0
-2868 162 0
-2868 250 0
-8 -162 -250 2868 0
-2869 9 0
-2869 163 0
-2869 251 0
-9 -163 -251 2869 0
-2870 10 0
-2870 164 0
-2870 252 0
-10 -164 -252 2870 0
-2871 11 0
-2871 165 0
-2871 253 0
-11 -165 -253 2871 0
-2872 12 0
-2872 166 0
-2872 254 0
-12 -166 -254 2872 0
-2873 13 0
-2873 167 0
-2873 255 0
-13 -167 -255 2873 0
-2874 14 0
-2874 168 0
-2874 256 0
-14 -168 -256 2874 0
-2875 15 0
-2875 169 0
-2875 257 0
-15 -169 -257 2875 0
-2876 16 0
-2876 170 0
-2876 258 0
-16 -170 -258 2876 0
-2877 17 0
-2877 171 0
-2877 259 0
-17 -171 -259 2877 0
-2878 18 0
-2878 172 0
-2878 260 0
-18 -172 -260 2878 0
-2879 19 0
-2879 173 0
-2879 261 0
-19 -173 -261 2879 0
-2880 20 0
-2880 174 0
-2880 262 0
-20 -174 -262 2880 0
-2881 21 0
-2881 175 0
-2881 263 0
-21 -175 -263 2881 0
-2882 22 0
-2882 176 0
-2882 264 0
-22 -176 -264 2882 0
-2861 6693 0
-2862 6693 0
-2863 6693 0
-2864 6693 0
-2865 6693 0
-2866 6693 0
-2867 6693 0
-2868 6693 0
-2869 6693 0
-2870 6693 0
-2871 6693 0
-2872 6693 0
-2873 6693 0
-2874 6693 0
-2875 6693 0
-2876 6693 0
-2877 6693 0
-2878 6693 0
-2879 6693 0
-2880 6693 0
-2881 6693 0
-2882 6693 0
-6693 2861 2862 2863 2864 2865 2866 2867 2868 2869 2870 2871 2872 2873 2874 2875 2876 2877 2878 2879 2880 2881 2882 0
-2883 1 0
-2883 177 0
-2883 199 0
-1 -177 -199 2883 0
-2884 2 0
-2884 178 0
-2884 200 0
-2 -178 -200 2884 0
-2885 3 0
-2885 179 0
-2885 201 0
-3 -179 -201 2885 0
-2886 4 0
-2886 180 0
-2886 202 0
-4 -180 -202 2886 0
-2887 5 0
-2887 181 0
-2887 203 0
-5 -181 -203 2887 0
-2888 6 0
-2888 182 0
-2888 204 0
-6 -182 -204 2888 0
-2889 7 0
-2889 183 0
-2889 205 0
-7 -183 -205 2889 0
-2890 8 0
-2890 184 0
-2890 206 0
-8 -184 -206 2890 0
-2891 9 0
-2891 185 0
-2891 207 0
-9 -185 -207 2891 0
-2892 10 0
-2892 186 0
-2892 208 0
-10 -186 -208 2892 0
-2893 11 0
-2893 187 0
-2893 209 0
-11 -187 -209 2893 0
-2894 12 0
-2894 188 0
-2894 210 0
-12 -188 -210 2894 0
-2895 13 0
-2895 189 0
-2895 211 0
-13 -189 -211 2895 0
-2896 14 0
-2896 190 0
-2896 212 0
-14 -190 -212 2896 0
-2897 15 0
-2897 191 0
-2897 213 0
-15 -191 -213 2897 0
-2898 16 0
-2898 192 0
-2898 214 0
-16 -192 -214 2898 0
-2899 17 0
-2899 193 0
-2899 215 0
-17 -193 -215 2899 0
-2900 18 0
-2900 194 0
-2900 216 0
-18 -194 -216 2900 0
-2901 19 0
-2901 195 0
-2901 217 0
-19 -195 -217 2901 0
-2902 20 0
-2902 196 0
-2902 218 0
-20 -196 -218 2902 0
-2903 21 0
-2903 197 0
-2903 219 0
-21 -197 -219 2903 0
-2904 22 0
-2904 198 0
-2904 220 0
-22 -198 -220 2904 0
-2883 6694 0
-2884 6694 0
-2885 6694 0
-2886 6694 0
-2887 6694 0
-2888 6694 0
-2889 6694 0
-2890 6694 0
-2891 6694 0
-2892 6694 0
-2893 6694 0
-2894 6694 0
-2895 6694 0
-2896 6694 0
-2897 6694 0
-2898 6694 0
-2899 6694 0
-2900 6694 0
-2901 6694 0
-2902 6694 0
-2903 6694 0
-2904 6694 0
-6694 2883 2884 2885 2886 2887 2888 2889 2890 2891 2892 2893 2894 2895 2896 2897 2898 2899 2900 2901 2902 2903 2904 0
-2905 1 0
-2905 177 0
-2905 221 0
-1 -177 -221 2905 0
-2906 2 0
-2906 178 0
-2906 222 0
-2 -178 -222 2906 0
-2907 3 0
-2907 179 0
-2907 223 0
-3 -179 -223 2907 0
-2908 4 0
-2908 180 0
-2908 224 0
-4 -180 -224 2908 0
-2909 5 0
-2909 181 0
-2909 225 0
-5 -181 -225 2909 0
-2910 6 0
-2910 182 0
-2910 226 0
-6 -182 -226 2910 0
-2911 7 0
-2911 183 0
-2911 227 0
-7 -183 -227 2911 0
-2912 8 0
-2912 184 0
-2912 228 0
-8 -184 -228 2912 0
-2913 9 0
-2913 185 0
-2913 229 0
-9 -185 -229 2913 0
-2914 10 0
-2914 186 0
-2914 230 0
-10 -186 -230 2914 0
-2915 11 0
-2915 187 0
-2915 231 0
-11 -187 -231 2915 0
-2916 12 0
-2916 188 0
-2916 232 0
-12 -188 -232 2916 0
-2917 13 0
-2917 189 0
-2917 233 0
-13 -189 -233 2917 0
-2918 14 0
-2918 190 0
-2918 234 0
-14 -190 -234 2918 0
-2919 15 0
-2919 191 0
-2919 235 0
-15 -191 -235 2919 0
-2920 16 0
-2920 192 0
-2920 236 0
-16 -192 -236 2920 0
-2921 17 0
-2921 193 0
-2921 237 0
-17 -193 -237 2921 0
-2922 18 0
-2922 194 0
-2922 238 0
-18 -194 -238 2922 0
-2923 19 0
-2923 195 0
-2923 239 0
-19 -195 -239 2923 0
-2924 20 0
-2924 196 0
-2924 240 0
-20 -196 -240 2924 0
-2925 21 0
-2925 197 0
-2925 241 0
-21 -197 -241 2925 0
-2926 22 0
-2926 198 0
-2926 242 0
-22 -198 -242 2926 0
-2905 6695 0
-2906 6695 0
-2907 6695 0
-2908 6695 0
-2909 6695 0
-2910 6695 0
-2911 6695 0
-2912 6695 0
-2913 6695 0
-2914 6695 0
-2915 6695 0
-2916 6695 0
-2917 6695 0
-2918 6695 0
-2919 6695 0
-2920 6695 0
-2921 6695 0
-2922 6695 0
-2923 6695 0
-2924 6695 0
-2925 6695 0
-2926 6695 0
-6695 2905 2906 2907 2908 2909 2910 2911 2912 2913 2914 2915 2916 2917 2918 2919 2920 2921 2922 2923 2924 2925 2926 0
-2927 1 0
-2927 177 0
-2927 243 0
-1 -177 -243 2927 0
-2928 2 0
-2928 178 0
-2928 244 0
-2 -178 -244 2928 0
-2929 3 0
-2929 179 0
-2929 245 0
-3 -179 -245 2929 0
-2930 4 0
-2930 180 0
-2930 246 0
-4 -180 -246 2930 0
-2931 5 0
-2931 181 0
-2931 247 0
-5 -181 -247 2931 0
-2932 6 0
-2932 182 0
-2932 248 0
-6 -182 -248 2932 0
-2933 7 0
-2933 183 0
-2933 249 0
-7 -183 -249 2933 0
-2934 8 0
-2934 184 0
-2934 250 0
-8 -184 -250 2934 0
-2935 9 0
-2935 185 0
-2935 251 0
-9 -185 -251 2935 0
-2936 10 0
-2936 186 0
-2936 252 0
-10 -186 -252 2936 0
-2937 11 0
-2937 187 0
-2937 253 0
-11 -187 -253 2937 0
-2938 12 0
-2938 188 0
-2938 254 0
-12 -188 -254 2938 0
-2939 13 0
-2939 189 0
-2939 255 0
-13 -189 -255 2939 0
-2940 14 0
-2940 190 0
-2940 256 0
-14 -190 -256 2940 0
-2941 15 0
-2941 191 0
-2941 257 0
-15 -191 -257 2941 0
-2942 16 0
-2942 192 0
-2942 258 0
-16 -192 -258 2942 0
-2943 17 0
-2943 193 0
-2943 259 0
-17 -193 -259 2943 0
-2944 18 0
-2944 194 0
-2944 260 0
-18 -194 -260 2944 0
-2945 19 0
-2945 195 0
-2945 261 0
-19 -195 -261 2945 0
-2946 20 0
-2946 196 0
-2946 262 0
-20 -196 -262 2946 0
-2947 21 0
-2947 197 0
-2947 263 0
-21 -197 -263 2947 0
-2948 22 0
-2948 198 0
-2948 264 0
-22 -198 -264 2948 0
-2927 6696 0
-2928 6696 0
-2929 6696 0
-2930 6696 0
-2931 6696 0
-2932 6696 0
-2933 6696 0
-2934 6696 0
-2935 6696 0
-2936 6696 0
-2937 6696 0
-2938 6696 0
-2939 6696 0
-2940 6696 0
-2941 6696 0
-2942 6696 0
-2943 6696 0
-2944 6696 0
-2945 6696 0
-2946 6696 0
-2947 6696 0
-2948 6696 0
-6696 2927 2928 2929 2930 2931 2932 2933 2934 2935 2936 2937 2938 2939 2940 2941 2942 2943 2944 2945 2946 2947 2948 0
-2949 1 0
-2949 199 0
-2949 221 0
-1 -199 -221 2949 0
-2950 2 0
-2950 200 0
-2950 222 0
-2 -200 -222 2950 0
-2951 3 0
-2951 201 0
-2951 223 0
-3 -201 -223 2951 0
-2952 4 0
-2952 202 0
-2952 224 0
-4 -202 -224 2952 0
-2953 5 0
-2953 203 0
-2953 225 0
-5 -203 -225 2953 0
-2954 6 0
-2954 204 0
-2954 226 0
-6 -204 -226 2954 0
-2955 7 0
-2955 205 0
-2955 227 0
-7 -205 -227 2955 0
-2956 8 0
-2956 206 0
-2956 228 0
-8 -206 -228 2956 0
-2957 9 0
-2957 207 0
-2957 229 0
-9 -207 -229 2957 0
-2958 10 0
-2958 208 0
-2958 230 0
-10 -208 -230 2958 0
-2959 11 0
-2959 209 0
-2959 231 0
-11 -209 -231 2959 0
-2960 12 0
-2960 210 0
-2960 232 0
-12 -210 -232 2960 0
-2961 13 0
-2961 211 0
-2961 233 0
-13 -211 -233 2961 0
-2962 14 0
-2962 212 0
-2962 234 0
-14 -212 -234 2962 0
-2963 15 0
-2963 213 0
-2963 235 0
-15 -213 -235 2963 0
-2964 16 0
-2964 214 0
-2964 236 0
-16 -214 -236 2964 0
-2965 17 0
-2965 215 0
-2965 237 0
-17 -215 -237 2965 0
-2966 18 0
-2966 216 0
-2966 238 0
-18 -216 -238 2966 0
-2967 19 0
-2967 217 0
-2967 239 0
-19 -217 -239 2967 0
-2968 20 0
-2968 218 0
-2968 240 0
-20 -218 -240 2968 0
-2969 21 0
-2969 219 0
-2969 241 0
-21 -219 -241 2969 0
-2970 22 0
-2970 220 0
-2970 242 0
-22 -220 -242 2970 0
-2949 6697 0
-2950 6697 0
-2951 6697 0
-2952 6697 0
-2953 6697 0
-2954 6697 0
-2955 6697 0
-2956 6697 0
-2957 6697 0
-2958 6697 0
-2959 6697 0
-2960 6697 0
-2961 6697 0
-2962 6697 0
-2963 6697 0
-2964 6697 0
-2965 6697 0
-2966 6697 0
-2967 6697 0
-2968 6697 0
-2969 6697 0
-2970 6697 0
-6697 2949 2950 2951 2952 2953 2954 2955 2956 2957 2958 2959 2960 2961 2962 2963 2964 2965 2966 2967 2968 2969 2970 0
-2971 1 0
-2971 199 0
-2971 243 0
-1 -199 -243 2971 0
-2972 2 0
-2972 200 0
-2972 244 0
-2 -200 -244 2972 0
-2973 3 0
-2973 201 0
-2973 245 0
-3 -201 -245 2973 0
-2974 4 0
-2974 202 0
-2974 246 0
-4 -202 -246 2974 0
-2975 5 0
-2975 203 0
-2975 247 0
-5 -203 -247 2975 0
-2976 6 0
-2976 204 0
-2976 248 0
-6 -204 -248 2976 0
-2977 7 0
-2977 205 0
-2977 249 0
-7 -205 -249 2977 0
-2978 8 0
-2978 206 0
-2978 250 0
-8 -206 -250 2978 0
-2979 9 0
-2979 207 0
-2979 251 0
-9 -207 -251 2979 0
-2980 10 0
-2980 208 0
-2980 252 0
-10 -208 -252 2980 0
-2981 11 0
-2981 209 0
-2981 253 0
-11 -209 -253 2981 0
-2982 12 0
-2982 210 0
-2982 254 0
-12 -210 -254 2982 0
-2983 13 0
-2983 211 0
-2983 255 0
-13 -211 -255 2983 0
-2984 14 0
-2984 212 0
-2984 256 0
-14 -212 -256 2984 0
-2985 15 0
-2985 213 0
-2985 257 0
-15 -213 -257 2985 0
-2986 16 0
-2986 214 0
-2986 258 0
-16 -214 -258 2986 0
-2987 17 0
-2987 215 0
-2987 259 0
-17 -215 -259 2987 0
-2988 18 0
-2988 216 0
-2988 260 0
-18 -216 -260 2988 0
-2989 19 0
-2989 217 0
-2989 261 0
-19 -217 -261 2989 0
-2990 20 0
-2990 218 0
-2990 262 0
-20 -218 -262 2990 0
-2991 21 0
-2991 219 0
-2991 263 0
-21 -219 -263 2991 0
-2992 22 0
-2992 220 0
-2992 264 0
-22 -220 -264 2992 0
-2971 6698 0
-2972 6698 0
-2973 6698 0
-2974 6698 0
-2975 6698 0
-2976 6698 0
-2977 6698 0
-2978 6698 0
-2979 6698 0
-2980 6698 0
-2981 6698 0
-2982 6698 0
-2983 6698 0
-2984 6698 0
-2985 6698 0
-2986 6698 0
-2987 6698 0
-2988 6698 0
-2989 6698 0
-2990 6698 0
-2991 6698 0
-2992 6698 0
-6698 2971 2972 2973 2974 2975 2976 2977 2978 2979 2980 2981 2982 2983 2984 2985 2986 2987 2988 2989 2990 2991 2992 0
-2993 1 0
-2993 221 0
-2993 243 0
-1 -221 -243 2993 0
-2994 2 0
-2994 222 0
-2994 244 0
-2 -222 -244 2994 0
-2995 3 0
-2995 223 0
-2995 245 0
-3 -223 -245 2995 0
-2996 4 0
-2996 224 0
-2996 246 0
-4 -224 -246 2996 0
-2997 5 0
-2997 225 0
-2997 247 0
-5 -225 -247 2997 0
-2998 6 0
-2998 226 0
-2998 248 0
-6 -226 -248 2998 0
-2999 7 0
-2999 227 0
-2999 249 0
-7 -227 -249 2999 0
-3000 8 0
-3000 228 0
-3000 250 0
-8 -228 -250 3000 0
-3001 9 0
-3001 229 0
-3001 251 0
-9 -229 -251 3001 0
-3002 10 0
-3002 230 0
-3002 252 0
-10 -230 -252 3002 0
-3003 11 0
-3003 231 0
-3003 253 0
-11 -231 -253 3003 0
-3004 12 0
-3004 232 0
-3004 254 0
-12 -232 -254 3004 0
-3005 13 0
-3005 233 0
-3005 255 0
-13 -233 -255 3005 0
-3006 14 0
-3006 234 0
-3006 256 0
-14 -234 -256 3006 0
-3007 15 0
-3007 235 0
-3007 257 0
-15 -235 -257 3007 0
-3008 16 0
-3008 236 0
-3008 258 0
-16 -236 -258 3008 0
-3009 17 0
-3009 237 0
-3009 259 0
-17 -237 -259 3009 0
-3010 18 0
-3010 238 0
-3010 260 0
-18 -238 -260 3010 0
-3011 19 0
-3011 239 0
-3011 261 0
-19 -239 -261 3011 0
-3012 20 0
-3012 240 0
-3012 262 0
-20 -240 -262 3012 0
-3013 21 0
-3013 241 0
-3013 263 0
-21 -241 -263 3013 0
-3014 22 0
-3014 242 0
-3014 264 0
-22 -242 -264 3014 0
-2993 6699 0
-2994 6699 0
-2995 6699 0
-2996 6699 0
-2997 6699 0
-2998 6699 0
-2999 6699 0
-3000 6699 0
-3001 6699 0
-3002 6699 0
-3003 6699 0
-3004 6699 0
-3005 6699 0
-3006 6699 0
-3007 6699 0
-3008 6699 0
-3009 6699 0
-3010 6699 0
-3011 6699 0
-3012 6699 0
-3013 6699 0
-3014 6699 0
-6699 2993 2994 2995 2996 2997 2998 2999 3000 3001 3002 3003 3004 3005 3006 3007 3008 3009 3010 3011 3012 3013 3014 0
-3015 23 0
-3015 45 0
-3015 67 0
-23 -45 -67 3015 0
-3016 24 0
-3016 46 0
-3016 68 0
-24 -46 -68 3016 0
-3017 25 0
-3017 47 0
-3017 69 0
-25 -47 -69 3017 0
-3018 26 0
-3018 48 0
-3018 70 0
-26 -48 -70 3018 0
-3019 27 0
-3019 49 0
-3019 71 0
-27 -49 -71 3019 0
-3020 28 0
-3020 50 0
-3020 72 0
-28 -50 -72 3020 0
-3021 29 0
-3021 51 0
-3021 73 0
-29 -51 -73 3021 0
-3022 30 0
-3022 52 0
-3022 74 0
-30 -52 -74 3022 0
-3023 31 0
-3023 53 0
-3023 75 0
-31 -53 -75 3023 0
-3024 32 0
-3024 54 0
-3024 76 0
-32 -54 -76 3024 0
-3025 33 0
-3025 55 0
-3025 77 0
-33 -55 -77 3025 0
-3026 34 0
-3026 56 0
-3026 78 0
-34 -56 -78 3026 0
-3027 35 0
-3027 57 0
-3027 79 0
-35 -57 -79 3027 0
-3028 36 0
-3028 58 0
-3028 80 0
-36 -58 -80 3028 0
-3029 37 0
-3029 59 0
-3029 81 0
-37 -59 -81 3029 0
-3030 38 0
-3030 60 0
-3030 82 0
-38 -60 -82 3030 0
-3031 39 0
-3031 61 0
-3031 83 0
-39 -61 -83 3031 0
-3032 40 0
-3032 62 0
-3032 84 0
-40 -62 -84 3032 0
-3033 41 0
-3033 63 0
-3033 85 0
-41 -63 -85 3033 0
-3034 42 0
-3034 64 0
-3034 86 0
-42 -64 -86 3034 0
-3035 43 0
-3035 65 0
-3035 87 0
-43 -65 -87 3035 0
-3036 44 0
-3036 66 0
-3036 88 0
-44 -66 -88 3036 0
-3015 6700 0
-3016 6700 0
-3017 6700 0
-3018 6700 0
-3019 6700 0
-3020 6700 0
-3021 6700 0
-3022 6700 0
-3023 6700 0
-3024 6700 0
-3025 6700 0
-3026 6700 0
-3027 6700 0
-3028 6700 0
-3029 6700 0
-3030 6700 0
-3031 6700 0
-3032 6700 0
-3033 6700 0
-3034 6700 0
-3035 6700 0
-3036 6700 0
-6700 3015 3016 3017 3018 3019 3020 3021 3022 3023 3024 3025 3026 3027 3028 3029 3030 3031 3032 3033 3034 3035 3036 0
-3037 23 0
-3037 45 0
-3037 89 0
-23 -45 -89 3037 0
-3038 24 0
-3038 46 0
-3038 90 0
-24 -46 -90 3038 0
-3039 25 0
-3039 47 0
-3039 91 0
-25 -47 -91 3039 0
-3040 26 0
-3040 48 0
-3040 92 0
-26 -48 -92 3040 0
-3041 27 0
-3041 49 0
-3041 93 0
-27 -49 -93 3041 0
-3042 28 0
-3042 50 0
-3042 94 0
-28 -50 -94 3042 0
-3043 29 0
-3043 51 0
-3043 95 0
-29 -51 -95 3043 0
-3044 30 0
-3044 52 0
-3044 96 0
-30 -52 -96 3044 0
-3045 31 0
-3045 53 0
-3045 97 0
-31 -53 -97 3045 0
-3046 32 0
-3046 54 0
-3046 98 0
-32 -54 -98 3046 0
-3047 33 0
-3047 55 0
-3047 99 0
-33 -55 -99 3047 0
-3048 34 0
-3048 56 0
-3048 100 0
-34 -56 -100 3048 0
-3049 35 0
-3049 57 0
-3049 101 0
-35 -57 -101 3049 0
-3050 36 0
-3050 58 0
-3050 102 0
-36 -58 -102 3050 0
-3051 37 0
-3051 59 0
-3051 103 0
-37 -59 -103 3051 0
-3052 38 0
-3052 60 0
-3052 104 0
-38 -60 -104 3052 0
-3053 39 0
-3053 61 0
-3053 105 0
-39 -61 -105 3053 0
-3054 40 0
-3054 62 0
-3054 106 0
-40 -62 -106 3054 0
-3055 41 0
-3055 63 0
-3055 107 0
-41 -63 -107 3055 0
-3056 42 0
-3056 64 0
-3056 108 0
-42 -64 -108 3056 0
-3057 43 0
-3057 65 0
-3057 109 0
-43 -65 -109 3057 0
-3058 44 0
-3058 66 0
-3058 110 0
-44 -66 -110 3058 0
-3037 6701 0
-3038 6701 0
-3039 6701 0
-3040 6701 0
-3041 6701 0
-3042 6701 0
-3043 6701 0
-3044 6701 0
-3045 6701 0
-3046 6701 0
-3047 6701 0
-3048 6701 0
-3049 6701 0
-3050 6701 0
-3051 6701 0
-3052 6701 0
-3053 6701 0
-3054 6701 0
-3055 6701 0
-3056 6701 0
-3057 6701 0
-3058 6701 0
-6701 3037 3038 3039 3040 3041 3042 3043 3044 3045 3046 3047 3048 3049 3050 3051 3052 3053 3054 3055 3056 3057 3058 0
-3059 23 0
-3059 45 0
-3059 111 0
-23 -45 -111 3059 0
-3060 24 0
-3060 46 0
-3060 112 0
-24 -46 -112 3060 0
-3061 25 0
-3061 47 0
-3061 113 0
-25 -47 -113 3061 0
-3062 26 0
-3062 48 0
-3062 114 0
-26 -48 -114 3062 0
-3063 27 0
-3063 49 0
-3063 115 0
-27 -49 -115 3063 0
-3064 28 0
-3064 50 0
-3064 116 0
-28 -50 -116 3064 0
-3065 29 0
-3065 51 0
-3065 117 0
-29 -51 -117 3065 0
-3066 30 0
-3066 52 0
-3066 118 0
-30 -52 -118 3066 0
-3067 31 0
-3067 53 0
-3067 119 0
-31 -53 -119 3067 0
-3068 32 0
-3068 54 0
-3068 120 0
-32 -54 -120 3068 0
-3069 33 0
-3069 55 0
-3069 121 0
-33 -55 -121 3069 0
-3070 34 0
-3070 56 0
-3070 122 0
-34 -56 -122 3070 0
-3071 35 0
-3071 57 0
-3071 123 0
-35 -57 -123 3071 0
-3072 36 0
-3072 58 0
-3072 124 0
-36 -58 -124 3072 0
-3073 37 0
-3073 59 0
-3073 125 0
-37 -59 -125 3073 0
-3074 38 0
-3074 60 0
-3074 126 0
-38 -60 -126 3074 0
-3075 39 0
-3075 61 0
-3075 127 0
-39 -61 -127 3075 0
-3076 40 0
-3076 62 0
-3076 128 0
-40 -62 -128 3076 0
-3077 41 0
-3077 63 0
-3077 129 0
-41 -63 -129 3077 0
-3078 42 0
-3078 64 0
-3078 130 0
-42 -64 -130 3078 0
-3079 43 0
-3079 65 0
-3079 131 0
-43 -65 -131 3079 0
-3080 44 0
-3080 66 0
-3080 132 0
-44 -66 -132 3080 0
-3059 6702 0
-3060 6702 0
-3061 6702 0
-3062 6702 0
-3063 6702 0
-3064 6702 0
-3065 6702 0
-3066 6702 0
-3067 6702 0
-3068 6702 0
-3069 6702 0
-3070 6702 0
-3071 6702 0
-3072 6702 0
-3073 6702 0
-3074 6702 0
-3075 6702 0
-3076 6702 0
-3077 6702 0
-3078 6702 0
-3079 6702 0
-3080 6702 0
-6702 3059 3060 3061 3062 3063 3064 3065 3066 3067 3068 3069 3070 3071 3072 3073 3074 3075 3076 3077 3078 3079 3080 0
-3081 23 0
-3081 45 0
-3081 133 0
-23 -45 -133 3081 0
-3082 24 0
-3082 46 0
-3082 134 0
-24 -46 -134 3082 0
-3083 25 0
-3083 47 0
-3083 135 0
-25 -47 -135 3083 0
-3084 26 0
-3084 48 0
-3084 136 0
-26 -48 -136 3084 0
-3085 27 0
-3085 49 0
-3085 137 0
-27 -49 -137 3085 0
-3086 28 0
-3086 50 0
-3086 138 0
-28 -50 -138 3086 0
-3087 29 0
-3087 51 0
-3087 139 0
-29 -51 -139 3087 0
-3088 30 0
-3088 52 0
-3088 140 0
-30 -52 -140 3088 0
-3089 31 0
-3089 53 0
-3089 141 0
-31 -53 -141 3089 0
-3090 32 0
-3090 54 0
-3090 142 0
-32 -54 -142 3090 0
-3091 33 0
-3091 55 0
-3091 143 0
-33 -55 -143 3091 0
-3092 34 0
-3092 56 0
-3092 144 0
-34 -56 -144 3092 0
-3093 35 0
-3093 57 0
-3093 145 0
-35 -57 -145 3093 0
-3094 36 0
-3094 58 0
-3094 146 0
-36 -58 -146 3094 0
-3095 37 0
-3095 59 0
-3095 147 0
-37 -59 -147 3095 0
-3096 38 0
-3096 60 0
-3096 148 0
-38 -60 -148 3096 0
-3097 39 0
-3097 61 0
-3097 149 0
-39 -61 -149 3097 0
-3098 40 0
-3098 62 0
-3098 150 0
-40 -62 -150 3098 0
-3099 41 0
-3099 63 0
-3099 151 0
-41 -63 -151 3099 0
-3100 42 0
-3100 64 0
-3100 152 0
-42 -64 -152 3100 0
-3101 43 0
-3101 65 0
-3101 153 0
-43 -65 -153 3101 0
-3102 44 0
-3102 66 0
-3102 154 0
-44 -66 -154 3102 0
-3081 6703 0
-3082 6703 0
-3083 6703 0
-3084 6703 0
-3085 6703 0
-3086 6703 0
-3087 6703 0
-3088 6703 0
-3089 6703 0
-3090 6703 0
-3091 6703 0
-3092 6703 0
-3093 6703 0
-3094 6703 0
-3095 6703 0
-3096 6703 0
-3097 6703 0
-3098 6703 0
-3099 6703 0
-3100 6703 0
-3101 6703 0
-3102 6703 0
-6703 3081 3082 3083 3084 3085 3086 3087 3088 3089 3090 3091 3092 3093 3094 3095 3096 3097 3098 3099 3100 3101 3102 0
-3103 23 0
-3103 45 0
-3103 155 0
-23 -45 -155 3103 0
-3104 24 0
-3104 46 0
-3104 156 0
-24 -46 -156 3104 0
-3105 25 0
-3105 47 0
-3105 157 0
-25 -47 -157 3105 0
-3106 26 0
-3106 48 0
-3106 158 0
-26 -48 -158 3106 0
-3107 27 0
-3107 49 0
-3107 159 0
-27 -49 -159 3107 0
-3108 28 0
-3108 50 0
-3108 160 0
-28 -50 -160 3108 0
-3109 29 0
-3109 51 0
-3109 161 0
-29 -51 -161 3109 0
-3110 30 0
-3110 52 0
-3110 162 0
-30 -52 -162 3110 0
-3111 31 0
-3111 53 0
-3111 163 0
-31 -53 -163 3111 0
-3112 32 0
-3112 54 0
-3112 164 0
-32 -54 -164 3112 0
-3113 33 0
-3113 55 0
-3113 165 0
-33 -55 -165 3113 0
-3114 34 0
-3114 56 0
-3114 166 0
-34 -56 -166 3114 0
-3115 35 0
-3115 57 0
-3115 167 0
-35 -57 -167 3115 0
-3116 36 0
-3116 58 0
-3116 168 0
-36 -58 -168 3116 0
-3117 37 0
-3117 59 0
-3117 169 0
-37 -59 -169 3117 0
-3118 38 0
-3118 60 0
-3118 170 0
-38 -60 -170 3118 0
-3119 39 0
-3119 61 0
-3119 171 0
-39 -61 -171 3119 0
-3120 40 0
-3120 62 0
-3120 172 0
-40 -62 -172 3120 0
-3121 41 0
-3121 63 0
-3121 173 0
-41 -63 -173 3121 0
-3122 42 0
-3122 64 0
-3122 174 0
-42 -64 -174 3122 0
-3123 43 0
-3123 65 0
-3123 175 0
-43 -65 -175 3123 0
-3124 44 0
-3124 66 0
-3124 176 0
-44 -66 -176 3124 0
-3103 6704 0
-3104 6704 0
-3105 6704 0
-3106 6704 0
-3107 6704 0
-3108 6704 0
-3109 6704 0
-3110 6704 0
-3111 6704 0
-3112 6704 0
-3113 6704 0
-3114 6704 0
-3115 6704 0
-3116 6704 0
-3117 6704 0
-3118 6704 0
-3119 6704 0
-3120 6704 0
-3121 6704 0
-3122 6704 0
-3123 6704 0
-3124 6704 0
-6704 3103 3104 3105 3106 3107 3108 3109 3110 3111 3112 3113 3114 3115 3116 3117 3118 3119 3120 3121 3122 3123 3124 0
-3125 23 0
-3125 45 0
-3125 177 0
-23 -45 -177 3125 0
-3126 24 0
-3126 46 0
-3126 178 0
-24 -46 -178 3126 0
-3127 25 0
-3127 47 0
-3127 179 0
-25 -47 -179 3127 0
-3128 26 0
-3128 48 0
-3128 180 0
-26 -48 -180 3128 0
-3129 27 0
-3129 49 0
-3129 181 0
-27 -49 -181 3129 0
-3130 28 0
-3130 50 0
-3130 182 0
-28 -50 -182 3130 0
-3131 29 0
-3131 51 0
-3131 183 0
-29 -51 -183 3131 0
-3132 30 0
-3132 52 0
-3132 184 0
-30 -52 -184 3132 0
-3133 31 0
-3133 53 0
-3133 185 0
-31 -53 -185 3133 0
-3134 32 0
-3134 54 0
-3134 186 0
-32 -54 -186 3134 0
-3135 33 0
-3135 55 0
-3135 187 0
-33 -55 -187 3135 0
-3136 34 0
-3136 56 0
-3136 188 0
-34 -56 -188 3136 0
-3137 35 0
-3137 57 0
-3137 189 0
-35 -57 -189 3137 0
-3138 36 0
-3138 58 0
-3138 190 0
-36 -58 -190 3138 0
-3139 37 0
-3139 59 0
-3139 191 0
-37 -59 -191 3139 0
-3140 38 0
-3140 60 0
-3140 192 0
-38 -60 -192 3140 0
-3141 39 0
-3141 61 0
-3141 193 0
-39 -61 -193 3141 0
-3142 40 0
-3142 62 0
-3142 194 0
-40 -62 -194 3142 0
-3143 41 0
-3143 63 0
-3143 195 0
-41 -63 -195 3143 0
-3144 42 0
-3144 64 0
-3144 196 0
-42 -64 -196 3144 0
-3145 43 0
-3145 65 0
-3145 197 0
-43 -65 -197 3145 0
-3146 44 0
-3146 66 0
-3146 198 0
-44 -66 -198 3146 0
-3125 6705 0
-3126 6705 0
-3127 6705 0
-3128 6705 0
-3129 6705 0
-3130 6705 0
-3131 6705 0
-3132 6705 0
-3133 6705 0
-3134 6705 0
-3135 6705 0
-3136 6705 0
-3137 6705 0
-3138 6705 0
-3139 6705 0
-3140 6705 0
-3141 6705 0
-3142 6705 0
-3143 6705 0
-3144 6705 0
-3145 6705 0
-3146 6705 0
-6705 3125 3126 3127 3128 3129 3130 3131 3132 3133 3134 3135 3136 3137 3138 3139 3140 3141 3142 3143 3144 3145 3146 0
-3147 23 0
-3147 45 0
-3147 199 0
-23 -45 -199 3147 0
-3148 24 0
-3148 46 0
-3148 200 0
-24 -46 -200 3148 0
-3149 25 0
-3149 47 0
-3149 201 0
-25 -47 -201 3149 0
-3150 26 0
-3150 48 0
-3150 202 0
-26 -48 -202 3150 0
-3151 27 0
-3151 49 0
-3151 203 0
-27 -49 -203 3151 0
-3152 28 0
-3152 50 0
-3152 204 0
-28 -50 -204 3152 0
-3153 29 0
-3153 51 0
-3153 205 0
-29 -51 -205 3153 0
-3154 30 0
-3154 52 0
-3154 206 0
-30 -52 -206 3154 0
-3155 31 0
-3155 53 0
-3155 207 0
-31 -53 -207 3155 0
-3156 32 0
-3156 54 0
-3156 208 0
-32 -54 -208 3156 0
-3157 33 0
-3157 55 0
-3157 209 0
-33 -55 -209 3157 0
-3158 34 0
-3158 56 0
-3158 210 0
-34 -56 -210 3158 0
-3159 35 0
-3159 57 0
-3159 211 0
-35 -57 -211 3159 0
-3160 36 0
-3160 58 0
-3160 212 0
-36 -58 -212 3160 0
-3161 37 0
-3161 59 0
-3161 213 0
-37 -59 -213 3161 0
-3162 38 0
-3162 60 0
-3162 214 0
-38 -60 -214 3162 0
-3163 39 0
-3163 61 0
-3163 215 0
-39 -61 -215 3163 0
-3164 40 0
-3164 62 0
-3164 216 0
-40 -62 -216 3164 0
-3165 41 0
-3165 63 0
-3165 217 0
-41 -63 -217 3165 0
-3166 42 0
-3166 64 0
-3166 218 0
-42 -64 -218 3166 0
-3167 43 0
-3167 65 0
-3167 219 0
-43 -65 -219 3167 0
-3168 44 0
-3168 66 0
-3168 220 0
-44 -66 -220 3168 0
-3147 6706 0
-3148 6706 0
-3149 6706 0
-3150 6706 0
-3151 6706 0
-3152 6706 0
-3153 6706 0
-3154 6706 0
-3155 6706 0
-3156 6706 0
-3157 6706 0
-3158 6706 0
-3159 6706 0
-3160 6706 0
-3161 6706 0
-3162 6706 0
-3163 6706 0
-3164 6706 0
-3165 6706 0
-3166 6706 0
-3167 6706 0
-3168 6706 0
-6706 3147 3148 3149 3150 3151 3152 3153 3154 3155 3156 3157 3158 3159 3160 3161 3162 3163 3164 3165 3166 3167 3168 0
-3169 23 0
-3169 45 0
-3169 221 0
-23 -45 -221 3169 0
-3170 24 0
-3170 46 0
-3170 222 0
-24 -46 -222 3170 0
-3171 25 0
-3171 47 0
-3171 223 0
-25 -47 -223 3171 0
-3172 26 0
-3172 48 0
-3172 224 0
-26 -48 -224 3172 0
-3173 27 0
-3173 49 0
-3173 225 0
-27 -49 -225 3173 0
-3174 28 0
-3174 50 0
-3174 226 0
-28 -50 -226 3174 0
-3175 29 0
-3175 51 0
-3175 227 0
-29 -51 -227 3175 0
-3176 30 0
-3176 52 0
-3176 228 0
-30 -52 -228 3176 0
-3177 31 0
-3177 53 0
-3177 229 0
-31 -53 -229 3177 0
-3178 32 0
-3178 54 0
-3178 230 0
-32 -54 -230 3178 0
-3179 33 0
-3179 55 0
-3179 231 0
-33 -55 -231 3179 0
-3180 34 0
-3180 56 0
-3180 232 0
-34 -56 -232 3180 0
-3181 35 0
-3181 57 0
-3181 233 0
-35 -57 -233 3181 0
-3182 36 0
-3182 58 0
-3182 234 0
-36 -58 -234 3182 0
-3183 37 0
-3183 59 0
-3183 235 0
-37 -59 -235 3183 0
-3184 38 0
-3184 60 0
-3184 236 0
-38 -60 -236 3184 0
-3185 39 0
-3185 61 0
-3185 237 0
-39 -61 -237 3185 0
-3186 40 0
-3186 62 0
-3186 238 0
-40 -62 -238 3186 0
-3187 41 0
-3187 63 0
-3187 239 0
-41 -63 -239 3187 0
-3188 42 0
-3188 64 0
-3188 240 0
-42 -64 -240 3188 0
-3189 43 0
-3189 65 0
-3189 241 0
-43 -65 -241 3189 0
-3190 44 0
-3190 66 0
-3190 242 0
-44 -66 -242 3190 0
-3169 6707 0
-3170 6707 0
-3171 6707 0
-3172 6707 0
-3173 6707 0
-3174 6707 0
-3175 6707 0
-3176 6707 0
-3177 6707 0
-3178 6707 0
-3179 6707 0
-3180 6707 0
-3181 6707 0
-3182 6707 0
-3183 6707 0
-3184 6707 0
-3185 6707 0
-3186 6707 0
-3187 6707 0
-3188 6707 0
-3189 6707 0
-3190 6707 0
-6707 3169 3170 3171 3172 3173 3174 3175 3176 3177 3178 3179 3180 3181 3182 3183 3184 3185 3186 3187 3188 3189 3190 0
-3191 23 0
-3191 45 0
-3191 243 0
-23 -45 -243 3191 0
-3192 24 0
-3192 46 0
-3192 244 0
-24 -46 -244 3192 0
-3193 25 0
-3193 47 0
-3193 245 0
-25 -47 -245 3193 0
-3194 26 0
-3194 48 0
-3194 246 0
-26 -48 -246 3194 0
-3195 27 0
-3195 49 0
-3195 247 0
-27 -49 -247 3195 0
-3196 28 0
-3196 50 0
-3196 248 0
-28 -50 -248 3196 0
-3197 29 0
-3197 51 0
-3197 249 0
-29 -51 -249 3197 0
-3198 30 0
-3198 52 0
-3198 250 0
-30 -52 -250 3198 0
-3199 31 0
-3199 53 0
-3199 251 0
-31 -53 -251 3199 0
-3200 32 0
-3200 54 0
-3200 252 0
-32 -54 -252 3200 0
-3201 33 0
-3201 55 0
-3201 253 0
-33 -55 -253 3201 0
-3202 34 0
-3202 56 0
-3202 254 0
-34 -56 -254 3202 0
-3203 35 0
-3203 57 0
-3203 255 0
-35 -57 -255 3203 0
-3204 36 0
-3204 58 0
-3204 256 0
-36 -58 -256 3204 0
-3205 37 0
-3205 59 0
-3205 257 0
-37 -59 -257 3205 0
-3206 38 0
-3206 60 0
-3206 258 0
-38 -60 -258 3206 0
-3207 39 0
-3207 61 0
-3207 259 0
-39 -61 -259 3207 0
-3208 40 0
-3208 62 0
-3208 260 0
-40 -62 -260 3208 0
-3209 41 0
-3209 63 0
-3209 261 0
-41 -63 -261 3209 0
-3210 42 0
-3210 64 0
-3210 262 0
-42 -64 -262 3210 0
-3211 43 0
-3211 65 0
-3211 263 0
-43 -65 -263 3211 0
-3212 44 0
-3212 66 0
-3212 264 0
-44 -66 -264 3212 0
-3191 6708 0
-3192 6708 0
-3193 6708 0
-3194 6708 0
-3195 6708 0
-3196 6708 0
-3197 6708 0
-3198 6708 0
-3199 6708 0
-3200 6708 0
-3201 6708 0
-3202 6708 0
-3203 6708 0
-3204 6708 0
-3205 6708 0
-3206 6708 0
-3207 6708 0
-3208 6708 0
-3209 6708 0
-3210 6708 0
-3211 6708 0
-3212 6708 0
-6708 3191 3192 3193 3194 3195 3196 3197 3198 3199 3200 3201 3202 3203 3204 3205 3206 3207 3208 3209 3210 3211 3212 0
-3213 23 0
-3213 67 0
-3213 89 0
-23 -67 -89 3213 0
-3214 24 0
-3214 68 0
-3214 90 0
-24 -68 -90 3214 0
-3215 25 0
-3215 69 0
-3215 91 0
-25 -69 -91 3215 0
-3216 26 0
-3216 70 0
-3216 92 0
-26 -70 -92 3216 0
-3217 27 0
-3217 71 0
-3217 93 0
-27 -71 -93 3217 0
-3218 28 0
-3218 72 0
-3218 94 0
-28 -72 -94 3218 0
-3219 29 0
-3219 73 0
-3219 95 0
-29 -73 -95 3219 0
-3220 30 0
-3220 74 0
-3220 96 0
-30 -74 -96 3220 0
-3221 31 0
-3221 75 0
-3221 97 0
-31 -75 -97 3221 0
-3222 32 0
-3222 76 0
-3222 98 0
-32 -76 -98 3222 0
-3223 33 0
-3223 77 0
-3223 99 0
-33 -77 -99 3223 0
-3224 34 0
-3224 78 0
-3224 100 0
-34 -78 -100 3224 0
-3225 35 0
-3225 79 0
-3225 101 0
-35 -79 -101 3225 0
-3226 36 0
-3226 80 0
-3226 102 0
-36 -80 -102 3226 0
-3227 37 0
-3227 81 0
-3227 103 0
-37 -81 -103 3227 0
-3228 38 0
-3228 82 0
-3228 104 0
-38 -82 -104 3228 0
-3229 39 0
-3229 83 0
-3229 105 0
-39 -83 -105 3229 0
-3230 40 0
-3230 84 0
-3230 106 0
-40 -84 -106 3230 0
-3231 41 0
-3231 85 0
-3231 107 0
-41 -85 -107 3231 0
-3232 42 0
-3232 86 0
-3232 108 0
-42 -86 -108 3232 0
-3233 43 0
-3233 87 0
-3233 109 0
-43 -87 -109 3233 0
-3234 44 0
-3234 88 0
-3234 110 0
-44 -88 -110 3234 0
-3213 6709 0
-3214 6709 0
-3215 6709 0
-3216 6709 0
-3217 6709 0
-3218 6709 0
-3219 6709 0
-3220 6709 0
-3221 6709 0
-3222 6709 0
-3223 6709 0
-3224 6709 0
-3225 6709 0
-3226 6709 0
-3227 6709 0
-3228 6709 0
-3229 6709 0
-3230 6709 0
-3231 6709 0
-3232 6709 0
-3233 6709 0
-3234 6709 0
-6709 3213 3214 3215 3216 3217 3218 3219 3220 3221 3222 3223 3224 3225 3226 3227 3228 3229 3230 3231 3232 3233 3234 0
-3235 23 0
-3235 67 0
-3235 111 0
-23 -67 -111 3235 0
-3236 24 0
-3236 68 0
-3236 112 0
-24 -68 -112 3236 0
-3237 25 0
-3237 69 0
-3237 113 0
-25 -69 -113 3237 0
-3238 26 0
-3238 70 0
-3238 114 0
-26 -70 -114 3238 0
-3239 27 0
-3239 71 0
-3239 115 0
-27 -71 -115 3239 0
-3240 28 0
-3240 72 0
-3240 116 0
-28 -72 -116 3240 0
-3241 29 0
-3241 73 0
-3241 117 0
-29 -73 -117 3241 0
-3242 30 0
-3242 74 0
-3242 118 0
-30 -74 -118 3242 0
-3243 31 0
-3243 75 0
-3243 119 0
-31 -75 -119 3243 0
-3244 32 0
-3244 76 0
-3244 120 0
-32 -76 -120 3244 0
-3245 33 0
-3245 77 0
-3245 121 0
-33 -77 -121 3245 0
-3246 34 0
-3246 78 0
-3246 122 0
-34 -78 -122 3246 0
-3247 35 0
-3247 79 0
-3247 123 0
-35 -79 -123 3247 0
-3248 36 0
-3248 80 0
-3248 124 0
-36 -80 -124 3248 0
-3249 37 0
-3249 81 0
-3249 125 0
-37 -81 -125 3249 0
-3250 38 0
-3250 82 0
-3250 126 0
-38 -82 -126 3250 0
-3251 39 0
-3251 83 0
-3251 127 0
-39 -83 -127 3251 0
-3252 40 0
-3252 84 0
-3252 128 0
-40 -84 -128 3252 0
-3253 41 0
-3253 85 0
-3253 129 0
-41 -85 -129 3253 0
-3254 42 0
-3254 86 0
-3254 130 0
-42 -86 -130 3254 0
-3255 43 0
-3255 87 0
-3255 131 0
-43 -87 -131 3255 0
-3256 44 0
-3256 88 0
-3256 132 0
-44 -88 -132 3256 0
-3235 6710 0
-3236 6710 0
-3237 6710 0
-3238 6710 0
-3239 6710 0
-3240 6710 0
-3241 6710 0
-3242 6710 0
-3243 6710 0
-3244 6710 0
-3245 6710 0
-3246 6710 0
-3247 6710 0
-3248 6710 0
-3249 6710 0
-3250 6710 0
-3251 6710 0
-3252 6710 0
-3253 6710 0
-3254 6710 0
-3255 6710 0
-3256 6710 0
-6710 3235 3236 3237 3238 3239 3240 3241 3242 3243 3244 3245 3246 3247 3248 3249 3250 3251 3252 3253 3254 3255 3256 0
-3257 23 0
-3257 67 0
-3257 133 0
-23 -67 -133 3257 0
-3258 24 0
-3258 68 0
-3258 134 0
-24 -68 -134 3258 0
-3259 25 0
-3259 69 0
-3259 135 0
-25 -69 -135 3259 0
-3260 26 0
-3260 70 0
-3260 136 0
-26 -70 -136 3260 0
-3261 27 0
-3261 71 0
-3261 137 0
-27 -71 -137 3261 0
-3262 28 0
-3262 72 0
-3262 138 0
-28 -72 -138 3262 0
-3263 29 0
-3263 73 0
-3263 139 0
-29 -73 -139 3263 0
-3264 30 0
-3264 74 0
-3264 140 0
-30 -74 -140 3264 0
-3265 31 0
-3265 75 0
-3265 141 0
-31 -75 -141 3265 0
-3266 32 0
-3266 76 0
-3266 142 0
-32 -76 -142 3266 0
-3267 33 0
-3267 77 0
-3267 143 0
-33 -77 -143 3267 0
-3268 34 0
-3268 78 0
-3268 144 0
-34 -78 -144 3268 0
-3269 35 0
-3269 79 0
-3269 145 0
-35 -79 -145 3269 0
-3270 36 0
-3270 80 0
-3270 146 0
-36 -80 -146 3270 0
-3271 37 0
-3271 81 0
-3271 147 0
-37 -81 -147 3271 0
-3272 38 0
-3272 82 0
-3272 148 0
-38 -82 -148 3272 0
-3273 39 0
-3273 83 0
-3273 149 0
-39 -83 -149 3273 0
-3274 40 0
-3274 84 0
-3274 150 0
-40 -84 -150 3274 0
-3275 41 0
-3275 85 0
-3275 151 0
-41 -85 -151 3275 0
-3276 42 0
-3276 86 0
-3276 152 0
-42 -86 -152 3276 0
-3277 43 0
-3277 87 0
-3277 153 0
-43 -87 -153 3277 0
-3278 44 0
-3278 88 0
-3278 154 0
-44 -88 -154 3278 0
-3257 6711 0
-3258 6711 0
-3259 6711 0
-3260 6711 0
-3261 6711 0
-3262 6711 0
-3263 6711 0
-3264 6711 0
-3265 6711 0
-3266 6711 0
-3267 6711 0
-3268 6711 0
-3269 6711 0
-3270 6711 0
-3271 6711 0
-3272 6711 0
-3273 6711 0
-3274 6711 0
-3275 6711 0
-3276 6711 0
-3277 6711 0
-3278 6711 0
-6711 3257 3258 3259 3260 3261 3262 3263 3264 3265 3266 3267 3268 3269 3270 3271 3272 3273 3274 3275 3276 3277 3278 0
-3279 23 0
-3279 67 0
-3279 155 0
-23 -67 -155 3279 0
-3280 24 0
-3280 68 0
-3280 156 0
-24 -68 -156 3280 0
-3281 25 0
-3281 69 0
-3281 157 0
-25 -69 -157 3281 0
-3282 26 0
-3282 70 0
-3282 158 0
-26 -70 -158 3282 0
-3283 27 0
-3283 71 0
-3283 159 0
-27 -71 -159 3283 0
-3284 28 0
-3284 72 0
-3284 160 0
-28 -72 -160 3284 0
-3285 29 0
-3285 73 0
-3285 161 0
-29 -73 -161 3285 0
-3286 30 0
-3286 74 0
-3286 162 0
-30 -74 -162 3286 0
-3287 31 0
-3287 75 0
-3287 163 0
-31 -75 -163 3287 0
-3288 32 0
-3288 76 0
-3288 164 0
-32 -76 -164 3288 0
-3289 33 0
-3289 77 0
-3289 165 0
-33 -77 -165 3289 0
-3290 34 0
-3290 78 0
-3290 166 0
-34 -78 -166 3290 0
-3291 35 0
-3291 79 0
-3291 167 0
-35 -79 -167 3291 0
-3292 36 0
-3292 80 0
-3292 168 0
-36 -80 -168 3292 0
-3293 37 0
-3293 81 0
-3293 169 0
-37 -81 -169 3293 0
-3294 38 0
-3294 82 0
-3294 170 0
-38 -82 -170 3294 0
-3295 39 0
-3295 83 0
-3295 171 0
-39 -83 -171 3295 0
-3296 40 0
-3296 84 0
-3296 172 0
-40 -84 -172 3296 0
-3297 41 0
-3297 85 0
-3297 173 0
-41 -85 -173 3297 0
-3298 42 0
-3298 86 0
-3298 174 0
-42 -86 -174 3298 0
-3299 43 0
-3299 87 0
-3299 175 0
-43 -87 -175 3299 0
-3300 44 0
-3300 88 0
-3300 176 0
-44 -88 -176 3300 0
-3279 6712 0
-3280 6712 0
-3281 6712 0
-3282 6712 0
-3283 6712 0
-3284 6712 0
-3285 6712 0
-3286 6712 0
-3287 6712 0
-3288 6712 0
-3289 6712 0
-3290 6712 0
-3291 6712 0
-3292 6712 0
-3293 6712 0
-3294 6712 0
-3295 6712 0
-3296 6712 0
-3297 6712 0
-3298 6712 0
-3299 6712 0
-3300 6712 0
-6712 3279 3280 3281 3282 3283 3284 3285 3286 3287 3288 3289 3290 3291 3292 3293 3294 3295 3296 3297 3298 3299 3300 0
-3301 23 0
-3301 67 0
-3301 177 0
-23 -67 -177 3301 0
-3302 24 0
-3302 68 0
-3302 178 0
-24 -68 -178 3302 0
-3303 25 0
-3303 69 0
-3303 179 0
-25 -69 -179 3303 0
-3304 26 0
-3304 70 0
-3304 180 0
-26 -70 -180 3304 0
-3305 27 0
-3305 71 0
-3305 181 0
-27 -71 -181 3305 0
-3306 28 0
-3306 72 0
-3306 182 0
-28 -72 -182 3306 0
-3307 29 0
-3307 73 0
-3307 183 0
-29 -73 -183 3307 0
-3308 30 0
-3308 74 0
-3308 184 0
-30 -74 -184 3308 0
-3309 31 0
-3309 75 0
-3309 185 0
-31 -75 -185 3309 0
-3310 32 0
-3310 76 0
-3310 186 0
-32 -76 -186 3310 0
-3311 33 0
-3311 77 0
-3311 187 0
-33 -77 -187 3311 0
-3312 34 0
-3312 78 0
-3312 188 0
-34 -78 -188 3312 0
-3313 35 0
-3313 79 0
-3313 189 0
-35 -79 -189 3313 0
-3314 36 0
-3314 80 0
-3314 190 0
-36 -80 -190 3314 0
-3315 37 0
-3315 81 0
-3315 191 0
-37 -81 -191 3315 0
-3316 38 0
-3316 82 0
-3316 192 0
-38 -82 -192 3316 0
-3317 39 0
-3317 83 0
-3317 193 0
-39 -83 -193 3317 0
-3318 40 0
-3318 84 0
-3318 194 0
-40 -84 -194 3318 0
-3319 41 0
-3319 85 0
-3319 195 0
-41 -85 -195 3319 0
-3320 42 0
-3320 86 0
-3320 196 0
-42 -86 -196 3320 0
-3321 43 0
-3321 87 0
-3321 197 0
-43 -87 -197 3321 0
-3322 44 0
-3322 88 0
-3322 198 0
-44 -88 -198 3322 0
-3301 6713 0
-3302 6713 0
-3303 6713 0
-3304 6713 0
-3305 6713 0
-3306 6713 0
-3307 6713 0
-3308 6713 0
-3309 6713 0
-3310 6713 0
-3311 6713 0
-3312 6713 0
-3313 6713 0
-3314 6713 0
-3315 6713 0
-3316 6713 0
-3317 6713 0
-3318 6713 0
-3319 6713 0
-3320 6713 0
-3321 6713 0
-3322 6713 0
-6713 3301 3302 3303 3304 3305 3306 3307 3308 3309 3310 3311 3312 3313 3314 3315 3316 3317 3318 3319 3320 3321 3322 0
-3323 23 0
-3323 67 0
-3323 199 0
-23 -67 -199 3323 0
-3324 24 0
-3324 68 0
-3324 200 0
-24 -68 -200 3324 0
-3325 25 0
-3325 69 0
-3325 201 0
-25 -69 -201 3325 0
-3326 26 0
-3326 70 0
-3326 202 0
-26 -70 -202 3326 0
-3327 27 0
-3327 71 0
-3327 203 0
-27 -71 -203 3327 0
-3328 28 0
-3328 72 0
-3328 204 0
-28 -72 -204 3328 0
-3329 29 0
-3329 73 0
-3329 205 0
-29 -73 -205 3329 0
-3330 30 0
-3330 74 0
-3330 206 0
-30 -74 -206 3330 0
-3331 31 0
-3331 75 0
-3331 207 0
-31 -75 -207 3331 0
-3332 32 0
-3332 76 0
-3332 208 0
-32 -76 -208 3332 0
-3333 33 0
-3333 77 0
-3333 209 0
-33 -77 -209 3333 0
-3334 34 0
-3334 78 0
-3334 210 0
-34 -78 -210 3334 0
-3335 35 0
-3335 79 0
-3335 211 0
-35 -79 -211 3335 0
-3336 36 0
-3336 80 0
-3336 212 0
-36 -80 -212 3336 0
-3337 37 0
-3337 81 0
-3337 213 0
-37 -81 -213 3337 0
-3338 38 0
-3338 82 0
-3338 214 0
-38 -82 -214 3338 0
-3339 39 0
-3339 83 0
-3339 215 0
-39 -83 -215 3339 0
-3340 40 0
-3340 84 0
-3340 216 0
-40 -84 -216 3340 0
-3341 41 0
-3341 85 0
-3341 217 0
-41 -85 -217 3341 0
-3342 42 0
-3342 86 0
-3342 218 0
-42 -86 -218 3342 0
-3343 43 0
-3343 87 0
-3343 219 0
-43 -87 -219 3343 0
-3344 44 0
-3344 88 0
-3344 220 0
-44 -88 -220 3344 0
-3323 6714 0
-3324 6714 0
-3325 6714 0
-3326 6714 0
-3327 6714 0
-3328 6714 0
-3329 6714 0
-3330 6714 0
-3331 6714 0
-3332 6714 0
-3333 6714 0
-3334 6714 0
-3335 6714 0
-3336 6714 0
-3337 6714 0
-3338 6714 0
-3339 6714 0
-3340 6714 0
-3341 6714 0
-3342 6714 0
-3343 6714 0
-3344 6714 0
-6714 3323 3324 3325 3326 3327 3328 3329 3330 3331 3332 3333 3334 3335 3336 3337 3338 3339 3340 3341 3342 3343 3344 0
-3345 23 0
-3345 67 0
-3345 221 0
-23 -67 -221 3345 0
-3346 24 0
-3346 68 0
-3346 222 0
-24 -68 -222 3346 0
-3347 25 0
-3347 69 0
-3347 223 0
-25 -69 -223 3347 0
-3348 26 0
-3348 70 0
-3348 224 0
-26 -70 -224 3348 0
-3349 27 0
-3349 71 0
-3349 225 0
-27 -71 -225 3349 0
-3350 28 0
-3350 72 0
-3350 226 0
-28 -72 -226 3350 0
-3351 29 0
-3351 73 0
-3351 227 0
-29 -73 -227 3351 0
-3352 30 0
-3352 74 0
-3352 228 0
-30 -74 -228 3352 0
-3353 31 0
-3353 75 0
-3353 229 0
-31 -75 -229 3353 0
-3354 32 0
-3354 76 0
-3354 230 0
-32 -76 -230 3354 0
-3355 33 0
-3355 77 0
-3355 231 0
-33 -77 -231 3355 0
-3356 34 0
-3356 78 0
-3356 232 0
-34 -78 -232 3356 0
-3357 35 0
-3357 79 0
-3357 233 0
-35 -79 -233 3357 0
-3358 36 0
-3358 80 0
-3358 234 0
-36 -80 -234 3358 0
-3359 37 0
-3359 81 0
-3359 235 0
-37 -81 -235 3359 0
-3360 38 0
-3360 82 0
-3360 236 0
-38 -82 -236 3360 0
-3361 39 0
-3361 83 0
-3361 237 0
-39 -83 -237 3361 0
-3362 40 0
-3362 84 0
-3362 238 0
-40 -84 -238 3362 0
-3363 41 0
-3363 85 0
-3363 239 0
-41 -85 -239 3363 0
-3364 42 0
-3364 86 0
-3364 240 0
-42 -86 -240 3364 0
-3365 43 0
-3365 87 0
-3365 241 0
-43 -87 -241 3365 0
-3366 44 0
-3366 88 0
-3366 242 0
-44 -88 -242 3366 0
-3345 6715 0
-3346 6715 0
-3347 6715 0
-3348 6715 0
-3349 6715 0
-3350 6715 0
-3351 6715 0
-3352 6715 0
-3353 6715 0
-3354 6715 0
-3355 6715 0
-3356 6715 0
-3357 6715 0
-3358 6715 0
-3359 6715 0
-3360 6715 0
-3361 6715 0
-3362 6715 0
-3363 6715 0
-3364 6715 0
-3365 6715 0
-3366 6715 0
-6715 3345 3346 3347 3348 3349 3350 3351 3352 3353 3354 3355 3356 3357 3358 3359 3360 3361 3362 3363 3364 3365 3366 0
-3367 23 0
-3367 67 0
-3367 243 0
-23 -67 -243 3367 0
-3368 24 0
-3368 68 0
-3368 244 0
-24 -68 -244 3368 0
-3369 25 0
-3369 69 0
-3369 245 0
-25 -69 -245 3369 0
-3370 26 0
-3370 70 0
-3370 246 0
-26 -70 -246 3370 0
-3371 27 0
-3371 71 0
-3371 247 0
-27 -71 -247 3371 0
-3372 28 0
-3372 72 0
-3372 248 0
-28 -72 -248 3372 0
-3373 29 0
-3373 73 0
-3373 249 0
-29 -73 -249 3373 0
-3374 30 0
-3374 74 0
-3374 250 0
-30 -74 -250 3374 0
-3375 31 0
-3375 75 0
-3375 251 0
-31 -75 -251 3375 0
-3376 32 0
-3376 76 0
-3376 252 0
-32 -76 -252 3376 0
-3377 33 0
-3377 77 0
-3377 253 0
-33 -77 -253 3377 0
-3378 34 0
-3378 78 0
-3378 254 0
-34 -78 -254 3378 0
-3379 35 0
-3379 79 0
-3379 255 0
-35 -79 -255 3379 0
-3380 36 0
-3380 80 0
-3380 256 0
-36 -80 -256 3380 0
-3381 37 0
-3381 81 0
-3381 257 0
-37 -81 -257 3381 0
-3382 38 0
-3382 82 0
-3382 258 0
-38 -82 -258 3382 0
-3383 39 0
-3383 83 0
-3383 259 0
-39 -83 -259 3383 0
-3384 40 0
-3384 84 0
-3384 260 0
-40 -84 -260 3384 0
-3385 41 0
-3385 85 0
-3385 261 0
-41 -85 -261 3385 0
-3386 42 0
-3386 86 0
-3386 262 0
-42 -86 -262 3386 0
-3387 43 0
-3387 87 0
-3387 263 0
-43 -87 -263 3387 0
-3388 44 0
-3388 88 0
-3388 264 0
-44 -88 -264 3388 0
-3367 6716 0
-3368 6716 0
-3369 6716 0
-3370 6716 0
-3371 6716 0
-3372 6716 0
-3373 6716 0
-3374 6716 0
-3375 6716 0
-3376 6716 0
-3377 6716 0
-3378 6716 0
-3379 6716 0
-3380 6716 0
-3381 6716 0
-3382 6716 0
-3383 6716 0
-3384 6716 0
-3385 6716 0
-3386 6716 0
-3387 6716 0
-3388 6716 0
-6716 3367 3368 3369 3370 3371 3372 3373 3374 3375 3376 3377 3378 3379 3380 3381 3382 3383 3384 3385 3386 3387 3388 0
-3389 23 0
-3389 89 0
-3389 111 0
-23 -89 -111 3389 0
-3390 24 0
-3390 90 0
-3390 112 0
-24 -90 -112 3390 0
-3391 25 0
-3391 91 0
-3391 113 0
-25 -91 -113 3391 0
-3392 26 0
-3392 92 0
-3392 114 0
-26 -92 -114 3392 0
-3393 27 0
-3393 93 0
-3393 115 0
-27 -93 -115 3393 0
-3394 28 0
-3394 94 0
-3394 116 0
-28 -94 -116 3394 0
-3395 29 0
-3395 95 0
-3395 117 0
-29 -95 -117 3395 0
-3396 30 0
-3396 96 0
-3396 118 0
-30 -96 -118 3396 0
-3397 31 0
-3397 97 0
-3397 119 0
-31 -97 -119 3397 0
-3398 32 0
-3398 98 0
-3398 120 0
-32 -98 -120 3398 0
-3399 33 0
-3399 99 0
-3399 121 0
-33 -99 -121 3399 0
-3400 34 0
-3400 100 0
-3400 122 0
-34 -100 -122 3400 0
-3401 35 0
-3401 101 0
-3401 123 0
-35 -101 -123 3401 0
-3402 36 0
-3402 102 0
-3402 124 0
-36 -102 -124 3402 0
-3403 37 0
-3403 103 0
-3403 125 0
-37 -103 -125 3403 0
-3404 38 0
-3404 104 0
-3404 126 0
-38 -104 -126 3404 0
-3405 39 0
-3405 105 0
-3405 127 0
-39 -105 -127 3405 0
-3406 40 0
-3406 106 0
-3406 128 0
-40 -106 -128 3406 0
-3407 41 0
-3407 107 0
-3407 129 0
-41 -107 -129 3407 0
-3408 42 0
-3408 108 0
-3408 130 0
-42 -108 -130 3408 0
-3409 43 0
-3409 109 0
-3409 131 0
-43 -109 -131 3409 0
-3410 44 0
-3410 110 0
-3410 132 0
-44 -110 -132 3410 0
-3389 6717 0
-3390 6717 0
-3391 6717 0
-3392 6717 0
-3393 6717 0
-3394 6717 0
-3395 6717 0
-3396 6717 0
-3397 6717 0
-3398 6717 0
-3399 6717 0
-3400 6717 0
-3401 6717 0
-3402 6717 0
-3403 6717 0
-3404 6717 0
-3405 6717 0
-3406 6717 0
-3407 6717 0
-3408 6717 0
-3409 6717 0
-3410 6717 0
-6717 3389 3390 3391 3392 3393 3394 3395 3396 3397 3398 3399 3400 3401 3402 3403 3404 3405 3406 3407 3408 3409 3410 0
-3411 23 0
-3411 89 0
-3411 133 0
-23 -89 -133 3411 0
-3412 24 0
-3412 90 0
-3412 134 0
-24 -90 -134 3412 0
-3413 25 0
-3413 91 0
-3413 135 0
-25 -91 -135 3413 0
-3414 26 0
-3414 92 0
-3414 136 0
-26 -92 -136 3414 0
-3415 27 0
-3415 93 0
-3415 137 0
-27 -93 -137 3415 0
-3416 28 0
-3416 94 0
-3416 138 0
-28 -94 -138 3416 0
-3417 29 0
-3417 95 0
-3417 139 0
-29 -95 -139 3417 0
-3418 30 0
-3418 96 0
-3418 140 0
-30 -96 -140 3418 0
-3419 31 0
-3419 97 0
-3419 141 0
-31 -97 -141 3419 0
-3420 32 0
-3420 98 0
-3420 142 0
-32 -98 -142 3420 0
-3421 33 0
-3421 99 0
-3421 143 0
-33 -99 -143 3421 0
-3422 34 0
-3422 100 0
-3422 144 0
-34 -100 -144 3422 0
-3423 35 0
-3423 101 0
-3423 145 0
-35 -101 -145 3423 0
-3424 36 0
-3424 102 0
-3424 146 0
-36 -102 -146 3424 0
-3425 37 0
-3425 103 0
-3425 147 0
-37 -103 -147 3425 0
-3426 38 0
-3426 104 0
-3426 148 0
-38 -104 -148 3426 0
-3427 39 0
-3427 105 0
-3427 149 0
-39 -105 -149 3427 0
-3428 40 0
-3428 106 0
-3428 150 0
-40 -106 -150 3428 0
-3429 41 0
-3429 107 0
-3429 151 0
-41 -107 -151 3429 0
-3430 42 0
-3430 108 0
-3430 152 0
-42 -108 -152 3430 0
-3431 43 0
-3431 109 0
-3431 153 0
-43 -109 -153 3431 0
-3432 44 0
-3432 110 0
-3432 154 0
-44 -110 -154 3432 0
-3411 6718 0
-3412 6718 0
-3413 6718 0
-3414 6718 0
-3415 6718 0
-3416 6718 0
-3417 6718 0
-3418 6718 0
-3419 6718 0
-3420 6718 0
-3421 6718 0
-3422 6718 0
-3423 6718 0
-3424 6718 0
-3425 6718 0
-3426 6718 0
-3427 6718 0
-3428 6718 0
-3429 6718 0
-3430 6718 0
-3431 6718 0
-3432 6718 0
-6718 3411 3412 3413 3414 3415 3416 3417 3418 3419 3420 3421 3422 3423 3424 3425 3426 3427 3428 3429 3430 3431 3432 0
-3433 23 0
-3433 89 0
-3433 155 0
-23 -89 -155 3433 0
-3434 24 0
-3434 90 0
-3434 156 0
-24 -90 -156 3434 0
-3435 25 0
-3435 91 0
-3435 157 0
-25 -91 -157 3435 0
-3436 26 0
-3436 92 0
-3436 158 0
-26 -92 -158 3436 0
-3437 27 0
-3437 93 0
-3437 159 0
-27 -93 -159 3437 0
-3438 28 0
-3438 94 0
-3438 160 0
-28 -94 -160 3438 0
-3439 29 0
-3439 95 0
-3439 161 0
-29 -95 -161 3439 0
-3440 30 0
-3440 96 0
-3440 162 0
-30 -96 -162 3440 0
-3441 31 0
-3441 97 0
-3441 163 0
-31 -97 -163 3441 0
-3442 32 0
-3442 98 0
-3442 164 0
-32 -98 -164 3442 0
-3443 33 0
-3443 99 0
-3443 165 0
-33 -99 -165 3443 0
-3444 34 0
-3444 100 0
-3444 166 0
-34 -100 -166 3444 0
-3445 35 0
-3445 101 0
-3445 167 0
-35 -101 -167 3445 0
-3446 36 0
-3446 102 0
-3446 168 0
-36 -102 -168 3446 0
-3447 37 0
-3447 103 0
-3447 169 0
-37 -103 -169 3447 0
-3448 38 0
-3448 104 0
-3448 170 0
-38 -104 -170 3448 0
-3449 39 0
-3449 105 0
-3449 171 0
-39 -105 -171 3449 0
-3450 40 0
-3450 106 0
-3450 172 0
-40 -106 -172 3450 0
-3451 41 0
-3451 107 0
-3451 173 0
-41 -107 -173 3451 0
-3452 42 0
-3452 108 0
-3452 174 0
-42 -108 -174 3452 0
-3453 43 0
-3453 109 0
-3453 175 0
-43 -109 -175 3453 0
-3454 44 0
-3454 110 0
-3454 176 0
-44 -110 -176 3454 0
-3433 6719 0
-3434 6719 0
-3435 6719 0
-3436 6719 0
-3437 6719 0
-3438 6719 0
-3439 6719 0
-3440 6719 0
-3441 6719 0
-3442 6719 0
-3443 6719 0
-3444 6719 0
-3445 6719 0
-3446 6719 0
-3447 6719 0
-3448 6719 0
-3449 6719 0
-3450 6719 0
-3451 6719 0
-3452 6719 0
-3453 6719 0
-3454 6719 0
-6719 3433 3434 3435 3436 3437 3438 3439 3440 3441 3442 3443 3444 3445 3446 3447 3448 3449 3450 3451 3452 3453 3454 0
-3455 23 0
-3455 89 0
-3455 177 0
-23 -89 -177 3455 0
-3456 24 0
-3456 90 0
-3456 178 0
-24 -90 -178 3456 0
-3457 25 0
-3457 91 0
-3457 179 0
-25 -91 -179 3457 0
-3458 26 0
-3458 92 0
-3458 180 0
-26 -92 -180 3458 0
-3459 27 0
-3459 93 0
-3459 181 0
-27 -93 -181 3459 0
-3460 28 0
-3460 94 0
-3460 182 0
-28 -94 -182 3460 0
-3461 29 0
-3461 95 0
-3461 183 0
-29 -95 -183 3461 0
-3462 30 0
-3462 96 0
-3462 184 0
-30 -96 -184 3462 0
-3463 31 0
-3463 97 0
-3463 185 0
-31 -97 -185 3463 0
-3464 32 0
-3464 98 0
-3464 186 0
-32 -98 -186 3464 0
-3465 33 0
-3465 99 0
-3465 187 0
-33 -99 -187 3465 0
-3466 34 0
-3466 100 0
-3466 188 0
-34 -100 -188 3466 0
-3467 35 0
-3467 101 0
-3467 189 0
-35 -101 -189 3467 0
-3468 36 0
-3468 102 0
-3468 190 0
-36 -102 -190 3468 0
-3469 37 0
-3469 103 0
-3469 191 0
-37 -103 -191 3469 0
-3470 38 0
-3470 104 0
-3470 192 0
-38 -104 -192 3470 0
-3471 39 0
-3471 105 0
-3471 193 0
-39 -105 -193 3471 0
-3472 40 0
-3472 106 0
-3472 194 0
-40 -106 -194 3472 0
-3473 41 0
-3473 107 0
-3473 195 0
-41 -107 -195 3473 0
-3474 42 0
-3474 108 0
-3474 196 0
-42 -108 -196 3474 0
-3475 43 0
-3475 109 0
-3475 197 0
-43 -109 -197 3475 0
-3476 44 0
-3476 110 0
-3476 198 0
-44 -110 -198 3476 0
-3455 6720 0
-3456 6720 0
-3457 6720 0
-3458 6720 0
-3459 6720 0
-3460 6720 0
-3461 6720 0
-3462 6720 0
-3463 6720 0
-3464 6720 0
-3465 6720 0
-3466 6720 0
-3467 6720 0
-3468 6720 0
-3469 6720 0
-3470 6720 0
-3471 6720 0
-3472 6720 0
-3473 6720 0
-3474 6720 0
-3475 6720 0
-3476 6720 0
-6720 3455 3456 3457 3458 3459 3460 3461 3462 3463 3464 3465 3466 3467 3468 3469 3470 3471 3472 3473 3474 3475 3476 0
-3477 23 0
-3477 89 0
-3477 199 0
-23 -89 -199 3477 0
-3478 24 0
-3478 90 0
-3478 200 0
-24 -90 -200 3478 0
-3479 25 0
-3479 91 0
-3479 201 0
-25 -91 -201 3479 0
-3480 26 0
-3480 92 0
-3480 202 0
-26 -92 -202 3480 0
-3481 27 0
-3481 93 0
-3481 203 0
-27 -93 -203 3481 0
-3482 28 0
-3482 94 0
-3482 204 0
-28 -94 -204 3482 0
-3483 29 0
-3483 95 0
-3483 205 0
-29 -95 -205 3483 0
-3484 30 0
-3484 96 0
-3484 206 0
-30 -96 -206 3484 0
-3485 31 0
-3485 97 0
-3485 207 0
-31 -97 -207 3485 0
-3486 32 0
-3486 98 0
-3486 208 0
-32 -98 -208 3486 0
-3487 33 0
-3487 99 0
-3487 209 0
-33 -99 -209 3487 0
-3488 34 0
-3488 100 0
-3488 210 0
-34 -100 -210 3488 0
-3489 35 0
-3489 101 0
-3489 211 0
-35 -101 -211 3489 0
-3490 36 0
-3490 102 0
-3490 212 0
-36 -102 -212 3490 0
-3491 37 0
-3491 103 0
-3491 213 0
-37 -103 -213 3491 0
-3492 38 0
-3492 104 0
-3492 214 0
-38 -104 -214 3492 0
-3493 39 0
-3493 105 0
-3493 215 0
-39 -105 -215 3493 0
-3494 40 0
-3494 106 0
-3494 216 0
-40 -106 -216 3494 0
-3495 41 0
-3495 107 0
-3495 217 0
-41 -107 -217 3495 0
-3496 42 0
-3496 108 0
-3496 218 0
-42 -108 -218 3496 0
-3497 43 0
-3497 109 0
-3497 219 0
-43 -109 -219 3497 0
-3498 44 0
-3498 110 0
-3498 220 0
-44 -110 -220 3498 0
-3477 6721 0
-3478 6721 0
-3479 6721 0
-3480 6721 0
-3481 6721 0
-3482 6721 0
-3483 6721 0
-3484 6721 0
-3485 6721 0
-3486 6721 0
-3487 6721 0
-3488 6721 0
-3489 6721 0
-3490 6721 0
-3491 6721 0
-3492 6721 0
-3493 6721 0
-3494 6721 0
-3495 6721 0
-3496 6721 0
-3497 6721 0
-3498 6721 0
-6721 3477 3478 3479 3480 3481 3482 3483 3484 3485 3486 3487 3488 3489 3490 3491 3492 3493 3494 3495 3496 3497 3498 0
-3499 23 0
-3499 89 0
-3499 221 0
-23 -89 -221 3499 0
-3500 24 0
-3500 90 0
-3500 222 0
-24 -90 -222 3500 0
-3501 25 0
-3501 91 0
-3501 223 0
-25 -91 -223 3501 0
-3502 26 0
-3502 92 0
-3502 224 0
-26 -92 -224 3502 0
-3503 27 0
-3503 93 0
-3503 225 0
-27 -93 -225 3503 0
-3504 28 0
-3504 94 0
-3504 226 0
-28 -94 -226 3504 0
-3505 29 0
-3505 95 0
-3505 227 0
-29 -95 -227 3505 0
-3506 30 0
-3506 96 0
-3506 228 0
-30 -96 -228 3506 0
-3507 31 0
-3507 97 0
-3507 229 0
-31 -97 -229 3507 0
-3508 32 0
-3508 98 0
-3508 230 0
-32 -98 -230 3508 0
-3509 33 0
-3509 99 0
-3509 231 0
-33 -99 -231 3509 0
-3510 34 0
-3510 100 0
-3510 232 0
-34 -100 -232 3510 0
-3511 35 0
-3511 101 0
-3511 233 0
-35 -101 -233 3511 0
-3512 36 0
-3512 102 0
-3512 234 0
-36 -102 -234 3512 0
-3513 37 0
-3513 103 0
-3513 235 0
-37 -103 -235 3513 0
-3514 38 0
-3514 104 0
-3514 236 0
-38 -104 -236 3514 0
-3515 39 0
-3515 105 0
-3515 237 0
-39 -105 -237 3515 0
-3516 40 0
-3516 106 0
-3516 238 0
-40 -106 -238 3516 0
-3517 41 0
-3517 107 0
-3517 239 0
-41 -107 -239 3517 0
-3518 42 0
-3518 108 0
-3518 240 0
-42 -108 -240 3518 0
-3519 43 0
-3519 109 0
-3519 241 0
-43 -109 -241 3519 0
-3520 44 0
-3520 110 0
-3520 242 0
-44 -110 -242 3520 0
-3499 6722 0
-3500 6722 0
-3501 6722 0
-3502 6722 0
-3503 6722 0
-3504 6722 0
-3505 6722 0
-3506 6722 0
-3507 6722 0
-3508 6722 0
-3509 6722 0
-3510 6722 0
-3511 6722 0
-3512 6722 0
-3513 6722 0
-3514 6722 0
-3515 6722 0
-3516 6722 0
-3517 6722 0
-3518 6722 0
-3519 6722 0
-3520 6722 0
-6722 3499 3500 3501 3502 3503 3504 3505 3506 3507 3508 3509 3510 3511 3512 3513 3514 3515 3516 3517 3518 3519 3520 0
-3521 23 0
-3521 89 0
-3521 243 0
-23 -89 -243 3521 0
-3522 24 0
-3522 90 0
-3522 244 0
-24 -90 -244 3522 0
-3523 25 0
-3523 91 0
-3523 245 0
-25 -91 -245 3523 0
-3524 26 0
-3524 92 0
-3524 246 0
-26 -92 -246 3524 0
-3525 27 0
-3525 93 0
-3525 247 0
-27 -93 -247 3525 0
-3526 28 0
-3526 94 0
-3526 248 0
-28 -94 -248 3526 0
-3527 29 0
-3527 95 0
-3527 249 0
-29 -95 -249 3527 0
-3528 30 0
-3528 96 0
-3528 250 0
-30 -96 -250 3528 0
-3529 31 0
-3529 97 0
-3529 251 0
-31 -97 -251 3529 0
-3530 32 0
-3530 98 0
-3530 252 0
-32 -98 -252 3530 0
-3531 33 0
-3531 99 0
-3531 253 0
-33 -99 -253 3531 0
-3532 34 0
-3532 100 0
-3532 254 0
-34 -100 -254 3532 0
-3533 35 0
-3533 101 0
-3533 255 0
-35 -101 -255 3533 0
-3534 36 0
-3534 102 0
-3534 256 0
-36 -102 -256 3534 0
-3535 37 0
-3535 103 0
-3535 257 0
-37 -103 -257 3535 0
-3536 38 0
-3536 104 0
-3536 258 0
-38 -104 -258 3536 0
-3537 39 0
-3537 105 0
-3537 259 0
-39 -105 -259 3537 0
-3538 40 0
-3538 106 0
-3538 260 0
-40 -106 -260 3538 0
-3539 41 0
-3539 107 0
-3539 261 0
-41 -107 -261 3539 0
-3540 42 0
-3540 108 0
-3540 262 0
-42 -108 -262 3540 0
-3541 43 0
-3541 109 0
-3541 263 0
-43 -109 -263 3541 0
-3542 44 0
-3542 110 0
-3542 264 0
-44 -110 -264 3542 0
-3521 6723 0
-3522 6723 0
-3523 6723 0
-3524 6723 0
-3525 6723 0
-3526 6723 0
-3527 6723 0
-3528 6723 0
-3529 6723 0
-3530 6723 0
-3531 6723 0
-3532 6723 0
-3533 6723 0
-3534 6723 0
-3535 6723 0
-3536 6723 0
-3537 6723 0
-3538 6723 0
-3539 6723 0
-3540 6723 0
-3541 6723 0
-3542 6723 0
-6723 3521 3522 3523 3524 3525 3526 3527 3528 3529 3530 3531 3532 3533 3534 3535 3536 3537 3538 3539 3540 3541 3542 0
-3543 23 0
-3543 111 0
-3543 133 0
-23 -111 -133 3543 0
-3544 24 0
-3544 112 0
-3544 134 0
-24 -112 -134 3544 0
-3545 25 0
-3545 113 0
-3545 135 0
-25 -113 -135 3545 0
-3546 26 0
-3546 114 0
-3546 136 0
-26 -114 -136 3546 0
-3547 27 0
-3547 115 0
-3547 137 0
-27 -115 -137 3547 0
-3548 28 0
-3548 116 0
-3548 138 0
-28 -116 -138 3548 0
-3549 29 0
-3549 117 0
-3549 139 0
-29 -117 -139 3549 0
-3550 30 0
-3550 118 0
-3550 140 0
-30 -118 -140 3550 0
-3551 31 0
-3551 119 0
-3551 141 0
-31 -119 -141 3551 0
-3552 32 0
-3552 120 0
-3552 142 0
-32 -120 -142 3552 0
-3553 33 0
-3553 121 0
-3553 143 0
-33 -121 -143 3553 0
-3554 34 0
-3554 122 0
-3554 144 0
-34 -122 -144 3554 0
-3555 35 0
-3555 123 0
-3555 145 0
-35 -123 -145 3555 0
-3556 36 0
-3556 124 0
-3556 146 0
-36 -124 -146 3556 0
-3557 37 0
-3557 125 0
-3557 147 0
-37 -125 -147 3557 0
-3558 38 0
-3558 126 0
-3558 148 0
-38 -126 -148 3558 0
-3559 39 0
-3559 127 0
-3559 149 0
-39 -127 -149 3559 0
-3560 40 0
-3560 128 0
-3560 150 0
-40 -128 -150 3560 0
-3561 41 0
-3561 129 0
-3561 151 0
-41 -129 -151 3561 0
-3562 42 0
-3562 130 0
-3562 152 0
-42 -130 -152 3562 0
-3563 43 0
-3563 131 0
-3563 153 0
-43 -131 -153 3563 0
-3564 44 0
-3564 132 0
-3564 154 0
-44 -132 -154 3564 0
-3543 6724 0
-3544 6724 0
-3545 6724 0
-3546 6724 0
-3547 6724 0
-3548 6724 0
-3549 6724 0
-3550 6724 0
-3551 6724 0
-3552 6724 0
-3553 6724 0
-3554 6724 0
-3555 6724 0
-3556 6724 0
-3557 6724 0
-3558 6724 0
-3559 6724 0
-3560 6724 0
-3561 6724 0
-3562 6724 0
-3563 6724 0
-3564 6724 0
-6724 3543 3544 3545 3546 3547 3548 3549 3550 3551 3552 3553 3554 3555 3556 3557 3558 3559 3560 3561 3562 3563 3564 0
-3565 23 0
-3565 111 0
-3565 155 0
-23 -111 -155 3565 0
-3566 24 0
-3566 112 0
-3566 156 0
-24 -112 -156 3566 0
-3567 25 0
-3567 113 0
-3567 157 0
-25 -113 -157 3567 0
-3568 26 0
-3568 114 0
-3568 158 0
-26 -114 -158 3568 0
-3569 27 0
-3569 115 0
-3569 159 0
-27 -115 -159 3569 0
-3570 28 0
-3570 116 0
-3570 160 0
-28 -116 -160 3570 0
-3571 29 0
-3571 117 0
-3571 161 0
-29 -117 -161 3571 0
-3572 30 0
-3572 118 0
-3572 162 0
-30 -118 -162 3572 0
-3573 31 0
-3573 119 0
-3573 163 0
-31 -119 -163 3573 0
-3574 32 0
-3574 120 0
-3574 164 0
-32 -120 -164 3574 0
-3575 33 0
-3575 121 0
-3575 165 0
-33 -121 -165 3575 0
-3576 34 0
-3576 122 0
-3576 166 0
-34 -122 -166 3576 0
-3577 35 0
-3577 123 0
-3577 167 0
-35 -123 -167 3577 0
-3578 36 0
-3578 124 0
-3578 168 0
-36 -124 -168 3578 0
-3579 37 0
-3579 125 0
-3579 169 0
-37 -125 -169 3579 0
-3580 38 0
-3580 126 0
-3580 170 0
-38 -126 -170 3580 0
-3581 39 0
-3581 127 0
-3581 171 0
-39 -127 -171 3581 0
-3582 40 0
-3582 128 0
-3582 172 0
-40 -128 -172 3582 0
-3583 41 0
-3583 129 0
-3583 173 0
-41 -129 -173 3583 0
-3584 42 0
-3584 130 0
-3584 174 0
-42 -130 -174 3584 0
-3585 43 0
-3585 131 0
-3585 175 0
-43 -131 -175 3585 0
-3586 44 0
-3586 132 0
-3586 176 0
-44 -132 -176 3586 0
-3565 6725 0
-3566 6725 0
-3567 6725 0
-3568 6725 0
-3569 6725 0
-3570 6725 0
-3571 6725 0
-3572 6725 0
-3573 6725 0
-3574 6725 0
-3575 6725 0
-3576 6725 0
-3577 6725 0
-3578 6725 0
-3579 6725 0
-3580 6725 0
-3581 6725 0
-3582 6725 0
-3583 6725 0
-3584 6725 0
-3585 6725 0
-3586 6725 0
-6725 3565 3566 3567 3568 3569 3570 3571 3572 3573 3574 3575 3576 3577 3578 3579 3580 3581 3582 3583 3584 3585 3586 0
-3587 23 0
-3587 111 0
-3587 177 0
-23 -111 -177 3587 0
-3588 24 0
-3588 112 0
-3588 178 0
-24 -112 -178 3588 0
-3589 25 0
-3589 113 0
-3589 179 0
-25 -113 -179 3589 0
-3590 26 0
-3590 114 0
-3590 180 0
-26 -114 -180 3590 0
-3591 27 0
-3591 115 0
-3591 181 0
-27 -115 -181 3591 0
-3592 28 0
-3592 116 0
-3592 182 0
-28 -116 -182 3592 0
-3593 29 0
-3593 117 0
-3593 183 0
-29 -117 -183 3593 0
-3594 30 0
-3594 118 0
-3594 184 0
-30 -118 -184 3594 0
-3595 31 0
-3595 119 0
-3595 185 0
-31 -119 -185 3595 0
-3596 32 0
-3596 120 0
-3596 186 0
-32 -120 -186 3596 0
-3597 33 0
-3597 121 0
-3597 187 0
-33 -121 -187 3597 0
-3598 34 0
-3598 122 0
-3598 188 0
-34 -122 -188 3598 0
-3599 35 0
-3599 123 0
-3599 189 0
-35 -123 -189 3599 0
-3600 36 0
-3600 124 0
-3600 190 0
-36 -124 -190 3600 0
-3601 37 0
-3601 125 0
-3601 191 0
-37 -125 -191 3601 0
-3602 38 0
-3602 126 0
-3602 192 0
-38 -126 -192 3602 0
-3603 39 0
-3603 127 0
-3603 193 0
-39 -127 -193 3603 0
-3604 40 0
-3604 128 0
-3604 194 0
-40 -128 -194 3604 0
-3605 41 0
-3605 129 0
-3605 195 0
-41 -129 -195 3605 0
-3606 42 0
-3606 130 0
-3606 196 0
-42 -130 -196 3606 0
-3607 43 0
-3607 131 0
-3607 197 0
-43 -131 -197 3607 0
-3608 44 0
-3608 132 0
-3608 198 0
-44 -132 -198 3608 0
-3587 6726 0
-3588 6726 0
-3589 6726 0
-3590 6726 0
-3591 6726 0
-3592 6726 0
-3593 6726 0
-3594 6726 0
-3595 6726 0
-3596 6726 0
-3597 6726 0
-3598 6726 0
-3599 6726 0
-3600 6726 0
-3601 6726 0
-3602 6726 0
-3603 6726 0
-3604 6726 0
-3605 6726 0
-3606 6726 0
-3607 6726 0
-3608 6726 0
-6726 3587 3588 3589 3590 3591 3592 3593 3594 3595 3596 3597 3598 3599 3600 3601 3602 3603 3604 3605 3606 3607 3608 0
-3609 23 0
-3609 111 0
-3609 199 0
-23 -111 -199 3609 0
-3610 24 0
-3610 112 0
-3610 200 0
-24 -112 -200 3610 0
-3611 25 0
-3611 113 0
-3611 201 0
-25 -113 -201 3611 0
-3612 26 0
-3612 114 0
-3612 202 0
-26 -114 -202 3612 0
-3613 27 0
-3613 115 0
-3613 203 0
-27 -115 -203 3613 0
-3614 28 0
-3614 116 0
-3614 204 0
-28 -116 -204 3614 0
-3615 29 0
-3615 117 0
-3615 205 0
-29 -117 -205 3615 0
-3616 30 0
-3616 118 0
-3616 206 0
-30 -118 -206 3616 0
-3617 31 0
-3617 119 0
-3617 207 0
-31 -119 -207 3617 0
-3618 32 0
-3618 120 0
-3618 208 0
-32 -120 -208 3618 0
-3619 33 0
-3619 121 0
-3619 209 0
-33 -121 -209 3619 0
-3620 34 0
-3620 122 0
-3620 210 0
-34 -122 -210 3620 0
-3621 35 0
-3621 123 0
-3621 211 0
-35 -123 -211 3621 0
-3622 36 0
-3622 124 0
-3622 212 0
-36 -124 -212 3622 0
-3623 37 0
-3623 125 0
-3623 213 0
-37 -125 -213 3623 0
-3624 38 0
-3624 126 0
-3624 214 0
-38 -126 -214 3624 0
-3625 39 0
-3625 127 0
-3625 215 0
-39 -127 -215 3625 0
-3626 40 0
-3626 128 0
-3626 216 0
-40 -128 -216 3626 0
-3627 41 0
-3627 129 0
-3627 217 0
-41 -129 -217 3627 0
-3628 42 0
-3628 130 0
-3628 218 0
-42 -130 -218 3628 0
-3629 43 0
-3629 131 0
-3629 219 0
-43 -131 -219 3629 0
-3630 44 0
-3630 132 0
-3630 220 0
-44 -132 -220 3630 0
-3609 6727 0
-3610 6727 0
-3611 6727 0
-3612 6727 0
-3613 6727 0
-3614 6727 0
-3615 6727 0
-3616 6727 0
-3617 6727 0
-3618 6727 0
-3619 6727 0
-3620 6727 0
-3621 6727 0
-3622 6727 0
-3623 6727 0
-3624 6727 0
-3625 6727 0
-3626 6727 0
-3627 6727 0
-3628 6727 0
-3629 6727 0
-3630 6727 0
-6727 3609 3610 3611 3612 3613 3614 3615 3616 3617 3618 3619 3620 3621 3622 3623 3624 3625 3626 3627 3628 3629 3630 0
-3631 23 0
-3631 111 0
-3631 221 0
-23 -111 -221 3631 0
-3632 24 0
-3632 112 0
-3632 222 0
-24 -112 -222 3632 0
-3633 25 0
-3633 113 0
-3633 223 0
-25 -113 -223 3633 0
-3634 26 0
-3634 114 0
-3634 224 0
-26 -114 -224 3634 0
-3635 27 0
-3635 115 0
-3635 225 0
-27 -115 -225 3635 0
-3636 28 0
-3636 116 0
-3636 226 0
-28 -116 -226 3636 0
-3637 29 0
-3637 117 0
-3637 227 0
-29 -117 -227 3637 0
-3638 30 0
-3638 118 0
-3638 228 0
-30 -118 -228 3638 0
-3639 31 0
-3639 119 0
-3639 229 0
-31 -119 -229 3639 0
-3640 32 0
-3640 120 0
-3640 230 0
-32 -120 -230 3640 0
-3641 33 0
-3641 121 0
-3641 231 0
-33 -121 -231 3641 0
-3642 34 0
-3642 122 0
-3642 232 0
-34 -122 -232 3642 0
-3643 35 0
-3643 123 0
-3643 233 0
-35 -123 -233 3643 0
-3644 36 0
-3644 124 0
-3644 234 0
-36 -124 -234 3644 0
-3645 37 0
-3645 125 0
-3645 235 0
-37 -125 -235 3645 0
-3646 38 0
-3646 126 0
-3646 236 0
-38 -126 -236 3646 0
-3647 39 0
-3647 127 0
-3647 237 0
-39 -127 -237 3647 0
-3648 40 0
-3648 128 0
-3648 238 0
-40 -128 -238 3648 0
-3649 41 0
-3649 129 0
-3649 239 0
-41 -129 -239 3649 0
-3650 42 0
-3650 130 0
-3650 240 0
-42 -130 -240 3650 0
-3651 43 0
-3651 131 0
-3651 241 0
-43 -131 -241 3651 0
-3652 44 0
-3652 132 0
-3652 242 0
-44 -132 -242 3652 0
-3631 6728 0
-3632 6728 0
-3633 6728 0
-3634 6728 0
-3635 6728 0
-3636 6728 0
-3637 6728 0
-3638 6728 0
-3639 6728 0
-3640 6728 0
-3641 6728 0
-3642 6728 0
-3643 6728 0
-3644 6728 0
-3645 6728 0
-3646 6728 0
-3647 6728 0
-3648 6728 0
-3649 6728 0
-3650 6728 0
-3651 6728 0
-3652 6728 0
-6728 3631 3632 3633 3634 3635 3636 3637 3638 3639 3640 3641 3642 3643 3644 3645 3646 3647 3648 3649 3650 3651 3652 0
-3653 23 0
-3653 111 0
-3653 243 0
-23 -111 -243 3653 0
-3654 24 0
-3654 112 0
-3654 244 0
-24 -112 -244 3654 0
-3655 25 0
-3655 113 0
-3655 245 0
-25 -113 -245 3655 0
-3656 26 0
-3656 114 0
-3656 246 0
-26 -114 -246 3656 0
-3657 27 0
-3657 115 0
-3657 247 0
-27 -115 -247 3657 0
-3658 28 0
-3658 116 0
-3658 248 0
-28 -116 -248 3658 0
-3659 29 0
-3659 117 0
-3659 249 0
-29 -117 -249 3659 0
-3660 30 0
-3660 118 0
-3660 250 0
-30 -118 -250 3660 0
-3661 31 0
-3661 119 0
-3661 251 0
-31 -119 -251 3661 0
-3662 32 0
-3662 120 0
-3662 252 0
-32 -120 -252 3662 0
-3663 33 0
-3663 121 0
-3663 253 0
-33 -121 -253 3663 0
-3664 34 0
-3664 122 0
-3664 254 0
-34 -122 -254 3664 0
-3665 35 0
-3665 123 0
-3665 255 0
-35 -123 -255 3665 0
-3666 36 0
-3666 124 0
-3666 256 0
-36 -124 -256 3666 0
-3667 37 0
-3667 125 0
-3667 257 0
-37 -125 -257 3667 0
-3668 38 0
-3668 126 0
-3668 258 0
-38 -126 -258 3668 0
-3669 39 0
-3669 127 0
-3669 259 0
-39 -127 -259 3669 0
-3670 40 0
-3670 128 0
-3670 260 0
-40 -128 -260 3670 0
-3671 41 0
-3671 129 0
-3671 261 0
-41 -129 -261 3671 0
-3672 42 0
-3672 130 0
-3672 262 0
-42 -130 -262 3672 0
-3673 43 0
-3673 131 0
-3673 263 0
-43 -131 -263 3673 0
-3674 44 0
-3674 132 0
-3674 264 0
-44 -132 -264 3674 0
-3653 6729 0
-3654 6729 0
-3655 6729 0
-3656 6729 0
-3657 6729 0
-3658 6729 0
-3659 6729 0
-3660 6729 0
-3661 6729 0
-3662 6729 0
-3663 6729 0
-3664 6729 0
-3665 6729 0
-3666 6729 0
-3667 6729 0
-3668 6729 0
-3669 6729 0
-3670 6729 0
-3671 6729 0
-3672 6729 0
-3673 6729 0
-3674 6729 0
-6729 3653 3654 3655 3656 3657 3658 3659 3660 3661 3662 3663 3664 3665 3666 3667 3668 3669 3670 3671 3672 3673 3674 0
-3675 23 0
-3675 133 0
-3675 155 0
-23 -133 -155 3675 0
-3676 24 0
-3676 134 0
-3676 156 0
-24 -134 -156 3676 0
-3677 25 0
-3677 135 0
-3677 157 0
-25 -135 -157 3677 0
-3678 26 0
-3678 136 0
-3678 158 0
-26 -136 -158 3678 0
-3679 27 0
-3679 137 0
-3679 159 0
-27 -137 -159 3679 0
-3680 28 0
-3680 138 0
-3680 160 0
-28 -138 -160 3680 0
-3681 29 0
-3681 139 0
-3681 161 0
-29 -139 -161 3681 0
-3682 30 0
-3682 140 0
-3682 162 0
-30 -140 -162 3682 0
-3683 31 0
-3683 141 0
-3683 163 0
-31 -141 -163 3683 0
-3684 32 0
-3684 142 0
-3684 164 0
-32 -142 -164 3684 0
-3685 33 0
-3685 143 0
-3685 165 0
-33 -143 -165 3685 0
-3686 34 0
-3686 144 0
-3686 166 0
-34 -144 -166 3686 0
-3687 35 0
-3687 145 0
-3687 167 0
-35 -145 -167 3687 0
-3688 36 0
-3688 146 0
-3688 168 0
-36 -146 -168 3688 0
-3689 37 0
-3689 147 0
-3689 169 0
-37 -147 -169 3689 0
-3690 38 0
-3690 148 0
-3690 170 0
-38 -148 -170 3690 0
-3691 39 0
-3691 149 0
-3691 171 0
-39 -149 -171 3691 0
-3692 40 0
-3692 150 0
-3692 172 0
-40 -150 -172 3692 0
-3693 41 0
-3693 151 0
-3693 173 0
-41 -151 -173 3693 0
-3694 42 0
-3694 152 0
-3694 174 0
-42 -152 -174 3694 0
-3695 43 0
-3695 153 0
-3695 175 0
-43 -153 -175 3695 0
-3696 44 0
-3696 154 0
-3696 176 0
-44 -154 -176 3696 0
-3675 6730 0
-3676 6730 0
-3677 6730 0
-3678 6730 0
-3679 6730 0
-3680 6730 0
-3681 6730 0
-3682 6730 0
-3683 6730 0
-3684 6730 0
-3685 6730 0
-3686 6730 0
-3687 6730 0
-3688 6730 0
-3689 6730 0
-3690 6730 0
-3691 6730 0
-3692 6730 0
-3693 6730 0
-3694 6730 0
-3695 6730 0
-3696 6730 0
-6730 3675 3676 3677 3678 3679 3680 3681 3682 3683 3684 3685 3686 3687 3688 3689 3690 3691 3692 3693 3694 3695 3696 0
-3697 23 0
-3697 133 0
-3697 177 0
-23 -133 -177 3697 0
-3698 24 0
-3698 134 0
-3698 178 0
-24 -134 -178 3698 0
-3699 25 0
-3699 135 0
-3699 179 0
-25 -135 -179 3699 0
-3700 26 0
-3700 136 0
-3700 180 0
-26 -136 -180 3700 0
-3701 27 0
-3701 137 0
-3701 181 0
-27 -137 -181 3701 0
-3702 28 0
-3702 138 0
-3702 182 0
-28 -138 -182 3702 0
-3703 29 0
-3703 139 0
-3703 183 0
-29 -139 -183 3703 0
-3704 30 0
-3704 140 0
-3704 184 0
-30 -140 -184 3704 0
-3705 31 0
-3705 141 0
-3705 185 0
-31 -141 -185 3705 0
-3706 32 0
-3706 142 0
-3706 186 0
-32 -142 -186 3706 0
-3707 33 0
-3707 143 0
-3707 187 0
-33 -143 -187 3707 0
-3708 34 0
-3708 144 0
-3708 188 0
-34 -144 -188 3708 0
-3709 35 0
-3709 145 0
-3709 189 0
-35 -145 -189 3709 0
-3710 36 0
-3710 146 0
-3710 190 0
-36 -146 -190 3710 0
-3711 37 0
-3711 147 0
-3711 191 0
-37 -147 -191 3711 0
-3712 38 0
-3712 148 0
-3712 192 0
-38 -148 -192 3712 0
-3713 39 0
-3713 149 0
-3713 193 0
-39 -149 -193 3713 0
-3714 40 0
-3714 150 0
-3714 194 0
-40 -150 -194 3714 0
-3715 41 0
-3715 151 0
-3715 195 0
-41 -151 -195 3715 0
-3716 42 0
-3716 152 0
-3716 196 0
-42 -152 -196 3716 0
-3717 43 0
-3717 153 0
-3717 197 0
-43 -153 -197 3717 0
-3718 44 0
-3718 154 0
-3718 198 0
-44 -154 -198 3718 0
-3697 6731 0
-3698 6731 0
-3699 6731 0
-3700 6731 0
-3701 6731 0
-3702 6731 0
-3703 6731 0
-3704 6731 0
-3705 6731 0
-3706 6731 0
-3707 6731 0
-3708 6731 0
-3709 6731 0
-3710 6731 0
-3711 6731 0
-3712 6731 0
-3713 6731 0
-3714 6731 0
-3715 6731 0
-3716 6731 0
-3717 6731 0
-3718 6731 0
-6731 3697 3698 3699 3700 3701 3702 3703 3704 3705 3706 3707 3708 3709 3710 3711 3712 3713 3714 3715 3716 3717 3718 0
-3719 23 0
-3719 133 0
-3719 199 0
-23 -133 -199 3719 0
-3720 24 0
-3720 134 0
-3720 200 0
-24 -134 -200 3720 0
-3721 25 0
-3721 135 0
-3721 201 0
-25 -135 -201 3721 0
-3722 26 0
-3722 136 0
-3722 202 0
-26 -136 -202 3722 0
-3723 27 0
-3723 137 0
-3723 203 0
-27 -137 -203 3723 0
-3724 28 0
-3724 138 0
-3724 204 0
-28 -138 -204 3724 0
-3725 29 0
-3725 139 0
-3725 205 0
-29 -139 -205 3725 0
-3726 30 0
-3726 140 0
-3726 206 0
-30 -140 -206 3726 0
-3727 31 0
-3727 141 0
-3727 207 0
-31 -141 -207 3727 0
-3728 32 0
-3728 142 0
-3728 208 0
-32 -142 -208 3728 0
-3729 33 0
-3729 143 0
-3729 209 0
-33 -143 -209 3729 0
-3730 34 0
-3730 144 0
-3730 210 0
-34 -144 -210 3730 0
-3731 35 0
-3731 145 0
-3731 211 0
-35 -145 -211 3731 0
-3732 36 0
-3732 146 0
-3732 212 0
-36 -146 -212 3732 0
-3733 37 0
-3733 147 0
-3733 213 0
-37 -147 -213 3733 0
-3734 38 0
-3734 148 0
-3734 214 0
-38 -148 -214 3734 0
-3735 39 0
-3735 149 0
-3735 215 0
-39 -149 -215 3735 0
-3736 40 0
-3736 150 0
-3736 216 0
-40 -150 -216 3736 0
-3737 41 0
-3737 151 0
-3737 217 0
-41 -151 -217 3737 0
-3738 42 0
-3738 152 0
-3738 218 0
-42 -152 -218 3738 0
-3739 43 0
-3739 153 0
-3739 219 0
-43 -153 -219 3739 0
-3740 44 0
-3740 154 0
-3740 220 0
-44 -154 -220 3740 0
-3719 6732 0
-3720 6732 0
-3721 6732 0
-3722 6732 0
-3723 6732 0
-3724 6732 0
-3725 6732 0
-3726 6732 0
-3727 6732 0
-3728 6732 0
-3729 6732 0
-3730 6732 0
-3731 6732 0
-3732 6732 0
-3733 6732 0
-3734 6732 0
-3735 6732 0
-3736 6732 0
-3737 6732 0
-3738 6732 0
-3739 6732 0
-3740 6732 0
-6732 3719 3720 3721 3722 3723 3724 3725 3726 3727 3728 3729 3730 3731 3732 3733 3734 3735 3736 3737 3738 3739 3740 0
-3741 23 0
-3741 133 0
-3741 221 0
-23 -133 -221 3741 0
-3742 24 0
-3742 134 0
-3742 222 0
-24 -134 -222 3742 0
-3743 25 0
-3743 135 0
-3743 223 0
-25 -135 -223 3743 0
-3744 26 0
-3744 136 0
-3744 224 0
-26 -136 -224 3744 0
-3745 27 0
-3745 137 0
-3745 225 0
-27 -137 -225 3745 0
-3746 28 0
-3746 138 0
-3746 226 0
-28 -138 -226 3746 0
-3747 29 0
-3747 139 0
-3747 227 0
-29 -139 -227 3747 0
-3748 30 0
-3748 140 0
-3748 228 0
-30 -140 -228 3748 0
-3749 31 0
-3749 141 0
-3749 229 0
-31 -141 -229 3749 0
-3750 32 0
-3750 142 0
-3750 230 0
-32 -142 -230 3750 0
-3751 33 0
-3751 143 0
-3751 231 0
-33 -143 -231 3751 0
-3752 34 0
-3752 144 0
-3752 232 0
-34 -144 -232 3752 0
-3753 35 0
-3753 145 0
-3753 233 0
-35 -145 -233 3753 0
-3754 36 0
-3754 146 0
-3754 234 0
-36 -146 -234 3754 0
-3755 37 0
-3755 147 0
-3755 235 0
-37 -147 -235 3755 0
-3756 38 0
-3756 148 0
-3756 236 0
-38 -148 -236 3756 0
-3757 39 0
-3757 149 0
-3757 237 0
-39 -149 -237 3757 0
-3758 40 0
-3758 150 0
-3758 238 0
-40 -150 -238 3758 0
-3759 41 0
-3759 151 0
-3759 239 0
-41 -151 -239 3759 0
-3760 42 0
-3760 152 0
-3760 240 0
-42 -152 -240 3760 0
-3761 43 0
-3761 153 0
-3761 241 0
-43 -153 -241 3761 0
-3762 44 0
-3762 154 0
-3762 242 0
-44 -154 -242 3762 0
-3741 6733 0
-3742 6733 0
-3743 6733 0
-3744 6733 0
-3745 6733 0
-3746 6733 0
-3747 6733 0
-3748 6733 0
-3749 6733 0
-3750 6733 0
-3751 6733 0
-3752 6733 0
-3753 6733 0
-3754 6733 0
-3755 6733 0
-3756 6733 0
-3757 6733 0
-3758 6733 0
-3759 6733 0
-3760 6733 0
-3761 6733 0
-3762 6733 0
-6733 3741 3742 3743 3744 3745 3746 3747 3748 3749 3750 3751 3752 3753 3754 3755 3756 3757 3758 3759 3760 3761 3762 0
-3763 23 0
-3763 133 0
-3763 243 0
-23 -133 -243 3763 0
-3764 24 0
-3764 134 0
-3764 244 0
-24 -134 -244 3764 0
-3765 25 0
-3765 135 0
-3765 245 0
-25 -135 -245 3765 0
-3766 26 0
-3766 136 0
-3766 246 0
-26 -136 -246 3766 0
-3767 27 0
-3767 137 0
-3767 247 0
-27 -137 -247 3767 0
-3768 28 0
-3768 138 0
-3768 248 0
-28 -138 -248 3768 0
-3769 29 0
-3769 139 0
-3769 249 0
-29 -139 -249 3769 0
-3770 30 0
-3770 140 0
-3770 250 0
-30 -140 -250 3770 0
-3771 31 0
-3771 141 0
-3771 251 0
-31 -141 -251 3771 0
-3772 32 0
-3772 142 0
-3772 252 0
-32 -142 -252 3772 0
-3773 33 0
-3773 143 0
-3773 253 0
-33 -143 -253 3773 0
-3774 34 0
-3774 144 0
-3774 254 0
-34 -144 -254 3774 0
-3775 35 0
-3775 145 0
-3775 255 0
-35 -145 -255 3775 0
-3776 36 0
-3776 146 0
-3776 256 0
-36 -146 -256 3776 0
-3777 37 0
-3777 147 0
-3777 257 0
-37 -147 -257 3777 0
-3778 38 0
-3778 148 0
-3778 258 0
-38 -148 -258 3778 0
-3779 39 0
-3779 149 0
-3779 259 0
-39 -149 -259 3779 0
-3780 40 0
-3780 150 0
-3780 260 0
-40 -150 -260 3780 0
-3781 41 0
-3781 151 0
-3781 261 0
-41 -151 -261 3781 0
-3782 42 0
-3782 152 0
-3782 262 0
-42 -152 -262 3782 0
-3783 43 0
-3783 153 0
-3783 263 0
-43 -153 -263 3783 0
-3784 44 0
-3784 154 0
-3784 264 0
-44 -154 -264 3784 0
-3763 6734 0
-3764 6734 0
-3765 6734 0
-3766 6734 0
-3767 6734 0
-3768 6734 0
-3769 6734 0
-3770 6734 0
-3771 6734 0
-3772 6734 0
-3773 6734 0
-3774 6734 0
-3775 6734 0
-3776 6734 0
-3777 6734 0
-3778 6734 0
-3779 6734 0
-3780 6734 0
-3781 6734 0
-3782 6734 0
-3783 6734 0
-3784 6734 0
-6734 3763 3764 3765 3766 3767 3768 3769 3770 3771 3772 3773 3774 3775 3776 3777 3778 3779 3780 3781 3782 3783 3784 0
-3785 23 0
-3785 155 0
-3785 177 0
-23 -155 -177 3785 0
-3786 24 0
-3786 156 0
-3786 178 0
-24 -156 -178 3786 0
-3787 25 0
-3787 157 0
-3787 179 0
-25 -157 -179 3787 0
-3788 26 0
-3788 158 0
-3788 180 0
-26 -158 -180 3788 0
-3789 27 0
-3789 159 0
-3789 181 0
-27 -159 -181 3789 0
-3790 28 0
-3790 160 0
-3790 182 0
-28 -160 -182 3790 0
-3791 29 0
-3791 161 0
-3791 183 0
-29 -161 -183 3791 0
-3792 30 0
-3792 162 0
-3792 184 0
-30 -162 -184 3792 0
-3793 31 0
-3793 163 0
-3793 185 0
-31 -163 -185 3793 0
-3794 32 0
-3794 164 0
-3794 186 0
-32 -164 -186 3794 0
-3795 33 0
-3795 165 0
-3795 187 0
-33 -165 -187 3795 0
-3796 34 0
-3796 166 0
-3796 188 0
-34 -166 -188 3796 0
-3797 35 0
-3797 167 0
-3797 189 0
-35 -167 -189 3797 0
-3798 36 0
-3798 168 0
-3798 190 0
-36 -168 -190 3798 0
-3799 37 0
-3799 169 0
-3799 191 0
-37 -169 -191 3799 0
-3800 38 0
-3800 170 0
-3800 192 0
-38 -170 -192 3800 0
-3801 39 0
-3801 171 0
-3801 193 0
-39 -171 -193 3801 0
-3802 40 0
-3802 172 0
-3802 194 0
-40 -172 -194 3802 0
-3803 41 0
-3803 173 0
-3803 195 0
-41 -173 -195 3803 0
-3804 42 0
-3804 174 0
-3804 196 0
-42 -174 -196 3804 0
-3805 43 0
-3805 175 0
-3805 197 0
-43 -175 -197 3805 0
-3806 44 0
-3806 176 0
-3806 198 0
-44 -176 -198 3806 0
-3785 6735 0
-3786 6735 0
-3787 6735 0
-3788 6735 0
-3789 6735 0
-3790 6735 0
-3791 6735 0
-3792 6735 0
-3793 6735 0
-3794 6735 0
-3795 6735 0
-3796 6735 0
-3797 6735 0
-3798 6735 0
-3799 6735 0
-3800 6735 0
-3801 6735 0
-3802 6735 0
-3803 6735 0
-3804 6735 0
-3805 6735 0
-3806 6735 0
-6735 3785 3786 3787 3788 3789 3790 3791 3792 3793 3794 3795 3796 3797 3798 3799 3800 3801 3802 3803 3804 3805 3806 0
-3807 23 0
-3807 155 0
-3807 199 0
-23 -155 -199 3807 0
-3808 24 0
-3808 156 0
-3808 200 0
-24 -156 -200 3808 0
-3809 25 0
-3809 157 0
-3809 201 0
-25 -157 -201 3809 0
-3810 26 0
-3810 158 0
-3810 202 0
-26 -158 -202 3810 0
-3811 27 0
-3811 159 0
-3811 203 0
-27 -159 -203 3811 0
-3812 28 0
-3812 160 0
-3812 204 0
-28 -160 -204 3812 0
-3813 29 0
-3813 161 0
-3813 205 0
-29 -161 -205 3813 0
-3814 30 0
-3814 162 0
-3814 206 0
-30 -162 -206 3814 0
-3815 31 0
-3815 163 0
-3815 207 0
-31 -163 -207 3815 0
-3816 32 0
-3816 164 0
-3816 208 0
-32 -164 -208 3816 0
-3817 33 0
-3817 165 0
-3817 209 0
-33 -165 -209 3817 0
-3818 34 0
-3818 166 0
-3818 210 0
-34 -166 -210 3818 0
-3819 35 0
-3819 167 0
-3819 211 0
-35 -167 -211 3819 0
-3820 36 0
-3820 168 0
-3820 212 0
-36 -168 -212 3820 0
-3821 37 0
-3821 169 0
-3821 213 0
-37 -169 -213 3821 0
-3822 38 0
-3822 170 0
-3822 214 0
-38 -170 -214 3822 0
-3823 39 0
-3823 171 0
-3823 215 0
-39 -171 -215 3823 0
-3824 40 0
-3824 172 0
-3824 216 0
-40 -172 -216 3824 0
-3825 41 0
-3825 173 0
-3825 217 0
-41 -173 -217 3825 0
-3826 42 0
-3826 174 0
-3826 218 0
-42 -174 -218 3826 0
-3827 43 0
-3827 175 0
-3827 219 0
-43 -175 -219 3827 0
-3828 44 0
-3828 176 0
-3828 220 0
-44 -176 -220 3828 0
-3807 6736 0
-3808 6736 0
-3809 6736 0
-3810 6736 0
-3811 6736 0
-3812 6736 0
-3813 6736 0
-3814 6736 0
-3815 6736 0
-3816 6736 0
-3817 6736 0
-3818 6736 0
-3819 6736 0
-3820 6736 0
-3821 6736 0
-3822 6736 0
-3823 6736 0
-3824 6736 0
-3825 6736 0
-3826 6736 0
-3827 6736 0
-3828 6736 0
-6736 3807 3808 3809 3810 3811 3812 3813 3814 3815 3816 3817 3818 3819 3820 3821 3822 3823 3824 3825 3826 3827 3828 0
-3829 23 0
-3829 155 0
-3829 221 0
-23 -155 -221 3829 0
-3830 24 0
-3830 156 0
-3830 222 0
-24 -156 -222 3830 0
-3831 25 0
-3831 157 0
-3831 223 0
-25 -157 -223 3831 0
-3832 26 0
-3832 158 0
-3832 224 0
-26 -158 -224 3832 0
-3833 27 0
-3833 159 0
-3833 225 0
-27 -159 -225 3833 0
-3834 28 0
-3834 160 0
-3834 226 0
-28 -160 -226 3834 0
-3835 29 0
-3835 161 0
-3835 227 0
-29 -161 -227 3835 0
-3836 30 0
-3836 162 0
-3836 228 0
-30 -162 -228 3836 0
-3837 31 0
-3837 163 0
-3837 229 0
-31 -163 -229 3837 0
-3838 32 0
-3838 164 0
-3838 230 0
-32 -164 -230 3838 0
-3839 33 0
-3839 165 0
-3839 231 0
-33 -165 -231 3839 0
-3840 34 0
-3840 166 0
-3840 232 0
-34 -166 -232 3840 0
-3841 35 0
-3841 167 0
-3841 233 0
-35 -167 -233 3841 0
-3842 36 0
-3842 168 0
-3842 234 0
-36 -168 -234 3842 0
-3843 37 0
-3843 169 0
-3843 235 0
-37 -169 -235 3843 0
-3844 38 0
-3844 170 0
-3844 236 0
-38 -170 -236 3844 0
-3845 39 0
-3845 171 0
-3845 237 0
-39 -171 -237 3845 0
-3846 40 0
-3846 172 0
-3846 238 0
-40 -172 -238 3846 0
-3847 41 0
-3847 173 0
-3847 239 0
-41 -173 -239 3847 0
-3848 42 0
-3848 174 0
-3848 240 0
-42 -174 -240 3848 0
-3849 43 0
-3849 175 0
-3849 241 0
-43 -175 -241 3849 0
-3850 44 0
-3850 176 0
-3850 242 0
-44 -176 -242 3850 0
-3829 6737 0
-3830 6737 0
-3831 6737 0
-3832 6737 0
-3833 6737 0
-3834 6737 0
-3835 6737 0
-3836 6737 0
-3837 6737 0
-3838 6737 0
-3839 6737 0
-3840 6737 0
-3841 6737 0
-3842 6737 0
-3843 6737 0
-3844 6737 0
-3845 6737 0
-3846 6737 0
-3847 6737 0
-3848 6737 0
-3849 6737 0
-3850 6737 0
-6737 3829 3830 3831 3832 3833 3834 3835 3836 3837 3838 3839 3840 3841 3842 3843 3844 3845 3846 3847 3848 3849 3850 0
-3851 23 0
-3851 155 0
-3851 243 0
-23 -155 -243 3851 0
-3852 24 0
-3852 156 0
-3852 244 0
-24 -156 -244 3852 0
-3853 25 0
-3853 157 0
-3853 245 0
-25 -157 -245 3853 0
-3854 26 0
-3854 158 0
-3854 246 0
-26 -158 -246 3854 0
-3855 27 0
-3855 159 0
-3855 247 0
-27 -159 -247 3855 0
-3856 28 0
-3856 160 0
-3856 248 0
-28 -160 -248 3856 0
-3857 29 0
-3857 161 0
-3857 249 0
-29 -161 -249 3857 0
-3858 30 0
-3858 162 0
-3858 250 0
-30 -162 -250 3858 0
-3859 31 0
-3859 163 0
-3859 251 0
-31 -163 -251 3859 0
-3860 32 0
-3860 164 0
-3860 252 0
-32 -164 -252 3860 0
-3861 33 0
-3861 165 0
-3861 253 0
-33 -165 -253 3861 0
-3862 34 0
-3862 166 0
-3862 254 0
-34 -166 -254 3862 0
-3863 35 0
-3863 167 0
-3863 255 0
-35 -167 -255 3863 0
-3864 36 0
-3864 168 0
-3864 256 0
-36 -168 -256 3864 0
-3865 37 0
-3865 169 0
-3865 257 0
-37 -169 -257 3865 0
-3866 38 0
-3866 170 0
-3866 258 0
-38 -170 -258 3866 0
-3867 39 0
-3867 171 0
-3867 259 0
-39 -171 -259 3867 0
-3868 40 0
-3868 172 0
-3868 260 0
-40 -172 -260 3868 0
-3869 41 0
-3869 173 0
-3869 261 0
-41 -173 -261 3869 0
-3870 42 0
-3870 174 0
-3870 262 0
-42 -174 -262 3870 0
-3871 43 0
-3871 175 0
-3871 263 0
-43 -175 -263 3871 0
-3872 44 0
-3872 176 0
-3872 264 0
-44 -176 -264 3872 0
-3851 6738 0
-3852 6738 0
-3853 6738 0
-3854 6738 0
-3855 6738 0
-3856 6738 0
-3857 6738 0
-3858 6738 0
-3859 6738 0
-3860 6738 0
-3861 6738 0
-3862 6738 0
-3863 6738 0
-3864 6738 0
-3865 6738 0
-3866 6738 0
-3867 6738 0
-3868 6738 0
-3869 6738 0
-3870 6738 0
-3871 6738 0
-3872 6738 0
-6738 3851 3852 3853 3854 3855 3856 3857 3858 3859 3860 3861 3862 3863 3864 3865 3866 3867 3868 3869 3870 3871 3872 0
-3873 23 0
-3873 177 0
-3873 199 0
-23 -177 -199 3873 0
-3874 24 0
-3874 178 0
-3874 200 0
-24 -178 -200 3874 0
-3875 25 0
-3875 179 0
-3875 201 0
-25 -179 -201 3875 0
-3876 26 0
-3876 180 0
-3876 202 0
-26 -180 -202 3876 0
-3877 27 0
-3877 181 0
-3877 203 0
-27 -181 -203 3877 0
-3878 28 0
-3878 182 0
-3878 204 0
-28 -182 -204 3878 0
-3879 29 0
-3879 183 0
-3879 205 0
-29 -183 -205 3879 0
-3880 30 0
-3880 184 0
-3880 206 0
-30 -184 -206 3880 0
-3881 31 0
-3881 185 0
-3881 207 0
-31 -185 -207 3881 0
-3882 32 0
-3882 186 0
-3882 208 0
-32 -186 -208 3882 0
-3883 33 0
-3883 187 0
-3883 209 0
-33 -187 -209 3883 0
-3884 34 0
-3884 188 0
-3884 210 0
-34 -188 -210 3884 0
-3885 35 0
-3885 189 0
-3885 211 0
-35 -189 -211 3885 0
-3886 36 0
-3886 190 0
-3886 212 0
-36 -190 -212 3886 0
-3887 37 0
-3887 191 0
-3887 213 0
-37 -191 -213 3887 0
-3888 38 0
-3888 192 0
-3888 214 0
-38 -192 -214 3888 0
-3889 39 0
-3889 193 0
-3889 215 0
-39 -193 -215 3889 0
-3890 40 0
-3890 194 0
-3890 216 0
-40 -194 -216 3890 0
-3891 41 0
-3891 195 0
-3891 217 0
-41 -195 -217 3891 0
-3892 42 0
-3892 196 0
-3892 218 0
-42 -196 -218 3892 0
-3893 43 0
-3893 197 0
-3893 219 0
-43 -197 -219 3893 0
-3894 44 0
-3894 198 0
-3894 220 0
-44 -198 -220 3894 0
-3873 6739 0
-3874 6739 0
-3875 6739 0
-3876 6739 0
-3877 6739 0
-3878 6739 0
-3879 6739 0
-3880 6739 0
-3881 6739 0
-3882 6739 0
-3883 6739 0
-3884 6739 0
-3885 6739 0
-3886 6739 0
-3887 6739 0
-3888 6739 0
-3889 6739 0
-3890 6739 0
-3891 6739 0
-3892 6739 0
-3893 6739 0
-3894 6739 0
-6739 3873 3874 3875 3876 3877 3878 3879 3880 3881 3882 3883 3884 3885 3886 3887 3888 3889 3890 3891 3892 3893 3894 0
-3895 23 0
-3895 177 0
-3895 221 0
-23 -177 -221 3895 0
-3896 24 0
-3896 178 0
-3896 222 0
-24 -178 -222 3896 0
-3897 25 0
-3897 179 0
-3897 223 0
-25 -179 -223 3897 0
-3898 26 0
-3898 180 0
-3898 224 0
-26 -180 -224 3898 0
-3899 27 0
-3899 181 0
-3899 225 0
-27 -181 -225 3899 0
-3900 28 0
-3900 182 0
-3900 226 0
-28 -182 -226 3900 0
-3901 29 0
-3901 183 0
-3901 227 0
-29 -183 -227 3901 0
-3902 30 0
-3902 184 0
-3902 228 0
-30 -184 -228 3902 0
-3903 31 0
-3903 185 0
-3903 229 0
-31 -185 -229 3903 0
-3904 32 0
-3904 186 0
-3904 230 0
-32 -186 -230 3904 0
-3905 33 0
-3905 187 0
-3905 231 0
-33 -187 -231 3905 0
-3906 34 0
-3906 188 0
-3906 232 0
-34 -188 -232 3906 0
-3907 35 0
-3907 189 0
-3907 233 0
-35 -189 -233 3907 0
-3908 36 0
-3908 190 0
-3908 234 0
-36 -190 -234 3908 0
-3909 37 0
-3909 191 0
-3909 235 0
-37 -191 -235 3909 0
-3910 38 0
-3910 192 0
-3910 236 0
-38 -192 -236 3910 0
-3911 39 0
-3911 193 0
-3911 237 0
-39 -193 -237 3911 0
-3912 40 0
-3912 194 0
-3912 238 0
-40 -194 -238 3912 0
-3913 41 0
-3913 195 0
-3913 239 0
-41 -195 -239 3913 0
-3914 42 0
-3914 196 0
-3914 240 0
-42 -196 -240 3914 0
-3915 43 0
-3915 197 0
-3915 241 0
-43 -197 -241 3915 0
-3916 44 0
-3916 198 0
-3916 242 0
-44 -198 -242 3916 0
-3895 6740 0
-3896 6740 0
-3897 6740 0
-3898 6740 0
-3899 6740 0
-3900 6740 0
-3901 6740 0
-3902 6740 0
-3903 6740 0
-3904 6740 0
-3905 6740 0
-3906 6740 0
-3907 6740 0
-3908 6740 0
-3909 6740 0
-3910 6740 0
-3911 6740 0
-3912 6740 0
-3913 6740 0
-3914 6740 0
-3915 6740 0
-3916 6740 0
-6740 3895 3896 3897 3898 3899 3900 3901 3902 3903 3904 3905 3906 3907 3908 3909 3910 3911 3912 3913 3914 3915 3916 0
-3917 23 0
-3917 177 0
-3917 243 0
-23 -177 -243 3917 0
-3918 24 0
-3918 178 0
-3918 244 0
-24 -178 -244 3918 0
-3919 25 0
-3919 179 0
-3919 245 0
-25 -179 -245 3919 0
-3920 26 0
-3920 180 0
-3920 246 0
-26 -180 -246 3920 0
-3921 27 0
-3921 181 0
-3921 247 0
-27 -181 -247 3921 0
-3922 28 0
-3922 182 0
-3922 248 0
-28 -182 -248 3922 0
-3923 29 0
-3923 183 0
-3923 249 0
-29 -183 -249 3923 0
-3924 30 0
-3924 184 0
-3924 250 0
-30 -184 -250 3924 0
-3925 31 0
-3925 185 0
-3925 251 0
-31 -185 -251 3925 0
-3926 32 0
-3926 186 0
-3926 252 0
-32 -186 -252 3926 0
-3927 33 0
-3927 187 0
-3927 253 0
-33 -187 -253 3927 0
-3928 34 0
-3928 188 0
-3928 254 0
-34 -188 -254 3928 0
-3929 35 0
-3929 189 0
-3929 255 0
-35 -189 -255 3929 0
-3930 36 0
-3930 190 0
-3930 256 0
-36 -190 -256 3930 0
-3931 37 0
-3931 191 0
-3931 257 0
-37 -191 -257 3931 0
-3932 38 0
-3932 192 0
-3932 258 0
-38 -192 -258 3932 0
-3933 39 0
-3933 193 0
-3933 259 0
-39 -193 -259 3933 0
-3934 40 0
-3934 194 0
-3934 260 0
-40 -194 -260 3934 0
-3935 41 0
-3935 195 0
-3935 261 0
-41 -195 -261 3935 0
-3936 42 0
-3936 196 0
-3936 262 0
-42 -196 -262 3936 0
-3937 43 0
-3937 197 0
-3937 263 0
-43 -197 -263 3937 0
-3938 44 0
-3938 198 0
-3938 264 0
-44 -198 -264 3938 0
-3917 6741 0
-3918 6741 0
-3919 6741 0
-3920 6741 0
-3921 6741 0
-3922 6741 0
-3923 6741 0
-3924 6741 0
-3925 6741 0
-3926 6741 0
-3927 6741 0
-3928 6741 0
-3929 6741 0
-3930 6741 0
-3931 6741 0
-3932 6741 0
-3933 6741 0
-3934 6741 0
-3935 6741 0
-3936 6741 0
-3937 6741 0
-3938 6741 0
-6741 3917 3918 3919 3920 3921 3922 3923 3924 3925 3926 3927 3928 3929 3930 3931 3932 3933 3934 3935 3936 3937 3938 0
-3939 23 0
-3939 199 0
-3939 221 0
-23 -199 -221 3939 0
-3940 24 0
-3940 200 0
-3940 222 0
-24 -200 -222 3940 0
-3941 25 0
-3941 201 0
-3941 223 0
-25 -201 -223 3941 0
-3942 26 0
-3942 202 0
-3942 224 0
-26 -202 -224 3942 0
-3943 27 0
-3943 203 0
-3943 225 0
-27 -203 -225 3943 0
-3944 28 0
-3944 204 0
-3944 226 0
-28 -204 -226 3944 0
-3945 29 0
-3945 205 0
-3945 227 0
-29 -205 -227 3945 0
-3946 30 0
-3946 206 0
-3946 228 0
-30 -206 -228 3946 0
-3947 31 0
-3947 207 0
-3947 229 0
-31 -207 -229 3947 0
-3948 32 0
-3948 208 0
-3948 230 0
-32 -208 -230 3948 0
-3949 33 0
-3949 209 0
-3949 231 0
-33 -209 -231 3949 0
-3950 34 0
-3950 210 0
-3950 232 0
-34 -210 -232 3950 0
-3951 35 0
-3951 211 0
-3951 233 0
-35 -211 -233 3951 0
-3952 36 0
-3952 212 0
-3952 234 0
-36 -212 -234 3952 0
-3953 37 0
-3953 213 0
-3953 235 0
-37 -213 -235 3953 0
-3954 38 0
-3954 214 0
-3954 236 0
-38 -214 -236 3954 0
-3955 39 0
-3955 215 0
-3955 237 0
-39 -215 -237 3955 0
-3956 40 0
-3956 216 0
-3956 238 0
-40 -216 -238 3956 0
-3957 41 0
-3957 217 0
-3957 239 0
-41 -217 -239 3957 0
-3958 42 0
-3958 218 0
-3958 240 0
-42 -218 -240 3958 0
-3959 43 0
-3959 219 0
-3959 241 0
-43 -219 -241 3959 0
-3960 44 0
-3960 220 0
-3960 242 0
-44 -220 -242 3960 0
-3939 6742 0
-3940 6742 0
-3941 6742 0
-3942 6742 0
-3943 6742 0
-3944 6742 0
-3945 6742 0
-3946 6742 0
-3947 6742 0
-3948 6742 0
-3949 6742 0
-3950 6742 0
-3951 6742 0
-3952 6742 0
-3953 6742 0
-3954 6742 0
-3955 6742 0
-3956 6742 0
-3957 6742 0
-3958 6742 0
-3959 6742 0
-3960 6742 0
-6742 3939 3940 3941 3942 3943 3944 3945 3946 3947 3948 3949 3950 3951 3952 3953 3954 3955 3956 3957 3958 3959 3960 0
-3961 23 0
-3961 199 0
-3961 243 0
-23 -199 -243 3961 0
-3962 24 0
-3962 200 0
-3962 244 0
-24 -200 -244 3962 0
-3963 25 0
-3963 201 0
-3963 245 0
-25 -201 -245 3963 0
-3964 26 0
-3964 202 0
-3964 246 0
-26 -202 -246 3964 0
-3965 27 0
-3965 203 0
-3965 247 0
-27 -203 -247 3965 0
-3966 28 0
-3966 204 0
-3966 248 0
-28 -204 -248 3966 0
-3967 29 0
-3967 205 0
-3967 249 0
-29 -205 -249 3967 0
-3968 30 0
-3968 206 0
-3968 250 0
-30 -206 -250 3968 0
-3969 31 0
-3969 207 0
-3969 251 0
-31 -207 -251 3969 0
-3970 32 0
-3970 208 0
-3970 252 0
-32 -208 -252 3970 0
-3971 33 0
-3971 209 0
-3971 253 0
-33 -209 -253 3971 0
-3972 34 0
-3972 210 0
-3972 254 0
-34 -210 -254 3972 0
-3973 35 0
-3973 211 0
-3973 255 0
-35 -211 -255 3973 0
-3974 36 0
-3974 212 0
-3974 256 0
-36 -212 -256 3974 0
-3975 37 0
-3975 213 0
-3975 257 0
-37 -213 -257 3975 0
-3976 38 0
-3976 214 0
-3976 258 0
-38 -214 -258 3976 0
-3977 39 0
-3977 215 0
-3977 259 0
-39 -215 -259 3977 0
-3978 40 0
-3978 216 0
-3978 260 0
-40 -216 -260 3978 0
-3979 41 0
-3979 217 0
-3979 261 0
-41 -217 -261 3979 0
-3980 42 0
-3980 218 0
-3980 262 0
-42 -218 -262 3980 0
-3981 43 0
-3981 219 0
-3981 263 0
-43 -219 -263 3981 0
-3982 44 0
-3982 220 0
-3982 264 0
-44 -220 -264 3982 0
-3961 6743 0
-3962 6743 0
-3963 6743 0
-3964 6743 0
-3965 6743 0
-3966 6743 0
-3967 6743 0
-3968 6743 0
-3969 6743 0
-3970 6743 0
-3971 6743 0
-3972 6743 0
-3973 6743 0
-3974 6743 0
-3975 6743 0
-3976 6743 0
-3977 6743 0
-3978 6743 0
-3979 6743 0
-3980 6743 0
-3981 6743 0
-3982 6743 0
-6743 3961 3962 3963 3964 3965 3966 3967 3968 3969 3970 3971 3972 3973 3974 3975 3976 3977 3978 3979 3980 3981 3982 0
-3983 23 0
-3983 221 0
-3983 243 0
-23 -221 -243 3983 0
-3984 24 0
-3984 222 0
-3984 244 0
-24 -222 -244 3984 0
-3985 25 0
-3985 223 0
-3985 245 0
-25 -223 -245 3985 0
-3986 26 0
-3986 224 0
-3986 246 0
-26 -224 -246 3986 0
-3987 27 0
-3987 225 0
-3987 247 0
-27 -225 -247 3987 0
-3988 28 0
-3988 226 0
-3988 248 0
-28 -226 -248 3988 0
-3989 29 0
-3989 227 0
-3989 249 0
-29 -227 -249 3989 0
-3990 30 0
-3990 228 0
-3990 250 0
-30 -228 -250 3990 0
-3991 31 0
-3991 229 0
-3991 251 0
-31 -229 -251 3991 0
-3992 32 0
-3992 230 0
-3992 252 0
-32 -230 -252 3992 0
-3993 33 0
-3993 231 0
-3993 253 0
-33 -231 -253 3993 0
-3994 34 0
-3994 232 0
-3994 254 0
-34 -232 -254 3994 0
-3995 35 0
-3995 233 0
-3995 255 0
-35 -233 -255 3995 0
-3996 36 0
-3996 234 0
-3996 256 0
-36 -234 -256 3996 0
-3997 37 0
-3997 235 0
-3997 257 0
-37 -235 -257 3997 0
-3998 38 0
-3998 236 0
-3998 258 0
-38 -236 -258 3998 0
-3999 39 0
-3999 237 0
-3999 259 0
-39 -237 -259 3999 0
-4000 40 0
-4000 238 0
-4000 260 0
-40 -238 -260 4000 0
-4001 41 0
-4001 239 0
-4001 261 0
-41 -239 -261 4001 0
-4002 42 0
-4002 240 0
-4002 262 0
-42 -240 -262 4002 0
-4003 43 0
-4003 241 0
-4003 263 0
-43 -241 -263 4003 0
-4004 44 0
-4004 242 0
-4004 264 0
-44 -242 -264 4004 0
-3983 6744 0
-3984 6744 0
-3985 6744 0
-3986 6744 0
-3987 6744 0
-3988 6744 0
-3989 6744 0
-3990 6744 0
-3991 6744 0
-3992 6744 0
-3993 6744 0
-3994 6744 0
-3995 6744 0
-3996 6744 0
-3997 6744 0
-3998 6744 0
-3999 6744 0
-4000 6744 0
-4001 6744 0
-4002 6744 0
-4003 6744 0
-4004 6744 0
-6744 3983 3984 3985 3986 3987 3988 3989 3990 3991 3992 3993 3994 3995 3996 3997 3998 3999 4000 4001 4002 4003 4004 0
-4005 45 0
-4005 67 0
-4005 89 0
-45 -67 -89 4005 0
-4006 46 0
-4006 68 0
-4006 90 0
-46 -68 -90 4006 0
-4007 47 0
-4007 69 0
-4007 91 0
-47 -69 -91 4007 0
-4008 48 0
-4008 70 0
-4008 92 0
-48 -70 -92 4008 0
-4009 49 0
-4009 71 0
-4009 93 0
-49 -71 -93 4009 0
-4010 50 0
-4010 72 0
-4010 94 0
-50 -72 -94 4010 0
-4011 51 0
-4011 73 0
-4011 95 0
-51 -73 -95 4011 0
-4012 52 0
-4012 74 0
-4012 96 0
-52 -74 -96 4012 0
-4013 53 0
-4013 75 0
-4013 97 0
-53 -75 -97 4013 0
-4014 54 0
-4014 76 0
-4014 98 0
-54 -76 -98 4014 0
-4015 55 0
-4015 77 0
-4015 99 0
-55 -77 -99 4015 0
-4016 56 0
-4016 78 0
-4016 100 0
-56 -78 -100 4016 0
-4017 57 0
-4017 79 0
-4017 101 0
-57 -79 -101 4017 0
-4018 58 0
-4018 80 0
-4018 102 0
-58 -80 -102 4018 0
-4019 59 0
-4019 81 0
-4019 103 0
-59 -81 -103 4019 0
-4020 60 0
-4020 82 0
-4020 104 0
-60 -82 -104 4020 0
-4021 61 0
-4021 83 0
-4021 105 0
-61 -83 -105 4021 0
-4022 62 0
-4022 84 0
-4022 106 0
-62 -84 -106 4022 0
-4023 63 0
-4023 85 0
-4023 107 0
-63 -85 -107 4023 0
-4024 64 0
-4024 86 0
-4024 108 0
-64 -86 -108 4024 0
-4025 65 0
-4025 87 0
-4025 109 0
-65 -87 -109 4025 0
-4026 66 0
-4026 88 0
-4026 110 0
-66 -88 -110 4026 0
-4005 6745 0
-4006 6745 0
-4007 6745 0
-4008 6745 0
-4009 6745 0
-4010 6745 0
-4011 6745 0
-4012 6745 0
-4013 6745 0
-4014 6745 0
-4015 6745 0
-4016 6745 0
-4017 6745 0
-4018 6745 0
-4019 6745 0
-4020 6745 0
-4021 6745 0
-4022 6745 0
-4023 6745 0
-4024 6745 0
-4025 6745 0
-4026 6745 0
-6745 4005 4006 4007 4008 4009 4010 4011 4012 4013 4014 4015 4016 4017 4018 4019 4020 4021 4022 4023 4024 4025 4026 0
-4027 45 0
-4027 67 0
-4027 111 0
-45 -67 -111 4027 0
-4028 46 0
-4028 68 0
-4028 112 0
-46 -68 -112 4028 0
-4029 47 0
-4029 69 0
-4029 113 0
-47 -69 -113 4029 0
-4030 48 0
-4030 70 0
-4030 114 0
-48 -70 -114 4030 0
-4031 49 0
-4031 71 0
-4031 115 0
-49 -71 -115 4031 0
-4032 50 0
-4032 72 0
-4032 116 0
-50 -72 -116 4032 0
-4033 51 0
-4033 73 0
-4033 117 0
-51 -73 -117 4033 0
-4034 52 0
-4034 74 0
-4034 118 0
-52 -74 -118 4034 0
-4035 53 0
-4035 75 0
-4035 119 0
-53 -75 -119 4035 0
-4036 54 0
-4036 76 0
-4036 120 0
-54 -76 -120 4036 0
-4037 55 0
-4037 77 0
-4037 121 0
-55 -77 -121 4037 0
-4038 56 0
-4038 78 0
-4038 122 0
-56 -78 -122 4038 0
-4039 57 0
-4039 79 0
-4039 123 0
-57 -79 -123 4039 0
-4040 58 0
-4040 80 0
-4040 124 0
-58 -80 -124 4040 0
-4041 59 0
-4041 81 0
-4041 125 0
-59 -81 -125 4041 0
-4042 60 0
-4042 82 0
-4042 126 0
-60 -82 -126 4042 0
-4043 61 0
-4043 83 0
-4043 127 0
-61 -83 -127 4043 0
-4044 62 0
-4044 84 0
-4044 128 0
-62 -84 -128 4044 0
-4045 63 0
-4045 85 0
-4045 129 0
-63 -85 -129 4045 0
-4046 64 0
-4046 86 0
-4046 130 0
-64 -86 -130 4046 0
-4047 65 0
-4047 87 0
-4047 131 0
-65 -87 -131 4047 0
-4048 66 0
-4048 88 0
-4048 132 0
-66 -88 -132 4048 0
-4027 6746 0
-4028 6746 0
-4029 6746 0
-4030 6746 0
-4031 6746 0
-4032 6746 0
-4033 6746 0
-4034 6746 0
-4035 6746 0
-4036 6746 0
-4037 6746 0
-4038 6746 0
-4039 6746 0
-4040 6746 0
-4041 6746 0
-4042 6746 0
-4043 6746 0
-4044 6746 0
-4045 6746 0
-4046 6746 0
-4047 6746 0
-4048 6746 0
-6746 4027 4028 4029 4030 4031 4032 4033 4034 4035 4036 4037 4038 4039 4040 4041 4042 4043 4044 4045 4046 4047 4048 0
-4049 45 0
-4049 67 0
-4049 133 0
-45 -67 -133 4049 0
-4050 46 0
-4050 68 0
-4050 134 0
-46 -68 -134 4050 0
-4051 47 0
-4051 69 0
-4051 135 0
-47 -69 -135 4051 0
-4052 48 0
-4052 70 0
-4052 136 0
-48 -70 -136 4052 0
-4053 49 0
-4053 71 0
-4053 137 0
-49 -71 -137 4053 0
-4054 50 0
-4054 72 0
-4054 138 0
-50 -72 -138 4054 0
-4055 51 0
-4055 73 0
-4055 139 0
-51 -73 -139 4055 0
-4056 52 0
-4056 74 0
-4056 140 0
-52 -74 -140 4056 0
-4057 53 0
-4057 75 0
-4057 141 0
-53 -75 -141 4057 0
-4058 54 0
-4058 76 0
-4058 142 0
-54 -76 -142 4058 0
-4059 55 0
-4059 77 0
-4059 143 0
-55 -77 -143 4059 0
-4060 56 0
-4060 78 0
-4060 144 0
-56 -78 -144 4060 0
-4061 57 0
-4061 79 0
-4061 145 0
-57 -79 -145 4061 0
-4062 58 0
-4062 80 0
-4062 146 0
-58 -80 -146 4062 0
-4063 59 0
-4063 81 0
-4063 147 0
-59 -81 -147 4063 0
-4064 60 0
-4064 82 0
-4064 148 0
-60 -82 -148 4064 0
-4065 61 0
-4065 83 0
-4065 149 0
-61 -83 -149 4065 0
-4066 62 0
-4066 84 0
-4066 150 0
-62 -84 -150 4066 0
-4067 63 0
-4067 85 0
-4067 151 0
-63 -85 -151 4067 0
-4068 64 0
-4068 86 0
-4068 152 0
-64 -86 -152 4068 0
-4069 65 0
-4069 87 0
-4069 153 0
-65 -87 -153 4069 0
-4070 66 0
-4070 88 0
-4070 154 0
-66 -88 -154 4070 0
-4049 6747 0
-4050 6747 0
-4051 6747 0
-4052 6747 0
-4053 6747 0
-4054 6747 0
-4055 6747 0
-4056 6747 0
-4057 6747 0
-4058 6747 0
-4059 6747 0
-4060 6747 0
-4061 6747 0
-4062 6747 0
-4063 6747 0
-4064 6747 0
-4065 6747 0
-4066 6747 0
-4067 6747 0
-4068 6747 0
-4069 6747 0
-4070 6747 0
-6747 4049 4050 4051 4052 4053 4054 4055 4056 4057 4058 4059 4060 4061 4062 4063 4064 4065 4066 4067 4068 4069 4070 0
-4071 45 0
-4071 67 0
-4071 155 0
-45 -67 -155 4071 0
-4072 46 0
-4072 68 0
-4072 156 0
-46 -68 -156 4072 0
-4073 47 0
-4073 69 0
-4073 157 0
-47 -69 -157 4073 0
-4074 48 0
-4074 70 0
-4074 158 0
-48 -70 -158 4074 0
-4075 49 0
-4075 71 0
-4075 159 0
-49 -71 -159 4075 0
-4076 50 0
-4076 72 0
-4076 160 0
-50 -72 -160 4076 0
-4077 51 0
-4077 73 0
-4077 161 0
-51 -73 -161 4077 0
-4078 52 0
-4078 74 0
-4078 162 0
-52 -74 -162 4078 0
-4079 53 0
-4079 75 0
-4079 163 0
-53 -75 -163 4079 0
-4080 54 0
-4080 76 0
-4080 164 0
-54 -76 -164 4080 0
-4081 55 0
-4081 77 0
-4081 165 0
-55 -77 -165 4081 0
-4082 56 0
-4082 78 0
-4082 166 0
-56 -78 -166 4082 0
-4083 57 0
-4083 79 0
-4083 167 0
-57 -79 -167 4083 0
-4084 58 0
-4084 80 0
-4084 168 0
-58 -80 -168 4084 0
-4085 59 0
-4085 81 0
-4085 169 0
-59 -81 -169 4085 0
-4086 60 0
-4086 82 0
-4086 170 0
-60 -82 -170 4086 0
-4087 61 0
-4087 83 0
-4087 171 0
-61 -83 -171 4087 0
-4088 62 0
-4088 84 0
-4088 172 0
-62 -84 -172 4088 0
-4089 63 0
-4089 85 0
-4089 173 0
-63 -85 -173 4089 0
-4090 64 0
-4090 86 0
-4090 174 0
-64 -86 -174 4090 0
-4091 65 0
-4091 87 0
-4091 175 0
-65 -87 -175 4091 0
-4092 66 0
-4092 88 0
-4092 176 0
-66 -88 -176 4092 0
-4071 6748 0
-4072 6748 0
-4073 6748 0
-4074 6748 0
-4075 6748 0
-4076 6748 0
-4077 6748 0
-4078 6748 0
-4079 6748 0
-4080 6748 0
-4081 6748 0
-4082 6748 0
-4083 6748 0
-4084 6748 0
-4085 6748 0
-4086 6748 0
-4087 6748 0
-4088 6748 0
-4089 6748 0
-4090 6748 0
-4091 6748 0
-4092 6748 0
-6748 4071 4072 4073 4074 4075 4076 4077 4078 4079 4080 4081 4082 4083 4084 4085 4086 4087 4088 4089 4090 4091 4092 0
-4093 45 0
-4093 67 0
-4093 177 0
-45 -67 -177 4093 0
-4094 46 0
-4094 68 0
-4094 178 0
-46 -68 -178 4094 0
-4095 47 0
-4095 69 0
-4095 179 0
-47 -69 -179 4095 0
-4096 48 0
-4096 70 0
-4096 180 0
-48 -70 -180 4096 0
-4097 49 0
-4097 71 0
-4097 181 0
-49 -71 -181 4097 0
-4098 50 0
-4098 72 0
-4098 182 0
-50 -72 -182 4098 0
-4099 51 0
-4099 73 0
-4099 183 0
-51 -73 -183 4099 0
-4100 52 0
-4100 74 0
-4100 184 0
-52 -74 -184 4100 0
-4101 53 0
-4101 75 0
-4101 185 0
-53 -75 -185 4101 0
-4102 54 0
-4102 76 0
-4102 186 0
-54 -76 -186 4102 0
-4103 55 0
-4103 77 0
-4103 187 0
-55 -77 -187 4103 0
-4104 56 0
-4104 78 0
-4104 188 0
-56 -78 -188 4104 0
-4105 57 0
-4105 79 0
-4105 189 0
-57 -79 -189 4105 0
-4106 58 0
-4106 80 0
-4106 190 0
-58 -80 -190 4106 0
-4107 59 0
-4107 81 0
-4107 191 0
-59 -81 -191 4107 0
-4108 60 0
-4108 82 0
-4108 192 0
-60 -82 -192 4108 0
-4109 61 0
-4109 83 0
-4109 193 0
-61 -83 -193 4109 0
-4110 62 0
-4110 84 0
-4110 194 0
-62 -84 -194 4110 0
-4111 63 0
-4111 85 0
-4111 195 0
-63 -85 -195 4111 0
-4112 64 0
-4112 86 0
-4112 196 0
-64 -86 -196 4112 0
-4113 65 0
-4113 87 0
-4113 197 0
-65 -87 -197 4113 0
-4114 66 0
-4114 88 0
-4114 198 0
-66 -88 -198 4114 0
-4093 6749 0
-4094 6749 0
-4095 6749 0
-4096 6749 0
-4097 6749 0
-4098 6749 0
-4099 6749 0
-4100 6749 0
-4101 6749 0
-4102 6749 0
-4103 6749 0
-4104 6749 0
-4105 6749 0
-4106 6749 0
-4107 6749 0
-4108 6749 0
-4109 6749 0
-4110 6749 0
-4111 6749 0
-4112 6749 0
-4113 6749 0
-4114 6749 0
-6749 4093 4094 4095 4096 4097 4098 4099 4100 4101 4102 4103 4104 4105 4106 4107 4108 4109 4110 4111 4112 4113 4114 0
-4115 45 0
-4115 67 0
-4115 199 0
-45 -67 -199 4115 0
-4116 46 0
-4116 68 0
-4116 200 0
-46 -68 -200 4116 0
-4117 47 0
-4117 69 0
-4117 201 0
-47 -69 -201 4117 0
-4118 48 0
-4118 70 0
-4118 202 0
-48 -70 -202 4118 0
-4119 49 0
-4119 71 0
-4119 203 0
-49 -71 -203 4119 0
-4120 50 0
-4120 72 0
-4120 204 0
-50 -72 -204 4120 0
-4121 51 0
-4121 73 0
-4121 205 0
-51 -73 -205 4121 0
-4122 52 0
-4122 74 0
-4122 206 0
-52 -74 -206 4122 0
-4123 53 0
-4123 75 0
-4123 207 0
-53 -75 -207 4123 0
-4124 54 0
-4124 76 0
-4124 208 0
-54 -76 -208 4124 0
-4125 55 0
-4125 77 0
-4125 209 0
-55 -77 -209 4125 0
-4126 56 0
-4126 78 0
-4126 210 0
-56 -78 -210 4126 0
-4127 57 0
-4127 79 0
-4127 211 0
-57 -79 -211 4127 0
-4128 58 0
-4128 80 0
-4128 212 0
-58 -80 -212 4128 0
-4129 59 0
-4129 81 0
-4129 213 0
-59 -81 -213 4129 0
-4130 60 0
-4130 82 0
-4130 214 0
-60 -82 -214 4130 0
-4131 61 0
-4131 83 0
-4131 215 0
-61 -83 -215 4131 0
-4132 62 0
-4132 84 0
-4132 216 0
-62 -84 -216 4132 0
-4133 63 0
-4133 85 0
-4133 217 0
-63 -85 -217 4133 0
-4134 64 0
-4134 86 0
-4134 218 0
-64 -86 -218 4134 0
-4135 65 0
-4135 87 0
-4135 219 0
-65 -87 -219 4135 0
-4136 66 0
-4136 88 0
-4136 220 0
-66 -88 -220 4136 0
-4115 6750 0
-4116 6750 0
-4117 6750 0
-4118 6750 0
-4119 6750 0
-4120 6750 0
-4121 6750 0
-4122 6750 0
-4123 6750 0
-4124 6750 0
-4125 6750 0
-4126 6750 0
-4127 6750 0
-4128 6750 0
-4129 6750 0
-4130 6750 0
-4131 6750 0
-4132 6750 0
-4133 6750 0
-4134 6750 0
-4135 6750 0
-4136 6750 0
-6750 4115 4116 4117 4118 4119 4120 4121 4122 4123 4124 4125 4126 4127 4128 4129 4130 4131 4132 4133 4134 4135 4136 0
-4137 45 0
-4137 67 0
-4137 221 0
-45 -67 -221 4137 0
-4138 46 0
-4138 68 0
-4138 222 0
-46 -68 -222 4138 0
-4139 47 0
-4139 69 0
-4139 223 0
-47 -69 -223 4139 0
-4140 48 0
-4140 70 0
-4140 224 0
-48 -70 -224 4140 0
-4141 49 0
-4141 71 0
-4141 225 0
-49 -71 -225 4141 0
-4142 50 0
-4142 72 0
-4142 226 0
-50 -72 -226 4142 0
-4143 51 0
-4143 73 0
-4143 227 0
-51 -73 -227 4143 0
-4144 52 0
-4144 74 0
-4144 228 0
-52 -74 -228 4144 0
-4145 53 0
-4145 75 0
-4145 229 0
-53 -75 -229 4145 0
-4146 54 0
-4146 76 0
-4146 230 0
-54 -76 -230 4146 0
-4147 55 0
-4147 77 0
-4147 231 0
-55 -77 -231 4147 0
-4148 56 0
-4148 78 0
-4148 232 0
-56 -78 -232 4148 0
-4149 57 0
-4149 79 0
-4149 233 0
-57 -79 -233 4149 0
-4150 58 0
-4150 80 0
-4150 234 0
-58 -80 -234 4150 0
-4151 59 0
-4151 81 0
-4151 235 0
-59 -81 -235 4151 0
-4152 60 0
-4152 82 0
-4152 236 0
-60 -82 -236 4152 0
-4153 61 0
-4153 83 0
-4153 237 0
-61 -83 -237 4153 0
-4154 62 0
-4154 84 0
-4154 238 0
-62 -84 -238 4154 0
-4155 63 0
-4155 85 0
-4155 239 0
-63 -85 -239 4155 0
-4156 64 0
-4156 86 0
-4156 240 0
-64 -86 -240 4156 0
-4157 65 0
-4157 87 0
-4157 241 0
-65 -87 -241 4157 0
-4158 66 0
-4158 88 0
-4158 242 0
-66 -88 -242 4158 0
-4137 6751 0
-4138 6751 0
-4139 6751 0
-4140 6751 0
-4141 6751 0
-4142 6751 0
-4143 6751 0
-4144 6751 0
-4145 6751 0
-4146 6751 0
-4147 6751 0
-4148 6751 0
-4149 6751 0
-4150 6751 0
-4151 6751 0
-4152 6751 0
-4153 6751 0
-4154 6751 0
-4155 6751 0
-4156 6751 0
-4157 6751 0
-4158 6751 0
-6751 4137 4138 4139 4140 4141 4142 4143 4144 4145 4146 4147 4148 4149 4150 4151 4152 4153 4154 4155 4156 4157 4158 0
-4159 45 0
-4159 67 0
-4159 243 0
-45 -67 -243 4159 0
-4160 46 0
-4160 68 0
-4160 244 0
-46 -68 -244 4160 0
-4161 47 0
-4161 69 0
-4161 245 0
-47 -69 -245 4161 0
-4162 48 0
-4162 70 0
-4162 246 0
-48 -70 -246 4162 0
-4163 49 0
-4163 71 0
-4163 247 0
-49 -71 -247 4163 0
-4164 50 0
-4164 72 0
-4164 248 0
-50 -72 -248 4164 0
-4165 51 0
-4165 73 0
-4165 249 0
-51 -73 -249 4165 0
-4166 52 0
-4166 74 0
-4166 250 0
-52 -74 -250 4166 0
-4167 53 0
-4167 75 0
-4167 251 0
-53 -75 -251 4167 0
-4168 54 0
-4168 76 0
-4168 252 0
-54 -76 -252 4168 0
-4169 55 0
-4169 77 0
-4169 253 0
-55 -77 -253 4169 0
-4170 56 0
-4170 78 0
-4170 254 0
-56 -78 -254 4170 0
-4171 57 0
-4171 79 0
-4171 255 0
-57 -79 -255 4171 0
-4172 58 0
-4172 80 0
-4172 256 0
-58 -80 -256 4172 0
-4173 59 0
-4173 81 0
-4173 257 0
-59 -81 -257 4173 0
-4174 60 0
-4174 82 0
-4174 258 0
-60 -82 -258 4174 0
-4175 61 0
-4175 83 0
-4175 259 0
-61 -83 -259 4175 0
-4176 62 0
-4176 84 0
-4176 260 0
-62 -84 -260 4176 0
-4177 63 0
-4177 85 0
-4177 261 0
-63 -85 -261 4177 0
-4178 64 0
-4178 86 0
-4178 262 0
-64 -86 -262 4178 0
-4179 65 0
-4179 87 0
-4179 263 0
-65 -87 -263 4179 0
-4180 66 0
-4180 88 0
-4180 264 0
-66 -88 -264 4180 0
-4159 6752 0
-4160 6752 0
-4161 6752 0
-4162 6752 0
-4163 6752 0
-4164 6752 0
-4165 6752 0
-4166 6752 0
-4167 6752 0
-4168 6752 0
-4169 6752 0
-4170 6752 0
-4171 6752 0
-4172 6752 0
-4173 6752 0
-4174 6752 0
-4175 6752 0
-4176 6752 0
-4177 6752 0
-4178 6752 0
-4179 6752 0
-4180 6752 0
-6752 4159 4160 4161 4162 4163 4164 4165 4166 4167 4168 4169 4170 4171 4172 4173 4174 4175 4176 4177 4178 4179 4180 0
-4181 45 0
-4181 89 0
-4181 111 0
-45 -89 -111 4181 0
-4182 46 0
-4182 90 0
-4182 112 0
-46 -90 -112 4182 0
-4183 47 0
-4183 91 0
-4183 113 0
-47 -91 -113 4183 0
-4184 48 0
-4184 92 0
-4184 114 0
-48 -92 -114 4184 0
-4185 49 0
-4185 93 0
-4185 115 0
-49 -93 -115 4185 0
-4186 50 0
-4186 94 0
-4186 116 0
-50 -94 -116 4186 0
-4187 51 0
-4187 95 0
-4187 117 0
-51 -95 -117 4187 0
-4188 52 0
-4188 96 0
-4188 118 0
-52 -96 -118 4188 0
-4189 53 0
-4189 97 0
-4189 119 0
-53 -97 -119 4189 0
-4190 54 0
-4190 98 0
-4190 120 0
-54 -98 -120 4190 0
-4191 55 0
-4191 99 0
-4191 121 0
-55 -99 -121 4191 0
-4192 56 0
-4192 100 0
-4192 122 0
-56 -100 -122 4192 0
-4193 57 0
-4193 101 0
-4193 123 0
-57 -101 -123 4193 0
-4194 58 0
-4194 102 0
-4194 124 0
-58 -102 -124 4194 0
-4195 59 0
-4195 103 0
-4195 125 0
-59 -103 -125 4195 0
-4196 60 0
-4196 104 0
-4196 126 0
-60 -104 -126 4196 0
-4197 61 0
-4197 105 0
-4197 127 0
-61 -105 -127 4197 0
-4198 62 0
-4198 106 0
-4198 128 0
-62 -106 -128 4198 0
-4199 63 0
-4199 107 0
-4199 129 0
-63 -107 -129 4199 0
-4200 64 0
-4200 108 0
-4200 130 0
-64 -108 -130 4200 0
-4201 65 0
-4201 109 0
-4201 131 0
-65 -109 -131 4201 0
-4202 66 0
-4202 110 0
-4202 132 0
-66 -110 -132 4202 0
-4181 6753 0
-4182 6753 0
-4183 6753 0
-4184 6753 0
-4185 6753 0
-4186 6753 0
-4187 6753 0
-4188 6753 0
-4189 6753 0
-4190 6753 0
-4191 6753 0
-4192 6753 0
-4193 6753 0
-4194 6753 0
-4195 6753 0
-4196 6753 0
-4197 6753 0
-4198 6753 0
-4199 6753 0
-4200 6753 0
-4201 6753 0
-4202 6753 0
-6753 4181 4182 4183 4184 4185 4186 4187 4188 4189 4190 4191 4192 4193 4194 4195 4196 4197 4198 4199 4200 4201 4202 0
-4203 45 0
-4203 89 0
-4203 133 0
-45 -89 -133 4203 0
-4204 46 0
-4204 90 0
-4204 134 0
-46 -90 -134 4204 0
-4205 47 0
-4205 91 0
-4205 135 0
-47 -91 -135 4205 0
-4206 48 0
-4206 92 0
-4206 136 0
-48 -92 -136 4206 0
-4207 49 0
-4207 93 0
-4207 137 0
-49 -93 -137 4207 0
-4208 50 0
-4208 94 0
-4208 138 0
-50 -94 -138 4208 0
-4209 51 0
-4209 95 0
-4209 139 0
-51 -95 -139 4209 0
-4210 52 0
-4210 96 0
-4210 140 0
-52 -96 -140 4210 0
-4211 53 0
-4211 97 0
-4211 141 0
-53 -97 -141 4211 0
-4212 54 0
-4212 98 0
-4212 142 0
-54 -98 -142 4212 0
-4213 55 0
-4213 99 0
-4213 143 0
-55 -99 -143 4213 0
-4214 56 0
-4214 100 0
-4214 144 0
-56 -100 -144 4214 0
-4215 57 0
-4215 101 0
-4215 145 0
-57 -101 -145 4215 0
-4216 58 0
-4216 102 0
-4216 146 0
-58 -102 -146 4216 0
-4217 59 0
-4217 103 0
-4217 147 0
-59 -103 -147 4217 0
-4218 60 0
-4218 104 0
-4218 148 0
-60 -104 -148 4218 0
-4219 61 0
-4219 105 0
-4219 149 0
-61 -105 -149 4219 0
-4220 62 0
-4220 106 0
-4220 150 0
-62 -106 -150 4220 0
-4221 63 0
-4221 107 0
-4221 151 0
-63 -107 -151 4221 0
-4222 64 0
-4222 108 0
-4222 152 0
-64 -108 -152 4222 0
-4223 65 0
-4223 109 0
-4223 153 0
-65 -109 -153 4223 0
-4224 66 0
-4224 110 0
-4224 154 0
-66 -110 -154 4224 0
-4203 6754 0
-4204 6754 0
-4205 6754 0
-4206 6754 0
-4207 6754 0
-4208 6754 0
-4209 6754 0
-4210 6754 0
-4211 6754 0
-4212 6754 0
-4213 6754 0
-4214 6754 0
-4215 6754 0
-4216 6754 0
-4217 6754 0
-4218 6754 0
-4219 6754 0
-4220 6754 0
-4221 6754 0
-4222 6754 0
-4223 6754 0
-4224 6754 0
-6754 4203 4204 4205 4206 4207 4208 4209 4210 4211 4212 4213 4214 4215 4216 4217 4218 4219 4220 4221 4222 4223 4224 0
-4225 45 0
-4225 89 0
-4225 155 0
-45 -89 -155 4225 0
-4226 46 0
-4226 90 0
-4226 156 0
-46 -90 -156 4226 0
-4227 47 0
-4227 91 0
-4227 157 0
-47 -91 -157 4227 0
-4228 48 0
-4228 92 0
-4228 158 0
-48 -92 -158 4228 0
-4229 49 0
-4229 93 0
-4229 159 0
-49 -93 -159 4229 0
-4230 50 0
-4230 94 0
-4230 160 0
-50 -94 -160 4230 0
-4231 51 0
-4231 95 0
-4231 161 0
-51 -95 -161 4231 0
-4232 52 0
-4232 96 0
-4232 162 0
-52 -96 -162 4232 0
-4233 53 0
-4233 97 0
-4233 163 0
-53 -97 -163 4233 0
-4234 54 0
-4234 98 0
-4234 164 0
-54 -98 -164 4234 0
-4235 55 0
-4235 99 0
-4235 165 0
-55 -99 -165 4235 0
-4236 56 0
-4236 100 0
-4236 166 0
-56 -100 -166 4236 0
-4237 57 0
-4237 101 0
-4237 167 0
-57 -101 -167 4237 0
-4238 58 0
-4238 102 0
-4238 168 0
-58 -102 -168 4238 0
-4239 59 0
-4239 103 0
-4239 169 0
-59 -103 -169 4239 0
-4240 60 0
-4240 104 0
-4240 170 0
-60 -104 -170 4240 0
-4241 61 0
-4241 105 0
-4241 171 0
-61 -105 -171 4241 0
-4242 62 0
-4242 106 0
-4242 172 0
-62 -106 -172 4242 0
-4243 63 0
-4243 107 0
-4243 173 0
-63 -107 -173 4243 0
-4244 64 0
-4244 108 0
-4244 174 0
-64 -108 -174 4244 0
-4245 65 0
-4245 109 0
-4245 175 0
-65 -109 -175 4245 0
-4246 66 0
-4246 110 0
-4246 176 0
-66 -110 -176 4246 0
-4225 6755 0
-4226 6755 0
-4227 6755 0
-4228 6755 0
-4229 6755 0
-4230 6755 0
-4231 6755 0
-4232 6755 0
-4233 6755 0
-4234 6755 0
-4235 6755 0
-4236 6755 0
-4237 6755 0
-4238 6755 0
-4239 6755 0
-4240 6755 0
-4241 6755 0
-4242 6755 0
-4243 6755 0
-4244 6755 0
-4245 6755 0
-4246 6755 0
-6755 4225 4226 4227 4228 4229 4230 4231 4232 4233 4234 4235 4236 4237 4238 4239 4240 4241 4242 4243 4244 4245 4246 0
-4247 45 0
-4247 89 0
-4247 177 0
-45 -89 -177 4247 0
-4248 46 0
-4248 90 0
-4248 178 0
-46 -90 -178 4248 0
-4249 47 0
-4249 91 0
-4249 179 0
-47 -91 -179 4249 0
-4250 48 0
-4250 92 0
-4250 180 0
-48 -92 -180 4250 0
-4251 49 0
-4251 93 0
-4251 181 0
-49 -93 -181 4251 0
-4252 50 0
-4252 94 0
-4252 182 0
-50 -94 -182 4252 0
-4253 51 0
-4253 95 0
-4253 183 0
-51 -95 -183 4253 0
-4254 52 0
-4254 96 0
-4254 184 0
-52 -96 -184 4254 0
-4255 53 0
-4255 97 0
-4255 185 0
-53 -97 -185 4255 0
-4256 54 0
-4256 98 0
-4256 186 0
-54 -98 -186 4256 0
-4257 55 0
-4257 99 0
-4257 187 0
-55 -99 -187 4257 0
-4258 56 0
-4258 100 0
-4258 188 0
-56 -100 -188 4258 0
-4259 57 0
-4259 101 0
-4259 189 0
-57 -101 -189 4259 0
-4260 58 0
-4260 102 0
-4260 190 0
-58 -102 -190 4260 0
-4261 59 0
-4261 103 0
-4261 191 0
-59 -103 -191 4261 0
-4262 60 0
-4262 104 0
-4262 192 0
-60 -104 -192 4262 0
-4263 61 0
-4263 105 0
-4263 193 0
-61 -105 -193 4263 0
-4264 62 0
-4264 106 0
-4264 194 0
-62 -106 -194 4264 0
-4265 63 0
-4265 107 0
-4265 195 0
-63 -107 -195 4265 0
-4266 64 0
-4266 108 0
-4266 196 0
-64 -108 -196 4266 0
-4267 65 0
-4267 109 0
-4267 197 0
-65 -109 -197 4267 0
-4268 66 0
-4268 110 0
-4268 198 0
-66 -110 -198 4268 0
-4247 6756 0
-4248 6756 0
-4249 6756 0
-4250 6756 0
-4251 6756 0
-4252 6756 0
-4253 6756 0
-4254 6756 0
-4255 6756 0
-4256 6756 0
-4257 6756 0
-4258 6756 0
-4259 6756 0
-4260 6756 0
-4261 6756 0
-4262 6756 0
-4263 6756 0
-4264 6756 0
-4265 6756 0
-4266 6756 0
-4267 6756 0
-4268 6756 0
-6756 4247 4248 4249 4250 4251 4252 4253 4254 4255 4256 4257 4258 4259 4260 4261 4262 4263 4264 4265 4266 4267 4268 0
-4269 45 0
-4269 89 0
-4269 199 0
-45 -89 -199 4269 0
-4270 46 0
-4270 90 0
-4270 200 0
-46 -90 -200 4270 0
-4271 47 0
-4271 91 0
-4271 201 0
-47 -91 -201 4271 0
-4272 48 0
-4272 92 0
-4272 202 0
-48 -92 -202 4272 0
-4273 49 0
-4273 93 0
-4273 203 0
-49 -93 -203 4273 0
-4274 50 0
-4274 94 0
-4274 204 0
-50 -94 -204 4274 0
-4275 51 0
-4275 95 0
-4275 205 0
-51 -95 -205 4275 0
-4276 52 0
-4276 96 0
-4276 206 0
-52 -96 -206 4276 0
-4277 53 0
-4277 97 0
-4277 207 0
-53 -97 -207 4277 0
-4278 54 0
-4278 98 0
-4278 208 0
-54 -98 -208 4278 0
-4279 55 0
-4279 99 0
-4279 209 0
-55 -99 -209 4279 0
-4280 56 0
-4280 100 0
-4280 210 0
-56 -100 -210 4280 0
-4281 57 0
-4281 101 0
-4281 211 0
-57 -101 -211 4281 0
-4282 58 0
-4282 102 0
-4282 212 0
-58 -102 -212 4282 0
-4283 59 0
-4283 103 0
-4283 213 0
-59 -103 -213 4283 0
-4284 60 0
-4284 104 0
-4284 214 0
-60 -104 -214 4284 0
-4285 61 0
-4285 105 0
-4285 215 0
-61 -105 -215 4285 0
-4286 62 0
-4286 106 0
-4286 216 0
-62 -106 -216 4286 0
-4287 63 0
-4287 107 0
-4287 217 0
-63 -107 -217 4287 0
-4288 64 0
-4288 108 0
-4288 218 0
-64 -108 -218 4288 0
-4289 65 0
-4289 109 0
-4289 219 0
-65 -109 -219 4289 0
-4290 66 0
-4290 110 0
-4290 220 0
-66 -110 -220 4290 0
-4269 6757 0
-4270 6757 0
-4271 6757 0
-4272 6757 0
-4273 6757 0
-4274 6757 0
-4275 6757 0
-4276 6757 0
-4277 6757 0
-4278 6757 0
-4279 6757 0
-4280 6757 0
-4281 6757 0
-4282 6757 0
-4283 6757 0
-4284 6757 0
-4285 6757 0
-4286 6757 0
-4287 6757 0
-4288 6757 0
-4289 6757 0
-4290 6757 0
-6757 4269 4270 4271 4272 4273 4274 4275 4276 4277 4278 4279 4280 4281 4282 4283 4284 4285 4286 4287 4288 4289 4290 0
-4291 45 0
-4291 89 0
-4291 221 0
-45 -89 -221 4291 0
-4292 46 0
-4292 90 0
-4292 222 0
-46 -90 -222 4292 0
-4293 47 0
-4293 91 0
-4293 223 0
-47 -91 -223 4293 0
-4294 48 0
-4294 92 0
-4294 224 0
-48 -92 -224 4294 0
-4295 49 0
-4295 93 0
-4295 225 0
-49 -93 -225 4295 0
-4296 50 0
-4296 94 0
-4296 226 0
-50 -94 -226 4296 0
-4297 51 0
-4297 95 0
-4297 227 0
-51 -95 -227 4297 0
-4298 52 0
-4298 96 0
-4298 228 0
-52 -96 -228 4298 0
-4299 53 0
-4299 97 0
-4299 229 0
-53 -97 -229 4299 0
-4300 54 0
-4300 98 0
-4300 230 0
-54 -98 -230 4300 0
-4301 55 0
-4301 99 0
-4301 231 0
-55 -99 -231 4301 0
-4302 56 0
-4302 100 0
-4302 232 0
-56 -100 -232 4302 0
-4303 57 0
-4303 101 0
-4303 233 0
-57 -101 -233 4303 0
-4304 58 0
-4304 102 0
-4304 234 0
-58 -102 -234 4304 0
-4305 59 0
-4305 103 0
-4305 235 0
-59 -103 -235 4305 0
-4306 60 0
-4306 104 0
-4306 236 0
-60 -104 -236 4306 0
-4307 61 0
-4307 105 0
-4307 237 0
-61 -105 -237 4307 0
-4308 62 0
-4308 106 0
-4308 238 0
-62 -106 -238 4308 0
-4309 63 0
-4309 107 0
-4309 239 0
-63 -107 -239 4309 0
-4310 64 0
-4310 108 0
-4310 240 0
-64 -108 -240 4310 0
-4311 65 0
-4311 109 0
-4311 241 0
-65 -109 -241 4311 0
-4312 66 0
-4312 110 0
-4312 242 0
-66 -110 -242 4312 0
-4291 6758 0
-4292 6758 0
-4293 6758 0
-4294 6758 0
-4295 6758 0
-4296 6758 0
-4297 6758 0
-4298 6758 0
-4299 6758 0
-4300 6758 0
-4301 6758 0
-4302 6758 0
-4303 6758 0
-4304 6758 0
-4305 6758 0
-4306 6758 0
-4307 6758 0
-4308 6758 0
-4309 6758 0
-4310 6758 0
-4311 6758 0
-4312 6758 0
-6758 4291 4292 4293 4294 4295 4296 4297 4298 4299 4300 4301 4302 4303 4304 4305 4306 4307 4308 4309 4310 4311 4312 0
-4313 45 0
-4313 89 0
-4313 243 0
-45 -89 -243 4313 0
-4314 46 0
-4314 90 0
-4314 244 0
-46 -90 -244 4314 0
-4315 47 0
-4315 91 0
-4315 245 0
-47 -91 -245 4315 0
-4316 48 0
-4316 92 0
-4316 246 0
-48 -92 -246 4316 0
-4317 49 0
-4317 93 0
-4317 247 0
-49 -93 -247 4317 0
-4318 50 0
-4318 94 0
-4318 248 0
-50 -94 -248 4318 0
-4319 51 0
-4319 95 0
-4319 249 0
-51 -95 -249 4319 0
-4320 52 0
-4320 96 0
-4320 250 0
-52 -96 -250 4320 0
-4321 53 0
-4321 97 0
-4321 251 0
-53 -97 -251 4321 0
-4322 54 0
-4322 98 0
-4322 252 0
-54 -98 -252 4322 0
-4323 55 0
-4323 99 0
-4323 253 0
-55 -99 -253 4323 0
-4324 56 0
-4324 100 0
-4324 254 0
-56 -100 -254 4324 0
-4325 57 0
-4325 101 0
-4325 255 0
-57 -101 -255 4325 0
-4326 58 0
-4326 102 0
-4326 256 0
-58 -102 -256 4326 0
-4327 59 0
-4327 103 0
-4327 257 0
-59 -103 -257 4327 0
-4328 60 0
-4328 104 0
-4328 258 0
-60 -104 -258 4328 0
-4329 61 0
-4329 105 0
-4329 259 0
-61 -105 -259 4329 0
-4330 62 0
-4330 106 0
-4330 260 0
-62 -106 -260 4330 0
-4331 63 0
-4331 107 0
-4331 261 0
-63 -107 -261 4331 0
-4332 64 0
-4332 108 0
-4332 262 0
-64 -108 -262 4332 0
-4333 65 0
-4333 109 0
-4333 263 0
-65 -109 -263 4333 0
-4334 66 0
-4334 110 0
-4334 264 0
-66 -110 -264 4334 0
-4313 6759 0
-4314 6759 0
-4315 6759 0
-4316 6759 0
-4317 6759 0
-4318 6759 0
-4319 6759 0
-4320 6759 0
-4321 6759 0
-4322 6759 0
-4323 6759 0
-4324 6759 0
-4325 6759 0
-4326 6759 0
-4327 6759 0
-4328 6759 0
-4329 6759 0
-4330 6759 0
-4331 6759 0
-4332 6759 0
-4333 6759 0
-4334 6759 0
-6759 4313 4314 4315 4316 4317 4318 4319 4320 4321 4322 4323 4324 4325 4326 4327 4328 4329 4330 4331 4332 4333 4334 0
-4335 45 0
-4335 111 0
-4335 133 0
-45 -111 -133 4335 0
-4336 46 0
-4336 112 0
-4336 134 0
-46 -112 -134 4336 0
-4337 47 0
-4337 113 0
-4337 135 0
-47 -113 -135 4337 0
-4338 48 0
-4338 114 0
-4338 136 0
-48 -114 -136 4338 0
-4339 49 0
-4339 115 0
-4339 137 0
-49 -115 -137 4339 0
-4340 50 0
-4340 116 0
-4340 138 0
-50 -116 -138 4340 0
-4341 51 0
-4341 117 0
-4341 139 0
-51 -117 -139 4341 0
-4342 52 0
-4342 118 0
-4342 140 0
-52 -118 -140 4342 0
-4343 53 0
-4343 119 0
-4343 141 0
-53 -119 -141 4343 0
-4344 54 0
-4344 120 0
-4344 142 0
-54 -120 -142 4344 0
-4345 55 0
-4345 121 0
-4345 143 0
-55 -121 -143 4345 0
-4346 56 0
-4346 122 0
-4346 144 0
-56 -122 -144 4346 0
-4347 57 0
-4347 123 0
-4347 145 0
-57 -123 -145 4347 0
-4348 58 0
-4348 124 0
-4348 146 0
-58 -124 -146 4348 0
-4349 59 0
-4349 125 0
-4349 147 0
-59 -125 -147 4349 0
-4350 60 0
-4350 126 0
-4350 148 0
-60 -126 -148 4350 0
-4351 61 0
-4351 127 0
-4351 149 0
-61 -127 -149 4351 0
-4352 62 0
-4352 128 0
-4352 150 0
-62 -128 -150 4352 0
-4353 63 0
-4353 129 0
-4353 151 0
-63 -129 -151 4353 0
-4354 64 0
-4354 130 0
-4354 152 0
-64 -130 -152 4354 0
-4355 65 0
-4355 131 0
-4355 153 0
-65 -131 -153 4355 0
-4356 66 0
-4356 132 0
-4356 154 0
-66 -132 -154 4356 0
-4335 6760 0
-4336 6760 0
-4337 6760 0
-4338 6760 0
-4339 6760 0
-4340 6760 0
-4341 6760 0
-4342 6760 0
-4343 6760 0
-4344 6760 0
-4345 6760 0
-4346 6760 0
-4347 6760 0
-4348 6760 0
-4349 6760 0
-4350 6760 0
-4351 6760 0
-4352 6760 0
-4353 6760 0
-4354 6760 0
-4355 6760 0
-4356 6760 0
-6760 4335 4336 4337 4338 4339 4340 4341 4342 4343 4344 4345 4346 4347 4348 4349 4350 4351 4352 4353 4354 4355 4356 0
-4357 45 0
-4357 111 0
-4357 155 0
-45 -111 -155 4357 0
-4358 46 0
-4358 112 0
-4358 156 0
-46 -112 -156 4358 0
-4359 47 0
-4359 113 0
-4359 157 0
-47 -113 -157 4359 0
-4360 48 0
-4360 114 0
-4360 158 0
-48 -114 -158 4360 0
-4361 49 0
-4361 115 0
-4361 159 0
-49 -115 -159 4361 0
-4362 50 0
-4362 116 0
-4362 160 0
-50 -116 -160 4362 0
-4363 51 0
-4363 117 0
-4363 161 0
-51 -117 -161 4363 0
-4364 52 0
-4364 118 0
-4364 162 0
-52 -118 -162 4364 0
-4365 53 0
-4365 119 0
-4365 163 0
-53 -119 -163 4365 0
-4366 54 0
-4366 120 0
-4366 164 0
-54 -120 -164 4366 0
-4367 55 0
-4367 121 0
-4367 165 0
-55 -121 -165 4367 0
-4368 56 0
-4368 122 0
-4368 166 0
-56 -122 -166 4368 0
-4369 57 0
-4369 123 0
-4369 167 0
-57 -123 -167 4369 0
-4370 58 0
-4370 124 0
-4370 168 0
-58 -124 -168 4370 0
-4371 59 0
-4371 125 0
-4371 169 0
-59 -125 -169 4371 0
-4372 60 0
-4372 126 0
-4372 170 0
-60 -126 -170 4372 0
-4373 61 0
-4373 127 0
-4373 171 0
-61 -127 -171 4373 0
-4374 62 0
-4374 128 0
-4374 172 0
-62 -128 -172 4374 0
-4375 63 0
-4375 129 0
-4375 173 0
-63 -129 -173 4375 0
-4376 64 0
-4376 130 0
-4376 174 0
-64 -130 -174 4376 0
-4377 65 0
-4377 131 0
-4377 175 0
-65 -131 -175 4377 0
-4378 66 0
-4378 132 0
-4378 176 0
-66 -132 -176 4378 0
-4357 6761 0
-4358 6761 0
-4359 6761 0
-4360 6761 0
-4361 6761 0
-4362 6761 0
-4363 6761 0
-4364 6761 0
-4365 6761 0
-4366 6761 0
-4367 6761 0
-4368 6761 0
-4369 6761 0
-4370 6761 0
-4371 6761 0
-4372 6761 0
-4373 6761 0
-4374 6761 0
-4375 6761 0
-4376 6761 0
-4377 6761 0
-4378 6761 0
-6761 4357 4358 4359 4360 4361 4362 4363 4364 4365 4366 4367 4368 4369 4370 4371 4372 4373 4374 4375 4376 4377 4378 0
-4379 45 0
-4379 111 0
-4379 177 0
-45 -111 -177 4379 0
-4380 46 0
-4380 112 0
-4380 178 0
-46 -112 -178 4380 0
-4381 47 0
-4381 113 0
-4381 179 0
-47 -113 -179 4381 0
-4382 48 0
-4382 114 0
-4382 180 0
-48 -114 -180 4382 0
-4383 49 0
-4383 115 0
-4383 181 0
-49 -115 -181 4383 0
-4384 50 0
-4384 116 0
-4384 182 0
-50 -116 -182 4384 0
-4385 51 0
-4385 117 0
-4385 183 0
-51 -117 -183 4385 0
-4386 52 0
-4386 118 0
-4386 184 0
-52 -118 -184 4386 0
-4387 53 0
-4387 119 0
-4387 185 0
-53 -119 -185 4387 0
-4388 54 0
-4388 120 0
-4388 186 0
-54 -120 -186 4388 0
-4389 55 0
-4389 121 0
-4389 187 0
-55 -121 -187 4389 0
-4390 56 0
-4390 122 0
-4390 188 0
-56 -122 -188 4390 0
-4391 57 0
-4391 123 0
-4391 189 0
-57 -123 -189 4391 0
-4392 58 0
-4392 124 0
-4392 190 0
-58 -124 -190 4392 0
-4393 59 0
-4393 125 0
-4393 191 0
-59 -125 -191 4393 0
-4394 60 0
-4394 126 0
-4394 192 0
-60 -126 -192 4394 0
-4395 61 0
-4395 127 0
-4395 193 0
-61 -127 -193 4395 0
-4396 62 0
-4396 128 0
-4396 194 0
-62 -128 -194 4396 0
-4397 63 0
-4397 129 0
-4397 195 0
-63 -129 -195 4397 0
-4398 64 0
-4398 130 0
-4398 196 0
-64 -130 -196 4398 0
-4399 65 0
-4399 131 0
-4399 197 0
-65 -131 -197 4399 0
-4400 66 0
-4400 132 0
-4400 198 0
-66 -132 -198 4400 0
-4379 6762 0
-4380 6762 0
-4381 6762 0
-4382 6762 0
-4383 6762 0
-4384 6762 0
-4385 6762 0
-4386 6762 0
-4387 6762 0
-4388 6762 0
-4389 6762 0
-4390 6762 0
-4391 6762 0
-4392 6762 0
-4393 6762 0
-4394 6762 0
-4395 6762 0
-4396 6762 0
-4397 6762 0
-4398 6762 0
-4399 6762 0
-4400 6762 0
-6762 4379 4380 4381 4382 4383 4384 4385 4386 4387 4388 4389 4390 4391 4392 4393 4394 4395 4396 4397 4398 4399 4400 0
-4401 45 0
-4401 111 0
-4401 199 0
-45 -111 -199 4401 0
-4402 46 0
-4402 112 0
-4402 200 0
-46 -112 -200 4402 0
-4403 47 0
-4403 113 0
-4403 201 0
-47 -113 -201 4403 0
-4404 48 0
-4404 114 0
-4404 202 0
-48 -114 -202 4404 0
-4405 49 0
-4405 115 0
-4405 203 0
-49 -115 -203 4405 0
-4406 50 0
-4406 116 0
-4406 204 0
-50 -116 -204 4406 0
-4407 51 0
-4407 117 0
-4407 205 0
-51 -117 -205 4407 0
-4408 52 0
-4408 118 0
-4408 206 0
-52 -118 -206 4408 0
-4409 53 0
-4409 119 0
-4409 207 0
-53 -119 -207 4409 0
-4410 54 0
-4410 120 0
-4410 208 0
-54 -120 -208 4410 0
-4411 55 0
-4411 121 0
-4411 209 0
-55 -121 -209 4411 0
-4412 56 0
-4412 122 0
-4412 210 0
-56 -122 -210 4412 0
-4413 57 0
-4413 123 0
-4413 211 0
-57 -123 -211 4413 0
-4414 58 0
-4414 124 0
-4414 212 0
-58 -124 -212 4414 0
-4415 59 0
-4415 125 0
-4415 213 0
-59 -125 -213 4415 0
-4416 60 0
-4416 126 0
-4416 214 0
-60 -126 -214 4416 0
-4417 61 0
-4417 127 0
-4417 215 0
-61 -127 -215 4417 0
-4418 62 0
-4418 128 0
-4418 216 0
-62 -128 -216 4418 0
-4419 63 0
-4419 129 0
-4419 217 0
-63 -129 -217 4419 0
-4420 64 0
-4420 130 0
-4420 218 0
-64 -130 -218 4420 0
-4421 65 0
-4421 131 0
-4421 219 0
-65 -131 -219 4421 0
-4422 66 0
-4422 132 0
-4422 220 0
-66 -132 -220 4422 0
-4401 6763 0
-4402 6763 0
-4403 6763 0
-4404 6763 0
-4405 6763 0
-4406 6763 0
-4407 6763 0
-4408 6763 0
-4409 6763 0
-4410 6763 0
-4411 6763 0
-4412 6763 0
-4413 6763 0
-4414 6763 0
-4415 6763 0
-4416 6763 0
-4417 6763 0
-4418 6763 0
-4419 6763 0
-4420 6763 0
-4421 6763 0
-4422 6763 0
-6763 4401 4402 4403 4404 4405 4406 4407 4408 4409 4410 4411 4412 4413 4414 4415 4416 4417 4418 4419 4420 4421 4422 0
-4423 45 0
-4423 111 0
-4423 221 0
-45 -111 -221 4423 0
-4424 46 0
-4424 112 0
-4424 222 0
-46 -112 -222 4424 0
-4425 47 0
-4425 113 0
-4425 223 0
-47 -113 -223 4425 0
-4426 48 0
-4426 114 0
-4426 224 0
-48 -114 -224 4426 0
-4427 49 0
-4427 115 0
-4427 225 0
-49 -115 -225 4427 0
-4428 50 0
-4428 116 0
-4428 226 0
-50 -116 -226 4428 0
-4429 51 0
-4429 117 0
-4429 227 0
-51 -117 -227 4429 0
-4430 52 0
-4430 118 0
-4430 228 0
-52 -118 -228 4430 0
-4431 53 0
-4431 119 0
-4431 229 0
-53 -119 -229 4431 0
-4432 54 0
-4432 120 0
-4432 230 0
-54 -120 -230 4432 0
-4433 55 0
-4433 121 0
-4433 231 0
-55 -121 -231 4433 0
-4434 56 0
-4434 122 0
-4434 232 0
-56 -122 -232 4434 0
-4435 57 0
-4435 123 0
-4435 233 0
-57 -123 -233 4435 0
-4436 58 0
-4436 124 0
-4436 234 0
-58 -124 -234 4436 0
-4437 59 0
-4437 125 0
-4437 235 0
-59 -125 -235 4437 0
-4438 60 0
-4438 126 0
-4438 236 0
-60 -126 -236 4438 0
-4439 61 0
-4439 127 0
-4439 237 0
-61 -127 -237 4439 0
-4440 62 0
-4440 128 0
-4440 238 0
-62 -128 -238 4440 0
-4441 63 0
-4441 129 0
-4441 239 0
-63 -129 -239 4441 0
-4442 64 0
-4442 130 0
-4442 240 0
-64 -130 -240 4442 0
-4443 65 0
-4443 131 0
-4443 241 0
-65 -131 -241 4443 0
-4444 66 0
-4444 132 0
-4444 242 0
-66 -132 -242 4444 0
-4423 6764 0
-4424 6764 0
-4425 6764 0
-4426 6764 0
-4427 6764 0
-4428 6764 0
-4429 6764 0
-4430 6764 0
-4431 6764 0
-4432 6764 0
-4433 6764 0
-4434 6764 0
-4435 6764 0
-4436 6764 0
-4437 6764 0
-4438 6764 0
-4439 6764 0
-4440 6764 0
-4441 6764 0
-4442 6764 0
-4443 6764 0
-4444 6764 0
-6764 4423 4424 4425 4426 4427 4428 4429 4430 4431 4432 4433 4434 4435 4436 4437 4438 4439 4440 4441 4442 4443 4444 0
-4445 45 0
-4445 111 0
-4445 243 0
-45 -111 -243 4445 0
-4446 46 0
-4446 112 0
-4446 244 0
-46 -112 -244 4446 0
-4447 47 0
-4447 113 0
-4447 245 0
-47 -113 -245 4447 0
-4448 48 0
-4448 114 0
-4448 246 0
-48 -114 -246 4448 0
-4449 49 0
-4449 115 0
-4449 247 0
-49 -115 -247 4449 0
-4450 50 0
-4450 116 0
-4450 248 0
-50 -116 -248 4450 0
-4451 51 0
-4451 117 0
-4451 249 0
-51 -117 -249 4451 0
-4452 52 0
-4452 118 0
-4452 250 0
-52 -118 -250 4452 0
-4453 53 0
-4453 119 0
-4453 251 0
-53 -119 -251 4453 0
-4454 54 0
-4454 120 0
-4454 252 0
-54 -120 -252 4454 0
-4455 55 0
-4455 121 0
-4455 253 0
-55 -121 -253 4455 0
-4456 56 0
-4456 122 0
-4456 254 0
-56 -122 -254 4456 0
-4457 57 0
-4457 123 0
-4457 255 0
-57 -123 -255 4457 0
-4458 58 0
-4458 124 0
-4458 256 0
-58 -124 -256 4458 0
-4459 59 0
-4459 125 0
-4459 257 0
-59 -125 -257 4459 0
-4460 60 0
-4460 126 0
-4460 258 0
-60 -126 -258 4460 0
-4461 61 0
-4461 127 0
-4461 259 0
-61 -127 -259 4461 0
-4462 62 0
-4462 128 0
-4462 260 0
-62 -128 -260 4462 0
-4463 63 0
-4463 129 0
-4463 261 0
-63 -129 -261 4463 0
-4464 64 0
-4464 130 0
-4464 262 0
-64 -130 -262 4464 0
-4465 65 0
-4465 131 0
-4465 263 0
-65 -131 -263 4465 0
-4466 66 0
-4466 132 0
-4466 264 0
-66 -132 -264 4466 0
-4445 6765 0
-4446 6765 0
-4447 6765 0
-4448 6765 0
-4449 6765 0
-4450 6765 0
-4451 6765 0
-4452 6765 0
-4453 6765 0
-4454 6765 0
-4455 6765 0
-4456 6765 0
-4457 6765 0
-4458 6765 0
-4459 6765 0
-4460 6765 0
-4461 6765 0
-4462 6765 0
-4463 6765 0
-4464 6765 0
-4465 6765 0
-4466 6765 0
-6765 4445 4446 4447 4448 4449 4450 4451 4452 4453 4454 4455 4456 4457 4458 4459 4460 4461 4462 4463 4464 4465 4466 0
-4467 45 0
-4467 133 0
-4467 155 0
-45 -133 -155 4467 0
-4468 46 0
-4468 134 0
-4468 156 0
-46 -134 -156 4468 0
-4469 47 0
-4469 135 0
-4469 157 0
-47 -135 -157 4469 0
-4470 48 0
-4470 136 0
-4470 158 0
-48 -136 -158 4470 0
-4471 49 0
-4471 137 0
-4471 159 0
-49 -137 -159 4471 0
-4472 50 0
-4472 138 0
-4472 160 0
-50 -138 -160 4472 0
-4473 51 0
-4473 139 0
-4473 161 0
-51 -139 -161 4473 0
-4474 52 0
-4474 140 0
-4474 162 0
-52 -140 -162 4474 0
-4475 53 0
-4475 141 0
-4475 163 0
-53 -141 -163 4475 0
-4476 54 0
-4476 142 0
-4476 164 0
-54 -142 -164 4476 0
-4477 55 0
-4477 143 0
-4477 165 0
-55 -143 -165 4477 0
-4478 56 0
-4478 144 0
-4478 166 0
-56 -144 -166 4478 0
-4479 57 0
-4479 145 0
-4479 167 0
-57 -145 -167 4479 0
-4480 58 0
-4480 146 0
-4480 168 0
-58 -146 -168 4480 0
-4481 59 0
-4481 147 0
-4481 169 0
-59 -147 -169 4481 0
-4482 60 0
-4482 148 0
-4482 170 0
-60 -148 -170 4482 0
-4483 61 0
-4483 149 0
-4483 171 0
-61 -149 -171 4483 0
-4484 62 0
-4484 150 0
-4484 172 0
-62 -150 -172 4484 0
-4485 63 0
-4485 151 0
-4485 173 0
-63 -151 -173 4485 0
-4486 64 0
-4486 152 0
-4486 174 0
-64 -152 -174 4486 0
-4487 65 0
-4487 153 0
-4487 175 0
-65 -153 -175 4487 0
-4488 66 0
-4488 154 0
-4488 176 0
-66 -154 -176 4488 0
-4467 6766 0
-4468 6766 0
-4469 6766 0
-4470 6766 0
-4471 6766 0
-4472 6766 0
-4473 6766 0
-4474 6766 0
-4475 6766 0
-4476 6766 0
-4477 6766 0
-4478 6766 0
-4479 6766 0
-4480 6766 0
-4481 6766 0
-4482 6766 0
-4483 6766 0
-4484 6766 0
-4485 6766 0
-4486 6766 0
-4487 6766 0
-4488 6766 0
-6766 4467 4468 4469 4470 4471 4472 4473 4474 4475 4476 4477 4478 4479 4480 4481 4482 4483 4484 4485 4486 4487 4488 0
-4489 45 0
-4489 133 0
-4489 177 0
-45 -133 -177 4489 0
-4490 46 0
-4490 134 0
-4490 178 0
-46 -134 -178 4490 0
-4491 47 0
-4491 135 0
-4491 179 0
-47 -135 -179 4491 0
-4492 48 0
-4492 136 0
-4492 180 0
-48 -136 -180 4492 0
-4493 49 0
-4493 137 0
-4493 181 0
-49 -137 -181 4493 0
-4494 50 0
-4494 138 0
-4494 182 0
-50 -138 -182 4494 0
-4495 51 0
-4495 139 0
-4495 183 0
-51 -139 -183 4495 0
-4496 52 0
-4496 140 0
-4496 184 0
-52 -140 -184 4496 0
-4497 53 0
-4497 141 0
-4497 185 0
-53 -141 -185 4497 0
-4498 54 0
-4498 142 0
-4498 186 0
-54 -142 -186 4498 0
-4499 55 0
-4499 143 0
-4499 187 0
-55 -143 -187 4499 0
-4500 56 0
-4500 144 0
-4500 188 0
-56 -144 -188 4500 0
-4501 57 0
-4501 145 0
-4501 189 0
-57 -145 -189 4501 0
-4502 58 0
-4502 146 0
-4502 190 0
-58 -146 -190 4502 0
-4503 59 0
-4503 147 0
-4503 191 0
-59 -147 -191 4503 0
-4504 60 0
-4504 148 0
-4504 192 0
-60 -148 -192 4504 0
-4505 61 0
-4505 149 0
-4505 193 0
-61 -149 -193 4505 0
-4506 62 0
-4506 150 0
-4506 194 0
-62 -150 -194 4506 0
-4507 63 0
-4507 151 0
-4507 195 0
-63 -151 -195 4507 0
-4508 64 0
-4508 152 0
-4508 196 0
-64 -152 -196 4508 0
-4509 65 0
-4509 153 0
-4509 197 0
-65 -153 -197 4509 0
-4510 66 0
-4510 154 0
-4510 198 0
-66 -154 -198 4510 0
-4489 6767 0
-4490 6767 0
-4491 6767 0
-4492 6767 0
-4493 6767 0
-4494 6767 0
-4495 6767 0
-4496 6767 0
-4497 6767 0
-4498 6767 0
-4499 6767 0
-4500 6767 0
-4501 6767 0
-4502 6767 0
-4503 6767 0
-4504 6767 0
-4505 6767 0
-4506 6767 0
-4507 6767 0
-4508 6767 0
-4509 6767 0
-4510 6767 0
-6767 4489 4490 4491 4492 4493 4494 4495 4496 4497 4498 4499 4500 4501 4502 4503 4504 4505 4506 4507 4508 4509 4510 0
-4511 45 0
-4511 133 0
-4511 199 0
-45 -133 -199 4511 0
-4512 46 0
-4512 134 0
-4512 200 0
-46 -134 -200 4512 0
-4513 47 0
-4513 135 0
-4513 201 0
-47 -135 -201 4513 0
-4514 48 0
-4514 136 0
-4514 202 0
-48 -136 -202 4514 0
-4515 49 0
-4515 137 0
-4515 203 0
-49 -137 -203 4515 0
-4516 50 0
-4516 138 0
-4516 204 0
-50 -138 -204 4516 0
-4517 51 0
-4517 139 0
-4517 205 0
-51 -139 -205 4517 0
-4518 52 0
-4518 140 0
-4518 206 0
-52 -140 -206 4518 0
-4519 53 0
-4519 141 0
-4519 207 0
-53 -141 -207 4519 0
-4520 54 0
-4520 142 0
-4520 208 0
-54 -142 -208 4520 0
-4521 55 0
-4521 143 0
-4521 209 0
-55 -143 -209 4521 0
-4522 56 0
-4522 144 0
-4522 210 0
-56 -144 -210 4522 0
-4523 57 0
-4523 145 0
-4523 211 0
-57 -145 -211 4523 0
-4524 58 0
-4524 146 0
-4524 212 0
-58 -146 -212 4524 0
-4525 59 0
-4525 147 0
-4525 213 0
-59 -147 -213 4525 0
-4526 60 0
-4526 148 0
-4526 214 0
-60 -148 -214 4526 0
-4527 61 0
-4527 149 0
-4527 215 0
-61 -149 -215 4527 0
-4528 62 0
-4528 150 0
-4528 216 0
-62 -150 -216 4528 0
-4529 63 0
-4529 151 0
-4529 217 0
-63 -151 -217 4529 0
-4530 64 0
-4530 152 0
-4530 218 0
-64 -152 -218 4530 0
-4531 65 0
-4531 153 0
-4531 219 0
-65 -153 -219 4531 0
-4532 66 0
-4532 154 0
-4532 220 0
-66 -154 -220 4532 0
-4511 6768 0
-4512 6768 0
-4513 6768 0
-4514 6768 0
-4515 6768 0
-4516 6768 0
-4517 6768 0
-4518 6768 0
-4519 6768 0
-4520 6768 0
-4521 6768 0
-4522 6768 0
-4523 6768 0
-4524 6768 0
-4525 6768 0
-4526 6768 0
-4527 6768 0
-4528 6768 0
-4529 6768 0
-4530 6768 0
-4531 6768 0
-4532 6768 0
-6768 4511 4512 4513 4514 4515 4516 4517 4518 4519 4520 4521 4522 4523 4524 4525 4526 4527 4528 4529 4530 4531 4532 0
-4533 45 0
-4533 133 0
-4533 221 0
-45 -133 -221 4533 0
-4534 46 0
-4534 134 0
-4534 222 0
-46 -134 -222 4534 0
-4535 47 0
-4535 135 0
-4535 223 0
-47 -135 -223 4535 0
-4536 48 0
-4536 136 0
-4536 224 0
-48 -136 -224 4536 0
-4537 49 0
-4537 137 0
-4537 225 0
-49 -137 -225 4537 0
-4538 50 0
-4538 138 0
-4538 226 0
-50 -138 -226 4538 0
-4539 51 0
-4539 139 0
-4539 227 0
-51 -139 -227 4539 0
-4540 52 0
-4540 140 0
-4540 228 0
-52 -140 -228 4540 0
-4541 53 0
-4541 141 0
-4541 229 0
-53 -141 -229 4541 0
-4542 54 0
-4542 142 0
-4542 230 0
-54 -142 -230 4542 0
-4543 55 0
-4543 143 0
-4543 231 0
-55 -143 -231 4543 0
-4544 56 0
-4544 144 0
-4544 232 0
-56 -144 -232 4544 0
-4545 57 0
-4545 145 0
-4545 233 0
-57 -145 -233 4545 0
-4546 58 0
-4546 146 0
-4546 234 0
-58 -146 -234 4546 0
-4547 59 0
-4547 147 0
-4547 235 0
-59 -147 -235 4547 0
-4548 60 0
-4548 148 0
-4548 236 0
-60 -148 -236 4548 0
-4549 61 0
-4549 149 0
-4549 237 0
-61 -149 -237 4549 0
-4550 62 0
-4550 150 0
-4550 238 0
-62 -150 -238 4550 0
-4551 63 0
-4551 151 0
-4551 239 0
-63 -151 -239 4551 0
-4552 64 0
-4552 152 0
-4552 240 0
-64 -152 -240 4552 0
-4553 65 0
-4553 153 0
-4553 241 0
-65 -153 -241 4553 0
-4554 66 0
-4554 154 0
-4554 242 0
-66 -154 -242 4554 0
-4533 6769 0
-4534 6769 0
-4535 6769 0
-4536 6769 0
-4537 6769 0
-4538 6769 0
-4539 6769 0
-4540 6769 0
-4541 6769 0
-4542 6769 0
-4543 6769 0
-4544 6769 0
-4545 6769 0
-4546 6769 0
-4547 6769 0
-4548 6769 0
-4549 6769 0
-4550 6769 0
-4551 6769 0
-4552 6769 0
-4553 6769 0
-4554 6769 0
-6769 4533 4534 4535 4536 4537 4538 4539 4540 4541 4542 4543 4544 4545 4546 4547 4548 4549 4550 4551 4552 4553 4554 0
-4555 45 0
-4555 133 0
-4555 243 0
-45 -133 -243 4555 0
-4556 46 0
-4556 134 0
-4556 244 0
-46 -134 -244 4556 0
-4557 47 0
-4557 135 0
-4557 245 0
-47 -135 -245 4557 0
-4558 48 0
-4558 136 0
-4558 246 0
-48 -136 -246 4558 0
-4559 49 0
-4559 137 0
-4559 247 0
-49 -137 -247 4559 0
-4560 50 0
-4560 138 0
-4560 248 0
-50 -138 -248 4560 0
-4561 51 0
-4561 139 0
-4561 249 0
-51 -139 -249 4561 0
-4562 52 0
-4562 140 0
-4562 250 0
-52 -140 -250 4562 0
-4563 53 0
-4563 141 0
-4563 251 0
-53 -141 -251 4563 0
-4564 54 0
-4564 142 0
-4564 252 0
-54 -142 -252 4564 0
-4565 55 0
-4565 143 0
-4565 253 0
-55 -143 -253 4565 0
-4566 56 0
-4566 144 0
-4566 254 0
-56 -144 -254 4566 0
-4567 57 0
-4567 145 0
-4567 255 0
-57 -145 -255 4567 0
-4568 58 0
-4568 146 0
-4568 256 0
-58 -146 -256 4568 0
-4569 59 0
-4569 147 0
-4569 257 0
-59 -147 -257 4569 0
-4570 60 0
-4570 148 0
-4570 258 0
-60 -148 -258 4570 0
-4571 61 0
-4571 149 0
-4571 259 0
-61 -149 -259 4571 0
-4572 62 0
-4572 150 0
-4572 260 0
-62 -150 -260 4572 0
-4573 63 0
-4573 151 0
-4573 261 0
-63 -151 -261 4573 0
-4574 64 0
-4574 152 0
-4574 262 0
-64 -152 -262 4574 0
-4575 65 0
-4575 153 0
-4575 263 0
-65 -153 -263 4575 0
-4576 66 0
-4576 154 0
-4576 264 0
-66 -154 -264 4576 0
-4555 6770 0
-4556 6770 0
-4557 6770 0
-4558 6770 0
-4559 6770 0
-4560 6770 0
-4561 6770 0
-4562 6770 0
-4563 6770 0
-4564 6770 0
-4565 6770 0
-4566 6770 0
-4567 6770 0
-4568 6770 0
-4569 6770 0
-4570 6770 0
-4571 6770 0
-4572 6770 0
-4573 6770 0
-4574 6770 0
-4575 6770 0
-4576 6770 0
-6770 4555 4556 4557 4558 4559 4560 4561 4562 4563 4564 4565 4566 4567 4568 4569 4570 4571 4572 4573 4574 4575 4576 0
-4577 45 0
-4577 155 0
-4577 177 0
-45 -155 -177 4577 0
-4578 46 0
-4578 156 0
-4578 178 0
-46 -156 -178 4578 0
-4579 47 0
-4579 157 0
-4579 179 0
-47 -157 -179 4579 0
-4580 48 0
-4580 158 0
-4580 180 0
-48 -158 -180 4580 0
-4581 49 0
-4581 159 0
-4581 181 0
-49 -159 -181 4581 0
-4582 50 0
-4582 160 0
-4582 182 0
-50 -160 -182 4582 0
-4583 51 0
-4583 161 0
-4583 183 0
-51 -161 -183 4583 0
-4584 52 0
-4584 162 0
-4584 184 0
-52 -162 -184 4584 0
-4585 53 0
-4585 163 0
-4585 185 0
-53 -163 -185 4585 0
-4586 54 0
-4586 164 0
-4586 186 0
-54 -164 -186 4586 0
-4587 55 0
-4587 165 0
-4587 187 0
-55 -165 -187 4587 0
-4588 56 0
-4588 166 0
-4588 188 0
-56 -166 -188 4588 0
-4589 57 0
-4589 167 0
-4589 189 0
-57 -167 -189 4589 0
-4590 58 0
-4590 168 0
-4590 190 0
-58 -168 -190 4590 0
-4591 59 0
-4591 169 0
-4591 191 0
-59 -169 -191 4591 0
-4592 60 0
-4592 170 0
-4592 192 0
-60 -170 -192 4592 0
-4593 61 0
-4593 171 0
-4593 193 0
-61 -171 -193 4593 0
-4594 62 0
-4594 172 0
-4594 194 0
-62 -172 -194 4594 0
-4595 63 0
-4595 173 0
-4595 195 0
-63 -173 -195 4595 0
-4596 64 0
-4596 174 0
-4596 196 0
-64 -174 -196 4596 0
-4597 65 0
-4597 175 0
-4597 197 0
-65 -175 -197 4597 0
-4598 66 0
-4598 176 0
-4598 198 0
-66 -176 -198 4598 0
-4577 6771 0
-4578 6771 0
-4579 6771 0
-4580 6771 0
-4581 6771 0
-4582 6771 0
-4583 6771 0
-4584 6771 0
-4585 6771 0
-4586 6771 0
-4587 6771 0
-4588 6771 0
-4589 6771 0
-4590 6771 0
-4591 6771 0
-4592 6771 0
-4593 6771 0
-4594 6771 0
-4595 6771 0
-4596 6771 0
-4597 6771 0
-4598 6771 0
-6771 4577 4578 4579 4580 4581 4582 4583 4584 4585 4586 4587 4588 4589 4590 4591 4592 4593 4594 4595 4596 4597 4598 0
-4599 45 0
-4599 155 0
-4599 199 0
-45 -155 -199 4599 0
-4600 46 0
-4600 156 0
-4600 200 0
-46 -156 -200 4600 0
-4601 47 0
-4601 157 0
-4601 201 0
-47 -157 -201 4601 0
-4602 48 0
-4602 158 0
-4602 202 0
-48 -158 -202 4602 0
-4603 49 0
-4603 159 0
-4603 203 0
-49 -159 -203 4603 0
-4604 50 0
-4604 160 0
-4604 204 0
-50 -160 -204 4604 0
-4605 51 0
-4605 161 0
-4605 205 0
-51 -161 -205 4605 0
-4606 52 0
-4606 162 0
-4606 206 0
-52 -162 -206 4606 0
-4607 53 0
-4607 163 0
-4607 207 0
-53 -163 -207 4607 0
-4608 54 0
-4608 164 0
-4608 208 0
-54 -164 -208 4608 0
-4609 55 0
-4609 165 0
-4609 209 0
-55 -165 -209 4609 0
-4610 56 0
-4610 166 0
-4610 210 0
-56 -166 -210 4610 0
-4611 57 0
-4611 167 0
-4611 211 0
-57 -167 -211 4611 0
-4612 58 0
-4612 168 0
-4612 212 0
-58 -168 -212 4612 0
-4613 59 0
-4613 169 0
-4613 213 0
-59 -169 -213 4613 0
-4614 60 0
-4614 170 0
-4614 214 0
-60 -170 -214 4614 0
-4615 61 0
-4615 171 0
-4615 215 0
-61 -171 -215 4615 0
-4616 62 0
-4616 172 0
-4616 216 0
-62 -172 -216 4616 0
-4617 63 0
-4617 173 0
-4617 217 0
-63 -173 -217 4617 0
-4618 64 0
-4618 174 0
-4618 218 0
-64 -174 -218 4618 0
-4619 65 0
-4619 175 0
-4619 219 0
-65 -175 -219 4619 0
-4620 66 0
-4620 176 0
-4620 220 0
-66 -176 -220 4620 0
-4599 6772 0
-4600 6772 0
-4601 6772 0
-4602 6772 0
-4603 6772 0
-4604 6772 0
-4605 6772 0
-4606 6772 0
-4607 6772 0
-4608 6772 0
-4609 6772 0
-4610 6772 0
-4611 6772 0
-4612 6772 0
-4613 6772 0
-4614 6772 0
-4615 6772 0
-4616 6772 0
-4617 6772 0
-4618 6772 0
-4619 6772 0
-4620 6772 0
-6772 4599 4600 4601 4602 4603 4604 4605 4606 4607 4608 4609 4610 4611 4612 4613 4614 4615 4616 4617 4618 4619 4620 0
-4621 45 0
-4621 155 0
-4621 221 0
-45 -155 -221 4621 0
-4622 46 0
-4622 156 0
-4622 222 0
-46 -156 -222 4622 0
-4623 47 0
-4623 157 0
-4623 223 0
-47 -157 -223 4623 0
-4624 48 0
-4624 158 0
-4624 224 0
-48 -158 -224 4624 0
-4625 49 0
-4625 159 0
-4625 225 0
-49 -159 -225 4625 0
-4626 50 0
-4626 160 0
-4626 226 0
-50 -160 -226 4626 0
-4627 51 0
-4627 161 0
-4627 227 0
-51 -161 -227 4627 0
-4628 52 0
-4628 162 0
-4628 228 0
-52 -162 -228 4628 0
-4629 53 0
-4629 163 0
-4629 229 0
-53 -163 -229 4629 0
-4630 54 0
-4630 164 0
-4630 230 0
-54 -164 -230 4630 0
-4631 55 0
-4631 165 0
-4631 231 0
-55 -165 -231 4631 0
-4632 56 0
-4632 166 0
-4632 232 0
-56 -166 -232 4632 0
-4633 57 0
-4633 167 0
-4633 233 0
-57 -167 -233 4633 0
-4634 58 0
-4634 168 0
-4634 234 0
-58 -168 -234 4634 0
-4635 59 0
-4635 169 0
-4635 235 0
-59 -169 -235 4635 0
-4636 60 0
-4636 170 0
-4636 236 0
-60 -170 -236 4636 0
-4637 61 0
-4637 171 0
-4637 237 0
-61 -171 -237 4637 0
-4638 62 0
-4638 172 0
-4638 238 0
-62 -172 -238 4638 0
-4639 63 0
-4639 173 0
-4639 239 0
-63 -173 -239 4639 0
-4640 64 0
-4640 174 0
-4640 240 0
-64 -174 -240 4640 0
-4641 65 0
-4641 175 0
-4641 241 0
-65 -175 -241 4641 0
-4642 66 0
-4642 176 0
-4642 242 0
-66 -176 -242 4642 0
-4621 6773 0
-4622 6773 0
-4623 6773 0
-4624 6773 0
-4625 6773 0
-4626 6773 0
-4627 6773 0
-4628 6773 0
-4629 6773 0
-4630 6773 0
-4631 6773 0
-4632 6773 0
-4633 6773 0
-4634 6773 0
-4635 6773 0
-4636 6773 0
-4637 6773 0
-4638 6773 0
-4639 6773 0
-4640 6773 0
-4641 6773 0
-4642 6773 0
-6773 4621 4622 4623 4624 4625 4626 4627 4628 4629 4630 4631 4632 4633 4634 4635 4636 4637 4638 4639 4640 4641 4642 0
-4643 45 0
-4643 155 0
-4643 243 0
-45 -155 -243 4643 0
-4644 46 0
-4644 156 0
-4644 244 0
-46 -156 -244 4644 0
-4645 47 0
-4645 157 0
-4645 245 0
-47 -157 -245 4645 0
-4646 48 0
-4646 158 0
-4646 246 0
-48 -158 -246 4646 0
-4647 49 0
-4647 159 0
-4647 247 0
-49 -159 -247 4647 0
-4648 50 0
-4648 160 0
-4648 248 0
-50 -160 -248 4648 0
-4649 51 0
-4649 161 0
-4649 249 0
-51 -161 -249 4649 0
-4650 52 0
-4650 162 0
-4650 250 0
-52 -162 -250 4650 0
-4651 53 0
-4651 163 0
-4651 251 0
-53 -163 -251 4651 0
-4652 54 0
-4652 164 0
-4652 252 0
-54 -164 -252 4652 0
-4653 55 0
-4653 165 0
-4653 253 0
-55 -165 -253 4653 0
-4654 56 0
-4654 166 0
-4654 254 0
-56 -166 -254 4654 0
-4655 57 0
-4655 167 0
-4655 255 0
-57 -167 -255 4655 0
-4656 58 0
-4656 168 0
-4656 256 0
-58 -168 -256 4656 0
-4657 59 0
-4657 169 0
-4657 257 0
-59 -169 -257 4657 0
-4658 60 0
-4658 170 0
-4658 258 0
-60 -170 -258 4658 0
-4659 61 0
-4659 171 0
-4659 259 0
-61 -171 -259 4659 0
-4660 62 0
-4660 172 0
-4660 260 0
-62 -172 -260 4660 0
-4661 63 0
-4661 173 0
-4661 261 0
-63 -173 -261 4661 0
-4662 64 0
-4662 174 0
-4662 262 0
-64 -174 -262 4662 0
-4663 65 0
-4663 175 0
-4663 263 0
-65 -175 -263 4663 0
-4664 66 0
-4664 176 0
-4664 264 0
-66 -176 -264 4664 0
-4643 6774 0
-4644 6774 0
-4645 6774 0
-4646 6774 0
-4647 6774 0
-4648 6774 0
-4649 6774 0
-4650 6774 0
-4651 6774 0
-4652 6774 0
-4653 6774 0
-4654 6774 0
-4655 6774 0
-4656 6774 0
-4657 6774 0
-4658 6774 0
-4659 6774 0
-4660 6774 0
-4661 6774 0
-4662 6774 0
-4663 6774 0
-4664 6774 0
-6774 4643 4644 4645 4646 4647 4648 4649 4650 4651 4652 4653 4654 4655 4656 4657 4658 4659 4660 4661 4662 4663 4664 0
-4665 45 0
-4665 177 0
-4665 199 0
-45 -177 -199 4665 0
-4666 46 0
-4666 178 0
-4666 200 0
-46 -178 -200 4666 0
-4667 47 0
-4667 179 0
-4667 201 0
-47 -179 -201 4667 0
-4668 48 0
-4668 180 0
-4668 202 0
-48 -180 -202 4668 0
-4669 49 0
-4669 181 0
-4669 203 0
-49 -181 -203 4669 0
-4670 50 0
-4670 182 0
-4670 204 0
-50 -182 -204 4670 0
-4671 51 0
-4671 183 0
-4671 205 0
-51 -183 -205 4671 0
-4672 52 0
-4672 184 0
-4672 206 0
-52 -184 -206 4672 0
-4673 53 0
-4673 185 0
-4673 207 0
-53 -185 -207 4673 0
-4674 54 0
-4674 186 0
-4674 208 0
-54 -186 -208 4674 0
-4675 55 0
-4675 187 0
-4675 209 0
-55 -187 -209 4675 0
-4676 56 0
-4676 188 0
-4676 210 0
-56 -188 -210 4676 0
-4677 57 0
-4677 189 0
-4677 211 0
-57 -189 -211 4677 0
-4678 58 0
-4678 190 0
-4678 212 0
-58 -190 -212 4678 0
-4679 59 0
-4679 191 0
-4679 213 0
-59 -191 -213 4679 0
-4680 60 0
-4680 192 0
-4680 214 0
-60 -192 -214 4680 0
-4681 61 0
-4681 193 0
-4681 215 0
-61 -193 -215 4681 0
-4682 62 0
-4682 194 0
-4682 216 0
-62 -194 -216 4682 0
-4683 63 0
-4683 195 0
-4683 217 0
-63 -195 -217 4683 0
-4684 64 0
-4684 196 0
-4684 218 0
-64 -196 -218 4684 0
-4685 65 0
-4685 197 0
-4685 219 0
-65 -197 -219 4685 0
-4686 66 0
-4686 198 0
-4686 220 0
-66 -198 -220 4686 0
-4665 6775 0
-4666 6775 0
-4667 6775 0
-4668 6775 0
-4669 6775 0
-4670 6775 0
-4671 6775 0
-4672 6775 0
-4673 6775 0
-4674 6775 0
-4675 6775 0
-4676 6775 0
-4677 6775 0
-4678 6775 0
-4679 6775 0
-4680 6775 0
-4681 6775 0
-4682 6775 0
-4683 6775 0
-4684 6775 0
-4685 6775 0
-4686 6775 0
-6775 4665 4666 4667 4668 4669 4670 4671 4672 4673 4674 4675 4676 4677 4678 4679 4680 4681 4682 4683 4684 4685 4686 0
-4687 45 0
-4687 177 0
-4687 221 0
-45 -177 -221 4687 0
-4688 46 0
-4688 178 0
-4688 222 0
-46 -178 -222 4688 0
-4689 47 0
-4689 179 0
-4689 223 0
-47 -179 -223 4689 0
-4690 48 0
-4690 180 0
-4690 224 0
-48 -180 -224 4690 0
-4691 49 0
-4691 181 0
-4691 225 0
-49 -181 -225 4691 0
-4692 50 0
-4692 182 0
-4692 226 0
-50 -182 -226 4692 0
-4693 51 0
-4693 183 0
-4693 227 0
-51 -183 -227 4693 0
-4694 52 0
-4694 184 0
-4694 228 0
-52 -184 -228 4694 0
-4695 53 0
-4695 185 0
-4695 229 0
-53 -185 -229 4695 0
-4696 54 0
-4696 186 0
-4696 230 0
-54 -186 -230 4696 0
-4697 55 0
-4697 187 0
-4697 231 0
-55 -187 -231 4697 0
-4698 56 0
-4698 188 0
-4698 232 0
-56 -188 -232 4698 0
-4699 57 0
-4699 189 0
-4699 233 0
-57 -189 -233 4699 0
-4700 58 0
-4700 190 0
-4700 234 0
-58 -190 -234 4700 0
-4701 59 0
-4701 191 0
-4701 235 0
-59 -191 -235 4701 0
-4702 60 0
-4702 192 0
-4702 236 0
-60 -192 -236 4702 0
-4703 61 0
-4703 193 0
-4703 237 0
-61 -193 -237 4703 0
-4704 62 0
-4704 194 0
-4704 238 0
-62 -194 -238 4704 0
-4705 63 0
-4705 195 0
-4705 239 0
-63 -195 -239 4705 0
-4706 64 0
-4706 196 0
-4706 240 0
-64 -196 -240 4706 0
-4707 65 0
-4707 197 0
-4707 241 0
-65 -197 -241 4707 0
-4708 66 0
-4708 198 0
-4708 242 0
-66 -198 -242 4708 0
-4687 6776 0
-4688 6776 0
-4689 6776 0
-4690 6776 0
-4691 6776 0
-4692 6776 0
-4693 6776 0
-4694 6776 0
-4695 6776 0
-4696 6776 0
-4697 6776 0
-4698 6776 0
-4699 6776 0
-4700 6776 0
-4701 6776 0
-4702 6776 0
-4703 6776 0
-4704 6776 0
-4705 6776 0
-4706 6776 0
-4707 6776 0
-4708 6776 0
-6776 4687 4688 4689 4690 4691 4692 4693 4694 4695 4696 4697 4698 4699 4700 4701 4702 4703 4704 4705 4706 4707 4708 0
-4709 45 0
-4709 177 0
-4709 243 0
-45 -177 -243 4709 0
-4710 46 0
-4710 178 0
-4710 244 0
-46 -178 -244 4710 0
-4711 47 0
-4711 179 0
-4711 245 0
-47 -179 -245 4711 0
-4712 48 0
-4712 180 0
-4712 246 0
-48 -180 -246 4712 0
-4713 49 0
-4713 181 0
-4713 247 0
-49 -181 -247 4713 0
-4714 50 0
-4714 182 0
-4714 248 0
-50 -182 -248 4714 0
-4715 51 0
-4715 183 0
-4715 249 0
-51 -183 -249 4715 0
-4716 52 0
-4716 184 0
-4716 250 0
-52 -184 -250 4716 0
-4717 53 0
-4717 185 0
-4717 251 0
-53 -185 -251 4717 0
-4718 54 0
-4718 186 0
-4718 252 0
-54 -186 -252 4718 0
-4719 55 0
-4719 187 0
-4719 253 0
-55 -187 -253 4719 0
-4720 56 0
-4720 188 0
-4720 254 0
-56 -188 -254 4720 0
-4721 57 0
-4721 189 0
-4721 255 0
-57 -189 -255 4721 0
-4722 58 0
-4722 190 0
-4722 256 0
-58 -190 -256 4722 0
-4723 59 0
-4723 191 0
-4723 257 0
-59 -191 -257 4723 0
-4724 60 0
-4724 192 0
-4724 258 0
-60 -192 -258 4724 0
-4725 61 0
-4725 193 0
-4725 259 0
-61 -193 -259 4725 0
-4726 62 0
-4726 194 0
-4726 260 0
-62 -194 -260 4726 0
-4727 63 0
-4727 195 0
-4727 261 0
-63 -195 -261 4727 0
-4728 64 0
-4728 196 0
-4728 262 0
-64 -196 -262 4728 0
-4729 65 0
-4729 197 0
-4729 263 0
-65 -197 -263 4729 0
-4730 66 0
-4730 198 0
-4730 264 0
-66 -198 -264 4730 0
-4709 6777 0
-4710 6777 0
-4711 6777 0
-4712 6777 0
-4713 6777 0
-4714 6777 0
-4715 6777 0
-4716 6777 0
-4717 6777 0
-4718 6777 0
-4719 6777 0
-4720 6777 0
-4721 6777 0
-4722 6777 0
-4723 6777 0
-4724 6777 0
-4725 6777 0
-4726 6777 0
-4727 6777 0
-4728 6777 0
-4729 6777 0
-4730 6777 0
-6777 4709 4710 4711 4712 4713 4714 4715 4716 4717 4718 4719 4720 4721 4722 4723 4724 4725 4726 4727 4728 4729 4730 0
-4731 45 0
-4731 199 0
-4731 221 0
-45 -199 -221 4731 0
-4732 46 0
-4732 200 0
-4732 222 0
-46 -200 -222 4732 0
-4733 47 0
-4733 201 0
-4733 223 0
-47 -201 -223 4733 0
-4734 48 0
-4734 202 0
-4734 224 0
-48 -202 -224 4734 0
-4735 49 0
-4735 203 0
-4735 225 0
-49 -203 -225 4735 0
-4736 50 0
-4736 204 0
-4736 226 0
-50 -204 -226 4736 0
-4737 51 0
-4737 205 0
-4737 227 0
-51 -205 -227 4737 0
-4738 52 0
-4738 206 0
-4738 228 0
-52 -206 -228 4738 0
-4739 53 0
-4739 207 0
-4739 229 0
-53 -207 -229 4739 0
-4740 54 0
-4740 208 0
-4740 230 0
-54 -208 -230 4740 0
-4741 55 0
-4741 209 0
-4741 231 0
-55 -209 -231 4741 0
-4742 56 0
-4742 210 0
-4742 232 0
-56 -210 -232 4742 0
-4743 57 0
-4743 211 0
-4743 233 0
-57 -211 -233 4743 0
-4744 58 0
-4744 212 0
-4744 234 0
-58 -212 -234 4744 0
-4745 59 0
-4745 213 0
-4745 235 0
-59 -213 -235 4745 0
-4746 60 0
-4746 214 0
-4746 236 0
-60 -214 -236 4746 0
-4747 61 0
-4747 215 0
-4747 237 0
-61 -215 -237 4747 0
-4748 62 0
-4748 216 0
-4748 238 0
-62 -216 -238 4748 0
-4749 63 0
-4749 217 0
-4749 239 0
-63 -217 -239 4749 0
-4750 64 0
-4750 218 0
-4750 240 0
-64 -218 -240 4750 0
-4751 65 0
-4751 219 0
-4751 241 0
-65 -219 -241 4751 0
-4752 66 0
-4752 220 0
-4752 242 0
-66 -220 -242 4752 0
-4731 6778 0
-4732 6778 0
-4733 6778 0
-4734 6778 0
-4735 6778 0
-4736 6778 0
-4737 6778 0
-4738 6778 0
-4739 6778 0
-4740 6778 0
-4741 6778 0
-4742 6778 0
-4743 6778 0
-4744 6778 0
-4745 6778 0
-4746 6778 0
-4747 6778 0
-4748 6778 0
-4749 6778 0
-4750 6778 0
-4751 6778 0
-4752 6778 0
-6778 4731 4732 4733 4734 4735 4736 4737 4738 4739 4740 4741 4742 4743 4744 4745 4746 4747 4748 4749 4750 4751 4752 0
-4753 45 0
-4753 199 0
-4753 243 0
-45 -199 -243 4753 0
-4754 46 0
-4754 200 0
-4754 244 0
-46 -200 -244 4754 0
-4755 47 0
-4755 201 0
-4755 245 0
-47 -201 -245 4755 0
-4756 48 0
-4756 202 0
-4756 246 0
-48 -202 -246 4756 0
-4757 49 0
-4757 203 0
-4757 247 0
-49 -203 -247 4757 0
-4758 50 0
-4758 204 0
-4758 248 0
-50 -204 -248 4758 0
-4759 51 0
-4759 205 0
-4759 249 0
-51 -205 -249 4759 0
-4760 52 0
-4760 206 0
-4760 250 0
-52 -206 -250 4760 0
-4761 53 0
-4761 207 0
-4761 251 0
-53 -207 -251 4761 0
-4762 54 0
-4762 208 0
-4762 252 0
-54 -208 -252 4762 0
-4763 55 0
-4763 209 0
-4763 253 0
-55 -209 -253 4763 0
-4764 56 0
-4764 210 0
-4764 254 0
-56 -210 -254 4764 0
-4765 57 0
-4765 211 0
-4765 255 0
-57 -211 -255 4765 0
-4766 58 0
-4766 212 0
-4766 256 0
-58 -212 -256 4766 0
-4767 59 0
-4767 213 0
-4767 257 0
-59 -213 -257 4767 0
-4768 60 0
-4768 214 0
-4768 258 0
-60 -214 -258 4768 0
-4769 61 0
-4769 215 0
-4769 259 0
-61 -215 -259 4769 0
-4770 62 0
-4770 216 0
-4770 260 0
-62 -216 -260 4770 0
-4771 63 0
-4771 217 0
-4771 261 0
-63 -217 -261 4771 0
-4772 64 0
-4772 218 0
-4772 262 0
-64 -218 -262 4772 0
-4773 65 0
-4773 219 0
-4773 263 0
-65 -219 -263 4773 0
-4774 66 0
-4774 220 0
-4774 264 0
-66 -220 -264 4774 0
-4753 6779 0
-4754 6779 0
-4755 6779 0
-4756 6779 0
-4757 6779 0
-4758 6779 0
-4759 6779 0
-4760 6779 0
-4761 6779 0
-4762 6779 0
-4763 6779 0
-4764 6779 0
-4765 6779 0
-4766 6779 0
-4767 6779 0
-4768 6779 0
-4769 6779 0
-4770 6779 0
-4771 6779 0
-4772 6779 0
-4773 6779 0
-4774 6779 0
-6779 4753 4754 4755 4756 4757 4758 4759 4760 4761 4762 4763 4764 4765 4766 4767 4768 4769 4770 4771 4772 4773 4774 0
-4775 45 0
-4775 221 0
-4775 243 0
-45 -221 -243 4775 0
-4776 46 0
-4776 222 0
-4776 244 0
-46 -222 -244 4776 0
-4777 47 0
-4777 223 0
-4777 245 0
-47 -223 -245 4777 0
-4778 48 0
-4778 224 0
-4778 246 0
-48 -224 -246 4778 0
-4779 49 0
-4779 225 0
-4779 247 0
-49 -225 -247 4779 0
-4780 50 0
-4780 226 0
-4780 248 0
-50 -226 -248 4780 0
-4781 51 0
-4781 227 0
-4781 249 0
-51 -227 -249 4781 0
-4782 52 0
-4782 228 0
-4782 250 0
-52 -228 -250 4782 0
-4783 53 0
-4783 229 0
-4783 251 0
-53 -229 -251 4783 0
-4784 54 0
-4784 230 0
-4784 252 0
-54 -230 -252 4784 0
-4785 55 0
-4785 231 0
-4785 253 0
-55 -231 -253 4785 0
-4786 56 0
-4786 232 0
-4786 254 0
-56 -232 -254 4786 0
-4787 57 0
-4787 233 0
-4787 255 0
-57 -233 -255 4787 0
-4788 58 0
-4788 234 0
-4788 256 0
-58 -234 -256 4788 0
-4789 59 0
-4789 235 0
-4789 257 0
-59 -235 -257 4789 0
-4790 60 0
-4790 236 0
-4790 258 0
-60 -236 -258 4790 0
-4791 61 0
-4791 237 0
-4791 259 0
-61 -237 -259 4791 0
-4792 62 0
-4792 238 0
-4792 260 0
-62 -238 -260 4792 0
-4793 63 0
-4793 239 0
-4793 261 0
-63 -239 -261 4793 0
-4794 64 0
-4794 240 0
-4794 262 0
-64 -240 -262 4794 0
-4795 65 0
-4795 241 0
-4795 263 0
-65 -241 -263 4795 0
-4796 66 0
-4796 242 0
-4796 264 0
-66 -242 -264 4796 0
-4775 6780 0
-4776 6780 0
-4777 6780 0
-4778 6780 0
-4779 6780 0
-4780 6780 0
-4781 6780 0
-4782 6780 0
-4783 6780 0
-4784 6780 0
-4785 6780 0
-4786 6780 0
-4787 6780 0
-4788 6780 0
-4789 6780 0
-4790 6780 0
-4791 6780 0
-4792 6780 0
-4793 6780 0
-4794 6780 0
-4795 6780 0
-4796 6780 0
-6780 4775 4776 4777 4778 4779 4780 4781 4782 4783 4784 4785 4786 4787 4788 4789 4790 4791 4792 4793 4794 4795 4796 0
-4797 67 0
-4797 89 0
-4797 111 0
-67 -89 -111 4797 0
-4798 68 0
-4798 90 0
-4798 112 0
-68 -90 -112 4798 0
-4799 69 0
-4799 91 0
-4799 113 0
-69 -91 -113 4799 0
-4800 70 0
-4800 92 0
-4800 114 0
-70 -92 -114 4800 0
-4801 71 0
-4801 93 0
-4801 115 0
-71 -93 -115 4801 0
-4802 72 0
-4802 94 0
-4802 116 0
-72 -94 -116 4802 0
-4803 73 0
-4803 95 0
-4803 117 0
-73 -95 -117 4803 0
-4804 74 0
-4804 96 0
-4804 118 0
-74 -96 -118 4804 0
-4805 75 0
-4805 97 0
-4805 119 0
-75 -97 -119 4805 0
-4806 76 0
-4806 98 0
-4806 120 0
-76 -98 -120 4806 0
-4807 77 0
-4807 99 0
-4807 121 0
-77 -99 -121 4807 0
-4808 78 0
-4808 100 0
-4808 122 0
-78 -100 -122 4808 0
-4809 79 0
-4809 101 0
-4809 123 0
-79 -101 -123 4809 0
-4810 80 0
-4810 102 0
-4810 124 0
-80 -102 -124 4810 0
-4811 81 0
-4811 103 0
-4811 125 0
-81 -103 -125 4811 0
-4812 82 0
-4812 104 0
-4812 126 0
-82 -104 -126 4812 0
-4813 83 0
-4813 105 0
-4813 127 0
-83 -105 -127 4813 0
-4814 84 0
-4814 106 0
-4814 128 0
-84 -106 -128 4814 0
-4815 85 0
-4815 107 0
-4815 129 0
-85 -107 -129 4815 0
-4816 86 0
-4816 108 0
-4816 130 0
-86 -108 -130 4816 0
-4817 87 0
-4817 109 0
-4817 131 0
-87 -109 -131 4817 0
-4818 88 0
-4818 110 0
-4818 132 0
-88 -110 -132 4818 0
-4797 6781 0
-4798 6781 0
-4799 6781 0
-4800 6781 0
-4801 6781 0
-4802 6781 0
-4803 6781 0
-4804 6781 0
-4805 6781 0
-4806 6781 0
-4807 6781 0
-4808 6781 0
-4809 6781 0
-4810 6781 0
-4811 6781 0
-4812 6781 0
-4813 6781 0
-4814 6781 0
-4815 6781 0
-4816 6781 0
-4817 6781 0
-4818 6781 0
-6781 4797 4798 4799 4800 4801 4802 4803 4804 4805 4806 4807 4808 4809 4810 4811 4812 4813 4814 4815 4816 4817 4818 0
-4819 67 0
-4819 89 0
-4819 133 0
-67 -89 -133 4819 0
-4820 68 0
-4820 90 0
-4820 134 0
-68 -90 -134 4820 0
-4821 69 0
-4821 91 0
-4821 135 0
-69 -91 -135 4821 0
-4822 70 0
-4822 92 0
-4822 136 0
-70 -92 -136 4822 0
-4823 71 0
-4823 93 0
-4823 137 0
-71 -93 -137 4823 0
-4824 72 0
-4824 94 0
-4824 138 0
-72 -94 -138 4824 0
-4825 73 0
-4825 95 0
-4825 139 0
-73 -95 -139 4825 0
-4826 74 0
-4826 96 0
-4826 140 0
-74 -96 -140 4826 0
-4827 75 0
-4827 97 0
-4827 141 0
-75 -97 -141 4827 0
-4828 76 0
-4828 98 0
-4828 142 0
-76 -98 -142 4828 0
-4829 77 0
-4829 99 0
-4829 143 0
-77 -99 -143 4829 0
-4830 78 0
-4830 100 0
-4830 144 0
-78 -100 -144 4830 0
-4831 79 0
-4831 101 0
-4831 145 0
-79 -101 -145 4831 0
-4832 80 0
-4832 102 0
-4832 146 0
-80 -102 -146 4832 0
-4833 81 0
-4833 103 0
-4833 147 0
-81 -103 -147 4833 0
-4834 82 0
-4834 104 0
-4834 148 0
-82 -104 -148 4834 0
-4835 83 0
-4835 105 0
-4835 149 0
-83 -105 -149 4835 0
-4836 84 0
-4836 106 0
-4836 150 0
-84 -106 -150 4836 0
-4837 85 0
-4837 107 0
-4837 151 0
-85 -107 -151 4837 0
-4838 86 0
-4838 108 0
-4838 152 0
-86 -108 -152 4838 0
-4839 87 0
-4839 109 0
-4839 153 0
-87 -109 -153 4839 0
-4840 88 0
-4840 110 0
-4840 154 0
-88 -110 -154 4840 0
-4819 6782 0
-4820 6782 0
-4821 6782 0
-4822 6782 0
-4823 6782 0
-4824 6782 0
-4825 6782 0
-4826 6782 0
-4827 6782 0
-4828 6782 0
-4829 6782 0
-4830 6782 0
-4831 6782 0
-4832 6782 0
-4833 6782 0
-4834 6782 0
-4835 6782 0
-4836 6782 0
-4837 6782 0
-4838 6782 0
-4839 6782 0
-4840 6782 0
-6782 4819 4820 4821 4822 4823 4824 4825 4826 4827 4828 4829 4830 4831 4832 4833 4834 4835 4836 4837 4838 4839 4840 0
-4841 67 0
-4841 89 0
-4841 155 0
-67 -89 -155 4841 0
-4842 68 0
-4842 90 0
-4842 156 0
-68 -90 -156 4842 0
-4843 69 0
-4843 91 0
-4843 157 0
-69 -91 -157 4843 0
-4844 70 0
-4844 92 0
-4844 158 0
-70 -92 -158 4844 0
-4845 71 0
-4845 93 0
-4845 159 0
-71 -93 -159 4845 0
-4846 72 0
-4846 94 0
-4846 160 0
-72 -94 -160 4846 0
-4847 73 0
-4847 95 0
-4847 161 0
-73 -95 -161 4847 0
-4848 74 0
-4848 96 0
-4848 162 0
-74 -96 -162 4848 0
-4849 75 0
-4849 97 0
-4849 163 0
-75 -97 -163 4849 0
-4850 76 0
-4850 98 0
-4850 164 0
-76 -98 -164 4850 0
-4851 77 0
-4851 99 0
-4851 165 0
-77 -99 -165 4851 0
-4852 78 0
-4852 100 0
-4852 166 0
-78 -100 -166 4852 0
-4853 79 0
-4853 101 0
-4853 167 0
-79 -101 -167 4853 0
-4854 80 0
-4854 102 0
-4854 168 0
-80 -102 -168 4854 0
-4855 81 0
-4855 103 0
-4855 169 0
-81 -103 -169 4855 0
-4856 82 0
-4856 104 0
-4856 170 0
-82 -104 -170 4856 0
-4857 83 0
-4857 105 0
-4857 171 0
-83 -105 -171 4857 0
-4858 84 0
-4858 106 0
-4858 172 0
-84 -106 -172 4858 0
-4859 85 0
-4859 107 0
-4859 173 0
-85 -107 -173 4859 0
-4860 86 0
-4860 108 0
-4860 174 0
-86 -108 -174 4860 0
-4861 87 0
-4861 109 0
-4861 175 0
-87 -109 -175 4861 0
-4862 88 0
-4862 110 0
-4862 176 0
-88 -110 -176 4862 0
-4841 6783 0
-4842 6783 0
-4843 6783 0
-4844 6783 0
-4845 6783 0
-4846 6783 0
-4847 6783 0
-4848 6783 0
-4849 6783 0
-4850 6783 0
-4851 6783 0
-4852 6783 0
-4853 6783 0
-4854 6783 0
-4855 6783 0
-4856 6783 0
-4857 6783 0
-4858 6783 0
-4859 6783 0
-4860 6783 0
-4861 6783 0
-4862 6783 0
-6783 4841 4842 4843 4844 4845 4846 4847 4848 4849 4850 4851 4852 4853 4854 4855 4856 4857 4858 4859 4860 4861 4862 0
-4863 67 0
-4863 89 0
-4863 177 0
-67 -89 -177 4863 0
-4864 68 0
-4864 90 0
-4864 178 0
-68 -90 -178 4864 0
-4865 69 0
-4865 91 0
-4865 179 0
-69 -91 -179 4865 0
-4866 70 0
-4866 92 0
-4866 180 0
-70 -92 -180 4866 0
-4867 71 0
-4867 93 0
-4867 181 0
-71 -93 -181 4867 0
-4868 72 0
-4868 94 0
-4868 182 0
-72 -94 -182 4868 0
-4869 73 0
-4869 95 0
-4869 183 0
-73 -95 -183 4869 0
-4870 74 0
-4870 96 0
-4870 184 0
-74 -96 -184 4870 0
-4871 75 0
-4871 97 0
-4871 185 0
-75 -97 -185 4871 0
-4872 76 0
-4872 98 0
-4872 186 0
-76 -98 -186 4872 0
-4873 77 0
-4873 99 0
-4873 187 0
-77 -99 -187 4873 0
-4874 78 0
-4874 100 0
-4874 188 0
-78 -100 -188 4874 0
-4875 79 0
-4875 101 0
-4875 189 0
-79 -101 -189 4875 0
-4876 80 0
-4876 102 0
-4876 190 0
-80 -102 -190 4876 0
-4877 81 0
-4877 103 0
-4877 191 0
-81 -103 -191 4877 0
-4878 82 0
-4878 104 0
-4878 192 0
-82 -104 -192 4878 0
-4879 83 0
-4879 105 0
-4879 193 0
-83 -105 -193 4879 0
-4880 84 0
-4880 106 0
-4880 194 0
-84 -106 -194 4880 0
-4881 85 0
-4881 107 0
-4881 195 0
-85 -107 -195 4881 0
-4882 86 0
-4882 108 0
-4882 196 0
-86 -108 -196 4882 0
-4883 87 0
-4883 109 0
-4883 197 0
-87 -109 -197 4883 0
-4884 88 0
-4884 110 0
-4884 198 0
-88 -110 -198 4884 0
-4863 6784 0
-4864 6784 0
-4865 6784 0
-4866 6784 0
-4867 6784 0
-4868 6784 0
-4869 6784 0
-4870 6784 0
-4871 6784 0
-4872 6784 0
-4873 6784 0
-4874 6784 0
-4875 6784 0
-4876 6784 0
-4877 6784 0
-4878 6784 0
-4879 6784 0
-4880 6784 0
-4881 6784 0
-4882 6784 0
-4883 6784 0
-4884 6784 0
-6784 4863 4864 4865 4866 4867 4868 4869 4870 4871 4872 4873 4874 4875 4876 4877 4878 4879 4880 4881 4882 4883 4884 0
-4885 67 0
-4885 89 0
-4885 199 0
-67 -89 -199 4885 0
-4886 68 0
-4886 90 0
-4886 200 0
-68 -90 -200 4886 0
-4887 69 0
-4887 91 0
-4887 201 0
-69 -91 -201 4887 0
-4888 70 0
-4888 92 0
-4888 202 0
-70 -92 -202 4888 0
-4889 71 0
-4889 93 0
-4889 203 0
-71 -93 -203 4889 0
-4890 72 0
-4890 94 0
-4890 204 0
-72 -94 -204 4890 0
-4891 73 0
-4891 95 0
-4891 205 0
-73 -95 -205 4891 0
-4892 74 0
-4892 96 0
-4892 206 0
-74 -96 -206 4892 0
-4893 75 0
-4893 97 0
-4893 207 0
-75 -97 -207 4893 0
-4894 76 0
-4894 98 0
-4894 208 0
-76 -98 -208 4894 0
-4895 77 0
-4895 99 0
-4895 209 0
-77 -99 -209 4895 0
-4896 78 0
-4896 100 0
-4896 210 0
-78 -100 -210 4896 0
-4897 79 0
-4897 101 0
-4897 211 0
-79 -101 -211 4897 0
-4898 80 0
-4898 102 0
-4898 212 0
-80 -102 -212 4898 0
-4899 81 0
-4899 103 0
-4899 213 0
-81 -103 -213 4899 0
-4900 82 0
-4900 104 0
-4900 214 0
-82 -104 -214 4900 0
-4901 83 0
-4901 105 0
-4901 215 0
-83 -105 -215 4901 0
-4902 84 0
-4902 106 0
-4902 216 0
-84 -106 -216 4902 0
-4903 85 0
-4903 107 0
-4903 217 0
-85 -107 -217 4903 0
-4904 86 0
-4904 108 0
-4904 218 0
-86 -108 -218 4904 0
-4905 87 0
-4905 109 0
-4905 219 0
-87 -109 -219 4905 0
-4906 88 0
-4906 110 0
-4906 220 0
-88 -110 -220 4906 0
-4885 6785 0
-4886 6785 0
-4887 6785 0
-4888 6785 0
-4889 6785 0
-4890 6785 0
-4891 6785 0
-4892 6785 0
-4893 6785 0
-4894 6785 0
-4895 6785 0
-4896 6785 0
-4897 6785 0
-4898 6785 0
-4899 6785 0
-4900 6785 0
-4901 6785 0
-4902 6785 0
-4903 6785 0
-4904 6785 0
-4905 6785 0
-4906 6785 0
-6785 4885 4886 4887 4888 4889 4890 4891 4892 4893 4894 4895 4896 4897 4898 4899 4900 4901 4902 4903 4904 4905 4906 0
-4907 67 0
-4907 89 0
-4907 221 0
-67 -89 -221 4907 0
-4908 68 0
-4908 90 0
-4908 222 0
-68 -90 -222 4908 0
-4909 69 0
-4909 91 0
-4909 223 0
-69 -91 -223 4909 0
-4910 70 0
-4910 92 0
-4910 224 0
-70 -92 -224 4910 0
-4911 71 0
-4911 93 0
-4911 225 0
-71 -93 -225 4911 0
-4912 72 0
-4912 94 0
-4912 226 0
-72 -94 -226 4912 0
-4913 73 0
-4913 95 0
-4913 227 0
-73 -95 -227 4913 0
-4914 74 0
-4914 96 0
-4914 228 0
-74 -96 -228 4914 0
-4915 75 0
-4915 97 0
-4915 229 0
-75 -97 -229 4915 0
-4916 76 0
-4916 98 0
-4916 230 0
-76 -98 -230 4916 0
-4917 77 0
-4917 99 0
-4917 231 0
-77 -99 -231 4917 0
-4918 78 0
-4918 100 0
-4918 232 0
-78 -100 -232 4918 0
-4919 79 0
-4919 101 0
-4919 233 0
-79 -101 -233 4919 0
-4920 80 0
-4920 102 0
-4920 234 0
-80 -102 -234 4920 0
-4921 81 0
-4921 103 0
-4921 235 0
-81 -103 -235 4921 0
-4922 82 0
-4922 104 0
-4922 236 0
-82 -104 -236 4922 0
-4923 83 0
-4923 105 0
-4923 237 0
-83 -105 -237 4923 0
-4924 84 0
-4924 106 0
-4924 238 0
-84 -106 -238 4924 0
-4925 85 0
-4925 107 0
-4925 239 0
-85 -107 -239 4925 0
-4926 86 0
-4926 108 0
-4926 240 0
-86 -108 -240 4926 0
-4927 87 0
-4927 109 0
-4927 241 0
-87 -109 -241 4927 0
-4928 88 0
-4928 110 0
-4928 242 0
-88 -110 -242 4928 0
-4907 6786 0
-4908 6786 0
-4909 6786 0
-4910 6786 0
-4911 6786 0
-4912 6786 0
-4913 6786 0
-4914 6786 0
-4915 6786 0
-4916 6786 0
-4917 6786 0
-4918 6786 0
-4919 6786 0
-4920 6786 0
-4921 6786 0
-4922 6786 0
-4923 6786 0
-4924 6786 0
-4925 6786 0
-4926 6786 0
-4927 6786 0
-4928 6786 0
-6786 4907 4908 4909 4910 4911 4912 4913 4914 4915 4916 4917 4918 4919 4920 4921 4922 4923 4924 4925 4926 4927 4928 0
-4929 67 0
-4929 89 0
-4929 243 0
-67 -89 -243 4929 0
-4930 68 0
-4930 90 0
-4930 244 0
-68 -90 -244 4930 0
-4931 69 0
-4931 91 0
-4931 245 0
-69 -91 -245 4931 0
-4932 70 0
-4932 92 0
-4932 246 0
-70 -92 -246 4932 0
-4933 71 0
-4933 93 0
-4933 247 0
-71 -93 -247 4933 0
-4934 72 0
-4934 94 0
-4934 248 0
-72 -94 -248 4934 0
-4935 73 0
-4935 95 0
-4935 249 0
-73 -95 -249 4935 0
-4936 74 0
-4936 96 0
-4936 250 0
-74 -96 -250 4936 0
-4937 75 0
-4937 97 0
-4937 251 0
-75 -97 -251 4937 0
-4938 76 0
-4938 98 0
-4938 252 0
-76 -98 -252 4938 0
-4939 77 0
-4939 99 0
-4939 253 0
-77 -99 -253 4939 0
-4940 78 0
-4940 100 0
-4940 254 0
-78 -100 -254 4940 0
-4941 79 0
-4941 101 0
-4941 255 0
-79 -101 -255 4941 0
-4942 80 0
-4942 102 0
-4942 256 0
-80 -102 -256 4942 0
-4943 81 0
-4943 103 0
-4943 257 0
-81 -103 -257 4943 0
-4944 82 0
-4944 104 0
-4944 258 0
-82 -104 -258 4944 0
-4945 83 0
-4945 105 0
-4945 259 0
-83 -105 -259 4945 0
-4946 84 0
-4946 106 0
-4946 260 0
-84 -106 -260 4946 0
-4947 85 0
-4947 107 0
-4947 261 0
-85 -107 -261 4947 0
-4948 86 0
-4948 108 0
-4948 262 0
-86 -108 -262 4948 0
-4949 87 0
-4949 109 0
-4949 263 0
-87 -109 -263 4949 0
-4950 88 0
-4950 110 0
-4950 264 0
-88 -110 -264 4950 0
-4929 6787 0
-4930 6787 0
-4931 6787 0
-4932 6787 0
-4933 6787 0
-4934 6787 0
-4935 6787 0
-4936 6787 0
-4937 6787 0
-4938 6787 0
-4939 6787 0
-4940 6787 0
-4941 6787 0
-4942 6787 0
-4943 6787 0
-4944 6787 0
-4945 6787 0
-4946 6787 0
-4947 6787 0
-4948 6787 0
-4949 6787 0
-4950 6787 0
-6787 4929 4930 4931 4932 4933 4934 4935 4936 4937 4938 4939 4940 4941 4942 4943 4944 4945 4946 4947 4948 4949 4950 0
-4951 67 0
-4951 111 0
-4951 133 0
-67 -111 -133 4951 0
-4952 68 0
-4952 112 0
-4952 134 0
-68 -112 -134 4952 0
-4953 69 0
-4953 113 0
-4953 135 0
-69 -113 -135 4953 0
-4954 70 0
-4954 114 0
-4954 136 0
-70 -114 -136 4954 0
-4955 71 0
-4955 115 0
-4955 137 0
-71 -115 -137 4955 0
-4956 72 0
-4956 116 0
-4956 138 0
-72 -116 -138 4956 0
-4957 73 0
-4957 117 0
-4957 139 0
-73 -117 -139 4957 0
-4958 74 0
-4958 118 0
-4958 140 0
-74 -118 -140 4958 0
-4959 75 0
-4959 119 0
-4959 141 0
-75 -119 -141 4959 0
-4960 76 0
-4960 120 0
-4960 142 0
-76 -120 -142 4960 0
-4961 77 0
-4961 121 0
-4961 143 0
-77 -121 -143 4961 0
-4962 78 0
-4962 122 0
-4962 144 0
-78 -122 -144 4962 0
-4963 79 0
-4963 123 0
-4963 145 0
-79 -123 -145 4963 0
-4964 80 0
-4964 124 0
-4964 146 0
-80 -124 -146 4964 0
-4965 81 0
-4965 125 0
-4965 147 0
-81 -125 -147 4965 0
-4966 82 0
-4966 126 0
-4966 148 0
-82 -126 -148 4966 0
-4967 83 0
-4967 127 0
-4967 149 0
-83 -127 -149 4967 0
-4968 84 0
-4968 128 0
-4968 150 0
-84 -128 -150 4968 0
-4969 85 0
-4969 129 0
-4969 151 0
-85 -129 -151 4969 0
-4970 86 0
-4970 130 0
-4970 152 0
-86 -130 -152 4970 0
-4971 87 0
-4971 131 0
-4971 153 0
-87 -131 -153 4971 0
-4972 88 0
-4972 132 0
-4972 154 0
-88 -132 -154 4972 0
-4951 6788 0
-4952 6788 0
-4953 6788 0
-4954 6788 0
-4955 6788 0
-4956 6788 0
-4957 6788 0
-4958 6788 0
-4959 6788 0
-4960 6788 0
-4961 6788 0
-4962 6788 0
-4963 6788 0
-4964 6788 0
-4965 6788 0
-4966 6788 0
-4967 6788 0
-4968 6788 0
-4969 6788 0
-4970 6788 0
-4971 6788 0
-4972 6788 0
-6788 4951 4952 4953 4954 4955 4956 4957 4958 4959 4960 4961 4962 4963 4964 4965 4966 4967 4968 4969 4970 4971 4972 0
-4973 67 0
-4973 111 0
-4973 155 0
-67 -111 -155 4973 0
-4974 68 0
-4974 112 0
-4974 156 0
-68 -112 -156 4974 0
-4975 69 0
-4975 113 0
-4975 157 0
-69 -113 -157 4975 0
-4976 70 0
-4976 114 0
-4976 158 0
-70 -114 -158 4976 0
-4977 71 0
-4977 115 0
-4977 159 0
-71 -115 -159 4977 0
-4978 72 0
-4978 116 0
-4978 160 0
-72 -116 -160 4978 0
-4979 73 0
-4979 117 0
-4979 161 0
-73 -117 -161 4979 0
-4980 74 0
-4980 118 0
-4980 162 0
-74 -118 -162 4980 0
-4981 75 0
-4981 119 0
-4981 163 0
-75 -119 -163 4981 0
-4982 76 0
-4982 120 0
-4982 164 0
-76 -120 -164 4982 0
-4983 77 0
-4983 121 0
-4983 165 0
-77 -121 -165 4983 0
-4984 78 0
-4984 122 0
-4984 166 0
-78 -122 -166 4984 0
-4985 79 0
-4985 123 0
-4985 167 0
-79 -123 -167 4985 0
-4986 80 0
-4986 124 0
-4986 168 0
-80 -124 -168 4986 0
-4987 81 0
-4987 125 0
-4987 169 0
-81 -125 -169 4987 0
-4988 82 0
-4988 126 0
-4988 170 0
-82 -126 -170 4988 0
-4989 83 0
-4989 127 0
-4989 171 0
-83 -127 -171 4989 0
-4990 84 0
-4990 128 0
-4990 172 0
-84 -128 -172 4990 0
-4991 85 0
-4991 129 0
-4991 173 0
-85 -129 -173 4991 0
-4992 86 0
-4992 130 0
-4992 174 0
-86 -130 -174 4992 0
-4993 87 0
-4993 131 0
-4993 175 0
-87 -131 -175 4993 0
-4994 88 0
-4994 132 0
-4994 176 0
-88 -132 -176 4994 0
-4973 6789 0
-4974 6789 0
-4975 6789 0
-4976 6789 0
-4977 6789 0
-4978 6789 0
-4979 6789 0
-4980 6789 0
-4981 6789 0
-4982 6789 0
-4983 6789 0
-4984 6789 0
-4985 6789 0
-4986 6789 0
-4987 6789 0
-4988 6789 0
-4989 6789 0
-4990 6789 0
-4991 6789 0
-4992 6789 0
-4993 6789 0
-4994 6789 0
-6789 4973 4974 4975 4976 4977 4978 4979 4980 4981 4982 4983 4984 4985 4986 4987 4988 4989 4990 4991 4992 4993 4994 0
-4995 67 0
-4995 111 0
-4995 177 0
-67 -111 -177 4995 0
-4996 68 0
-4996 112 0
-4996 178 0
-68 -112 -178 4996 0
-4997 69 0
-4997 113 0
-4997 179 0
-69 -113 -179 4997 0
-4998 70 0
-4998 114 0
-4998 180 0
-70 -114 -180 4998 0
-4999 71 0
-4999 115 0
-4999 181 0
-71 -115 -181 4999 0
-5000 72 0
-5000 116 0
-5000 182 0
-72 -116 -182 5000 0
-5001 73 0
-5001 117 0
-5001 183 0
-73 -117 -183 5001 0
-5002 74 0
-5002 118 0
-5002 184 0
-74 -118 -184 5002 0
-5003 75 0
-5003 119 0
-5003 185 0
-75 -119 -185 5003 0
-5004 76 0
-5004 120 0
-5004 186 0
-76 -120 -186 5004 0
-5005 77 0
-5005 121 0
-5005 187 0
-77 -121 -187 5005 0
-5006 78 0
-5006 122 0
-5006 188 0
-78 -122 -188 5006 0
-5007 79 0
-5007 123 0
-5007 189 0
-79 -123 -189 5007 0
-5008 80 0
-5008 124 0
-5008 190 0
-80 -124 -190 5008 0
-5009 81 0
-5009 125 0
-5009 191 0
-81 -125 -191 5009 0
-5010 82 0
-5010 126 0
-5010 192 0
-82 -126 -192 5010 0
-5011 83 0
-5011 127 0
-5011 193 0
-83 -127 -193 5011 0
-5012 84 0
-5012 128 0
-5012 194 0
-84 -128 -194 5012 0
-5013 85 0
-5013 129 0
-5013 195 0
-85 -129 -195 5013 0
-5014 86 0
-5014 130 0
-5014 196 0
-86 -130 -196 5014 0
-5015 87 0
-5015 131 0
-5015 197 0
-87 -131 -197 5015 0
-5016 88 0
-5016 132 0
-5016 198 0
-88 -132 -198 5016 0
-4995 6790 0
-4996 6790 0
-4997 6790 0
-4998 6790 0
-4999 6790 0
-5000 6790 0
-5001 6790 0
-5002 6790 0
-5003 6790 0
-5004 6790 0
-5005 6790 0
-5006 6790 0
-5007 6790 0
-5008 6790 0
-5009 6790 0
-5010 6790 0
-5011 6790 0
-5012 6790 0
-5013 6790 0
-5014 6790 0
-5015 6790 0
-5016 6790 0
-6790 4995 4996 4997 4998 4999 5000 5001 5002 5003 5004 5005 5006 5007 5008 5009 5010 5011 5012 5013 5014 5015 5016 0
-5017 67 0
-5017 111 0
-5017 199 0
-67 -111 -199 5017 0
-5018 68 0
-5018 112 0
-5018 200 0
-68 -112 -200 5018 0
-5019 69 0
-5019 113 0
-5019 201 0
-69 -113 -201 5019 0
-5020 70 0
-5020 114 0
-5020 202 0
-70 -114 -202 5020 0
-5021 71 0
-5021 115 0
-5021 203 0
-71 -115 -203 5021 0
-5022 72 0
-5022 116 0
-5022 204 0
-72 -116 -204 5022 0
-5023 73 0
-5023 117 0
-5023 205 0
-73 -117 -205 5023 0
-5024 74 0
-5024 118 0
-5024 206 0
-74 -118 -206 5024 0
-5025 75 0
-5025 119 0
-5025 207 0
-75 -119 -207 5025 0
-5026 76 0
-5026 120 0
-5026 208 0
-76 -120 -208 5026 0
-5027 77 0
-5027 121 0
-5027 209 0
-77 -121 -209 5027 0
-5028 78 0
-5028 122 0
-5028 210 0
-78 -122 -210 5028 0
-5029 79 0
-5029 123 0
-5029 211 0
-79 -123 -211 5029 0
-5030 80 0
-5030 124 0
-5030 212 0
-80 -124 -212 5030 0
-5031 81 0
-5031 125 0
-5031 213 0
-81 -125 -213 5031 0
-5032 82 0
-5032 126 0
-5032 214 0
-82 -126 -214 5032 0
-5033 83 0
-5033 127 0
-5033 215 0
-83 -127 -215 5033 0
-5034 84 0
-5034 128 0
-5034 216 0
-84 -128 -216 5034 0
-5035 85 0
-5035 129 0
-5035 217 0
-85 -129 -217 5035 0
-5036 86 0
-5036 130 0
-5036 218 0
-86 -130 -218 5036 0
-5037 87 0
-5037 131 0
-5037 219 0
-87 -131 -219 5037 0
-5038 88 0
-5038 132 0
-5038 220 0
-88 -132 -220 5038 0
-5017 6791 0
-5018 6791 0
-5019 6791 0
-5020 6791 0
-5021 6791 0
-5022 6791 0
-5023 6791 0
-5024 6791 0
-5025 6791 0
-5026 6791 0
-5027 6791 0
-5028 6791 0
-5029 6791 0
-5030 6791 0
-5031 6791 0
-5032 6791 0
-5033 6791 0
-5034 6791 0
-5035 6791 0
-5036 6791 0
-5037 6791 0
-5038 6791 0
-6791 5017 5018 5019 5020 5021 5022 5023 5024 5025 5026 5027 5028 5029 5030 5031 5032 5033 5034 5035 5036 5037 5038 0
-5039 67 0
-5039 111 0
-5039 221 0
-67 -111 -221 5039 0
-5040 68 0
-5040 112 0
-5040 222 0
-68 -112 -222 5040 0
-5041 69 0
-5041 113 0
-5041 223 0
-69 -113 -223 5041 0
-5042 70 0
-5042 114 0
-5042 224 0
-70 -114 -224 5042 0
-5043 71 0
-5043 115 0
-5043 225 0
-71 -115 -225 5043 0
-5044 72 0
-5044 116 0
-5044 226 0
-72 -116 -226 5044 0
-5045 73 0
-5045 117 0
-5045 227 0
-73 -117 -227 5045 0
-5046 74 0
-5046 118 0
-5046 228 0
-74 -118 -228 5046 0
-5047 75 0
-5047 119 0
-5047 229 0
-75 -119 -229 5047 0
-5048 76 0
-5048 120 0
-5048 230 0
-76 -120 -230 5048 0
-5049 77 0
-5049 121 0
-5049 231 0
-77 -121 -231 5049 0
-5050 78 0
-5050 122 0
-5050 232 0
-78 -122 -232 5050 0
-5051 79 0
-5051 123 0
-5051 233 0
-79 -123 -233 5051 0
-5052 80 0
-5052 124 0
-5052 234 0
-80 -124 -234 5052 0
-5053 81 0
-5053 125 0
-5053 235 0
-81 -125 -235 5053 0
-5054 82 0
-5054 126 0
-5054 236 0
-82 -126 -236 5054 0
-5055 83 0
-5055 127 0
-5055 237 0
-83 -127 -237 5055 0
-5056 84 0
-5056 128 0
-5056 238 0
-84 -128 -238 5056 0
-5057 85 0
-5057 129 0
-5057 239 0
-85 -129 -239 5057 0
-5058 86 0
-5058 130 0
-5058 240 0
-86 -130 -240 5058 0
-5059 87 0
-5059 131 0
-5059 241 0
-87 -131 -241 5059 0
-5060 88 0
-5060 132 0
-5060 242 0
-88 -132 -242 5060 0
-5039 6792 0
-5040 6792 0
-5041 6792 0
-5042 6792 0
-5043 6792 0
-5044 6792 0
-5045 6792 0
-5046 6792 0
-5047 6792 0
-5048 6792 0
-5049 6792 0
-5050 6792 0
-5051 6792 0
-5052 6792 0
-5053 6792 0
-5054 6792 0
-5055 6792 0
-5056 6792 0
-5057 6792 0
-5058 6792 0
-5059 6792 0
-5060 6792 0
-6792 5039 5040 5041 5042 5043 5044 5045 5046 5047 5048 5049 5050 5051 5052 5053 5054 5055 5056 5057 5058 5059 5060 0
-5061 67 0
-5061 111 0
-5061 243 0
-67 -111 -243 5061 0
-5062 68 0
-5062 112 0
-5062 244 0
-68 -112 -244 5062 0
-5063 69 0
-5063 113 0
-5063 245 0
-69 -113 -245 5063 0
-5064 70 0
-5064 114 0
-5064 246 0
-70 -114 -246 5064 0
-5065 71 0
-5065 115 0
-5065 247 0
-71 -115 -247 5065 0
-5066 72 0
-5066 116 0
-5066 248 0
-72 -116 -248 5066 0
-5067 73 0
-5067 117 0
-5067 249 0
-73 -117 -249 5067 0
-5068 74 0
-5068 118 0
-5068 250 0
-74 -118 -250 5068 0
-5069 75 0
-5069 119 0
-5069 251 0
-75 -119 -251 5069 0
-5070 76 0
-5070 120 0
-5070 252 0
-76 -120 -252 5070 0
-5071 77 0
-5071 121 0
-5071 253 0
-77 -121 -253 5071 0
-5072 78 0
-5072 122 0
-5072 254 0
-78 -122 -254 5072 0
-5073 79 0
-5073 123 0
-5073 255 0
-79 -123 -255 5073 0
-5074 80 0
-5074 124 0
-5074 256 0
-80 -124 -256 5074 0
-5075 81 0
-5075 125 0
-5075 257 0
-81 -125 -257 5075 0
-5076 82 0
-5076 126 0
-5076 258 0
-82 -126 -258 5076 0
-5077 83 0
-5077 127 0
-5077 259 0
-83 -127 -259 5077 0
-5078 84 0
-5078 128 0
-5078 260 0
-84 -128 -260 5078 0
-5079 85 0
-5079 129 0
-5079 261 0
-85 -129 -261 5079 0
-5080 86 0
-5080 130 0
-5080 262 0
-86 -130 -262 5080 0
-5081 87 0
-5081 131 0
-5081 263 0
-87 -131 -263 5081 0
-5082 88 0
-5082 132 0
-5082 264 0
-88 -132 -264 5082 0
-5061 6793 0
-5062 6793 0
-5063 6793 0
-5064 6793 0
-5065 6793 0
-5066 6793 0
-5067 6793 0
-5068 6793 0
-5069 6793 0
-5070 6793 0
-5071 6793 0
-5072 6793 0
-5073 6793 0
-5074 6793 0
-5075 6793 0
-5076 6793 0
-5077 6793 0
-5078 6793 0
-5079 6793 0
-5080 6793 0
-5081 6793 0
-5082 6793 0
-6793 5061 5062 5063 5064 5065 5066 5067 5068 5069 5070 5071 5072 5073 5074 5075 5076 5077 5078 5079 5080 5081 5082 0
-5083 67 0
-5083 133 0
-5083 155 0
-67 -133 -155 5083 0
-5084 68 0
-5084 134 0
-5084 156 0
-68 -134 -156 5084 0
-5085 69 0
-5085 135 0
-5085 157 0
-69 -135 -157 5085 0
-5086 70 0
-5086 136 0
-5086 158 0
-70 -136 -158 5086 0
-5087 71 0
-5087 137 0
-5087 159 0
-71 -137 -159 5087 0
-5088 72 0
-5088 138 0
-5088 160 0
-72 -138 -160 5088 0
-5089 73 0
-5089 139 0
-5089 161 0
-73 -139 -161 5089 0
-5090 74 0
-5090 140 0
-5090 162 0
-74 -140 -162 5090 0
-5091 75 0
-5091 141 0
-5091 163 0
-75 -141 -163 5091 0
-5092 76 0
-5092 142 0
-5092 164 0
-76 -142 -164 5092 0
-5093 77 0
-5093 143 0
-5093 165 0
-77 -143 -165 5093 0
-5094 78 0
-5094 144 0
-5094 166 0
-78 -144 -166 5094 0
-5095 79 0
-5095 145 0
-5095 167 0
-79 -145 -167 5095 0
-5096 80 0
-5096 146 0
-5096 168 0
-80 -146 -168 5096 0
-5097 81 0
-5097 147 0
-5097 169 0
-81 -147 -169 5097 0
-5098 82 0
-5098 148 0
-5098 170 0
-82 -148 -170 5098 0
-5099 83 0
-5099 149 0
-5099 171 0
-83 -149 -171 5099 0
-5100 84 0
-5100 150 0
-5100 172 0
-84 -150 -172 5100 0
-5101 85 0
-5101 151 0
-5101 173 0
-85 -151 -173 5101 0
-5102 86 0
-5102 152 0
-5102 174 0
-86 -152 -174 5102 0
-5103 87 0
-5103 153 0
-5103 175 0
-87 -153 -175 5103 0
-5104 88 0
-5104 154 0
-5104 176 0
-88 -154 -176 5104 0
-5083 6794 0
-5084 6794 0
-5085 6794 0
-5086 6794 0
-5087 6794 0
-5088 6794 0
-5089 6794 0
-5090 6794 0
-5091 6794 0
-5092 6794 0
-5093 6794 0
-5094 6794 0
-5095 6794 0
-5096 6794 0
-5097 6794 0
-5098 6794 0
-5099 6794 0
-5100 6794 0
-5101 6794 0
-5102 6794 0
-5103 6794 0
-5104 6794 0
-6794 5083 5084 5085 5086 5087 5088 5089 5090 5091 5092 5093 5094 5095 5096 5097 5098 5099 5100 5101 5102 5103 5104 0
-5105 67 0
-5105 133 0
-5105 177 0
-67 -133 -177 5105 0
-5106 68 0
-5106 134 0
-5106 178 0
-68 -134 -178 5106 0
-5107 69 0
-5107 135 0
-5107 179 0
-69 -135 -179 5107 0
-5108 70 0
-5108 136 0
-5108 180 0
-70 -136 -180 5108 0
-5109 71 0
-5109 137 0
-5109 181 0
-71 -137 -181 5109 0
-5110 72 0
-5110 138 0
-5110 182 0
-72 -138 -182 5110 0
-5111 73 0
-5111 139 0
-5111 183 0
-73 -139 -183 5111 0
-5112 74 0
-5112 140 0
-5112 184 0
-74 -140 -184 5112 0
-5113 75 0
-5113 141 0
-5113 185 0
-75 -141 -185 5113 0
-5114 76 0
-5114 142 0
-5114 186 0
-76 -142 -186 5114 0
-5115 77 0
-5115 143 0
-5115 187 0
-77 -143 -187 5115 0
-5116 78 0
-5116 144 0
-5116 188 0
-78 -144 -188 5116 0
-5117 79 0
-5117 145 0
-5117 189 0
-79 -145 -189 5117 0
-5118 80 0
-5118 146 0
-5118 190 0
-80 -146 -190 5118 0
-5119 81 0
-5119 147 0
-5119 191 0
-81 -147 -191 5119 0
-5120 82 0
-5120 148 0
-5120 192 0
-82 -148 -192 5120 0
-5121 83 0
-5121 149 0
-5121 193 0
-83 -149 -193 5121 0
-5122 84 0
-5122 150 0
-5122 194 0
-84 -150 -194 5122 0
-5123 85 0
-5123 151 0
-5123 195 0
-85 -151 -195 5123 0
-5124 86 0
-5124 152 0
-5124 196 0
-86 -152 -196 5124 0
-5125 87 0
-5125 153 0
-5125 197 0
-87 -153 -197 5125 0
-5126 88 0
-5126 154 0
-5126 198 0
-88 -154 -198 5126 0
-5105 6795 0
-5106 6795 0
-5107 6795 0
-5108 6795 0
-5109 6795 0
-5110 6795 0
-5111 6795 0
-5112 6795 0
-5113 6795 0
-5114 6795 0
-5115 6795 0
-5116 6795 0
-5117 6795 0
-5118 6795 0
-5119 6795 0
-5120 6795 0
-5121 6795 0
-5122 6795 0
-5123 6795 0
-5124 6795 0
-5125 6795 0
-5126 6795 0
-6795 5105 5106 5107 5108 5109 5110 5111 5112 5113 5114 5115 5116 5117 5118 5119 5120 5121 5122 5123 5124 5125 5126 0
-5127 67 0
-5127 133 0
-5127 199 0
-67 -133 -199 5127 0
-5128 68 0
-5128 134 0
-5128 200 0
-68 -134 -200 5128 0
-5129 69 0
-5129 135 0
-5129 201 0
-69 -135 -201 5129 0
-5130 70 0
-5130 136 0
-5130 202 0
-70 -136 -202 5130 0
-5131 71 0
-5131 137 0
-5131 203 0
-71 -137 -203 5131 0
-5132 72 0
-5132 138 0
-5132 204 0
-72 -138 -204 5132 0
-5133 73 0
-5133 139 0
-5133 205 0
-73 -139 -205 5133 0
-5134 74 0
-5134 140 0
-5134 206 0
-74 -140 -206 5134 0
-5135 75 0
-5135 141 0
-5135 207 0
-75 -141 -207 5135 0
-5136 76 0
-5136 142 0
-5136 208 0
-76 -142 -208 5136 0
-5137 77 0
-5137 143 0
-5137 209 0
-77 -143 -209 5137 0
-5138 78 0
-5138 144 0
-5138 210 0
-78 -144 -210 5138 0
-5139 79 0
-5139 145 0
-5139 211 0
-79 -145 -211 5139 0
-5140 80 0
-5140 146 0
-5140 212 0
-80 -146 -212 5140 0
-5141 81 0
-5141 147 0
-5141 213 0
-81 -147 -213 5141 0
-5142 82 0
-5142 148 0
-5142 214 0
-82 -148 -214 5142 0
-5143 83 0
-5143 149 0
-5143 215 0
-83 -149 -215 5143 0
-5144 84 0
-5144 150 0
-5144 216 0
-84 -150 -216 5144 0
-5145 85 0
-5145 151 0
-5145 217 0
-85 -151 -217 5145 0
-5146 86 0
-5146 152 0
-5146 218 0
-86 -152 -218 5146 0
-5147 87 0
-5147 153 0
-5147 219 0
-87 -153 -219 5147 0
-5148 88 0
-5148 154 0
-5148 220 0
-88 -154 -220 5148 0
-5127 6796 0
-5128 6796 0
-5129 6796 0
-5130 6796 0
-5131 6796 0
-5132 6796 0
-5133 6796 0
-5134 6796 0
-5135 6796 0
-5136 6796 0
-5137 6796 0
-5138 6796 0
-5139 6796 0
-5140 6796 0
-5141 6796 0
-5142 6796 0
-5143 6796 0
-5144 6796 0
-5145 6796 0
-5146 6796 0
-5147 6796 0
-5148 6796 0
-6796 5127 5128 5129 5130 5131 5132 5133 5134 5135 5136 5137 5138 5139 5140 5141 5142 5143 5144 5145 5146 5147 5148 0
-5149 67 0
-5149 133 0
-5149 221 0
-67 -133 -221 5149 0
-5150 68 0
-5150 134 0
-5150 222 0
-68 -134 -222 5150 0
-5151 69 0
-5151 135 0
-5151 223 0
-69 -135 -223 5151 0
-5152 70 0
-5152 136 0
-5152 224 0
-70 -136 -224 5152 0
-5153 71 0
-5153 137 0
-5153 225 0
-71 -137 -225 5153 0
-5154 72 0
-5154 138 0
-5154 226 0
-72 -138 -226 5154 0
-5155 73 0
-5155 139 0
-5155 227 0
-73 -139 -227 5155 0
-5156 74 0
-5156 140 0
-5156 228 0
-74 -140 -228 5156 0
-5157 75 0
-5157 141 0
-5157 229 0
-75 -141 -229 5157 0
-5158 76 0
-5158 142 0
-5158 230 0
-76 -142 -230 5158 0
-5159 77 0
-5159 143 0
-5159 231 0
-77 -143 -231 5159 0
-5160 78 0
-5160 144 0
-5160 232 0
-78 -144 -232 5160 0
-5161 79 0
-5161 145 0
-5161 233 0
-79 -145 -233 5161 0
-5162 80 0
-5162 146 0
-5162 234 0
-80 -146 -234 5162 0
-5163 81 0
-5163 147 0
-5163 235 0
-81 -147 -235 5163 0
-5164 82 0
-5164 148 0
-5164 236 0
-82 -148 -236 5164 0
-5165 83 0
-5165 149 0
-5165 237 0
-83 -149 -237 5165 0
-5166 84 0
-5166 150 0
-5166 238 0
-84 -150 -238 5166 0
-5167 85 0
-5167 151 0
-5167 239 0
-85 -151 -239 5167 0
-5168 86 0
-5168 152 0
-5168 240 0
-86 -152 -240 5168 0
-5169 87 0
-5169 153 0
-5169 241 0
-87 -153 -241 5169 0
-5170 88 0
-5170 154 0
-5170 242 0
-88 -154 -242 5170 0
-5149 6797 0
-5150 6797 0
-5151 6797 0
-5152 6797 0
-5153 6797 0
-5154 6797 0
-5155 6797 0
-5156 6797 0
-5157 6797 0
-5158 6797 0
-5159 6797 0
-5160 6797 0
-5161 6797 0
-5162 6797 0
-5163 6797 0
-5164 6797 0
-5165 6797 0
-5166 6797 0
-5167 6797 0
-5168 6797 0
-5169 6797 0
-5170 6797 0
-6797 5149 5150 5151 5152 5153 5154 5155 5156 5157 5158 5159 5160 5161 5162 5163 5164 5165 5166 5167 5168 5169 5170 0
-5171 67 0
-5171 133 0
-5171 243 0
-67 -133 -243 5171 0
-5172 68 0
-5172 134 0
-5172 244 0
-68 -134 -244 5172 0
-5173 69 0
-5173 135 0
-5173 245 0
-69 -135 -245 5173 0
-5174 70 0
-5174 136 0
-5174 246 0
-70 -136 -246 5174 0
-5175 71 0
-5175 137 0
-5175 247 0
-71 -137 -247 5175 0
-5176 72 0
-5176 138 0
-5176 248 0
-72 -138 -248 5176 0
-5177 73 0
-5177 139 0
-5177 249 0
-73 -139 -249 5177 0
-5178 74 0
-5178 140 0
-5178 250 0
-74 -140 -250 5178 0
-5179 75 0
-5179 141 0
-5179 251 0
-75 -141 -251 5179 0
-5180 76 0
-5180 142 0
-5180 252 0
-76 -142 -252 5180 0
-5181 77 0
-5181 143 0
-5181 253 0
-77 -143 -253 5181 0
-5182 78 0
-5182 144 0
-5182 254 0
-78 -144 -254 5182 0
-5183 79 0
-5183 145 0
-5183 255 0
-79 -145 -255 5183 0
-5184 80 0
-5184 146 0
-5184 256 0
-80 -146 -256 5184 0
-5185 81 0
-5185 147 0
-5185 257 0
-81 -147 -257 5185 0
-5186 82 0
-5186 148 0
-5186 258 0
-82 -148 -258 5186 0
-5187 83 0
-5187 149 0
-5187 259 0
-83 -149 -259 5187 0
-5188 84 0
-5188 150 0
-5188 260 0
-84 -150 -260 5188 0
-5189 85 0
-5189 151 0
-5189 261 0
-85 -151 -261 5189 0
-5190 86 0
-5190 152 0
-5190 262 0
-86 -152 -262 5190 0
-5191 87 0
-5191 153 0
-5191 263 0
-87 -153 -263 5191 0
-5192 88 0
-5192 154 0
-5192 264 0
-88 -154 -264 5192 0
-5171 6798 0
-5172 6798 0
-5173 6798 0
-5174 6798 0
-5175 6798 0
-5176 6798 0
-5177 6798 0
-5178 6798 0
-5179 6798 0
-5180 6798 0
-5181 6798 0
-5182 6798 0
-5183 6798 0
-5184 6798 0
-5185 6798 0
-5186 6798 0
-5187 6798 0
-5188 6798 0
-5189 6798 0
-5190 6798 0
-5191 6798 0
-5192 6798 0
-6798 5171 5172 5173 5174 5175 5176 5177 5178 5179 5180 5181 5182 5183 5184 5185 5186 5187 5188 5189 5190 5191 5192 0
-5193 67 0
-5193 155 0
-5193 177 0
-67 -155 -177 5193 0
-5194 68 0
-5194 156 0
-5194 178 0
-68 -156 -178 5194 0
-5195 69 0
-5195 157 0
-5195 179 0
-69 -157 -179 5195 0
-5196 70 0
-5196 158 0
-5196 180 0
-70 -158 -180 5196 0
-5197 71 0
-5197 159 0
-5197 181 0
-71 -159 -181 5197 0
-5198 72 0
-5198 160 0
-5198 182 0
-72 -160 -182 5198 0
-5199 73 0
-5199 161 0
-5199 183 0
-73 -161 -183 5199 0
-5200 74 0
-5200 162 0
-5200 184 0
-74 -162 -184 5200 0
-5201 75 0
-5201 163 0
-5201 185 0
-75 -163 -185 5201 0
-5202 76 0
-5202 164 0
-5202 186 0
-76 -164 -186 5202 0
-5203 77 0
-5203 165 0
-5203 187 0
-77 -165 -187 5203 0
-5204 78 0
-5204 166 0
-5204 188 0
-78 -166 -188 5204 0
-5205 79 0
-5205 167 0
-5205 189 0
-79 -167 -189 5205 0
-5206 80 0
-5206 168 0
-5206 190 0
-80 -168 -190 5206 0
-5207 81 0
-5207 169 0
-5207 191 0
-81 -169 -191 5207 0
-5208 82 0
-5208 170 0
-5208 192 0
-82 -170 -192 5208 0
-5209 83 0
-5209 171 0
-5209 193 0
-83 -171 -193 5209 0
-5210 84 0
-5210 172 0
-5210 194 0
-84 -172 -194 5210 0
-5211 85 0
-5211 173 0
-5211 195 0
-85 -173 -195 5211 0
-5212 86 0
-5212 174 0
-5212 196 0
-86 -174 -196 5212 0
-5213 87 0
-5213 175 0
-5213 197 0
-87 -175 -197 5213 0
-5214 88 0
-5214 176 0
-5214 198 0
-88 -176 -198 5214 0
-5193 6799 0
-5194 6799 0
-5195 6799 0
-5196 6799 0
-5197 6799 0
-5198 6799 0
-5199 6799 0
-5200 6799 0
-5201 6799 0
-5202 6799 0
-5203 6799 0
-5204 6799 0
-5205 6799 0
-5206 6799 0
-5207 6799 0
-5208 6799 0
-5209 6799 0
-5210 6799 0
-5211 6799 0
-5212 6799 0
-5213 6799 0
-5214 6799 0
-6799 5193 5194 5195 5196 5197 5198 5199 5200 5201 5202 5203 5204 5205 5206 5207 5208 5209 5210 5211 5212 5213 5214 0
-5215 67 0
-5215 155 0
-5215 199 0
-67 -155 -199 5215 0
-5216 68 0
-5216 156 0
-5216 200 0
-68 -156 -200 5216 0
-5217 69 0
-5217 157 0
-5217 201 0
-69 -157 -201 5217 0
-5218 70 0
-5218 158 0
-5218 202 0
-70 -158 -202 5218 0
-5219 71 0
-5219 159 0
-5219 203 0
-71 -159 -203 5219 0
-5220 72 0
-5220 160 0
-5220 204 0
-72 -160 -204 5220 0
-5221 73 0
-5221 161 0
-5221 205 0
-73 -161 -205 5221 0
-5222 74 0
-5222 162 0
-5222 206 0
-74 -162 -206 5222 0
-5223 75 0
-5223 163 0
-5223 207 0
-75 -163 -207 5223 0
-5224 76 0
-5224 164 0
-5224 208 0
-76 -164 -208 5224 0
-5225 77 0
-5225 165 0
-5225 209 0
-77 -165 -209 5225 0
-5226 78 0
-5226 166 0
-5226 210 0
-78 -166 -210 5226 0
-5227 79 0
-5227 167 0
-5227 211 0
-79 -167 -211 5227 0
-5228 80 0
-5228 168 0
-5228 212 0
-80 -168 -212 5228 0
-5229 81 0
-5229 169 0
-5229 213 0
-81 -169 -213 5229 0
-5230 82 0
-5230 170 0
-5230 214 0
-82 -170 -214 5230 0
-5231 83 0
-5231 171 0
-5231 215 0
-83 -171 -215 5231 0
-5232 84 0
-5232 172 0
-5232 216 0
-84 -172 -216 5232 0
-5233 85 0
-5233 173 0
-5233 217 0
-85 -173 -217 5233 0
-5234 86 0
-5234 174 0
-5234 218 0
-86 -174 -218 5234 0
-5235 87 0
-5235 175 0
-5235 219 0
-87 -175 -219 5235 0
-5236 88 0
-5236 176 0
-5236 220 0
-88 -176 -220 5236 0
-5215 6800 0
-5216 6800 0
-5217 6800 0
-5218 6800 0
-5219 6800 0
-5220 6800 0
-5221 6800 0
-5222 6800 0
-5223 6800 0
-5224 6800 0
-5225 6800 0
-5226 6800 0
-5227 6800 0
-5228 6800 0
-5229 6800 0
-5230 6800 0
-5231 6800 0
-5232 6800 0
-5233 6800 0
-5234 6800 0
-5235 6800 0
-5236 6800 0
-6800 5215 5216 5217 5218 5219 5220 5221 5222 5223 5224 5225 5226 5227 5228 5229 5230 5231 5232 5233 5234 5235 5236 0
-5237 67 0
-5237 155 0
-5237 221 0
-67 -155 -221 5237 0
-5238 68 0
-5238 156 0
-5238 222 0
-68 -156 -222 5238 0
-5239 69 0
-5239 157 0
-5239 223 0
-69 -157 -223 5239 0
-5240 70 0
-5240 158 0
-5240 224 0
-70 -158 -224 5240 0
-5241 71 0
-5241 159 0
-5241 225 0
-71 -159 -225 5241 0
-5242 72 0
-5242 160 0
-5242 226 0
-72 -160 -226 5242 0
-5243 73 0
-5243 161 0
-5243 227 0
-73 -161 -227 5243 0
-5244 74 0
-5244 162 0
-5244 228 0
-74 -162 -228 5244 0
-5245 75 0
-5245 163 0
-5245 229 0
-75 -163 -229 5245 0
-5246 76 0
-5246 164 0
-5246 230 0
-76 -164 -230 5246 0
-5247 77 0
-5247 165 0
-5247 231 0
-77 -165 -231 5247 0
-5248 78 0
-5248 166 0
-5248 232 0
-78 -166 -232 5248 0
-5249 79 0
-5249 167 0
-5249 233 0
-79 -167 -233 5249 0
-5250 80 0
-5250 168 0
-5250 234 0
-80 -168 -234 5250 0
-5251 81 0
-5251 169 0
-5251 235 0
-81 -169 -235 5251 0
-5252 82 0
-5252 170 0
-5252 236 0
-82 -170 -236 5252 0
-5253 83 0
-5253 171 0
-5253 237 0
-83 -171 -237 5253 0
-5254 84 0
-5254 172 0
-5254 238 0
-84 -172 -238 5254 0
-5255 85 0
-5255 173 0
-5255 239 0
-85 -173 -239 5255 0
-5256 86 0
-5256 174 0
-5256 240 0
-86 -174 -240 5256 0
-5257 87 0
-5257 175 0
-5257 241 0
-87 -175 -241 5257 0
-5258 88 0
-5258 176 0
-5258 242 0
-88 -176 -242 5258 0
-5237 6801 0
-5238 6801 0
-5239 6801 0
-5240 6801 0
-5241 6801 0
-5242 6801 0
-5243 6801 0
-5244 6801 0
-5245 6801 0
-5246 6801 0
-5247 6801 0
-5248 6801 0
-5249 6801 0
-5250 6801 0
-5251 6801 0
-5252 6801 0
-5253 6801 0
-5254 6801 0
-5255 6801 0
-5256 6801 0
-5257 6801 0
-5258 6801 0
-6801 5237 5238 5239 5240 5241 5242 5243 5244 5245 5246 5247 5248 5249 5250 5251 5252 5253 5254 5255 5256 5257 5258 0
-5259 67 0
-5259 155 0
-5259 243 0
-67 -155 -243 5259 0
-5260 68 0
-5260 156 0
-5260 244 0
-68 -156 -244 5260 0
-5261 69 0
-5261 157 0
-5261 245 0
-69 -157 -245 5261 0
-5262 70 0
-5262 158 0
-5262 246 0
-70 -158 -246 5262 0
-5263 71 0
-5263 159 0
-5263 247 0
-71 -159 -247 5263 0
-5264 72 0
-5264 160 0
-5264 248 0
-72 -160 -248 5264 0
-5265 73 0
-5265 161 0
-5265 249 0
-73 -161 -249 5265 0
-5266 74 0
-5266 162 0
-5266 250 0
-74 -162 -250 5266 0
-5267 75 0
-5267 163 0
-5267 251 0
-75 -163 -251 5267 0
-5268 76 0
-5268 164 0
-5268 252 0
-76 -164 -252 5268 0
-5269 77 0
-5269 165 0
-5269 253 0
-77 -165 -253 5269 0
-5270 78 0
-5270 166 0
-5270 254 0
-78 -166 -254 5270 0
-5271 79 0
-5271 167 0
-5271 255 0
-79 -167 -255 5271 0
-5272 80 0
-5272 168 0
-5272 256 0
-80 -168 -256 5272 0
-5273 81 0
-5273 169 0
-5273 257 0
-81 -169 -257 5273 0
-5274 82 0
-5274 170 0
-5274 258 0
-82 -170 -258 5274 0
-5275 83 0
-5275 171 0
-5275 259 0
-83 -171 -259 5275 0
-5276 84 0
-5276 172 0
-5276 260 0
-84 -172 -260 5276 0
-5277 85 0
-5277 173 0
-5277 261 0
-85 -173 -261 5277 0
-5278 86 0
-5278 174 0
-5278 262 0
-86 -174 -262 5278 0
-5279 87 0
-5279 175 0
-5279 263 0
-87 -175 -263 5279 0
-5280 88 0
-5280 176 0
-5280 264 0
-88 -176 -264 5280 0
-5259 6802 0
-5260 6802 0
-5261 6802 0
-5262 6802 0
-5263 6802 0
-5264 6802 0
-5265 6802 0
-5266 6802 0
-5267 6802 0
-5268 6802 0
-5269 6802 0
-5270 6802 0
-5271 6802 0
-5272 6802 0
-5273 6802 0
-5274 6802 0
-5275 6802 0
-5276 6802 0
-5277 6802 0
-5278 6802 0
-5279 6802 0
-5280 6802 0
-6802 5259 5260 5261 5262 5263 5264 5265 5266 5267 5268 5269 5270 5271 5272 5273 5274 5275 5276 5277 5278 5279 5280 0
-5281 67 0
-5281 177 0
-5281 199 0
-67 -177 -199 5281 0
-5282 68 0
-5282 178 0
-5282 200 0
-68 -178 -200 5282 0
-5283 69 0
-5283 179 0
-5283 201 0
-69 -179 -201 5283 0
-5284 70 0
-5284 180 0
-5284 202 0
-70 -180 -202 5284 0
-5285 71 0
-5285 181 0
-5285 203 0
-71 -181 -203 5285 0
-5286 72 0
-5286 182 0
-5286 204 0
-72 -182 -204 5286 0
-5287 73 0
-5287 183 0
-5287 205 0
-73 -183 -205 5287 0
-5288 74 0
-5288 184 0
-5288 206 0
-74 -184 -206 5288 0
-5289 75 0
-5289 185 0
-5289 207 0
-75 -185 -207 5289 0
-5290 76 0
-5290 186 0
-5290 208 0
-76 -186 -208 5290 0
-5291 77 0
-5291 187 0
-5291 209 0
-77 -187 -209 5291 0
-5292 78 0
-5292 188 0
-5292 210 0
-78 -188 -210 5292 0
-5293 79 0
-5293 189 0
-5293 211 0
-79 -189 -211 5293 0
-5294 80 0
-5294 190 0
-5294 212 0
-80 -190 -212 5294 0
-5295 81 0
-5295 191 0
-5295 213 0
-81 -191 -213 5295 0
-5296 82 0
-5296 192 0
-5296 214 0
-82 -192 -214 5296 0
-5297 83 0
-5297 193 0
-5297 215 0
-83 -193 -215 5297 0
-5298 84 0
-5298 194 0
-5298 216 0
-84 -194 -216 5298 0
-5299 85 0
-5299 195 0
-5299 217 0
-85 -195 -217 5299 0
-5300 86 0
-5300 196 0
-5300 218 0
-86 -196 -218 5300 0
-5301 87 0
-5301 197 0
-5301 219 0
-87 -197 -219 5301 0
-5302 88 0
-5302 198 0
-5302 220 0
-88 -198 -220 5302 0
-5281 6803 0
-5282 6803 0
-5283 6803 0
-5284 6803 0
-5285 6803 0
-5286 6803 0
-5287 6803 0
-5288 6803 0
-5289 6803 0
-5290 6803 0
-5291 6803 0
-5292 6803 0
-5293 6803 0
-5294 6803 0
-5295 6803 0
-5296 6803 0
-5297 6803 0
-5298 6803 0
-5299 6803 0
-5300 6803 0
-5301 6803 0
-5302 6803 0
-6803 5281 5282 5283 5284 5285 5286 5287 5288 5289 5290 5291 5292 5293 5294 5295 5296 5297 5298 5299 5300 5301 5302 0
-5303 67 0
-5303 177 0
-5303 221 0
-67 -177 -221 5303 0
-5304 68 0
-5304 178 0
-5304 222 0
-68 -178 -222 5304 0
-5305 69 0
-5305 179 0
-5305 223 0
-69 -179 -223 5305 0
-5306 70 0
-5306 180 0
-5306 224 0
-70 -180 -224 5306 0
-5307 71 0
-5307 181 0
-5307 225 0
-71 -181 -225 5307 0
-5308 72 0
-5308 182 0
-5308 226 0
-72 -182 -226 5308 0
-5309 73 0
-5309 183 0
-5309 227 0
-73 -183 -227 5309 0
-5310 74 0
-5310 184 0
-5310 228 0
-74 -184 -228 5310 0
-5311 75 0
-5311 185 0
-5311 229 0
-75 -185 -229 5311 0
-5312 76 0
-5312 186 0
-5312 230 0
-76 -186 -230 5312 0
-5313 77 0
-5313 187 0
-5313 231 0
-77 -187 -231 5313 0
-5314 78 0
-5314 188 0
-5314 232 0
-78 -188 -232 5314 0
-5315 79 0
-5315 189 0
-5315 233 0
-79 -189 -233 5315 0
-5316 80 0
-5316 190 0
-5316 234 0
-80 -190 -234 5316 0
-5317 81 0
-5317 191 0
-5317 235 0
-81 -191 -235 5317 0
-5318 82 0
-5318 192 0
-5318 236 0
-82 -192 -236 5318 0
-5319 83 0
-5319 193 0
-5319 237 0
-83 -193 -237 5319 0
-5320 84 0
-5320 194 0
-5320 238 0
-84 -194 -238 5320 0
-5321 85 0
-5321 195 0
-5321 239 0
-85 -195 -239 5321 0
-5322 86 0
-5322 196 0
-5322 240 0
-86 -196 -240 5322 0
-5323 87 0
-5323 197 0
-5323 241 0
-87 -197 -241 5323 0
-5324 88 0
-5324 198 0
-5324 242 0
-88 -198 -242 5324 0
-5303 6804 0
-5304 6804 0
-5305 6804 0
-5306 6804 0
-5307 6804 0
-5308 6804 0
-5309 6804 0
-5310 6804 0
-5311 6804 0
-5312 6804 0
-5313 6804 0
-5314 6804 0
-5315 6804 0
-5316 6804 0
-5317 6804 0
-5318 6804 0
-5319 6804 0
-5320 6804 0
-5321 6804 0
-5322 6804 0
-5323 6804 0
-5324 6804 0
-6804 5303 5304 5305 5306 5307 5308 5309 5310 5311 5312 5313 5314 5315 5316 5317 5318 5319 5320 5321 5322 5323 5324 0
-5325 67 0
-5325 177 0
-5325 243 0
-67 -177 -243 5325 0
-5326 68 0
-5326 178 0
-5326 244 0
-68 -178 -244 5326 0
-5327 69 0
-5327 179 0
-5327 245 0
-69 -179 -245 5327 0
-5328 70 0
-5328 180 0
-5328 246 0
-70 -180 -246 5328 0
-5329 71 0
-5329 181 0
-5329 247 0
-71 -181 -247 5329 0
-5330 72 0
-5330 182 0
-5330 248 0
-72 -182 -248 5330 0
-5331 73 0
-5331 183 0
-5331 249 0
-73 -183 -249 5331 0
-5332 74 0
-5332 184 0
-5332 250 0
-74 -184 -250 5332 0
-5333 75 0
-5333 185 0
-5333 251 0
-75 -185 -251 5333 0
-5334 76 0
-5334 186 0
-5334 252 0
-76 -186 -252 5334 0
-5335 77 0
-5335 187 0
-5335 253 0
-77 -187 -253 5335 0
-5336 78 0
-5336 188 0
-5336 254 0
-78 -188 -254 5336 0
-5337 79 0
-5337 189 0
-5337 255 0
-79 -189 -255 5337 0
-5338 80 0
-5338 190 0
-5338 256 0
-80 -190 -256 5338 0
-5339 81 0
-5339 191 0
-5339 257 0
-81 -191 -257 5339 0
-5340 82 0
-5340 192 0
-5340 258 0
-82 -192 -258 5340 0
-5341 83 0
-5341 193 0
-5341 259 0
-83 -193 -259 5341 0
-5342 84 0
-5342 194 0
-5342 260 0
-84 -194 -260 5342 0
-5343 85 0
-5343 195 0
-5343 261 0
-85 -195 -261 5343 0
-5344 86 0
-5344 196 0
-5344 262 0
-86 -196 -262 5344 0
-5345 87 0
-5345 197 0
-5345 263 0
-87 -197 -263 5345 0
-5346 88 0
-5346 198 0
-5346 264 0
-88 -198 -264 5346 0
-5325 6805 0
-5326 6805 0
-5327 6805 0
-5328 6805 0
-5329 6805 0
-5330 6805 0
-5331 6805 0
-5332 6805 0
-5333 6805 0
-5334 6805 0
-5335 6805 0
-5336 6805 0
-5337 6805 0
-5338 6805 0
-5339 6805 0
-5340 6805 0
-5341 6805 0
-5342 6805 0
-5343 6805 0
-5344 6805 0
-5345 6805 0
-5346 6805 0
-6805 5325 5326 5327 5328 5329 5330 5331 5332 5333 5334 5335 5336 5337 5338 5339 5340 5341 5342 5343 5344 5345 5346 0
-5347 67 0
-5347 199 0
-5347 221 0
-67 -199 -221 5347 0
-5348 68 0
-5348 200 0
-5348 222 0
-68 -200 -222 5348 0
-5349 69 0
-5349 201 0
-5349 223 0
-69 -201 -223 5349 0
-5350 70 0
-5350 202 0
-5350 224 0
-70 -202 -224 5350 0
-5351 71 0
-5351 203 0
-5351 225 0
-71 -203 -225 5351 0
-5352 72 0
-5352 204 0
-5352 226 0
-72 -204 -226 5352 0
-5353 73 0
-5353 205 0
-5353 227 0
-73 -205 -227 5353 0
-5354 74 0
-5354 206 0
-5354 228 0
-74 -206 -228 5354 0
-5355 75 0
-5355 207 0
-5355 229 0
-75 -207 -229 5355 0
-5356 76 0
-5356 208 0
-5356 230 0
-76 -208 -230 5356 0
-5357 77 0
-5357 209 0
-5357 231 0
-77 -209 -231 5357 0
-5358 78 0
-5358 210 0
-5358 232 0
-78 -210 -232 5358 0
-5359 79 0
-5359 211 0
-5359 233 0
-79 -211 -233 5359 0
-5360 80 0
-5360 212 0
-5360 234 0
-80 -212 -234 5360 0
-5361 81 0
-5361 213 0
-5361 235 0
-81 -213 -235 5361 0
-5362 82 0
-5362 214 0
-5362 236 0
-82 -214 -236 5362 0
-5363 83 0
-5363 215 0
-5363 237 0
-83 -215 -237 5363 0
-5364 84 0
-5364 216 0
-5364 238 0
-84 -216 -238 5364 0
-5365 85 0
-5365 217 0
-5365 239 0
-85 -217 -239 5365 0
-5366 86 0
-5366 218 0
-5366 240 0
-86 -218 -240 5366 0
-5367 87 0
-5367 219 0
-5367 241 0
-87 -219 -241 5367 0
-5368 88 0
-5368 220 0
-5368 242 0
-88 -220 -242 5368 0
-5347 6806 0
-5348 6806 0
-5349 6806 0
-5350 6806 0
-5351 6806 0
-5352 6806 0
-5353 6806 0
-5354 6806 0
-5355 6806 0
-5356 6806 0
-5357 6806 0
-5358 6806 0
-5359 6806 0
-5360 6806 0
-5361 6806 0
-5362 6806 0
-5363 6806 0
-5364 6806 0
-5365 6806 0
-5366 6806 0
-5367 6806 0
-5368 6806 0
-6806 5347 5348 5349 5350 5351 5352 5353 5354 5355 5356 5357 5358 5359 5360 5361 5362 5363 5364 5365 5366 5367 5368 0
-5369 67 0
-5369 199 0
-5369 243 0
-67 -199 -243 5369 0
-5370 68 0
-5370 200 0
-5370 244 0
-68 -200 -244 5370 0
-5371 69 0
-5371 201 0
-5371 245 0
-69 -201 -245 5371 0
-5372 70 0
-5372 202 0
-5372 246 0
-70 -202 -246 5372 0
-5373 71 0
-5373 203 0
-5373 247 0
-71 -203 -247 5373 0
-5374 72 0
-5374 204 0
-5374 248 0
-72 -204 -248 5374 0
-5375 73 0
-5375 205 0
-5375 249 0
-73 -205 -249 5375 0
-5376 74 0
-5376 206 0
-5376 250 0
-74 -206 -250 5376 0
-5377 75 0
-5377 207 0
-5377 251 0
-75 -207 -251 5377 0
-5378 76 0
-5378 208 0
-5378 252 0
-76 -208 -252 5378 0
-5379 77 0
-5379 209 0
-5379 253 0
-77 -209 -253 5379 0
-5380 78 0
-5380 210 0
-5380 254 0
-78 -210 -254 5380 0
-5381 79 0
-5381 211 0
-5381 255 0
-79 -211 -255 5381 0
-5382 80 0
-5382 212 0
-5382 256 0
-80 -212 -256 5382 0
-5383 81 0
-5383 213 0
-5383 257 0
-81 -213 -257 5383 0
-5384 82 0
-5384 214 0
-5384 258 0
-82 -214 -258 5384 0
-5385 83 0
-5385 215 0
-5385 259 0
-83 -215 -259 5385 0
-5386 84 0
-5386 216 0
-5386 260 0
-84 -216 -260 5386 0
-5387 85 0
-5387 217 0
-5387 261 0
-85 -217 -261 5387 0
-5388 86 0
-5388 218 0
-5388 262 0
-86 -218 -262 5388 0
-5389 87 0
-5389 219 0
-5389 263 0
-87 -219 -263 5389 0
-5390 88 0
-5390 220 0
-5390 264 0
-88 -220 -264 5390 0
-5369 6807 0
-5370 6807 0
-5371 6807 0
-5372 6807 0
-5373 6807 0
-5374 6807 0
-5375 6807 0
-5376 6807 0
-5377 6807 0
-5378 6807 0
-5379 6807 0
-5380 6807 0
-5381 6807 0
-5382 6807 0
-5383 6807 0
-5384 6807 0
-5385 6807 0
-5386 6807 0
-5387 6807 0
-5388 6807 0
-5389 6807 0
-5390 6807 0
-6807 5369 5370 5371 5372 5373 5374 5375 5376 5377 5378 5379 5380 5381 5382 5383 5384 5385 5386 5387 5388 5389 5390 0
-5391 67 0
-5391 221 0
-5391 243 0
-67 -221 -243 5391 0
-5392 68 0
-5392 222 0
-5392 244 0
-68 -222 -244 5392 0
-5393 69 0
-5393 223 0
-5393 245 0
-69 -223 -245 5393 0
-5394 70 0
-5394 224 0
-5394 246 0
-70 -224 -246 5394 0
-5395 71 0
-5395 225 0
-5395 247 0
-71 -225 -247 5395 0
-5396 72 0
-5396 226 0
-5396 248 0
-72 -226 -248 5396 0
-5397 73 0
-5397 227 0
-5397 249 0
-73 -227 -249 5397 0
-5398 74 0
-5398 228 0
-5398 250 0
-74 -228 -250 5398 0
-5399 75 0
-5399 229 0
-5399 251 0
-75 -229 -251 5399 0
-5400 76 0
-5400 230 0
-5400 252 0
-76 -230 -252 5400 0
-5401 77 0
-5401 231 0
-5401 253 0
-77 -231 -253 5401 0
-5402 78 0
-5402 232 0
-5402 254 0
-78 -232 -254 5402 0
-5403 79 0
-5403 233 0
-5403 255 0
-79 -233 -255 5403 0
-5404 80 0
-5404 234 0
-5404 256 0
-80 -234 -256 5404 0
-5405 81 0
-5405 235 0
-5405 257 0
-81 -235 -257 5405 0
-5406 82 0
-5406 236 0
-5406 258 0
-82 -236 -258 5406 0
-5407 83 0
-5407 237 0
-5407 259 0
-83 -237 -259 5407 0
-5408 84 0
-5408 238 0
-5408 260 0
-84 -238 -260 5408 0
-5409 85 0
-5409 239 0
-5409 261 0
-85 -239 -261 5409 0
-5410 86 0
-5410 240 0
-5410 262 0
-86 -240 -262 5410 0
-5411 87 0
-5411 241 0
-5411 263 0
-87 -241 -263 5411 0
-5412 88 0
-5412 242 0
-5412 264 0
-88 -242 -264 5412 0
-5391 6808 0
-5392 6808 0
-5393 6808 0
-5394 6808 0
-5395 6808 0
-5396 6808 0
-5397 6808 0
-5398 6808 0
-5399 6808 0
-5400 6808 0
-5401 6808 0
-5402 6808 0
-5403 6808 0
-5404 6808 0
-5405 6808 0
-5406 6808 0
-5407 6808 0
-5408 6808 0
-5409 6808 0
-5410 6808 0
-5411 6808 0
-5412 6808 0
-6808 5391 5392 5393 5394 5395 5396 5397 5398 5399 5400 5401 5402 5403 5404 5405 5406 5407 5408 5409 5410 5411 5412 0
-5413 89 0
-5413 111 0
-5413 133 0
-89 -111 -133 5413 0
-5414 90 0
-5414 112 0
-5414 134 0
-90 -112 -134 5414 0
-5415 91 0
-5415 113 0
-5415 135 0
-91 -113 -135 5415 0
-5416 92 0
-5416 114 0
-5416 136 0
-92 -114 -136 5416 0
-5417 93 0
-5417 115 0
-5417 137 0
-93 -115 -137 5417 0
-5418 94 0
-5418 116 0
-5418 138 0
-94 -116 -138 5418 0
-5419 95 0
-5419 117 0
-5419 139 0
-95 -117 -139 5419 0
-5420 96 0
-5420 118 0
-5420 140 0
-96 -118 -140 5420 0
-5421 97 0
-5421 119 0
-5421 141 0
-97 -119 -141 5421 0
-5422 98 0
-5422 120 0
-5422 142 0
-98 -120 -142 5422 0
-5423 99 0
-5423 121 0
-5423 143 0
-99 -121 -143 5423 0
-5424 100 0
-5424 122 0
-5424 144 0
-100 -122 -144 5424 0
-5425 101 0
-5425 123 0
-5425 145 0
-101 -123 -145 5425 0
-5426 102 0
-5426 124 0
-5426 146 0
-102 -124 -146 5426 0
-5427 103 0
-5427 125 0
-5427 147 0
-103 -125 -147 5427 0
-5428 104 0
-5428 126 0
-5428 148 0
-104 -126 -148 5428 0
-5429 105 0
-5429 127 0
-5429 149 0
-105 -127 -149 5429 0
-5430 106 0
-5430 128 0
-5430 150 0
-106 -128 -150 5430 0
-5431 107 0
-5431 129 0
-5431 151 0
-107 -129 -151 5431 0
-5432 108 0
-5432 130 0
-5432 152 0
-108 -130 -152 5432 0
-5433 109 0
-5433 131 0
-5433 153 0
-109 -131 -153 5433 0
-5434 110 0
-5434 132 0
-5434 154 0
-110 -132 -154 5434 0
-5413 6809 0
-5414 6809 0
-5415 6809 0
-5416 6809 0
-5417 6809 0
-5418 6809 0
-5419 6809 0
-5420 6809 0
-5421 6809 0
-5422 6809 0
-5423 6809 0
-5424 6809 0
-5425 6809 0
-5426 6809 0
-5427 6809 0
-5428 6809 0
-5429 6809 0
-5430 6809 0
-5431 6809 0
-5432 6809 0
-5433 6809 0
-5434 6809 0
-6809 5413 5414 5415 5416 5417 5418 5419 5420 5421 5422 5423 5424 5425 5426 5427 5428 5429 5430 5431 5432 5433 5434 0
-5435 89 0
-5435 111 0
-5435 155 0
-89 -111 -155 5435 0
-5436 90 0
-5436 112 0
-5436 156 0
-90 -112 -156 5436 0
-5437 91 0
-5437 113 0
-5437 157 0
-91 -113 -157 5437 0
-5438 92 0
-5438 114 0
-5438 158 0
-92 -114 -158 5438 0
-5439 93 0
-5439 115 0
-5439 159 0
-93 -115 -159 5439 0
-5440 94 0
-5440 116 0
-5440 160 0
-94 -116 -160 5440 0
-5441 95 0
-5441 117 0
-5441 161 0
-95 -117 -161 5441 0
-5442 96 0
-5442 118 0
-5442 162 0
-96 -118 -162 5442 0
-5443 97 0
-5443 119 0
-5443 163 0
-97 -119 -163 5443 0
-5444 98 0
-5444 120 0
-5444 164 0
-98 -120 -164 5444 0
-5445 99 0
-5445 121 0
-5445 165 0
-99 -121 -165 5445 0
-5446 100 0
-5446 122 0
-5446 166 0
-100 -122 -166 5446 0
-5447 101 0
-5447 123 0
-5447 167 0
-101 -123 -167 5447 0
-5448 102 0
-5448 124 0
-5448 168 0
-102 -124 -168 5448 0
-5449 103 0
-5449 125 0
-5449 169 0
-103 -125 -169 5449 0
-5450 104 0
-5450 126 0
-5450 170 0
-104 -126 -170 5450 0
-5451 105 0
-5451 127 0
-5451 171 0
-105 -127 -171 5451 0
-5452 106 0
-5452 128 0
-5452 172 0
-106 -128 -172 5452 0
-5453 107 0
-5453 129 0
-5453 173 0
-107 -129 -173 5453 0
-5454 108 0
-5454 130 0
-5454 174 0
-108 -130 -174 5454 0
-5455 109 0
-5455 131 0
-5455 175 0
-109 -131 -175 5455 0
-5456 110 0
-5456 132 0
-5456 176 0
-110 -132 -176 5456 0
-5435 6810 0
-5436 6810 0
-5437 6810 0
-5438 6810 0
-5439 6810 0
-5440 6810 0
-5441 6810 0
-5442 6810 0
-5443 6810 0
-5444 6810 0
-5445 6810 0
-5446 6810 0
-5447 6810 0
-5448 6810 0
-5449 6810 0
-5450 6810 0
-5451 6810 0
-5452 6810 0
-5453 6810 0
-5454 6810 0
-5455 6810 0
-5456 6810 0
-6810 5435 5436 5437 5438 5439 5440 5441 5442 5443 5444 5445 5446 5447 5448 5449 5450 5451 5452 5453 5454 5455 5456 0
-5457 89 0
-5457 111 0
-5457 177 0
-89 -111 -177 5457 0
-5458 90 0
-5458 112 0
-5458 178 0
-90 -112 -178 5458 0
-5459 91 0
-5459 113 0
-5459 179 0
-91 -113 -179 5459 0
-5460 92 0
-5460 114 0
-5460 180 0
-92 -114 -180 5460 0
-5461 93 0
-5461 115 0
-5461 181 0
-93 -115 -181 5461 0
-5462 94 0
-5462 116 0
-5462 182 0
-94 -116 -182 5462 0
-5463 95 0
-5463 117 0
-5463 183 0
-95 -117 -183 5463 0
-5464 96 0
-5464 118 0
-5464 184 0
-96 -118 -184 5464 0
-5465 97 0
-5465 119 0
-5465 185 0
-97 -119 -185 5465 0
-5466 98 0
-5466 120 0
-5466 186 0
-98 -120 -186 5466 0
-5467 99 0
-5467 121 0
-5467 187 0
-99 -121 -187 5467 0
-5468 100 0
-5468 122 0
-5468 188 0
-100 -122 -188 5468 0
-5469 101 0
-5469 123 0
-5469 189 0
-101 -123 -189 5469 0
-5470 102 0
-5470 124 0
-5470 190 0
-102 -124 -190 5470 0
-5471 103 0
-5471 125 0
-5471 191 0
-103 -125 -191 5471 0
-5472 104 0
-5472 126 0
-5472 192 0
-104 -126 -192 5472 0
-5473 105 0
-5473 127 0
-5473 193 0
-105 -127 -193 5473 0
-5474 106 0
-5474 128 0
-5474 194 0
-106 -128 -194 5474 0
-5475 107 0
-5475 129 0
-5475 195 0
-107 -129 -195 5475 0
-5476 108 0
-5476 130 0
-5476 196 0
-108 -130 -196 5476 0
-5477 109 0
-5477 131 0
-5477 197 0
-109 -131 -197 5477 0
-5478 110 0
-5478 132 0
-5478 198 0
-110 -132 -198 5478 0
-5457 6811 0
-5458 6811 0
-5459 6811 0
-5460 6811 0
-5461 6811 0
-5462 6811 0
-5463 6811 0
-5464 6811 0
-5465 6811 0
-5466 6811 0
-5467 6811 0
-5468 6811 0
-5469 6811 0
-5470 6811 0
-5471 6811 0
-5472 6811 0
-5473 6811 0
-5474 6811 0
-5475 6811 0
-5476 6811 0
-5477 6811 0
-5478 6811 0
-6811 5457 5458 5459 5460 5461 5462 5463 5464 5465 5466 5467 5468 5469 5470 5471 5472 5473 5474 5475 5476 5477 5478 0
-5479 89 0
-5479 111 0
-5479 199 0
-89 -111 -199 5479 0
-5480 90 0
-5480 112 0
-5480 200 0
-90 -112 -200 5480 0
-5481 91 0
-5481 113 0
-5481 201 0
-91 -113 -201 5481 0
-5482 92 0
-5482 114 0
-5482 202 0
-92 -114 -202 5482 0
-5483 93 0
-5483 115 0
-5483 203 0
-93 -115 -203 5483 0
-5484 94 0
-5484 116 0
-5484 204 0
-94 -116 -204 5484 0
-5485 95 0
-5485 117 0
-5485 205 0
-95 -117 -205 5485 0
-5486 96 0
-5486 118 0
-5486 206 0
-96 -118 -206 5486 0
-5487 97 0
-5487 119 0
-5487 207 0
-97 -119 -207 5487 0
-5488 98 0
-5488 120 0
-5488 208 0
-98 -120 -208 5488 0
-5489 99 0
-5489 121 0
-5489 209 0
-99 -121 -209 5489 0
-5490 100 0
-5490 122 0
-5490 210 0
-100 -122 -210 5490 0
-5491 101 0
-5491 123 0
-5491 211 0
-101 -123 -211 5491 0
-5492 102 0
-5492 124 0
-5492 212 0
-102 -124 -212 5492 0
-5493 103 0
-5493 125 0
-5493 213 0
-103 -125 -213 5493 0
-5494 104 0
-5494 126 0
-5494 214 0
-104 -126 -214 5494 0
-5495 105 0
-5495 127 0
-5495 215 0
-105 -127 -215 5495 0
-5496 106 0
-5496 128 0
-5496 216 0
-106 -128 -216 5496 0
-5497 107 0
-5497 129 0
-5497 217 0
-107 -129 -217 5497 0
-5498 108 0
-5498 130 0
-5498 218 0
-108 -130 -218 5498 0
-5499 109 0
-5499 131 0
-5499 219 0
-109 -131 -219 5499 0
-5500 110 0
-5500 132 0
-5500 220 0
-110 -132 -220 5500 0
-5479 6812 0
-5480 6812 0
-5481 6812 0
-5482 6812 0
-5483 6812 0
-5484 6812 0
-5485 6812 0
-5486 6812 0
-5487 6812 0
-5488 6812 0
-5489 6812 0
-5490 6812 0
-5491 6812 0
-5492 6812 0
-5493 6812 0
-5494 6812 0
-5495 6812 0
-5496 6812 0
-5497 6812 0
-5498 6812 0
-5499 6812 0
-5500 6812 0
-6812 5479 5480 5481 5482 5483 5484 5485 5486 5487 5488 5489 5490 5491 5492 5493 5494 5495 5496 5497 5498 5499 5500 0
-5501 89 0
-5501 111 0
-5501 221 0
-89 -111 -221 5501 0
-5502 90 0
-5502 112 0
-5502 222 0
-90 -112 -222 5502 0
-5503 91 0
-5503 113 0
-5503 223 0
-91 -113 -223 5503 0
-5504 92 0
-5504 114 0
-5504 224 0
-92 -114 -224 5504 0
-5505 93 0
-5505 115 0
-5505 225 0
-93 -115 -225 5505 0
-5506 94 0
-5506 116 0
-5506 226 0
-94 -116 -226 5506 0
-5507 95 0
-5507 117 0
-5507 227 0
-95 -117 -227 5507 0
-5508 96 0
-5508 118 0
-5508 228 0
-96 -118 -228 5508 0
-5509 97 0
-5509 119 0
-5509 229 0
-97 -119 -229 5509 0
-5510 98 0
-5510 120 0
-5510 230 0
-98 -120 -230 5510 0
-5511 99 0
-5511 121 0
-5511 231 0
-99 -121 -231 5511 0
-5512 100 0
-5512 122 0
-5512 232 0
-100 -122 -232 5512 0
-5513 101 0
-5513 123 0
-5513 233 0
-101 -123 -233 5513 0
-5514 102 0
-5514 124 0
-5514 234 0
-102 -124 -234 5514 0
-5515 103 0
-5515 125 0
-5515 235 0
-103 -125 -235 5515 0
-5516 104 0
-5516 126 0
-5516 236 0
-104 -126 -236 5516 0
-5517 105 0
-5517 127 0
-5517 237 0
-105 -127 -237 5517 0
-5518 106 0
-5518 128 0
-5518 238 0
-106 -128 -238 5518 0
-5519 107 0
-5519 129 0
-5519 239 0
-107 -129 -239 5519 0
-5520 108 0
-5520 130 0
-5520 240 0
-108 -130 -240 5520 0
-5521 109 0
-5521 131 0
-5521 241 0
-109 -131 -241 5521 0
-5522 110 0
-5522 132 0
-5522 242 0
-110 -132 -242 5522 0
-5501 6813 0
-5502 6813 0
-5503 6813 0
-5504 6813 0
-5505 6813 0
-5506 6813 0
-5507 6813 0
-5508 6813 0
-5509 6813 0
-5510 6813 0
-5511 6813 0
-5512 6813 0
-5513 6813 0
-5514 6813 0
-5515 6813 0
-5516 6813 0
-5517 6813 0
-5518 6813 0
-5519 6813 0
-5520 6813 0
-5521 6813 0
-5522 6813 0
-6813 5501 5502 5503 5504 5505 5506 5507 5508 5509 5510 5511 5512 5513 5514 5515 5516 5517 5518 5519 5520 5521 5522 0
-5523 89 0
-5523 111 0
-5523 243 0
-89 -111 -243 5523 0
-5524 90 0
-5524 112 0
-5524 244 0
-90 -112 -244 5524 0
-5525 91 0
-5525 113 0
-5525 245 0
-91 -113 -245 5525 0
-5526 92 0
-5526 114 0
-5526 246 0
-92 -114 -246 5526 0
-5527 93 0
-5527 115 0
-5527 247 0
-93 -115 -247 5527 0
-5528 94 0
-5528 116 0
-5528 248 0
-94 -116 -248 5528 0
-5529 95 0
-5529 117 0
-5529 249 0
-95 -117 -249 5529 0
-5530 96 0
-5530 118 0
-5530 250 0
-96 -118 -250 5530 0
-5531 97 0
-5531 119 0
-5531 251 0
-97 -119 -251 5531 0
-5532 98 0
-5532 120 0
-5532 252 0
-98 -120 -252 5532 0
-5533 99 0
-5533 121 0
-5533 253 0
-99 -121 -253 5533 0
-5534 100 0
-5534 122 0
-5534 254 0
-100 -122 -254 5534 0
-5535 101 0
-5535 123 0
-5535 255 0
-101 -123 -255 5535 0
-5536 102 0
-5536 124 0
-5536 256 0
-102 -124 -256 5536 0
-5537 103 0
-5537 125 0
-5537 257 0
-103 -125 -257 5537 0
-5538 104 0
-5538 126 0
-5538 258 0
-104 -126 -258 5538 0
-5539 105 0
-5539 127 0
-5539 259 0
-105 -127 -259 5539 0
-5540 106 0
-5540 128 0
-5540 260 0
-106 -128 -260 5540 0
-5541 107 0
-5541 129 0
-5541 261 0
-107 -129 -261 5541 0
-5542 108 0
-5542 130 0
-5542 262 0
-108 -130 -262 5542 0
-5543 109 0
-5543 131 0
-5543 263 0
-109 -131 -263 5543 0
-5544 110 0
-5544 132 0
-5544 264 0
-110 -132 -264 5544 0
-5523 6814 0
-5524 6814 0
-5525 6814 0
-5526 6814 0
-5527 6814 0
-5528 6814 0
-5529 6814 0
-5530 6814 0
-5531 6814 0
-5532 6814 0
-5533 6814 0
-5534 6814 0
-5535 6814 0
-5536 6814 0
-5537 6814 0
-5538 6814 0
-5539 6814 0
-5540 6814 0
-5541 6814 0
-5542 6814 0
-5543 6814 0
-5544 6814 0
-6814 5523 5524 5525 5526 5527 5528 5529 5530 5531 5532 5533 5534 5535 5536 5537 5538 5539 5540 5541 5542 5543 5544 0
-5545 89 0
-5545 133 0
-5545 155 0
-89 -133 -155 5545 0
-5546 90 0
-5546 134 0
-5546 156 0
-90 -134 -156 5546 0
-5547 91 0
-5547 135 0
-5547 157 0
-91 -135 -157 5547 0
-5548 92 0
-5548 136 0
-5548 158 0
-92 -136 -158 5548 0
-5549 93 0
-5549 137 0
-5549 159 0
-93 -137 -159 5549 0
-5550 94 0
-5550 138 0
-5550 160 0
-94 -138 -160 5550 0
-5551 95 0
-5551 139 0
-5551 161 0
-95 -139 -161 5551 0
-5552 96 0
-5552 140 0
-5552 162 0
-96 -140 -162 5552 0
-5553 97 0
-5553 141 0
-5553 163 0
-97 -141 -163 5553 0
-5554 98 0
-5554 142 0
-5554 164 0
-98 -142 -164 5554 0
-5555 99 0
-5555 143 0
-5555 165 0
-99 -143 -165 5555 0
-5556 100 0
-5556 144 0
-5556 166 0
-100 -144 -166 5556 0
-5557 101 0
-5557 145 0
-5557 167 0
-101 -145 -167 5557 0
-5558 102 0
-5558 146 0
-5558 168 0
-102 -146 -168 5558 0
-5559 103 0
-5559 147 0
-5559 169 0
-103 -147 -169 5559 0
-5560 104 0
-5560 148 0
-5560 170 0
-104 -148 -170 5560 0
-5561 105 0
-5561 149 0
-5561 171 0
-105 -149 -171 5561 0
-5562 106 0
-5562 150 0
-5562 172 0
-106 -150 -172 5562 0
-5563 107 0
-5563 151 0
-5563 173 0
-107 -151 -173 5563 0
-5564 108 0
-5564 152 0
-5564 174 0
-108 -152 -174 5564 0
-5565 109 0
-5565 153 0
-5565 175 0
-109 -153 -175 5565 0
-5566 110 0
-5566 154 0
-5566 176 0
-110 -154 -176 5566 0
-5545 6815 0
-5546 6815 0
-5547 6815 0
-5548 6815 0
-5549 6815 0
-5550 6815 0
-5551 6815 0
-5552 6815 0
-5553 6815 0
-5554 6815 0
-5555 6815 0
-5556 6815 0
-5557 6815 0
-5558 6815 0
-5559 6815 0
-5560 6815 0
-5561 6815 0
-5562 6815 0
-5563 6815 0
-5564 6815 0
-5565 6815 0
-5566 6815 0
-6815 5545 5546 5547 5548 5549 5550 5551 5552 5553 5554 5555 5556 5557 5558 5559 5560 5561 5562 5563 5564 5565 5566 0
-5567 89 0
-5567 133 0
-5567 177 0
-89 -133 -177 5567 0
-5568 90 0
-5568 134 0
-5568 178 0
-90 -134 -178 5568 0
-5569 91 0
-5569 135 0
-5569 179 0
-91 -135 -179 5569 0
-5570 92 0
-5570 136 0
-5570 180 0
-92 -136 -180 5570 0
-5571 93 0
-5571 137 0
-5571 181 0
-93 -137 -181 5571 0
-5572 94 0
-5572 138 0
-5572 182 0
-94 -138 -182 5572 0
-5573 95 0
-5573 139 0
-5573 183 0
-95 -139 -183 5573 0
-5574 96 0
-5574 140 0
-5574 184 0
-96 -140 -184 5574 0
-5575 97 0
-5575 141 0
-5575 185 0
-97 -141 -185 5575 0
-5576 98 0
-5576 142 0
-5576 186 0
-98 -142 -186 5576 0
-5577 99 0
-5577 143 0
-5577 187 0
-99 -143 -187 5577 0
-5578 100 0
-5578 144 0
-5578 188 0
-100 -144 -188 5578 0
-5579 101 0
-5579 145 0
-5579 189 0
-101 -145 -189 5579 0
-5580 102 0
-5580 146 0
-5580 190 0
-102 -146 -190 5580 0
-5581 103 0
-5581 147 0
-5581 191 0
-103 -147 -191 5581 0
-5582 104 0
-5582 148 0
-5582 192 0
-104 -148 -192 5582 0
-5583 105 0
-5583 149 0
-5583 193 0
-105 -149 -193 5583 0
-5584 106 0
-5584 150 0
-5584 194 0
-106 -150 -194 5584 0
-5585 107 0
-5585 151 0
-5585 195 0
-107 -151 -195 5585 0
-5586 108 0
-5586 152 0
-5586 196 0
-108 -152 -196 5586 0
-5587 109 0
-5587 153 0
-5587 197 0
-109 -153 -197 5587 0
-5588 110 0
-5588 154 0
-5588 198 0
-110 -154 -198 5588 0
-5567 6816 0
-5568 6816 0
-5569 6816 0
-5570 6816 0
-5571 6816 0
-5572 6816 0
-5573 6816 0
-5574 6816 0
-5575 6816 0
-5576 6816 0
-5577 6816 0
-5578 6816 0
-5579 6816 0
-5580 6816 0
-5581 6816 0
-5582 6816 0
-5583 6816 0
-5584 6816 0
-5585 6816 0
-5586 6816 0
-5587 6816 0
-5588 6816 0
-6816 5567 5568 5569 5570 5571 5572 5573 5574 5575 5576 5577 5578 5579 5580 5581 5582 5583 5584 5585 5586 5587 5588 0
-5589 89 0
-5589 133 0
-5589 199 0
-89 -133 -199 5589 0
-5590 90 0
-5590 134 0
-5590 200 0
-90 -134 -200 5590 0
-5591 91 0
-5591 135 0
-5591 201 0
-91 -135 -201 5591 0
-5592 92 0
-5592 136 0
-5592 202 0
-92 -136 -202 5592 0
-5593 93 0
-5593 137 0
-5593 203 0
-93 -137 -203 5593 0
-5594 94 0
-5594 138 0
-5594 204 0
-94 -138 -204 5594 0
-5595 95 0
-5595 139 0
-5595 205 0
-95 -139 -205 5595 0
-5596 96 0
-5596 140 0
-5596 206 0
-96 -140 -206 5596 0
-5597 97 0
-5597 141 0
-5597 207 0
-97 -141 -207 5597 0
-5598 98 0
-5598 142 0
-5598 208 0
-98 -142 -208 5598 0
-5599 99 0
-5599 143 0
-5599 209 0
-99 -143 -209 5599 0
-5600 100 0
-5600 144 0
-5600 210 0
-100 -144 -210 5600 0
-5601 101 0
-5601 145 0
-5601 211 0
-101 -145 -211 5601 0
-5602 102 0
-5602 146 0
-5602 212 0
-102 -146 -212 5602 0
-5603 103 0
-5603 147 0
-5603 213 0
-103 -147 -213 5603 0
-5604 104 0
-5604 148 0
-5604 214 0
-104 -148 -214 5604 0
-5605 105 0
-5605 149 0
-5605 215 0
-105 -149 -215 5605 0
-5606 106 0
-5606 150 0
-5606 216 0
-106 -150 -216 5606 0
-5607 107 0
-5607 151 0
-5607 217 0
-107 -151 -217 5607 0
-5608 108 0
-5608 152 0
-5608 218 0
-108 -152 -218 5608 0
-5609 109 0
-5609 153 0
-5609 219 0
-109 -153 -219 5609 0
-5610 110 0
-5610 154 0
-5610 220 0
-110 -154 -220 5610 0
-5589 6817 0
-5590 6817 0
-5591 6817 0
-5592 6817 0
-5593 6817 0
-5594 6817 0
-5595 6817 0
-5596 6817 0
-5597 6817 0
-5598 6817 0
-5599 6817 0
-5600 6817 0
-5601 6817 0
-5602 6817 0
-5603 6817 0
-5604 6817 0
-5605 6817 0
-5606 6817 0
-5607 6817 0
-5608 6817 0
-5609 6817 0
-5610 6817 0
-6817 5589 5590 5591 5592 5593 5594 5595 5596 5597 5598 5599 5600 5601 5602 5603 5604 5605 5606 5607 5608 5609 5610 0
-5611 89 0
-5611 133 0
-5611 221 0
-89 -133 -221 5611 0
-5612 90 0
-5612 134 0
-5612 222 0
-90 -134 -222 5612 0
-5613 91 0
-5613 135 0
-5613 223 0
-91 -135 -223 5613 0
-5614 92 0
-5614 136 0
-5614 224 0
-92 -136 -224 5614 0
-5615 93 0
-5615 137 0
-5615 225 0
-93 -137 -225 5615 0
-5616 94 0
-5616 138 0
-5616 226 0
-94 -138 -226 5616 0
-5617 95 0
-5617 139 0
-5617 227 0
-95 -139 -227 5617 0
-5618 96 0
-5618 140 0
-5618 228 0
-96 -140 -228 5618 0
-5619 97 0
-5619 141 0
-5619 229 0
-97 -141 -229 5619 0
-5620 98 0
-5620 142 0
-5620 230 0
-98 -142 -230 5620 0
-5621 99 0
-5621 143 0
-5621 231 0
-99 -143 -231 5621 0
-5622 100 0
-5622 144 0
-5622 232 0
-100 -144 -232 5622 0
-5623 101 0
-5623 145 0
-5623 233 0
-101 -145 -233 5623 0
-5624 102 0
-5624 146 0
-5624 234 0
-102 -146 -234 5624 0
-5625 103 0
-5625 147 0
-5625 235 0
-103 -147 -235 5625 0
-5626 104 0
-5626 148 0
-5626 236 0
-104 -148 -236 5626 0
-5627 105 0
-5627 149 0
-5627 237 0
-105 -149 -237 5627 0
-5628 106 0
-5628 150 0
-5628 238 0
-106 -150 -238 5628 0
-5629 107 0
-5629 151 0
-5629 239 0
-107 -151 -239 5629 0
-5630 108 0
-5630 152 0
-5630 240 0
-108 -152 -240 5630 0
-5631 109 0
-5631 153 0
-5631 241 0
-109 -153 -241 5631 0
-5632 110 0
-5632 154 0
-5632 242 0
-110 -154 -242 5632 0
-5611 6818 0
-5612 6818 0
-5613 6818 0
-5614 6818 0
-5615 6818 0
-5616 6818 0
-5617 6818 0
-5618 6818 0
-5619 6818 0
-5620 6818 0
-5621 6818 0
-5622 6818 0
-5623 6818 0
-5624 6818 0
-5625 6818 0
-5626 6818 0
-5627 6818 0
-5628 6818 0
-5629 6818 0
-5630 6818 0
-5631 6818 0
-5632 6818 0
-6818 5611 5612 5613 5614 5615 5616 5617 5618 5619 5620 5621 5622 5623 5624 5625 5626 5627 5628 5629 5630 5631 5632 0
-5633 89 0
-5633 133 0
-5633 243 0
-89 -133 -243 5633 0
-5634 90 0
-5634 134 0
-5634 244 0
-90 -134 -244 5634 0
-5635 91 0
-5635 135 0
-5635 245 0
-91 -135 -245 5635 0
-5636 92 0
-5636 136 0
-5636 246 0
-92 -136 -246 5636 0
-5637 93 0
-5637 137 0
-5637 247 0
-93 -137 -247 5637 0
-5638 94 0
-5638 138 0
-5638 248 0
-94 -138 -248 5638 0
-5639 95 0
-5639 139 0
-5639 249 0
-95 -139 -249 5639 0
-5640 96 0
-5640 140 0
-5640 250 0
-96 -140 -250 5640 0
-5641 97 0
-5641 141 0
-5641 251 0
-97 -141 -251 5641 0
-5642 98 0
-5642 142 0
-5642 252 0
-98 -142 -252 5642 0
-5643 99 0
-5643 143 0
-5643 253 0
-99 -143 -253 5643 0
-5644 100 0
-5644 144 0
-5644 254 0
-100 -144 -254 5644 0
-5645 101 0
-5645 145 0
-5645 255 0
-101 -145 -255 5645 0
-5646 102 0
-5646 146 0
-5646 256 0
-102 -146 -256 5646 0
-5647 103 0
-5647 147 0
-5647 257 0
-103 -147 -257 5647 0
-5648 104 0
-5648 148 0
-5648 258 0
-104 -148 -258 5648 0
-5649 105 0
-5649 149 0
-5649 259 0
-105 -149 -259 5649 0
-5650 106 0
-5650 150 0
-5650 260 0
-106 -150 -260 5650 0
-5651 107 0
-5651 151 0
-5651 261 0
-107 -151 -261 5651 0
-5652 108 0
-5652 152 0
-5652 262 0
-108 -152 -262 5652 0
-5653 109 0
-5653 153 0
-5653 263 0
-109 -153 -263 5653 0
-5654 110 0
-5654 154 0
-5654 264 0
-110 -154 -264 5654 0
-5633 6819 0
-5634 6819 0
-5635 6819 0
-5636 6819 0
-5637 6819 0
-5638 6819 0
-5639 6819 0
-5640 6819 0
-5641 6819 0
-5642 6819 0
-5643 6819 0
-5644 6819 0
-5645 6819 0
-5646 6819 0
-5647 6819 0
-5648 6819 0
-5649 6819 0
-5650 6819 0
-5651 6819 0
-5652 6819 0
-5653 6819 0
-5654 6819 0
-6819 5633 5634 5635 5636 5637 5638 5639 5640 5641 5642 5643 5644 5645 5646 5647 5648 5649 5650 5651 5652 5653 5654 0
-5655 89 0
-5655 155 0
-5655 177 0
-89 -155 -177 5655 0
-5656 90 0
-5656 156 0
-5656 178 0
-90 -156 -178 5656 0
-5657 91 0
-5657 157 0
-5657 179 0
-91 -157 -179 5657 0
-5658 92 0
-5658 158 0
-5658 180 0
-92 -158 -180 5658 0
-5659 93 0
-5659 159 0
-5659 181 0
-93 -159 -181 5659 0
-5660 94 0
-5660 160 0
-5660 182 0
-94 -160 -182 5660 0
-5661 95 0
-5661 161 0
-5661 183 0
-95 -161 -183 5661 0
-5662 96 0
-5662 162 0
-5662 184 0
-96 -162 -184 5662 0
-5663 97 0
-5663 163 0
-5663 185 0
-97 -163 -185 5663 0
-5664 98 0
-5664 164 0
-5664 186 0
-98 -164 -186 5664 0
-5665 99 0
-5665 165 0
-5665 187 0
-99 -165 -187 5665 0
-5666 100 0
-5666 166 0
-5666 188 0
-100 -166 -188 5666 0
-5667 101 0
-5667 167 0
-5667 189 0
-101 -167 -189 5667 0
-5668 102 0
-5668 168 0
-5668 190 0
-102 -168 -190 5668 0
-5669 103 0
-5669 169 0
-5669 191 0
-103 -169 -191 5669 0
-5670 104 0
-5670 170 0
-5670 192 0
-104 -170 -192 5670 0
-5671 105 0
-5671 171 0
-5671 193 0
-105 -171 -193 5671 0
-5672 106 0
-5672 172 0
-5672 194 0
-106 -172 -194 5672 0
-5673 107 0
-5673 173 0
-5673 195 0
-107 -173 -195 5673 0
-5674 108 0
-5674 174 0
-5674 196 0
-108 -174 -196 5674 0
-5675 109 0
-5675 175 0
-5675 197 0
-109 -175 -197 5675 0
-5676 110 0
-5676 176 0
-5676 198 0
-110 -176 -198 5676 0
-5655 6820 0
-5656 6820 0
-5657 6820 0
-5658 6820 0
-5659 6820 0
-5660 6820 0
-5661 6820 0
-5662 6820 0
-5663 6820 0
-5664 6820 0
-5665 6820 0
-5666 6820 0
-5667 6820 0
-5668 6820 0
-5669 6820 0
-5670 6820 0
-5671 6820 0
-5672 6820 0
-5673 6820 0
-5674 6820 0
-5675 6820 0
-5676 6820 0
-6820 5655 5656 5657 5658 5659 5660 5661 5662 5663 5664 5665 5666 5667 5668 5669 5670 5671 5672 5673 5674 5675 5676 0
-5677 89 0
-5677 155 0
-5677 199 0
-89 -155 -199 5677 0
-5678 90 0
-5678 156 0
-5678 200 0
-90 -156 -200 5678 0
-5679 91 0
-5679 157 0
-5679 201 0
-91 -157 -201 5679 0
-5680 92 0
-5680 158 0
-5680 202 0
-92 -158 -202 5680 0
-5681 93 0
-5681 159 0
-5681 203 0
-93 -159 -203 5681 0
-5682 94 0
-5682 160 0
-5682 204 0
-94 -160 -204 5682 0
-5683 95 0
-5683 161 0
-5683 205 0
-95 -161 -205 5683 0
-5684 96 0
-5684 162 0
-5684 206 0
-96 -162 -206 5684 0
-5685 97 0
-5685 163 0
-5685 207 0
-97 -163 -207 5685 0
-5686 98 0
-5686 164 0
-5686 208 0
-98 -164 -208 5686 0
-5687 99 0
-5687 165 0
-5687 209 0
-99 -165 -209 5687 0
-5688 100 0
-5688 166 0
-5688 210 0
-100 -166 -210 5688 0
-5689 101 0
-5689 167 0
-5689 211 0
-101 -167 -211 5689 0
-5690 102 0
-5690 168 0
-5690 212 0
-102 -168 -212 5690 0
-5691 103 0
-5691 169 0
-5691 213 0
-103 -169 -213 5691 0
-5692 104 0
-5692 170 0
-5692 214 0
-104 -170 -214 5692 0
-5693 105 0
-5693 171 0
-5693 215 0
-105 -171 -215 5693 0
-5694 106 0
-5694 172 0
-5694 216 0
-106 -172 -216 5694 0
-5695 107 0
-5695 173 0
-5695 217 0
-107 -173 -217 5695 0
-5696 108 0
-5696 174 0
-5696 218 0
-108 -174 -218 5696 0
-5697 109 0
-5697 175 0
-5697 219 0
-109 -175 -219 5697 0
-5698 110 0
-5698 176 0
-5698 220 0
-110 -176 -220 5698 0
-5677 6821 0
-5678 6821 0
-5679 6821 0
-5680 6821 0
-5681 6821 0
-5682 6821 0
-5683 6821 0
-5684 6821 0
-5685 6821 0
-5686 6821 0
-5687 6821 0
-5688 6821 0
-5689 6821 0
-5690 6821 0
-5691 6821 0
-5692 6821 0
-5693 6821 0
-5694 6821 0
-5695 6821 0
-5696 6821 0
-5697 6821 0
-5698 6821 0
-6821 5677 5678 5679 5680 5681 5682 5683 5684 5685 5686 5687 5688 5689 5690 5691 5692 5693 5694 5695 5696 5697 5698 0
-5699 89 0
-5699 155 0
-5699 221 0
-89 -155 -221 5699 0
-5700 90 0
-5700 156 0
-5700 222 0
-90 -156 -222 5700 0
-5701 91 0
-5701 157 0
-5701 223 0
-91 -157 -223 5701 0
-5702 92 0
-5702 158 0
-5702 224 0
-92 -158 -224 5702 0
-5703 93 0
-5703 159 0
-5703 225 0
-93 -159 -225 5703 0
-5704 94 0
-5704 160 0
-5704 226 0
-94 -160 -226 5704 0
-5705 95 0
-5705 161 0
-5705 227 0
-95 -161 -227 5705 0
-5706 96 0
-5706 162 0
-5706 228 0
-96 -162 -228 5706 0
-5707 97 0
-5707 163 0
-5707 229 0
-97 -163 -229 5707 0
-5708 98 0
-5708 164 0
-5708 230 0
-98 -164 -230 5708 0
-5709 99 0
-5709 165 0
-5709 231 0
-99 -165 -231 5709 0
-5710 100 0
-5710 166 0
-5710 232 0
-100 -166 -232 5710 0
-5711 101 0
-5711 167 0
-5711 233 0
-101 -167 -233 5711 0
-5712 102 0
-5712 168 0
-5712 234 0
-102 -168 -234 5712 0
-5713 103 0
-5713 169 0
-5713 235 0
-103 -169 -235 5713 0
-5714 104 0
-5714 170 0
-5714 236 0
-104 -170 -236 5714 0
-5715 105 0
-5715 171 0
-5715 237 0
-105 -171 -237 5715 0
-5716 106 0
-5716 172 0
-5716 238 0
-106 -172 -238 5716 0
-5717 107 0
-5717 173 0
-5717 239 0
-107 -173 -239 5717 0
-5718 108 0
-5718 174 0
-5718 240 0
-108 -174 -240 5718 0
-5719 109 0
-5719 175 0
-5719 241 0
-109 -175 -241 5719 0
-5720 110 0
-5720 176 0
-5720 242 0
-110 -176 -242 5720 0
-5699 6822 0
-5700 6822 0
-5701 6822 0
-5702 6822 0
-5703 6822 0
-5704 6822 0
-5705 6822 0
-5706 6822 0
-5707 6822 0
-5708 6822 0
-5709 6822 0
-5710 6822 0
-5711 6822 0
-5712 6822 0
-5713 6822 0
-5714 6822 0
-5715 6822 0
-5716 6822 0
-5717 6822 0
-5718 6822 0
-5719 6822 0
-5720 6822 0
-6822 5699 5700 5701 5702 5703 5704 5705 5706 5707 5708 5709 5710 5711 5712 5713 5714 5715 5716 5717 5718 5719 5720 0
-5721 89 0
-5721 155 0
-5721 243 0
-89 -155 -243 5721 0
-5722 90 0
-5722 156 0
-5722 244 0
-90 -156 -244 5722 0
-5723 91 0
-5723 157 0
-5723 245 0
-91 -157 -245 5723 0
-5724 92 0
-5724 158 0
-5724 246 0
-92 -158 -246 5724 0
-5725 93 0
-5725 159 0
-5725 247 0
-93 -159 -247 5725 0
-5726 94 0
-5726 160 0
-5726 248 0
-94 -160 -248 5726 0
-5727 95 0
-5727 161 0
-5727 249 0
-95 -161 -249 5727 0
-5728 96 0
-5728 162 0
-5728 250 0
-96 -162 -250 5728 0
-5729 97 0
-5729 163 0
-5729 251 0
-97 -163 -251 5729 0
-5730 98 0
-5730 164 0
-5730 252 0
-98 -164 -252 5730 0
-5731 99 0
-5731 165 0
-5731 253 0
-99 -165 -253 5731 0
-5732 100 0
-5732 166 0
-5732 254 0
-100 -166 -254 5732 0
-5733 101 0
-5733 167 0
-5733 255 0
-101 -167 -255 5733 0
-5734 102 0
-5734 168 0
-5734 256 0
-102 -168 -256 5734 0
-5735 103 0
-5735 169 0
-5735 257 0
-103 -169 -257 5735 0
-5736 104 0
-5736 170 0
-5736 258 0
-104 -170 -258 5736 0
-5737 105 0
-5737 171 0
-5737 259 0
-105 -171 -259 5737 0
-5738 106 0
-5738 172 0
-5738 260 0
-106 -172 -260 5738 0
-5739 107 0
-5739 173 0
-5739 261 0
-107 -173 -261 5739 0
-5740 108 0
-5740 174 0
-5740 262 0
-108 -174 -262 5740 0
-5741 109 0
-5741 175 0
-5741 263 0
-109 -175 -263 5741 0
-5742 110 0
-5742 176 0
-5742 264 0
-110 -176 -264 5742 0
-5721 6823 0
-5722 6823 0
-5723 6823 0
-5724 6823 0
-5725 6823 0
-5726 6823 0
-5727 6823 0
-5728 6823 0
-5729 6823 0
-5730 6823 0
-5731 6823 0
-5732 6823 0
-5733 6823 0
-5734 6823 0
-5735 6823 0
-5736 6823 0
-5737 6823 0
-5738 6823 0
-5739 6823 0
-5740 6823 0
-5741 6823 0
-5742 6823 0
-6823 5721 5722 5723 5724 5725 5726 5727 5728 5729 5730 5731 5732 5733 5734 5735 5736 5737 5738 5739 5740 5741 5742 0
-5743 89 0
-5743 177 0
-5743 199 0
-89 -177 -199 5743 0
-5744 90 0
-5744 178 0
-5744 200 0
-90 -178 -200 5744 0
-5745 91 0
-5745 179 0
-5745 201 0
-91 -179 -201 5745 0
-5746 92 0
-5746 180 0
-5746 202 0
-92 -180 -202 5746 0
-5747 93 0
-5747 181 0
-5747 203 0
-93 -181 -203 5747 0
-5748 94 0
-5748 182 0
-5748 204 0
-94 -182 -204 5748 0
-5749 95 0
-5749 183 0
-5749 205 0
-95 -183 -205 5749 0
-5750 96 0
-5750 184 0
-5750 206 0
-96 -184 -206 5750 0
-5751 97 0
-5751 185 0
-5751 207 0
-97 -185 -207 5751 0
-5752 98 0
-5752 186 0
-5752 208 0
-98 -186 -208 5752 0
-5753 99 0
-5753 187 0
-5753 209 0
-99 -187 -209 5753 0
-5754 100 0
-5754 188 0
-5754 210 0
-100 -188 -210 5754 0
-5755 101 0
-5755 189 0
-5755 211 0
-101 -189 -211 5755 0
-5756 102 0
-5756 190 0
-5756 212 0
-102 -190 -212 5756 0
-5757 103 0
-5757 191 0
-5757 213 0
-103 -191 -213 5757 0
-5758 104 0
-5758 192 0
-5758 214 0
-104 -192 -214 5758 0
-5759 105 0
-5759 193 0
-5759 215 0
-105 -193 -215 5759 0
-5760 106 0
-5760 194 0
-5760 216 0
-106 -194 -216 5760 0
-5761 107 0
-5761 195 0
-5761 217 0
-107 -195 -217 5761 0
-5762 108 0
-5762 196 0
-5762 218 0
-108 -196 -218 5762 0
-5763 109 0
-5763 197 0
-5763 219 0
-109 -197 -219 5763 0
-5764 110 0
-5764 198 0
-5764 220 0
-110 -198 -220 5764 0
-5743 6824 0
-5744 6824 0
-5745 6824 0
-5746 6824 0
-5747 6824 0
-5748 6824 0
-5749 6824 0
-5750 6824 0
-5751 6824 0
-5752 6824 0
-5753 6824 0
-5754 6824 0
-5755 6824 0
-5756 6824 0
-5757 6824 0
-5758 6824 0
-5759 6824 0
-5760 6824 0
-5761 6824 0
-5762 6824 0
-5763 6824 0
-5764 6824 0
-6824 5743 5744 5745 5746 5747 5748 5749 5750 5751 5752 5753 5754 5755 5756 5757 5758 5759 5760 5761 5762 5763 5764 0
-5765 89 0
-5765 177 0
-5765 221 0
-89 -177 -221 5765 0
-5766 90 0
-5766 178 0
-5766 222 0
-90 -178 -222 5766 0
-5767 91 0
-5767 179 0
-5767 223 0
-91 -179 -223 5767 0
-5768 92 0
-5768 180 0
-5768 224 0
-92 -180 -224 5768 0
-5769 93 0
-5769 181 0
-5769 225 0
-93 -181 -225 5769 0
-5770 94 0
-5770 182 0
-5770 226 0
-94 -182 -226 5770 0
-5771 95 0
-5771 183 0
-5771 227 0
-95 -183 -227 5771 0
-5772 96 0
-5772 184 0
-5772 228 0
-96 -184 -228 5772 0
-5773 97 0
-5773 185 0
-5773 229 0
-97 -185 -229 5773 0
-5774 98 0
-5774 186 0
-5774 230 0
-98 -186 -230 5774 0
-5775 99 0
-5775 187 0
-5775 231 0
-99 -187 -231 5775 0
-5776 100 0
-5776 188 0
-5776 232 0
-100 -188 -232 5776 0
-5777 101 0
-5777 189 0
-5777 233 0
-101 -189 -233 5777 0
-5778 102 0
-5778 190 0
-5778 234 0
-102 -190 -234 5778 0
-5779 103 0
-5779 191 0
-5779 235 0
-103 -191 -235 5779 0
-5780 104 0
-5780 192 0
-5780 236 0
-104 -192 -236 5780 0
-5781 105 0
-5781 193 0
-5781 237 0
-105 -193 -237 5781 0
-5782 106 0
-5782 194 0
-5782 238 0
-106 -194 -238 5782 0
-5783 107 0
-5783 195 0
-5783 239 0
-107 -195 -239 5783 0
-5784 108 0
-5784 196 0
-5784 240 0
-108 -196 -240 5784 0
-5785 109 0
-5785 197 0
-5785 241 0
-109 -197 -241 5785 0
-5786 110 0
-5786 198 0
-5786 242 0
-110 -198 -242 5786 0
-5765 6825 0
-5766 6825 0
-5767 6825 0
-5768 6825 0
-5769 6825 0
-5770 6825 0
-5771 6825 0
-5772 6825 0
-5773 6825 0
-5774 6825 0
-5775 6825 0
-5776 6825 0
-5777 6825 0
-5778 6825 0
-5779 6825 0
-5780 6825 0
-5781 6825 0
-5782 6825 0
-5783 6825 0
-5784 6825 0
-5785 6825 0
-5786 6825 0
-6825 5765 5766 5767 5768 5769 5770 5771 5772 5773 5774 5775 5776 5777 5778 5779 5780 5781 5782 5783 5784 5785 5786 0
-5787 89 0
-5787 177 0
-5787 243 0
-89 -177 -243 5787 0
-5788 90 0
-5788 178 0
-5788 244 0
-90 -178 -244 5788 0
-5789 91 0
-5789 179 0
-5789 245 0
-91 -179 -245 5789 0
-5790 92 0
-5790 180 0
-5790 246 0
-92 -180 -246 5790 0
-5791 93 0
-5791 181 0
-5791 247 0
-93 -181 -247 5791 0
-5792 94 0
-5792 182 0
-5792 248 0
-94 -182 -248 5792 0
-5793 95 0
-5793 183 0
-5793 249 0
-95 -183 -249 5793 0
-5794 96 0
-5794 184 0
-5794 250 0
-96 -184 -250 5794 0
-5795 97 0
-5795 185 0
-5795 251 0
-97 -185 -251 5795 0
-5796 98 0
-5796 186 0
-5796 252 0
-98 -186 -252 5796 0
-5797 99 0
-5797 187 0
-5797 253 0
-99 -187 -253 5797 0
-5798 100 0
-5798 188 0
-5798 254 0
-100 -188 -254 5798 0
-5799 101 0
-5799 189 0
-5799 255 0
-101 -189 -255 5799 0
-5800 102 0
-5800 190 0
-5800 256 0
-102 -190 -256 5800 0
-5801 103 0
-5801 191 0
-5801 257 0
-103 -191 -257 5801 0
-5802 104 0
-5802 192 0
-5802 258 0
-104 -192 -258 5802 0
-5803 105 0
-5803 193 0
-5803 259 0
-105 -193 -259 5803 0
-5804 106 0
-5804 194 0
-5804 260 0
-106 -194 -260 5804 0
-5805 107 0
-5805 195 0
-5805 261 0
-107 -195 -261 5805 0
-5806 108 0
-5806 196 0
-5806 262 0
-108 -196 -262 5806 0
-5807 109 0
-5807 197 0
-5807 263 0
-109 -197 -263 5807 0
-5808 110 0
-5808 198 0
-5808 264 0
-110 -198 -264 5808 0
-5787 6826 0
-5788 6826 0
-5789 6826 0
-5790 6826 0
-5791 6826 0
-5792 6826 0
-5793 6826 0
-5794 6826 0
-5795 6826 0
-5796 6826 0
-5797 6826 0
-5798 6826 0
-5799 6826 0
-5800 6826 0
-5801 6826 0
-5802 6826 0
-5803 6826 0
-5804 6826 0
-5805 6826 0
-5806 6826 0
-5807 6826 0
-5808 6826 0
-6826 5787 5788 5789 5790 5791 5792 5793 5794 5795 5796 5797 5798 5799 5800 5801 5802 5803 5804 5805 5806 5807 5808 0
-5809 89 0
-5809 199 0
-5809 221 0
-89 -199 -221 5809 0
-5810 90 0
-5810 200 0
-5810 222 0
-90 -200 -222 5810 0
-5811 91 0
-5811 201 0
-5811 223 0
-91 -201 -223 5811 0
-5812 92 0
-5812 202 0
-5812 224 0
-92 -202 -224 5812 0
-5813 93 0
-5813 203 0
-5813 225 0
-93 -203 -225 5813 0
-5814 94 0
-5814 204 0
-5814 226 0
-94 -204 -226 5814 0
-5815 95 0
-5815 205 0
-5815 227 0
-95 -205 -227 5815 0
-5816 96 0
-5816 206 0
-5816 228 0
-96 -206 -228 5816 0
-5817 97 0
-5817 207 0
-5817 229 0
-97 -207 -229 5817 0
-5818 98 0
-5818 208 0
-5818 230 0
-98 -208 -230 5818 0
-5819 99 0
-5819 209 0
-5819 231 0
-99 -209 -231 5819 0
-5820 100 0
-5820 210 0
-5820 232 0
-100 -210 -232 5820 0
-5821 101 0
-5821 211 0
-5821 233 0
-101 -211 -233 5821 0
-5822 102 0
-5822 212 0
-5822 234 0
-102 -212 -234 5822 0
-5823 103 0
-5823 213 0
-5823 235 0
-103 -213 -235 5823 0
-5824 104 0
-5824 214 0
-5824 236 0
-104 -214 -236 5824 0
-5825 105 0
-5825 215 0
-5825 237 0
-105 -215 -237 5825 0
-5826 106 0
-5826 216 0
-5826 238 0
-106 -216 -238 5826 0
-5827 107 0
-5827 217 0
-5827 239 0
-107 -217 -239 5827 0
-5828 108 0
-5828 218 0
-5828 240 0
-108 -218 -240 5828 0
-5829 109 0
-5829 219 0
-5829 241 0
-109 -219 -241 5829 0
-5830 110 0
-5830 220 0
-5830 242 0
-110 -220 -242 5830 0
-5809 6827 0
-5810 6827 0
-5811 6827 0
-5812 6827 0
-5813 6827 0
-5814 6827 0
-5815 6827 0
-5816 6827 0
-5817 6827 0
-5818 6827 0
-5819 6827 0
-5820 6827 0
-5821 6827 0
-5822 6827 0
-5823 6827 0
-5824 6827 0
-5825 6827 0
-5826 6827 0
-5827 6827 0
-5828 6827 0
-5829 6827 0
-5830 6827 0
-6827 5809 5810 5811 5812 5813 5814 5815 5816 5817 5818 5819 5820 5821 5822 5823 5824 5825 5826 5827 5828 5829 5830 0
-5831 89 0
-5831 199 0
-5831 243 0
-89 -199 -243 5831 0
-5832 90 0
-5832 200 0
-5832 244 0
-90 -200 -244 5832 0
-5833 91 0
-5833 201 0
-5833 245 0
-91 -201 -245 5833 0
-5834 92 0
-5834 202 0
-5834 246 0
-92 -202 -246 5834 0
-5835 93 0
-5835 203 0
-5835 247 0
-93 -203 -247 5835 0
-5836 94 0
-5836 204 0
-5836 248 0
-94 -204 -248 5836 0
-5837 95 0
-5837 205 0
-5837 249 0
-95 -205 -249 5837 0
-5838 96 0
-5838 206 0
-5838 250 0
-96 -206 -250 5838 0
-5839 97 0
-5839 207 0
-5839 251 0
-97 -207 -251 5839 0
-5840 98 0
-5840 208 0
-5840 252 0
-98 -208 -252 5840 0
-5841 99 0
-5841 209 0
-5841 253 0
-99 -209 -253 5841 0
-5842 100 0
-5842 210 0
-5842 254 0
-100 -210 -254 5842 0
-5843 101 0
-5843 211 0
-5843 255 0
-101 -211 -255 5843 0
-5844 102 0
-5844 212 0
-5844 256 0
-102 -212 -256 5844 0
-5845 103 0
-5845 213 0
-5845 257 0
-103 -213 -257 5845 0
-5846 104 0
-5846 214 0
-5846 258 0
-104 -214 -258 5846 0
-5847 105 0
-5847 215 0
-5847 259 0
-105 -215 -259 5847 0
-5848 106 0
-5848 216 0
-5848 260 0
-106 -216 -260 5848 0
-5849 107 0
-5849 217 0
-5849 261 0
-107 -217 -261 5849 0
-5850 108 0
-5850 218 0
-5850 262 0
-108 -218 -262 5850 0
-5851 109 0
-5851 219 0
-5851 263 0
-109 -219 -263 5851 0
-5852 110 0
-5852 220 0
-5852 264 0
-110 -220 -264 5852 0
-5831 6828 0
-5832 6828 0
-5833 6828 0
-5834 6828 0
-5835 6828 0
-5836 6828 0
-5837 6828 0
-5838 6828 0
-5839 6828 0
-5840 6828 0
-5841 6828 0
-5842 6828 0
-5843 6828 0
-5844 6828 0
-5845 6828 0
-5846 6828 0
-5847 6828 0
-5848 6828 0
-5849 6828 0
-5850 6828 0
-5851 6828 0
-5852 6828 0
-6828 5831 5832 5833 5834 5835 5836 5837 5838 5839 5840 5841 5842 5843 5844 5845 5846 5847 5848 5849 5850 5851 5852 0
-5853 89 0
-5853 221 0
-5853 243 0
-89 -221 -243 5853 0
-5854 90 0
-5854 222 0
-5854 244 0
-90 -222 -244 5854 0
-5855 91 0
-5855 223 0
-5855 245 0
-91 -223 -245 5855 0
-5856 92 0
-5856 224 0
-5856 246 0
-92 -224 -246 5856 0
-5857 93 0
-5857 225 0
-5857 247 0
-93 -225 -247 5857 0
-5858 94 0
-5858 226 0
-5858 248 0
-94 -226 -248 5858 0
-5859 95 0
-5859 227 0
-5859 249 0
-95 -227 -249 5859 0
-5860 96 0
-5860 228 0
-5860 250 0
-96 -228 -250 5860 0
-5861 97 0
-5861 229 0
-5861 251 0
-97 -229 -251 5861 0
-5862 98 0
-5862 230 0
-5862 252 0
-98 -230 -252 5862 0
-5863 99 0
-5863 231 0
-5863 253 0
-99 -231 -253 5863 0
-5864 100 0
-5864 232 0
-5864 254 0
-100 -232 -254 5864 0
-5865 101 0
-5865 233 0
-5865 255 0
-101 -233 -255 5865 0
-5866 102 0
-5866 234 0
-5866 256 0
-102 -234 -256 5866 0
-5867 103 0
-5867 235 0
-5867 257 0
-103 -235 -257 5867 0
-5868 104 0
-5868 236 0
-5868 258 0
-104 -236 -258 5868 0
-5869 105 0
-5869 237 0
-5869 259 0
-105 -237 -259 5869 0
-5870 106 0
-5870 238 0
-5870 260 0
-106 -238 -260 5870 0
-5871 107 0
-5871 239 0
-5871 261 0
-107 -239 -261 5871 0
-5872 108 0
-5872 240 0
-5872 262 0
-108 -240 -262 5872 0
-5873 109 0
-5873 241 0
-5873 263 0
-109 -241 -263 5873 0
-5874 110 0
-5874 242 0
-5874 264 0
-110 -242 -264 5874 0
-5853 6829 0
-5854 6829 0
-5855 6829 0
-5856 6829 0
-5857 6829 0
-5858 6829 0
-5859 6829 0
-5860 6829 0
-5861 6829 0
-5862 6829 0
-5863 6829 0
-5864 6829 0
-5865 6829 0
-5866 6829 0
-5867 6829 0
-5868 6829 0
-5869 6829 0
-5870 6829 0
-5871 6829 0
-5872 6829 0
-5873 6829 0
-5874 6829 0
-6829 5853 5854 5855 5856 5857 5858 5859 5860 5861 5862 5863 5864 5865 5866 5867 5868 5869 5870 5871 5872 5873 5874 0
-5875 111 0
-5875 133 0
-5875 155 0
-111 -133 -155 5875 0
-5876 112 0
-5876 134 0
-5876 156 0
-112 -134 -156 5876 0
-5877 113 0
-5877 135 0
-5877 157 0
-113 -135 -157 5877 0
-5878 114 0
-5878 136 0
-5878 158 0
-114 -136 -158 5878 0
-5879 115 0
-5879 137 0
-5879 159 0
-115 -137 -159 5879 0
-5880 116 0
-5880 138 0
-5880 160 0
-116 -138 -160 5880 0
-5881 117 0
-5881 139 0
-5881 161 0
-117 -139 -161 5881 0
-5882 118 0
-5882 140 0
-5882 162 0
-118 -140 -162 5882 0
-5883 119 0
-5883 141 0
-5883 163 0
-119 -141 -163 5883 0
-5884 120 0
-5884 142 0
-5884 164 0
-120 -142 -164 5884 0
-5885 121 0
-5885 143 0
-5885 165 0
-121 -143 -165 5885 0
-5886 122 0
-5886 144 0
-5886 166 0
-122 -144 -166 5886 0
-5887 123 0
-5887 145 0
-5887 167 0
-123 -145 -167 5887 0
-5888 124 0
-5888 146 0
-5888 168 0
-124 -146 -168 5888 0
-5889 125 0
-5889 147 0
-5889 169 0
-125 -147 -169 5889 0
-5890 126 0
-5890 148 0
-5890 170 0
-126 -148 -170 5890 0
-5891 127 0
-5891 149 0
-5891 171 0
-127 -149 -171 5891 0
-5892 128 0
-5892 150 0
-5892 172 0
-128 -150 -172 5892 0
-5893 129 0
-5893 151 0
-5893 173 0
-129 -151 -173 5893 0
-5894 130 0
-5894 152 0
-5894 174 0
-130 -152 -174 5894 0
-5895 131 0
-5895 153 0
-5895 175 0
-131 -153 -175 5895 0
-5896 132 0
-5896 154 0
-5896 176 0
-132 -154 -176 5896 0
-5875 6830 0
-5876 6830 0
-5877 6830 0
-5878 6830 0
-5879 6830 0
-5880 6830 0
-5881 6830 0
-5882 6830 0
-5883 6830 0
-5884 6830 0
-5885 6830 0
-5886 6830 0
-5887 6830 0
-5888 6830 0
-5889 6830 0
-5890 6830 0
-5891 6830 0
-5892 6830 0
-5893 6830 0
-5894 6830 0
-5895 6830 0
-5896 6830 0
-6830 5875 5876 5877 5878 5879 5880 5881 5882 5883 5884 5885 5886 5887 5888 5889 5890 5891 5892 5893 5894 5895 5896 0
-5897 111 0
-5897 133 0
-5897 177 0
-111 -133 -177 5897 0
-5898 112 0
-5898 134 0
-5898 178 0
-112 -134 -178 5898 0
-5899 113 0
-5899 135 0
-5899 179 0
-113 -135 -179 5899 0
-5900 114 0
-5900 136 0
-5900 180 0
-114 -136 -180 5900 0
-5901 115 0
-5901 137 0
-5901 181 0
-115 -137 -181 5901 0
-5902 116 0
-5902 138 0
-5902 182 0
-116 -138 -182 5902 0
-5903 117 0
-5903 139 0
-5903 183 0
-117 -139 -183 5903 0
-5904 118 0
-5904 140 0
-5904 184 0
-118 -140 -184 5904 0
-5905 119 0
-5905 141 0
-5905 185 0
-119 -141 -185 5905 0
-5906 120 0
-5906 142 0
-5906 186 0
-120 -142 -186 5906 0
-5907 121 0
-5907 143 0
-5907 187 0
-121 -143 -187 5907 0
-5908 122 0
-5908 144 0
-5908 188 0
-122 -144 -188 5908 0
-5909 123 0
-5909 145 0
-5909 189 0
-123 -145 -189 5909 0
-5910 124 0
-5910 146 0
-5910 190 0
-124 -146 -190 5910 0
-5911 125 0
-5911 147 0
-5911 191 0
-125 -147 -191 5911 0
-5912 126 0
-5912 148 0
-5912 192 0
-126 -148 -192 5912 0
-5913 127 0
-5913 149 0
-5913 193 0
-127 -149 -193 5913 0
-5914 128 0
-5914 150 0
-5914 194 0
-128 -150 -194 5914 0
-5915 129 0
-5915 151 0
-5915 195 0
-129 -151 -195 5915 0
-5916 130 0
-5916 152 0
-5916 196 0
-130 -152 -196 5916 0
-5917 131 0
-5917 153 0
-5917 197 0
-131 -153 -197 5917 0
-5918 132 0
-5918 154 0
-5918 198 0
-132 -154 -198 5918 0
-5897 6831 0
-5898 6831 0
-5899 6831 0
-5900 6831 0
-5901 6831 0
-5902 6831 0
-5903 6831 0
-5904 6831 0
-5905 6831 0
-5906 6831 0
-5907 6831 0
-5908 6831 0
-5909 6831 0
-5910 6831 0
-5911 6831 0
-5912 6831 0
-5913 6831 0
-5914 6831 0
-5915 6831 0
-5916 6831 0
-5917 6831 0
-5918 6831 0
-6831 5897 5898 5899 5900 5901 5902 5903 5904 5905 5906 5907 5908 5909 5910 5911 5912 5913 5914 5915 5916 5917 5918 0
-5919 111 0
-5919 133 0
-5919 199 0
-111 -133 -199 5919 0
-5920 112 0
-5920 134 0
-5920 200 0
-112 -134 -200 5920 0
-5921 113 0
-5921 135 0
-5921 201 0
-113 -135 -201 5921 0
-5922 114 0
-5922 136 0
-5922 202 0
-114 -136 -202 5922 0
-5923 115 0
-5923 137 0
-5923 203 0
-115 -137 -203 5923 0
-5924 116 0
-5924 138 0
-5924 204 0
-116 -138 -204 5924 0
-5925 117 0
-5925 139 0
-5925 205 0
-117 -139 -205 5925 0
-5926 118 0
-5926 140 0
-5926 206 0
-118 -140 -206 5926 0
-5927 119 0
-5927 141 0
-5927 207 0
-119 -141 -207 5927 0
-5928 120 0
-5928 142 0
-5928 208 0
-120 -142 -208 5928 0
-5929 121 0
-5929 143 0
-5929 209 0
-121 -143 -209 5929 0
-5930 122 0
-5930 144 0
-5930 210 0
-122 -144 -210 5930 0
-5931 123 0
-5931 145 0
-5931 211 0
-123 -145 -211 5931 0
-5932 124 0
-5932 146 0
-5932 212 0
-124 -146 -212 5932 0
-5933 125 0
-5933 147 0
-5933 213 0
-125 -147 -213 5933 0
-5934 126 0
-5934 148 0
-5934 214 0
-126 -148 -214 5934 0
-5935 127 0
-5935 149 0
-5935 215 0
-127 -149 -215 5935 0
-5936 128 0
-5936 150 0
-5936 216 0
-128 -150 -216 5936 0
-5937 129 0
-5937 151 0
-5937 217 0
-129 -151 -217 5937 0
-5938 130 0
-5938 152 0
-5938 218 0
-130 -152 -218 5938 0
-5939 131 0
-5939 153 0
-5939 219 0
-131 -153 -219 5939 0
-5940 132 0
-5940 154 0
-5940 220 0
-132 -154 -220 5940 0
-5919 6832 0
-5920 6832 0
-5921 6832 0
-5922 6832 0
-5923 6832 0
-5924 6832 0
-5925 6832 0
-5926 6832 0
-5927 6832 0
-5928 6832 0
-5929 6832 0
-5930 6832 0
-5931 6832 0
-5932 6832 0
-5933 6832 0
-5934 6832 0
-5935 6832 0
-5936 6832 0
-5937 6832 0
-5938 6832 0
-5939 6832 0
-5940 6832 0
-6832 5919 5920 5921 5922 5923 5924 5925 5926 5927 5928 5929 5930 5931 5932 5933 5934 5935 5936 5937 5938 5939 5940 0
-5941 111 0
-5941 133 0
-5941 221 0
-111 -133 -221 5941 0
-5942 112 0
-5942 134 0
-5942 222 0
-112 -134 -222 5942 0
-5943 113 0
-5943 135 0
-5943 223 0
-113 -135 -223 5943 0
-5944 114 0
-5944 136 0
-5944 224 0
-114 -136 -224 5944 0
-5945 115 0
-5945 137 0
-5945 225 0
-115 -137 -225 5945 0
-5946 116 0
-5946 138 0
-5946 226 0
-116 -138 -226 5946 0
-5947 117 0
-5947 139 0
-5947 227 0
-117 -139 -227 5947 0
-5948 118 0
-5948 140 0
-5948 228 0
-118 -140 -228 5948 0
-5949 119 0
-5949 141 0
-5949 229 0
-119 -141 -229 5949 0
-5950 120 0
-5950 142 0
-5950 230 0
-120 -142 -230 5950 0
-5951 121 0
-5951 143 0
-5951 231 0
-121 -143 -231 5951 0
-5952 122 0
-5952 144 0
-5952 232 0
-122 -144 -232 5952 0
-5953 123 0
-5953 145 0
-5953 233 0
-123 -145 -233 5953 0
-5954 124 0
-5954 146 0
-5954 234 0
-124 -146 -234 5954 0
-5955 125 0
-5955 147 0
-5955 235 0
-125 -147 -235 5955 0
-5956 126 0
-5956 148 0
-5956 236 0
-126 -148 -236 5956 0
-5957 127 0
-5957 149 0
-5957 237 0
-127 -149 -237 5957 0
-5958 128 0
-5958 150 0
-5958 238 0
-128 -150 -238 5958 0
-5959 129 0
-5959 151 0
-5959 239 0
-129 -151 -239 5959 0
-5960 130 0
-5960 152 0
-5960 240 0
-130 -152 -240 5960 0
-5961 131 0
-5961 153 0
-5961 241 0
-131 -153 -241 5961 0
-5962 132 0
-5962 154 0
-5962 242 0
-132 -154 -242 5962 0
-5941 6833 0
-5942 6833 0
-5943 6833 0
-5944 6833 0
-5945 6833 0
-5946 6833 0
-5947 6833 0
-5948 6833 0
-5949 6833 0
-5950 6833 0
-5951 6833 0
-5952 6833 0
-5953 6833 0
-5954 6833 0
-5955 6833 0
-5956 6833 0
-5957 6833 0
-5958 6833 0
-5959 6833 0
-5960 6833 0
-5961 6833 0
-5962 6833 0
-6833 5941 5942 5943 5944 5945 5946 5947 5948 5949 5950 5951 5952 5953 5954 5955 5956 5957 5958 5959 5960 5961 5962 0
-5963 111 0
-5963 133 0
-5963 243 0
-111 -133 -243 5963 0
-5964 112 0
-5964 134 0
-5964 244 0
-112 -134 -244 5964 0
-5965 113 0
-5965 135 0
-5965 245 0
-113 -135 -245 5965 0
-5966 114 0
-5966 136 0
-5966 246 0
-114 -136 -246 5966 0
-5967 115 0
-5967 137 0
-5967 247 0
-115 -137 -247 5967 0
-5968 116 0
-5968 138 0
-5968 248 0
-116 -138 -248 5968 0
-5969 117 0
-5969 139 0
-5969 249 0
-117 -139 -249 5969 0
-5970 118 0
-5970 140 0
-5970 250 0
-118 -140 -250 5970 0
-5971 119 0
-5971 141 0
-5971 251 0
-119 -141 -251 5971 0
-5972 120 0
-5972 142 0
-5972 252 0
-120 -142 -252 5972 0
-5973 121 0
-5973 143 0
-5973 253 0
-121 -143 -253 5973 0
-5974 122 0
-5974 144 0
-5974 254 0
-122 -144 -254 5974 0
-5975 123 0
-5975 145 0
-5975 255 0
-123 -145 -255 5975 0
-5976 124 0
-5976 146 0
-5976 256 0
-124 -146 -256 5976 0
-5977 125 0
-5977 147 0
-5977 257 0
-125 -147 -257 5977 0
-5978 126 0
-5978 148 0
-5978 258 0
-126 -148 -258 5978 0
-5979 127 0
-5979 149 0
-5979 259 0
-127 -149 -259 5979 0
-5980 128 0
-5980 150 0
-5980 260 0
-128 -150 -260 5980 0
-5981 129 0
-5981 151 0
-5981 261 0
-129 -151 -261 5981 0
-5982 130 0
-5982 152 0
-5982 262 0
-130 -152 -262 5982 0
-5983 131 0
-5983 153 0
-5983 263 0
-131 -153 -263 5983 0
-5984 132 0
-5984 154 0
-5984 264 0
-132 -154 -264 5984 0
-5963 6834 0
-5964 6834 0
-5965 6834 0
-5966 6834 0
-5967 6834 0
-5968 6834 0
-5969 6834 0
-5970 6834 0
-5971 6834 0
-5972 6834 0
-5973 6834 0
-5974 6834 0
-5975 6834 0
-5976 6834 0
-5977 6834 0
-5978 6834 0
-5979 6834 0
-5980 6834 0
-5981 6834 0
-5982 6834 0
-5983 6834 0
-5984 6834 0
-6834 5963 5964 5965 5966 5967 5968 5969 5970 5971 5972 5973 5974 5975 5976 5977 5978 5979 5980 5981 5982 5983 5984 0
-5985 111 0
-5985 155 0
-5985 177 0
-111 -155 -177 5985 0
-5986 112 0
-5986 156 0
-5986 178 0
-112 -156 -178 5986 0
-5987 113 0
-5987 157 0
-5987 179 0
-113 -157 -179 5987 0
-5988 114 0
-5988 158 0
-5988 180 0
-114 -158 -180 5988 0
-5989 115 0
-5989 159 0
-5989 181 0
-115 -159 -181 5989 0
-5990 116 0
-5990 160 0
-5990 182 0
-116 -160 -182 5990 0
-5991 117 0
-5991 161 0
-5991 183 0
-117 -161 -183 5991 0
-5992 118 0
-5992 162 0
-5992 184 0
-118 -162 -184 5992 0
-5993 119 0
-5993 163 0
-5993 185 0
-119 -163 -185 5993 0
-5994 120 0
-5994 164 0
-5994 186 0
-120 -164 -186 5994 0
-5995 121 0
-5995 165 0
-5995 187 0
-121 -165 -187 5995 0
-5996 122 0
-5996 166 0
-5996 188 0
-122 -166 -188 5996 0
-5997 123 0
-5997 167 0
-5997 189 0
-123 -167 -189 5997 0
-5998 124 0
-5998 168 0
-5998 190 0
-124 -168 -190 5998 0
-5999 125 0
-5999 169 0
-5999 191 0
-125 -169 -191 5999 0
-6000 126 0
-6000 170 0
-6000 192 0
-126 -170 -192 6000 0
-6001 127 0
-6001 171 0
-6001 193 0
-127 -171 -193 6001 0
-6002 128 0
-6002 172 0
-6002 194 0
-128 -172 -194 6002 0
-6003 129 0
-6003 173 0
-6003 195 0
-129 -173 -195 6003 0
-6004 130 0
-6004 174 0
-6004 196 0
-130 -174 -196 6004 0
-6005 131 0
-6005 175 0
-6005 197 0
-131 -175 -197 6005 0
-6006 132 0
-6006 176 0
-6006 198 0
-132 -176 -198 6006 0
-5985 6835 0
-5986 6835 0
-5987 6835 0
-5988 6835 0
-5989 6835 0
-5990 6835 0
-5991 6835 0
-5992 6835 0
-5993 6835 0
-5994 6835 0
-5995 6835 0
-5996 6835 0
-5997 6835 0
-5998 6835 0
-5999 6835 0
-6000 6835 0
-6001 6835 0
-6002 6835 0
-6003 6835 0
-6004 6835 0
-6005 6835 0
-6006 6835 0
-6835 5985 5986 5987 5988 5989 5990 5991 5992 5993 5994 5995 5996 5997 5998 5999 6000 6001 6002 6003 6004 6005 6006 0
-6007 111 0
-6007 155 0
-6007 199 0
-111 -155 -199 6007 0
-6008 112 0
-6008 156 0
-6008 200 0
-112 -156 -200 6008 0
-6009 113 0
-6009 157 0
-6009 201 0
-113 -157 -201 6009 0
-6010 114 0
-6010 158 0
-6010 202 0
-114 -158 -202 6010 0
-6011 115 0
-6011 159 0
-6011 203 0
-115 -159 -203 6011 0
-6012 116 0
-6012 160 0
-6012 204 0
-116 -160 -204 6012 0
-6013 117 0
-6013 161 0
-6013 205 0
-117 -161 -205 6013 0
-6014 118 0
-6014 162 0
-6014 206 0
-118 -162 -206 6014 0
-6015 119 0
-6015 163 0
-6015 207 0
-119 -163 -207 6015 0
-6016 120 0
-6016 164 0
-6016 208 0
-120 -164 -208 6016 0
-6017 121 0
-6017 165 0
-6017 209 0
-121 -165 -209 6017 0
-6018 122 0
-6018 166 0
-6018 210 0
-122 -166 -210 6018 0
-6019 123 0
-6019 167 0
-6019 211 0
-123 -167 -211 6019 0
-6020 124 0
-6020 168 0
-6020 212 0
-124 -168 -212 6020 0
-6021 125 0
-6021 169 0
-6021 213 0
-125 -169 -213 6021 0
-6022 126 0
-6022 170 0
-6022 214 0
-126 -170 -214 6022 0
-6023 127 0
-6023 171 0
-6023 215 0
-127 -171 -215 6023 0
-6024 128 0
-6024 172 0
-6024 216 0
-128 -172 -216 6024 0
-6025 129 0
-6025 173 0
-6025 217 0
-129 -173 -217 6025 0
-6026 130 0
-6026 174 0
-6026 218 0
-130 -174 -218 6026 0
-6027 131 0
-6027 175 0
-6027 219 0
-131 -175 -219 6027 0
-6028 132 0
-6028 176 0
-6028 220 0
-132 -176 -220 6028 0
-6007 6836 0
-6008 6836 0
-6009 6836 0
-6010 6836 0
-6011 6836 0
-6012 6836 0
-6013 6836 0
-6014 6836 0
-6015 6836 0
-6016 6836 0
-6017 6836 0
-6018 6836 0
-6019 6836 0
-6020 6836 0
-6021 6836 0
-6022 6836 0
-6023 6836 0
-6024 6836 0
-6025 6836 0
-6026 6836 0
-6027 6836 0
-6028 6836 0
-6836 6007 6008 6009 6010 6011 6012 6013 6014 6015 6016 6017 6018 6019 6020 6021 6022 6023 6024 6025 6026 6027 6028 0
-6029 111 0
-6029 155 0
-6029 221 0
-111 -155 -221 6029 0
-6030 112 0
-6030 156 0
-6030 222 0
-112 -156 -222 6030 0
-6031 113 0
-6031 157 0
-6031 223 0
-113 -157 -223 6031 0
-6032 114 0
-6032 158 0
-6032 224 0
-114 -158 -224 6032 0
-6033 115 0
-6033 159 0
-6033 225 0
-115 -159 -225 6033 0
-6034 116 0
-6034 160 0
-6034 226 0
-116 -160 -226 6034 0
-6035 117 0
-6035 161 0
-6035 227 0
-117 -161 -227 6035 0
-6036 118 0
-6036 162 0
-6036 228 0
-118 -162 -228 6036 0
-6037 119 0
-6037 163 0
-6037 229 0
-119 -163 -229 6037 0
-6038 120 0
-6038 164 0
-6038 230 0
-120 -164 -230 6038 0
-6039 121 0
-6039 165 0
-6039 231 0
-121 -165 -231 6039 0
-6040 122 0
-6040 166 0
-6040 232 0
-122 -166 -232 6040 0
-6041 123 0
-6041 167 0
-6041 233 0
-123 -167 -233 6041 0
-6042 124 0
-6042 168 0
-6042 234 0
-124 -168 -234 6042 0
-6043 125 0
-6043 169 0
-6043 235 0
-125 -169 -235 6043 0
-6044 126 0
-6044 170 0
-6044 236 0
-126 -170 -236 6044 0
-6045 127 0
-6045 171 0
-6045 237 0
-127 -171 -237 6045 0
-6046 128 0
-6046 172 0
-6046 238 0
-128 -172 -238 6046 0
-6047 129 0
-6047 173 0
-6047 239 0
-129 -173 -239 6047 0
-6048 130 0
-6048 174 0
-6048 240 0
-130 -174 -240 6048 0
-6049 131 0
-6049 175 0
-6049 241 0
-131 -175 -241 6049 0
-6050 132 0
-6050 176 0
-6050 242 0
-132 -176 -242 6050 0
-6029 6837 0
-6030 6837 0
-6031 6837 0
-6032 6837 0
-6033 6837 0
-6034 6837 0
-6035 6837 0
-6036 6837 0
-6037 6837 0
-6038 6837 0
-6039 6837 0
-6040 6837 0
-6041 6837 0
-6042 6837 0
-6043 6837 0
-6044 6837 0
-6045 6837 0
-6046 6837 0
-6047 6837 0
-6048 6837 0
-6049 6837 0
-6050 6837 0
-6837 6029 6030 6031 6032 6033 6034 6035 6036 6037 6038 6039 6040 6041 6042 6043 6044 6045 6046 6047 6048 6049 6050 0
-6051 111 0
-6051 155 0
-6051 243 0
-111 -155 -243 6051 0
-6052 112 0
-6052 156 0
-6052 244 0
-112 -156 -244 6052 0
-6053 113 0
-6053 157 0
-6053 245 0
-113 -157 -245 6053 0
-6054 114 0
-6054 158 0
-6054 246 0
-114 -158 -246 6054 0
-6055 115 0
-6055 159 0
-6055 247 0
-115 -159 -247 6055 0
-6056 116 0
-6056 160 0
-6056 248 0
-116 -160 -248 6056 0
-6057 117 0
-6057 161 0
-6057 249 0
-117 -161 -249 6057 0
-6058 118 0
-6058 162 0
-6058 250 0
-118 -162 -250 6058 0
-6059 119 0
-6059 163 0
-6059 251 0
-119 -163 -251 6059 0
-6060 120 0
-6060 164 0
-6060 252 0
-120 -164 -252 6060 0
-6061 121 0
-6061 165 0
-6061 253 0
-121 -165 -253 6061 0
-6062 122 0
-6062 166 0
-6062 254 0
-122 -166 -254 6062 0
-6063 123 0
-6063 167 0
-6063 255 0
-123 -167 -255 6063 0
-6064 124 0
-6064 168 0
-6064 256 0
-124 -168 -256 6064 0
-6065 125 0
-6065 169 0
-6065 257 0
-125 -169 -257 6065 0
-6066 126 0
-6066 170 0
-6066 258 0
-126 -170 -258 6066 0
-6067 127 0
-6067 171 0
-6067 259 0
-127 -171 -259 6067 0
-6068 128 0
-6068 172 0
-6068 260 0
-128 -172 -260 6068 0
-6069 129 0
-6069 173 0
-6069 261 0
-129 -173 -261 6069 0
-6070 130 0
-6070 174 0
-6070 262 0
-130 -174 -262 6070 0
-6071 131 0
-6071 175 0
-6071 263 0
-131 -175 -263 6071 0
-6072 132 0
-6072 176 0
-6072 264 0
-132 -176 -264 6072 0
-6051 6838 0
-6052 6838 0
-6053 6838 0
-6054 6838 0
-6055 6838 0
-6056 6838 0
-6057 6838 0
-6058 6838 0
-6059 6838 0
-6060 6838 0
-6061 6838 0
-6062 6838 0
-6063 6838 0
-6064 6838 0
-6065 6838 0
-6066 6838 0
-6067 6838 0
-6068 6838 0
-6069 6838 0
-6070 6838 0
-6071 6838 0
-6072 6838 0
-6838 6051 6052 6053 6054 6055 6056 6057 6058 6059 6060 6061 6062 6063 6064 6065 6066 6067 6068 6069 6070 6071 6072 0
-6073 111 0
-6073 177 0
-6073 199 0
-111 -177 -199 6073 0
-6074 112 0
-6074 178 0
-6074 200 0
-112 -178 -200 6074 0
-6075 113 0
-6075 179 0
-6075 201 0
-113 -179 -201 6075 0
-6076 114 0
-6076 180 0
-6076 202 0
-114 -180 -202 6076 0
-6077 115 0
-6077 181 0
-6077 203 0
-115 -181 -203 6077 0
-6078 116 0
-6078 182 0
-6078 204 0
-116 -182 -204 6078 0
-6079 117 0
-6079 183 0
-6079 205 0
-117 -183 -205 6079 0
-6080 118 0
-6080 184 0
-6080 206 0
-118 -184 -206 6080 0
-6081 119 0
-6081 185 0
-6081 207 0
-119 -185 -207 6081 0
-6082 120 0
-6082 186 0
-6082 208 0
-120 -186 -208 6082 0
-6083 121 0
-6083 187 0
-6083 209 0
-121 -187 -209 6083 0
-6084 122 0
-6084 188 0
-6084 210 0
-122 -188 -210 6084 0
-6085 123 0
-6085 189 0
-6085 211 0
-123 -189 -211 6085 0
-6086 124 0
-6086 190 0
-6086 212 0
-124 -190 -212 6086 0
-6087 125 0
-6087 191 0
-6087 213 0
-125 -191 -213 6087 0
-6088 126 0
-6088 192 0
-6088 214 0
-126 -192 -214 6088 0
-6089 127 0
-6089 193 0
-6089 215 0
-127 -193 -215 6089 0
-6090 128 0
-6090 194 0
-6090 216 0
-128 -194 -216 6090 0
-6091 129 0
-6091 195 0
-6091 217 0
-129 -195 -217 6091 0
-6092 130 0
-6092 196 0
-6092 218 0
-130 -196 -218 6092 0
-6093 131 0
-6093 197 0
-6093 219 0
-131 -197 -219 6093 0
-6094 132 0
-6094 198 0
-6094 220 0
-132 -198 -220 6094 0
-6073 6839 0
-6074 6839 0
-6075 6839 0
-6076 6839 0
-6077 6839 0
-6078 6839 0
-6079 6839 0
-6080 6839 0
-6081 6839 0
-6082 6839 0
-6083 6839 0
-6084 6839 0
-6085 6839 0
-6086 6839 0
-6087 6839 0
-6088 6839 0
-6089 6839 0
-6090 6839 0
-6091 6839 0
-6092 6839 0
-6093 6839 0
-6094 6839 0
-6839 6073 6074 6075 6076 6077 6078 6079 6080 6081 6082 6083 6084 6085 6086 6087 6088 6089 6090 6091 6092 6093 6094 0
-6095 111 0
-6095 177 0
-6095 221 0
-111 -177 -221 6095 0
-6096 112 0
-6096 178 0
-6096 222 0
-112 -178 -222 6096 0
-6097 113 0
-6097 179 0
-6097 223 0
-113 -179 -223 6097 0
-6098 114 0
-6098 180 0
-6098 224 0
-114 -180 -224 6098 0
-6099 115 0
-6099 181 0
-6099 225 0
-115 -181 -225 6099 0
-6100 116 0
-6100 182 0
-6100 226 0
-116 -182 -226 6100 0
-6101 117 0
-6101 183 0
-6101 227 0
-117 -183 -227 6101 0
-6102 118 0
-6102 184 0
-6102 228 0
-118 -184 -228 6102 0
-6103 119 0
-6103 185 0
-6103 229 0
-119 -185 -229 6103 0
-6104 120 0
-6104 186 0
-6104 230 0
-120 -186 -230 6104 0
-6105 121 0
-6105 187 0
-6105 231 0
-121 -187 -231 6105 0
-6106 122 0
-6106 188 0
-6106 232 0
-122 -188 -232 6106 0
-6107 123 0
-6107 189 0
-6107 233 0
-123 -189 -233 6107 0
-6108 124 0
-6108 190 0
-6108 234 0
-124 -190 -234 6108 0
-6109 125 0
-6109 191 0
-6109 235 0
-125 -191 -235 6109 0
-6110 126 0
-6110 192 0
-6110 236 0
-126 -192 -236 6110 0
-6111 127 0
-6111 193 0
-6111 237 0
-127 -193 -237 6111 0
-6112 128 0
-6112 194 0
-6112 238 0
-128 -194 -238 6112 0
-6113 129 0
-6113 195 0
-6113 239 0
-129 -195 -239 6113 0
-6114 130 0
-6114 196 0
-6114 240 0
-130 -196 -240 6114 0
-6115 131 0
-6115 197 0
-6115 241 0
-131 -197 -241 6115 0
-6116 132 0
-6116 198 0
-6116 242 0
-132 -198 -242 6116 0
-6095 6840 0
-6096 6840 0
-6097 6840 0
-6098 6840 0
-6099 6840 0
-6100 6840 0
-6101 6840 0
-6102 6840 0
-6103 6840 0
-6104 6840 0
-6105 6840 0
-6106 6840 0
-6107 6840 0
-6108 6840 0
-6109 6840 0
-6110 6840 0
-6111 6840 0
-6112 6840 0
-6113 6840 0
-6114 6840 0
-6115 6840 0
-6116 6840 0
-6840 6095 6096 6097 6098 6099 6100 6101 6102 6103 6104 6105 6106 6107 6108 6109 6110 6111 6112 6113 6114 6115 6116 0
-6117 111 0
-6117 177 0
-6117 243 0
-111 -177 -243 6117 0
-6118 112 0
-6118 178 0
-6118 244 0
-112 -178 -244 6118 0
-6119 113 0
-6119 179 0
-6119 245 0
-113 -179 -245 6119 0
-6120 114 0
-6120 180 0
-6120 246 0
-114 -180 -246 6120 0
-6121 115 0
-6121 181 0
-6121 247 0
-115 -181 -247 6121 0
-6122 116 0
-6122 182 0
-6122 248 0
-116 -182 -248 6122 0
-6123 117 0
-6123 183 0
-6123 249 0
-117 -183 -249 6123 0
-6124 118 0
-6124 184 0
-6124 250 0
-118 -184 -250 6124 0
-6125 119 0
-6125 185 0
-6125 251 0
-119 -185 -251 6125 0
-6126 120 0
-6126 186 0
-6126 252 0
-120 -186 -252 6126 0
-6127 121 0
-6127 187 0
-6127 253 0
-121 -187 -253 6127 0
-6128 122 0
-6128 188 0
-6128 254 0
-122 -188 -254 6128 0
-6129 123 0
-6129 189 0
-6129 255 0
-123 -189 -255 6129 0
-6130 124 0
-6130 190 0
-6130 256 0
-124 -190 -256 6130 0
-6131 125 0
-6131 191 0
-6131 257 0
-125 -191 -257 6131 0
-6132 126 0
-6132 192 0
-6132 258 0
-126 -192 -258 6132 0
-6133 127 0
-6133 193 0
-6133 259 0
-127 -193 -259 6133 0
-6134 128 0
-6134 194 0
-6134 260 0
-128 -194 -260 6134 0
-6135 129 0
-6135 195 0
-6135 261 0
-129 -195 -261 6135 0
-6136 130 0
-6136 196 0
-6136 262 0
-130 -196 -262 6136 0
-6137 131 0
-6137 197 0
-6137 263 0
-131 -197 -263 6137 0
-6138 132 0
-6138 198 0
-6138 264 0
-132 -198 -264 6138 0
-6117 6841 0
-6118 6841 0
-6119 6841 0
-6120 6841 0
-6121 6841 0
-6122 6841 0
-6123 6841 0
-6124 6841 0
-6125 6841 0
-6126 6841 0
-6127 6841 0
-6128 6841 0
-6129 6841 0
-6130 6841 0
-6131 6841 0
-6132 6841 0
-6133 6841 0
-6134 6841 0
-6135 6841 0
-6136 6841 0
-6137 6841 0
-6138 6841 0
-6841 6117 6118 6119 6120 6121 6122 6123 6124 6125 6126 6127 6128 6129 6130 6131 6132 6133 6134 6135 6136 6137 6138 0
-6139 111 0
-6139 199 0
-6139 221 0
-111 -199 -221 6139 0
-6140 112 0
-6140 200 0
-6140 222 0
-112 -200 -222 6140 0
-6141 113 0
-6141 201 0
-6141 223 0
-113 -201 -223 6141 0
-6142 114 0
-6142 202 0
-6142 224 0
-114 -202 -224 6142 0
-6143 115 0
-6143 203 0
-6143 225 0
-115 -203 -225 6143 0
-6144 116 0
-6144 204 0
-6144 226 0
-116 -204 -226 6144 0
-6145 117 0
-6145 205 0
-6145 227 0
-117 -205 -227 6145 0
-6146 118 0
-6146 206 0
-6146 228 0
-118 -206 -228 6146 0
-6147 119 0
-6147 207 0
-6147 229 0
-119 -207 -229 6147 0
-6148 120 0
-6148 208 0
-6148 230 0
-120 -208 -230 6148 0
-6149 121 0
-6149 209 0
-6149 231 0
-121 -209 -231 6149 0
-6150 122 0
-6150 210 0
-6150 232 0
-122 -210 -232 6150 0
-6151 123 0
-6151 211 0
-6151 233 0
-123 -211 -233 6151 0
-6152 124 0
-6152 212 0
-6152 234 0
-124 -212 -234 6152 0
-6153 125 0
-6153 213 0
-6153 235 0
-125 -213 -235 6153 0
-6154 126 0
-6154 214 0
-6154 236 0
-126 -214 -236 6154 0
-6155 127 0
-6155 215 0
-6155 237 0
-127 -215 -237 6155 0
-6156 128 0
-6156 216 0
-6156 238 0
-128 -216 -238 6156 0
-6157 129 0
-6157 217 0
-6157 239 0
-129 -217 -239 6157 0
-6158 130 0
-6158 218 0
-6158 240 0
-130 -218 -240 6158 0
-6159 131 0
-6159 219 0
-6159 241 0
-131 -219 -241 6159 0
-6160 132 0
-6160 220 0
-6160 242 0
-132 -220 -242 6160 0
-6139 6842 0
-6140 6842 0
-6141 6842 0
-6142 6842 0
-6143 6842 0
-6144 6842 0
-6145 6842 0
-6146 6842 0
-6147 6842 0
-6148 6842 0
-6149 6842 0
-6150 6842 0
-6151 6842 0
-6152 6842 0
-6153 6842 0
-6154 6842 0
-6155 6842 0
-6156 6842 0
-6157 6842 0
-6158 6842 0
-6159 6842 0
-6160 6842 0
-6842 6139 6140 6141 6142 6143 6144 6145 6146 6147 6148 6149 6150 6151 6152 6153 6154 6155 6156 6157 6158 6159 6160 0
-6161 111 0
-6161 199 0
-6161 243 0
-111 -199 -243 6161 0
-6162 112 0
-6162 200 0
-6162 244 0
-112 -200 -244 6162 0
-6163 113 0
-6163 201 0
-6163 245 0
-113 -201 -245 6163 0
-6164 114 0
-6164 202 0
-6164 246 0
-114 -202 -246 6164 0
-6165 115 0
-6165 203 0
-6165 247 0
-115 -203 -247 6165 0
-6166 116 0
-6166 204 0
-6166 248 0
-116 -204 -248 6166 0
-6167 117 0
-6167 205 0
-6167 249 0
-117 -205 -249 6167 0
-6168 118 0
-6168 206 0
-6168 250 0
-118 -206 -250 6168 0
-6169 119 0
-6169 207 0
-6169 251 0
-119 -207 -251 6169 0
-6170 120 0
-6170 208 0
-6170 252 0
-120 -208 -252 6170 0
-6171 121 0
-6171 209 0
-6171 253 0
-121 -209 -253 6171 0
-6172 122 0
-6172 210 0
-6172 254 0
-122 -210 -254 6172 0
-6173 123 0
-6173 211 0
-6173 255 0
-123 -211 -255 6173 0
-6174 124 0
-6174 212 0
-6174 256 0
-124 -212 -256 6174 0
-6175 125 0
-6175 213 0
-6175 257 0
-125 -213 -257 6175 0
-6176 126 0
-6176 214 0
-6176 258 0
-126 -214 -258 6176 0
-6177 127 0
-6177 215 0
-6177 259 0
-127 -215 -259 6177 0
-6178 128 0
-6178 216 0
-6178 260 0
-128 -216 -260 6178 0
-6179 129 0
-6179 217 0
-6179 261 0
-129 -217 -261 6179 0
-6180 130 0
-6180 218 0
-6180 262 0
-130 -218 -262 6180 0
-6181 131 0
-6181 219 0
-6181 263 0
-131 -219 -263 6181 0
-6182 132 0
-6182 220 0
-6182 264 0
-132 -220 -264 6182 0
-6161 6843 0
-6162 6843 0
-6163 6843 0
-6164 6843 0
-6165 6843 0
-6166 6843 0
-6167 6843 0
-6168 6843 0
-6169 6843 0
-6170 6843 0
-6171 6843 0
-6172 6843 0
-6173 6843 0
-6174 6843 0
-6175 6843 0
-6176 6843 0
-6177 6843 0
-6178 6843 0
-6179 6843 0
-6180 6843 0
-6181 6843 0
-6182 6843 0
-6843 6161 6162 6163 6164 6165 6166 6167 6168 6169 6170 6171 6172 6173 6174 6175 6176 6177 6178 6179 6180 6181 6182 0
-6183 111 0
-6183 221 0
-6183 243 0
-111 -221 -243 6183 0
-6184 112 0
-6184 222 0
-6184 244 0
-112 -222 -244 6184 0
-6185 113 0
-6185 223 0
-6185 245 0
-113 -223 -245 6185 0
-6186 114 0
-6186 224 0
-6186 246 0
-114 -224 -246 6186 0
-6187 115 0
-6187 225 0
-6187 247 0
-115 -225 -247 6187 0
-6188 116 0
-6188 226 0
-6188 248 0
-116 -226 -248 6188 0
-6189 117 0
-6189 227 0
-6189 249 0
-117 -227 -249 6189 0
-6190 118 0
-6190 228 0
-6190 250 0
-118 -228 -250 6190 0
-6191 119 0
-6191 229 0
-6191 251 0
-119 -229 -251 6191 0
-6192 120 0
-6192 230 0
-6192 252 0
-120 -230 -252 6192 0
-6193 121 0
-6193 231 0
-6193 253 0
-121 -231 -253 6193 0
-6194 122 0
-6194 232 0
-6194 254 0
-122 -232 -254 6194 0
-6195 123 0
-6195 233 0
-6195 255 0
-123 -233 -255 6195 0
-6196 124 0
-6196 234 0
-6196 256 0
-124 -234 -256 6196 0
-6197 125 0
-6197 235 0
-6197 257 0
-125 -235 -257 6197 0
-6198 126 0
-6198 236 0
-6198 258 0
-126 -236 -258 6198 0
-6199 127 0
-6199 237 0
-6199 259 0
-127 -237 -259 6199 0
-6200 128 0
-6200 238 0
-6200 260 0
-128 -238 -260 6200 0
-6201 129 0
-6201 239 0
-6201 261 0
-129 -239 -261 6201 0
-6202 130 0
-6202 240 0
-6202 262 0
-130 -240 -262 6202 0
-6203 131 0
-6203 241 0
-6203 263 0
-131 -241 -263 6203 0
-6204 132 0
-6204 242 0
-6204 264 0
-132 -242 -264 6204 0
-6183 6844 0
-6184 6844 0
-6185 6844 0
-6186 6844 0
-6187 6844 0
-6188 6844 0
-6189 6844 0
-6190 6844 0
-6191 6844 0
-6192 6844 0
-6193 6844 0
-6194 6844 0
-6195 6844 0
-6196 6844 0
-6197 6844 0
-6198 6844 0
-6199 6844 0
-6200 6844 0
-6201 6844 0
-6202 6844 0
-6203 6844 0
-6204 6844 0
-6844 6183 6184 6185 6186 6187 6188 6189 6190 6191 6192 6193 6194 6195 6196 6197 6198 6199 6200 6201 6202 6203 6204 0
-6205 133 0
-6205 155 0
-6205 177 0
-133 -155 -177 6205 0
-6206 134 0
-6206 156 0
-6206 178 0
-134 -156 -178 6206 0
-6207 135 0
-6207 157 0
-6207 179 0
-135 -157 -179 6207 0
-6208 136 0
-6208 158 0
-6208 180 0
-136 -158 -180 6208 0
-6209 137 0
-6209 159 0
-6209 181 0
-137 -159 -181 6209 0
-6210 138 0
-6210 160 0
-6210 182 0
-138 -160 -182 6210 0
-6211 139 0
-6211 161 0
-6211 183 0
-139 -161 -183 6211 0
-6212 140 0
-6212 162 0
-6212 184 0
-140 -162 -184 6212 0
-6213 141 0
-6213 163 0
-6213 185 0
-141 -163 -185 6213 0
-6214 142 0
-6214 164 0
-6214 186 0
-142 -164 -186 6214 0
-6215 143 0
-6215 165 0
-6215 187 0
-143 -165 -187 6215 0
-6216 144 0
-6216 166 0
-6216 188 0
-144 -166 -188 6216 0
-6217 145 0
-6217 167 0
-6217 189 0
-145 -167 -189 6217 0
-6218 146 0
-6218 168 0
-6218 190 0
-146 -168 -190 6218 0
-6219 147 0
-6219 169 0
-6219 191 0
-147 -169 -191 6219 0
-6220 148 0
-6220 170 0
-6220 192 0
-148 -170 -192 6220 0
-6221 149 0
-6221 171 0
-6221 193 0
-149 -171 -193 6221 0
-6222 150 0
-6222 172 0
-6222 194 0
-150 -172 -194 6222 0
-6223 151 0
-6223 173 0
-6223 195 0
-151 -173 -195 6223 0
-6224 152 0
-6224 174 0
-6224 196 0
-152 -174 -196 6224 0
-6225 153 0
-6225 175 0
-6225 197 0
-153 -175 -197 6225 0
-6226 154 0
-6226 176 0
-6226 198 0
-154 -176 -198 6226 0
-6205 6845 0
-6206 6845 0
-6207 6845 0
-6208 6845 0
-6209 6845 0
-6210 6845 0
-6211 6845 0
-6212 6845 0
-6213 6845 0
-6214 6845 0
-6215 6845 0
-6216 6845 0
-6217 6845 0
-6218 6845 0
-6219 6845 0
-6220 6845 0
-6221 6845 0
-6222 6845 0
-6223 6845 0
-6224 6845 0
-6225 6845 0
-6226 6845 0
-6845 6205 6206 6207 6208 6209 6210 6211 6212 6213 6214 6215 6216 6217 6218 6219 6220 6221 6222 6223 6224 6225 6226 0
-6227 133 0
-6227 155 0
-6227 199 0
-133 -155 -199 6227 0
-6228 134 0
-6228 156 0
-6228 200 0
-134 -156 -200 6228 0
-6229 135 0
-6229 157 0
-6229 201 0
-135 -157 -201 6229 0
-6230 136 0
-6230 158 0
-6230 202 0
-136 -158 -202 6230 0
-6231 137 0
-6231 159 0
-6231 203 0
-137 -159 -203 6231 0
-6232 138 0
-6232 160 0
-6232 204 0
-138 -160 -204 6232 0
-6233 139 0
-6233 161 0
-6233 205 0
-139 -161 -205 6233 0
-6234 140 0
-6234 162 0
-6234 206 0
-140 -162 -206 6234 0
-6235 141 0
-6235 163 0
-6235 207 0
-141 -163 -207 6235 0
-6236 142 0
-6236 164 0
-6236 208 0
-142 -164 -208 6236 0
-6237 143 0
-6237 165 0
-6237 209 0
-143 -165 -209 6237 0
-6238 144 0
-6238 166 0
-6238 210 0
-144 -166 -210 6238 0
-6239 145 0
-6239 167 0
-6239 211 0
-145 -167 -211 6239 0
-6240 146 0
-6240 168 0
-6240 212 0
-146 -168 -212 6240 0
-6241 147 0
-6241 169 0
-6241 213 0
-147 -169 -213 6241 0
-6242 148 0
-6242 170 0
-6242 214 0
-148 -170 -214 6242 0
-6243 149 0
-6243 171 0
-6243 215 0
-149 -171 -215 6243 0
-6244 150 0
-6244 172 0
-6244 216 0
-150 -172 -216 6244 0
-6245 151 0
-6245 173 0
-6245 217 0
-151 -173 -217 6245 0
-6246 152 0
-6246 174 0
-6246 218 0
-152 -174 -218 6246 0
-6247 153 0
-6247 175 0
-6247 219 0
-153 -175 -219 6247 0
-6248 154 0
-6248 176 0
-6248 220 0
-154 -176 -220 6248 0
-6227 6846 0
-6228 6846 0
-6229 6846 0
-6230 6846 0
-6231 6846 0
-6232 6846 0
-6233 6846 0
-6234 6846 0
-6235 6846 0
-6236 6846 0
-6237 6846 0
-6238 6846 0
-6239 6846 0
-6240 6846 0
-6241 6846 0
-6242 6846 0
-6243 6846 0
-6244 6846 0
-6245 6846 0
-6246 6846 0
-6247 6846 0
-6248 6846 0
-6846 6227 6228 6229 6230 6231 6232 6233 6234 6235 6236 6237 6238 6239 6240 6241 6242 6243 6244 6245 6246 6247 6248 0
-6249 133 0
-6249 155 0
-6249 221 0
-133 -155 -221 6249 0
-6250 134 0
-6250 156 0
-6250 222 0
-134 -156 -222 6250 0
-6251 135 0
-6251 157 0
-6251 223 0
-135 -157 -223 6251 0
-6252 136 0
-6252 158 0
-6252 224 0
-136 -158 -224 6252 0
-6253 137 0
-6253 159 0
-6253 225 0
-137 -159 -225 6253 0
-6254 138 0
-6254 160 0
-6254 226 0
-138 -160 -226 6254 0
-6255 139 0
-6255 161 0
-6255 227 0
-139 -161 -227 6255 0
-6256 140 0
-6256 162 0
-6256 228 0
-140 -162 -228 6256 0
-6257 141 0
-6257 163 0
-6257 229 0
-141 -163 -229 6257 0
-6258 142 0
-6258 164 0
-6258 230 0
-142 -164 -230 6258 0
-6259 143 0
-6259 165 0
-6259 231 0
-143 -165 -231 6259 0
-6260 144 0
-6260 166 0
-6260 232 0
-144 -166 -232 6260 0
-6261 145 0
-6261 167 0
-6261 233 0
-145 -167 -233 6261 0
-6262 146 0
-6262 168 0
-6262 234 0
-146 -168 -234 6262 0
-6263 147 0
-6263 169 0
-6263 235 0
-147 -169 -235 6263 0
-6264 148 0
-6264 170 0
-6264 236 0
-148 -170 -236 6264 0
-6265 149 0
-6265 171 0
-6265 237 0
-149 -171 -237 6265 0
-6266 150 0
-6266 172 0
-6266 238 0
-150 -172 -238 6266 0
-6267 151 0
-6267 173 0
-6267 239 0
-151 -173 -239 6267 0
-6268 152 0
-6268 174 0
-6268 240 0
-152 -174 -240 6268 0
-6269 153 0
-6269 175 0
-6269 241 0
-153 -175 -241 6269 0
-6270 154 0
-6270 176 0
-6270 242 0
-154 -176 -242 6270 0
-6249 6847 0
-6250 6847 0
-6251 6847 0
-6252 6847 0
-6253 6847 0
-6254 6847 0
-6255 6847 0
-6256 6847 0
-6257 6847 0
-6258 6847 0
-6259 6847 0
-6260 6847 0
-6261 6847 0
-6262 6847 0
-6263 6847 0
-6264 6847 0
-6265 6847 0
-6266 6847 0
-6267 6847 0
-6268 6847 0
-6269 6847 0
-6270 6847 0
-6847 6249 6250 6251 6252 6253 6254 6255 6256 6257 6258 6259 6260 6261 6262 6263 6264 6265 6266 6267 6268 6269 6270 0
-6271 133 0
-6271 155 0
-6271 243 0
-133 -155 -243 6271 0
-6272 134 0
-6272 156 0
-6272 244 0
-134 -156 -244 6272 0
-6273 135 0
-6273 157 0
-6273 245 0
-135 -157 -245 6273 0
-6274 136 0
-6274 158 0
-6274 246 0
-136 -158 -246 6274 0
-6275 137 0
-6275 159 0
-6275 247 0
-137 -159 -247 6275 0
-6276 138 0
-6276 160 0
-6276 248 0
-138 -160 -248 6276 0
-6277 139 0
-6277 161 0
-6277 249 0
-139 -161 -249 6277 0
-6278 140 0
-6278 162 0
-6278 250 0
-140 -162 -250 6278 0
-6279 141 0
-6279 163 0
-6279 251 0
-141 -163 -251 6279 0
-6280 142 0
-6280 164 0
-6280 252 0
-142 -164 -252 6280 0
-6281 143 0
-6281 165 0
-6281 253 0
-143 -165 -253 6281 0
-6282 144 0
-6282 166 0
-6282 254 0
-144 -166 -254 6282 0
-6283 145 0
-6283 167 0
-6283 255 0
-145 -167 -255 6283 0
-6284 146 0
-6284 168 0
-6284 256 0
-146 -168 -256 6284 0
-6285 147 0
-6285 169 0
-6285 257 0
-147 -169 -257 6285 0
-6286 148 0
-6286 170 0
-6286 258 0
-148 -170 -258 6286 0
-6287 149 0
-6287 171 0
-6287 259 0
-149 -171 -259 6287 0
-6288 150 0
-6288 172 0
-6288 260 0
-150 -172 -260 6288 0
-6289 151 0
-6289 173 0
-6289 261 0
-151 -173 -261 6289 0
-6290 152 0
-6290 174 0
-6290 262 0
-152 -174 -262 6290 0
-6291 153 0
-6291 175 0
-6291 263 0
-153 -175 -263 6291 0
-6292 154 0
-6292 176 0
-6292 264 0
-154 -176 -264 6292 0
-6271 6848 0
-6272 6848 0
-6273 6848 0
-6274 6848 0
-6275 6848 0
-6276 6848 0
-6277 6848 0
-6278 6848 0
-6279 6848 0
-6280 6848 0
-6281 6848 0
-6282 6848 0
-6283 6848 0
-6284 6848 0
-6285 6848 0
-6286 6848 0
-6287 6848 0
-6288 6848 0
-6289 6848 0
-6290 6848 0
-6291 6848 0
-6292 6848 0
-6848 6271 6272 6273 6274 6275 6276 6277 6278 6279 6280 6281 6282 6283 6284 6285 6286 6287 6288 6289 6290 6291 6292 0
-6293 133 0
-6293 177 0
-6293 199 0
-133 -177 -199 6293 0
-6294 134 0
-6294 178 0
-6294 200 0
-134 -178 -200 6294 0
-6295 135 0
-6295 179 0
-6295 201 0
-135 -179 -201 6295 0
-6296 136 0
-6296 180 0
-6296 202 0
-136 -180 -202 6296 0
-6297 137 0
-6297 181 0
-6297 203 0
-137 -181 -203 6297 0
-6298 138 0
-6298 182 0
-6298 204 0
-138 -182 -204 6298 0
-6299 139 0
-6299 183 0
-6299 205 0
-139 -183 -205 6299 0
-6300 140 0
-6300 184 0
-6300 206 0
-140 -184 -206 6300 0
-6301 141 0
-6301 185 0
-6301 207 0
-141 -185 -207 6301 0
-6302 142 0
-6302 186 0
-6302 208 0
-142 -186 -208 6302 0
-6303 143 0
-6303 187 0
-6303 209 0
-143 -187 -209 6303 0
-6304 144 0
-6304 188 0
-6304 210 0
-144 -188 -210 6304 0
-6305 145 0
-6305 189 0
-6305 211 0
-145 -189 -211 6305 0
-6306 146 0
-6306 190 0
-6306 212 0
-146 -190 -212 6306 0
-6307 147 0
-6307 191 0
-6307 213 0
-147 -191 -213 6307 0
-6308 148 0
-6308 192 0
-6308 214 0
-148 -192 -214 6308 0
-6309 149 0
-6309 193 0
-6309 215 0
-149 -193 -215 6309 0
-6310 150 0
-6310 194 0
-6310 216 0
-150 -194 -216 6310 0
-6311 151 0
-6311 195 0
-6311 217 0
-151 -195 -217 6311 0
-6312 152 0
-6312 196 0
-6312 218 0
-152 -196 -218 6312 0
-6313 153 0
-6313 197 0
-6313 219 0
-153 -197 -219 6313 0
-6314 154 0
-6314 198 0
-6314 220 0
-154 -198 -220 6314 0
-6293 6849 0
-6294 6849 0
-6295 6849 0
-6296 6849 0
-6297 6849 0
-6298 6849 0
-6299 6849 0
-6300 6849 0
-6301 6849 0
-6302 6849 0
-6303 6849 0
-6304 6849 0
-6305 6849 0
-6306 6849 0
-6307 6849 0
-6308 6849 0
-6309 6849 0
-6310 6849 0
-6311 6849 0
-6312 6849 0
-6313 6849 0
-6314 6849 0
-6849 6293 6294 6295 6296 6297 6298 6299 6300 6301 6302 6303 6304 6305 6306 6307 6308 6309 6310 6311 6312 6313 6314 0
-6315 133 0
-6315 177 0
-6315 221 0
-133 -177 -221 6315 0
-6316 134 0
-6316 178 0
-6316 222 0
-134 -178 -222 6316 0
-6317 135 0
-6317 179 0
-6317 223 0
-135 -179 -223 6317 0
-6318 136 0
-6318 180 0
-6318 224 0
-136 -180 -224 6318 0
-6319 137 0
-6319 181 0
-6319 225 0
-137 -181 -225 6319 0
-6320 138 0
-6320 182 0
-6320 226 0
-138 -182 -226 6320 0
-6321 139 0
-6321 183 0
-6321 227 0
-139 -183 -227 6321 0
-6322 140 0
-6322 184 0
-6322 228 0
-140 -184 -228 6322 0
-6323 141 0
-6323 185 0
-6323 229 0
-141 -185 -229 6323 0
-6324 142 0
-6324 186 0
-6324 230 0
-142 -186 -230 6324 0
-6325 143 0
-6325 187 0
-6325 231 0
-143 -187 -231 6325 0
-6326 144 0
-6326 188 0
-6326 232 0
-144 -188 -232 6326 0
-6327 145 0
-6327 189 0
-6327 233 0
-145 -189 -233 6327 0
-6328 146 0
-6328 190 0
-6328 234 0
-146 -190 -234 6328 0
-6329 147 0
-6329 191 0
-6329 235 0
-147 -191 -235 6329 0
-6330 148 0
-6330 192 0
-6330 236 0
-148 -192 -236 6330 0
-6331 149 0
-6331 193 0
-6331 237 0
-149 -193 -237 6331 0
-6332 150 0
-6332 194 0
-6332 238 0
-150 -194 -238 6332 0
-6333 151 0
-6333 195 0
-6333 239 0
-151 -195 -239 6333 0
-6334 152 0
-6334 196 0
-6334 240 0
-152 -196 -240 6334 0
-6335 153 0
-6335 197 0
-6335 241 0
-153 -197 -241 6335 0
-6336 154 0
-6336 198 0
-6336 242 0
-154 -198 -242 6336 0
-6315 6850 0
-6316 6850 0
-6317 6850 0
-6318 6850 0
-6319 6850 0
-6320 6850 0
-6321 6850 0
-6322 6850 0
-6323 6850 0
-6324 6850 0
-6325 6850 0
-6326 6850 0
-6327 6850 0
-6328 6850 0
-6329 6850 0
-6330 6850 0
-6331 6850 0
-6332 6850 0
-6333 6850 0
-6334 6850 0
-6335 6850 0
-6336 6850 0
-6850 6315 6316 6317 6318 6319 6320 6321 6322 6323 6324 6325 6326 6327 6328 6329 6330 6331 6332 6333 6334 6335 6336 0
-6337 133 0
-6337 177 0
-6337 243 0
-133 -177 -243 6337 0
-6338 134 0
-6338 178 0
-6338 244 0
-134 -178 -244 6338 0
-6339 135 0
-6339 179 0
-6339 245 0
-135 -179 -245 6339 0
-6340 136 0
-6340 180 0
-6340 246 0
-136 -180 -246 6340 0
-6341 137 0
-6341 181 0
-6341 247 0
-137 -181 -247 6341 0
-6342 138 0
-6342 182 0
-6342 248 0
-138 -182 -248 6342 0
-6343 139 0
-6343 183 0
-6343 249 0
-139 -183 -249 6343 0
-6344 140 0
-6344 184 0
-6344 250 0
-140 -184 -250 6344 0
-6345 141 0
-6345 185 0
-6345 251 0
-141 -185 -251 6345 0
-6346 142 0
-6346 186 0
-6346 252 0
-142 -186 -252 6346 0
-6347 143 0
-6347 187 0
-6347 253 0
-143 -187 -253 6347 0
-6348 144 0
-6348 188 0
-6348 254 0
-144 -188 -254 6348 0
-6349 145 0
-6349 189 0
-6349 255 0
-145 -189 -255 6349 0
-6350 146 0
-6350 190 0
-6350 256 0
-146 -190 -256 6350 0
-6351 147 0
-6351 191 0
-6351 257 0
-147 -191 -257 6351 0
-6352 148 0
-6352 192 0
-6352 258 0
-148 -192 -258 6352 0
-6353 149 0
-6353 193 0
-6353 259 0
-149 -193 -259 6353 0
-6354 150 0
-6354 194 0
-6354 260 0
-150 -194 -260 6354 0
-6355 151 0
-6355 195 0
-6355 261 0
-151 -195 -261 6355 0
-6356 152 0
-6356 196 0
-6356 262 0
-152 -196 -262 6356 0
-6357 153 0
-6357 197 0
-6357 263 0
-153 -197 -263 6357 0
-6358 154 0
-6358 198 0
-6358 264 0
-154 -198 -264 6358 0
-6337 6851 0
-6338 6851 0
-6339 6851 0
-6340 6851 0
-6341 6851 0
-6342 6851 0
-6343 6851 0
-6344 6851 0
-6345 6851 0
-6346 6851 0
-6347 6851 0
-6348 6851 0
-6349 6851 0
-6350 6851 0
-6351 6851 0
-6352 6851 0
-6353 6851 0
-6354 6851 0
-6355 6851 0
-6356 6851 0
-6357 6851 0
-6358 6851 0
-6851 6337 6338 6339 6340 6341 6342 6343 6344 6345 6346 6347 6348 6349 6350 6351 6352 6353 6354 6355 6356 6357 6358 0
-6359 133 0
-6359 199 0
-6359 221 0
-133 -199 -221 6359 0
-6360 134 0
-6360 200 0
-6360 222 0
-134 -200 -222 6360 0
-6361 135 0
-6361 201 0
-6361 223 0
-135 -201 -223 6361 0
-6362 136 0
-6362 202 0
-6362 224 0
-136 -202 -224 6362 0
-6363 137 0
-6363 203 0
-6363 225 0
-137 -203 -225 6363 0
-6364 138 0
-6364 204 0
-6364 226 0
-138 -204 -226 6364 0
-6365 139 0
-6365 205 0
-6365 227 0
-139 -205 -227 6365 0
-6366 140 0
-6366 206 0
-6366 228 0
-140 -206 -228 6366 0
-6367 141 0
-6367 207 0
-6367 229 0
-141 -207 -229 6367 0
-6368 142 0
-6368 208 0
-6368 230 0
-142 -208 -230 6368 0
-6369 143 0
-6369 209 0
-6369 231 0
-143 -209 -231 6369 0
-6370 144 0
-6370 210 0
-6370 232 0
-144 -210 -232 6370 0
-6371 145 0
-6371 211 0
-6371 233 0
-145 -211 -233 6371 0
-6372 146 0
-6372 212 0
-6372 234 0
-146 -212 -234 6372 0
-6373 147 0
-6373 213 0
-6373 235 0
-147 -213 -235 6373 0
-6374 148 0
-6374 214 0
-6374 236 0
-148 -214 -236 6374 0
-6375 149 0
-6375 215 0
-6375 237 0
-149 -215 -237 6375 0
-6376 150 0
-6376 216 0
-6376 238 0
-150 -216 -238 6376 0
-6377 151 0
-6377 217 0
-6377 239 0
-151 -217 -239 6377 0
-6378 152 0
-6378 218 0
-6378 240 0
-152 -218 -240 6378 0
-6379 153 0
-6379 219 0
-6379 241 0
-153 -219 -241 6379 0
-6380 154 0
-6380 220 0
-6380 242 0
-154 -220 -242 6380 0
-6359 6852 0
-6360 6852 0
-6361 6852 0
-6362 6852 0
-6363 6852 0
-6364 6852 0
-6365 6852 0
-6366 6852 0
-6367 6852 0
-6368 6852 0
-6369 6852 0
-6370 6852 0
-6371 6852 0
-6372 6852 0
-6373 6852 0
-6374 6852 0
-6375 6852 0
-6376 6852 0
-6377 6852 0
-6378 6852 0
-6379 6852 0
-6380 6852 0
-6852 6359 6360 6361 6362 6363 6364 6365 6366 6367 6368 6369 6370 6371 6372 6373 6374 6375 6376 6377 6378 6379 6380 0
-6381 133 0
-6381 199 0
-6381 243 0
-133 -199 -243 6381 0
-6382 134 0
-6382 200 0
-6382 244 0
-134 -200 -244 6382 0
-6383 135 0
-6383 201 0
-6383 245 0
-135 -201 -245 6383 0
-6384 136 0
-6384 202 0
-6384 246 0
-136 -202 -246 6384 0
-6385 137 0
-6385 203 0
-6385 247 0
-137 -203 -247 6385 0
-6386 138 0
-6386 204 0
-6386 248 0
-138 -204 -248 6386 0
-6387 139 0
-6387 205 0
-6387 249 0
-139 -205 -249 6387 0
-6388 140 0
-6388 206 0
-6388 250 0
-140 -206 -250 6388 0
-6389 141 0
-6389 207 0
-6389 251 0
-141 -207 -251 6389 0
-6390 142 0
-6390 208 0
-6390 252 0
-142 -208 -252 6390 0
-6391 143 0
-6391 209 0
-6391 253 0
-143 -209 -253 6391 0
-6392 144 0
-6392 210 0
-6392 254 0
-144 -210 -254 6392 0
-6393 145 0
-6393 211 0
-6393 255 0
-145 -211 -255 6393 0
-6394 146 0
-6394 212 0
-6394 256 0
-146 -212 -256 6394 0
-6395 147 0
-6395 213 0
-6395 257 0
-147 -213 -257 6395 0
-6396 148 0
-6396 214 0
-6396 258 0
-148 -214 -258 6396 0
-6397 149 0
-6397 215 0
-6397 259 0
-149 -215 -259 6397 0
-6398 150 0
-6398 216 0
-6398 260 0
-150 -216 -260 6398 0
-6399 151 0
-6399 217 0
-6399 261 0
-151 -217 -261 6399 0
-6400 152 0
-6400 218 0
-6400 262 0
-152 -218 -262 6400 0
-6401 153 0
-6401 219 0
-6401 263 0
-153 -219 -263 6401 0
-6402 154 0
-6402 220 0
-6402 264 0
-154 -220 -264 6402 0
-6381 6853 0
-6382 6853 0
-6383 6853 0
-6384 6853 0
-6385 6853 0
-6386 6853 0
-6387 6853 0
-6388 6853 0
-6389 6853 0
-6390 6853 0
-6391 6853 0
-6392 6853 0
-6393 6853 0
-6394 6853 0
-6395 6853 0
-6396 6853 0
-6397 6853 0
-6398 6853 0
-6399 6853 0
-6400 6853 0
-6401 6853 0
-6402 6853 0
-6853 6381 6382 6383 6384 6385 6386 6387 6388 6389 6390 6391 6392 6393 6394 6395 6396 6397 6398 6399 6400 6401 6402 0
-6403 133 0
-6403 221 0
-6403 243 0
-133 -221 -243 6403 0
-6404 134 0
-6404 222 0
-6404 244 0
-134 -222 -244 6404 0
-6405 135 0
-6405 223 0
-6405 245 0
-135 -223 -245 6405 0
-6406 136 0
-6406 224 0
-6406 246 0
-136 -224 -246 6406 0
-6407 137 0
-6407 225 0
-6407 247 0
-137 -225 -247 6407 0
-6408 138 0
-6408 226 0
-6408 248 0
-138 -226 -248 6408 0
-6409 139 0
-6409 227 0
-6409 249 0
-139 -227 -249 6409 0
-6410 140 0
-6410 228 0
-6410 250 0
-140 -228 -250 6410 0
-6411 141 0
-6411 229 0
-6411 251 0
-141 -229 -251 6411 0
-6412 142 0
-6412 230 0
-6412 252 0
-142 -230 -252 6412 0
-6413 143 0
-6413 231 0
-6413 253 0
-143 -231 -253 6413 0
-6414 144 0
-6414 232 0
-6414 254 0
-144 -232 -254 6414 0
-6415 145 0
-6415 233 0
-6415 255 0
-145 -233 -255 6415 0
-6416 146 0
-6416 234 0
-6416 256 0
-146 -234 -256 6416 0
-6417 147 0
-6417 235 0
-6417 257 0
-147 -235 -257 6417 0
-6418 148 0
-6418 236 0
-6418 258 0
-148 -236 -258 6418 0
-6419 149 0
-6419 237 0
-6419 259 0
-149 -237 -259 6419 0
-6420 150 0
-6420 238 0
-6420 260 0
-150 -238 -260 6420 0
-6421 151 0
-6421 239 0
-6421 261 0
-151 -239 -261 6421 0
-6422 152 0
-6422 240 0
-6422 262 0
-152 -240 -262 6422 0
-6423 153 0
-6423 241 0
-6423 263 0
-153 -241 -263 6423 0
-6424 154 0
-6424 242 0
-6424 264 0
-154 -242 -264 6424 0
-6403 6854 0
-6404 6854 0
-6405 6854 0
-6406 6854 0
-6407 6854 0
-6408 6854 0
-6409 6854 0
-6410 6854 0
-6411 6854 0
-6412 6854 0
-6413 6854 0
-6414 6854 0
-6415 6854 0
-6416 6854 0
-6417 6854 0
-6418 6854 0
-6419 6854 0
-6420 6854 0
-6421 6854 0
-6422 6854 0
-6423 6854 0
-6424 6854 0
-6854 6403 6404 6405 6406 6407 6408 6409 6410 6411 6412 6413 6414 6415 6416 6417 6418 6419 6420 6421 6422 6423 6424 0
-6425 155 0
-6425 177 0
-6425 199 0
-155 -177 -199 6425 0
-6426 156 0
-6426 178 0
-6426 200 0
-156 -178 -200 6426 0
-6427 157 0
-6427 179 0
-6427 201 0
-157 -179 -201 6427 0
-6428 158 0
-6428 180 0
-6428 202 0
-158 -180 -202 6428 0
-6429 159 0
-6429 181 0
-6429 203 0
-159 -181 -203 6429 0
-6430 160 0
-6430 182 0
-6430 204 0
-160 -182 -204 6430 0
-6431 161 0
-6431 183 0
-6431 205 0
-161 -183 -205 6431 0
-6432 162 0
-6432 184 0
-6432 206 0
-162 -184 -206 6432 0
-6433 163 0
-6433 185 0
-6433 207 0
-163 -185 -207 6433 0
-6434 164 0
-6434 186 0
-6434 208 0
-164 -186 -208 6434 0
-6435 165 0
-6435 187 0
-6435 209 0
-165 -187 -209 6435 0
-6436 166 0
-6436 188 0
-6436 210 0
-166 -188 -210 6436 0
-6437 167 0
-6437 189 0
-6437 211 0
-167 -189 -211 6437 0
-6438 168 0
-6438 190 0
-6438 212 0
-168 -190 -212 6438 0
-6439 169 0
-6439 191 0
-6439 213 0
-169 -191 -213 6439 0
-6440 170 0
-6440 192 0
-6440 214 0
-170 -192 -214 6440 0
-6441 171 0
-6441 193 0
-6441 215 0
-171 -193 -215 6441 0
-6442 172 0
-6442 194 0
-6442 216 0
-172 -194 -216 6442 0
-6443 173 0
-6443 195 0
-6443 217 0
-173 -195 -217 6443 0
-6444 174 0
-6444 196 0
-6444 218 0
-174 -196 -218 6444 0
-6445 175 0
-6445 197 0
-6445 219 0
-175 -197 -219 6445 0
-6446 176 0
-6446 198 0
-6446 220 0
-176 -198 -220 6446 0
-6425 6855 0
-6426 6855 0
-6427 6855 0
-6428 6855 0
-6429 6855 0
-6430 6855 0
-6431 6855 0
-6432 6855 0
-6433 6855 0
-6434 6855 0
-6435 6855 0
-6436 6855 0
-6437 6855 0
-6438 6855 0
-6439 6855 0
-6440 6855 0
-6441 6855 0
-6442 6855 0
-6443 6855 0
-6444 6855 0
-6445 6855 0
-6446 6855 0
-6855 6425 6426 6427 6428 6429 6430 6431 6432 6433 6434 6435 6436 6437 6438 6439 6440 6441 6442 6443 6444 6445 6446 0
-6447 155 0
-6447 177 0
-6447 221 0
-155 -177 -221 6447 0
-6448 156 0
-6448 178 0
-6448 222 0
-156 -178 -222 6448 0
-6449 157 0
-6449 179 0
-6449 223 0
-157 -179 -223 6449 0
-6450 158 0
-6450 180 0
-6450 224 0
-158 -180 -224 6450 0
-6451 159 0
-6451 181 0
-6451 225 0
-159 -181 -225 6451 0
-6452 160 0
-6452 182 0
-6452 226 0
-160 -182 -226 6452 0
-6453 161 0
-6453 183 0
-6453 227 0
-161 -183 -227 6453 0
-6454 162 0
-6454 184 0
-6454 228 0
-162 -184 -228 6454 0
-6455 163 0
-6455 185 0
-6455 229 0
-163 -185 -229 6455 0
-6456 164 0
-6456 186 0
-6456 230 0
-164 -186 -230 6456 0
-6457 165 0
-6457 187 0
-6457 231 0
-165 -187 -231 6457 0
-6458 166 0
-6458 188 0
-6458 232 0
-166 -188 -232 6458 0
-6459 167 0
-6459 189 0
-6459 233 0
-167 -189 -233 6459 0
-6460 168 0
-6460 190 0
-6460 234 0
-168 -190 -234 6460 0
-6461 169 0
-6461 191 0
-6461 235 0
-169 -191 -235 6461 0
-6462 170 0
-6462 192 0
-6462 236 0
-170 -192 -236 6462 0
-6463 171 0
-6463 193 0
-6463 237 0
-171 -193 -237 6463 0
-6464 172 0
-6464 194 0
-6464 238 0
-172 -194 -238 6464 0
-6465 173 0
-6465 195 0
-6465 239 0
-173 -195 -239 6465 0
-6466 174 0
-6466 196 0
-6466 240 0
-174 -196 -240 6466 0
-6467 175 0
-6467 197 0
-6467 241 0
-175 -197 -241 6467 0
-6468 176 0
-6468 198 0
-6468 242 0
-176 -198 -242 6468 0
-6447 6856 0
-6448 6856 0
-6449 6856 0
-6450 6856 0
-6451 6856 0
-6452 6856 0
-6453 6856 0
-6454 6856 0
-6455 6856 0
-6456 6856 0
-6457 6856 0
-6458 6856 0
-6459 6856 0
-6460 6856 0
-6461 6856 0
-6462 6856 0
-6463 6856 0
-6464 6856 0
-6465 6856 0
-6466 6856 0
-6467 6856 0
-6468 6856 0
-6856 6447 6448 6449 6450 6451 6452 6453 6454 6455 6456 6457 6458 6459 6460 6461 6462 6463 6464 6465 6466 6467 6468 0
-6469 155 0
-6469 177 0
-6469 243 0
-155 -177 -243 6469 0
-6470 156 0
-6470 178 0
-6470 244 0
-156 -178 -244 6470 0
-6471 157 0
-6471 179 0
-6471 245 0
-157 -179 -245 6471 0
-6472 158 0
-6472 180 0
-6472 246 0
-158 -180 -246 6472 0
-6473 159 0
-6473 181 0
-6473 247 0
-159 -181 -247 6473 0
-6474 160 0
-6474 182 0
-6474 248 0
-160 -182 -248 6474 0
-6475 161 0
-6475 183 0
-6475 249 0
-161 -183 -249 6475 0
-6476 162 0
-6476 184 0
-6476 250 0
-162 -184 -250 6476 0
-6477 163 0
-6477 185 0
-6477 251 0
-163 -185 -251 6477 0
-6478 164 0
-6478 186 0
-6478 252 0
-164 -186 -252 6478 0
-6479 165 0
-6479 187 0
-6479 253 0
-165 -187 -253 6479 0
-6480 166 0
-6480 188 0
-6480 254 0
-166 -188 -254 6480 0
-6481 167 0
-6481 189 0
-6481 255 0
-167 -189 -255 6481 0
-6482 168 0
-6482 190 0
-6482 256 0
-168 -190 -256 6482 0
-6483 169 0
-6483 191 0
-6483 257 0
-169 -191 -257 6483 0
-6484 170 0
-6484 192 0
-6484 258 0
-170 -192 -258 6484 0
-6485 171 0
-6485 193 0
-6485 259 0
-171 -193 -259 6485 0
-6486 172 0
-6486 194 0
-6486 260 0
-172 -194 -260 6486 0
-6487 173 0
-6487 195 0
-6487 261 0
-173 -195 -261 6487 0
-6488 174 0
-6488 196 0
-6488 262 0
-174 -196 -262 6488 0
-6489 175 0
-6489 197 0
-6489 263 0
-175 -197 -263 6489 0
-6490 176 0
-6490 198 0
-6490 264 0
-176 -198 -264 6490 0
-6469 6857 0
-6470 6857 0
-6471 6857 0
-6472 6857 0
-6473 6857 0
-6474 6857 0
-6475 6857 0
-6476 6857 0
-6477 6857 0
-6478 6857 0
-6479 6857 0
-6480 6857 0
-6481 6857 0
-6482 6857 0
-6483 6857 0
-6484 6857 0
-6485 6857 0
-6486 6857 0
-6487 6857 0
-6488 6857 0
-6489 6857 0
-6490 6857 0
-6857 6469 6470 6471 6472 6473 6474 6475 6476 6477 6478 6479 6480 6481 6482 6483 6484 6485 6486 6487 6488 6489 6490 0
-6491 155 0
-6491 199 0
-6491 221 0
-155 -199 -221 6491 0
-6492 156 0
-6492 200 0
-6492 222 0
-156 -200 -222 6492 0
-6493 157 0
-6493 201 0
-6493 223 0
-157 -201 -223 6493 0
-6494 158 0
-6494 202 0
-6494 224 0
-158 -202 -224 6494 0
-6495 159 0
-6495 203 0
-6495 225 0
-159 -203 -225 6495 0
-6496 160 0
-6496 204 0
-6496 226 0
-160 -204 -226 6496 0
-6497 161 0
-6497 205 0
-6497 227 0
-161 -205 -227 6497 0
-6498 162 0
-6498 206 0
-6498 228 0
-162 -206 -228 6498 0
-6499 163 0
-6499 207 0
-6499 229 0
-163 -207 -229 6499 0
-6500 164 0
-6500 208 0
-6500 230 0
-164 -208 -230 6500 0
-6501 165 0
-6501 209 0
-6501 231 0
-165 -209 -231 6501 0
-6502 166 0
-6502 210 0
-6502 232 0
-166 -210 -232 6502 0
-6503 167 0
-6503 211 0
-6503 233 0
-167 -211 -233 6503 0
-6504 168 0
-6504 212 0
-6504 234 0
-168 -212 -234 6504 0
-6505 169 0
-6505 213 0
-6505 235 0
-169 -213 -235 6505 0
-6506 170 0
-6506 214 0
-6506 236 0
-170 -214 -236 6506 0
-6507 171 0
-6507 215 0
-6507 237 0
-171 -215 -237 6507 0
-6508 172 0
-6508 216 0
-6508 238 0
-172 -216 -238 6508 0
-6509 173 0
-6509 217 0
-6509 239 0
-173 -217 -239 6509 0
-6510 174 0
-6510 218 0
-6510 240 0
-174 -218 -240 6510 0
-6511 175 0
-6511 219 0
-6511 241 0
-175 -219 -241 6511 0
-6512 176 0
-6512 220 0
-6512 242 0
-176 -220 -242 6512 0
-6491 6858 0
-6492 6858 0
-6493 6858 0
-6494 6858 0
-6495 6858 0
-6496 6858 0
-6497 6858 0
-6498 6858 0
-6499 6858 0
-6500 6858 0
-6501 6858 0
-6502 6858 0
-6503 6858 0
-6504 6858 0
-6505 6858 0
-6506 6858 0
-6507 6858 0
-6508 6858 0
-6509 6858 0
-6510 6858 0
-6511 6858 0
-6512 6858 0
-6858 6491 6492 6493 6494 6495 6496 6497 6498 6499 6500 6501 6502 6503 6504 6505 6506 6507 6508 6509 6510 6511 6512 0
-6513 155 0
-6513 199 0
-6513 243 0
-155 -199 -243 6513 0
-6514 156 0
-6514 200 0
-6514 244 0
-156 -200 -244 6514 0
-6515 157 0
-6515 201 0
-6515 245 0
-157 -201 -245 6515 0
-6516 158 0
-6516 202 0
-6516 246 0
-158 -202 -246 6516 0
-6517 159 0
-6517 203 0
-6517 247 0
-159 -203 -247 6517 0
-6518 160 0
-6518 204 0
-6518 248 0
-160 -204 -248 6518 0
-6519 161 0
-6519 205 0
-6519 249 0
-161 -205 -249 6519 0
-6520 162 0
-6520 206 0
-6520 250 0
-162 -206 -250 6520 0
-6521 163 0
-6521 207 0
-6521 251 0
-163 -207 -251 6521 0
-6522 164 0
-6522 208 0
-6522 252 0
-164 -208 -252 6522 0
-6523 165 0
-6523 209 0
-6523 253 0
-165 -209 -253 6523 0
-6524 166 0
-6524 210 0
-6524 254 0
-166 -210 -254 6524 0
-6525 167 0
-6525 211 0
-6525 255 0
-167 -211 -255 6525 0
-6526 168 0
-6526 212 0
-6526 256 0
-168 -212 -256 6526 0
-6527 169 0
-6527 213 0
-6527 257 0
-169 -213 -257 6527 0
-6528 170 0
-6528 214 0
-6528 258 0
-170 -214 -258 6528 0
-6529 171 0
-6529 215 0
-6529 259 0
-171 -215 -259 6529 0
-6530 172 0
-6530 216 0
-6530 260 0
-172 -216 -260 6530 0
-6531 173 0
-6531 217 0
-6531 261 0
-173 -217 -261 6531 0
-6532 174 0
-6532 218 0
-6532 262 0
-174 -218 -262 6532 0
-6533 175 0
-6533 219 0
-6533 263 0
-175 -219 -263 6533 0
-6534 176 0
-6534 220 0
-6534 264 0
-176 -220 -264 6534 0
-6513 6859 0
-6514 6859 0
-6515 6859 0
-6516 6859 0
-6517 6859 0
-6518 6859 0
-6519 6859 0
-6520 6859 0
-6521 6859 0
-6522 6859 0
-6523 6859 0
-6524 6859 0
-6525 6859 0
-6526 6859 0
-6527 6859 0
-6528 6859 0
-6529 6859 0
-6530 6859 0
-6531 6859 0
-6532 6859 0
-6533 6859 0
-6534 6859 0
-6859 6513 6514 6515 6516 6517 6518 6519 6520 6521 6522 6523 6524 6525 6526 6527 6528 6529 6530 6531 6532 6533 6534 0
-6535 155 0
-6535 221 0
-6535 243 0
-155 -221 -243 6535 0
-6536 156 0
-6536 222 0
-6536 244 0
-156 -222 -244 6536 0
-6537 157 0
-6537 223 0
-6537 245 0
-157 -223 -245 6537 0
-6538 158 0
-6538 224 0
-6538 246 0
-158 -224 -246 6538 0
-6539 159 0
-6539 225 0
-6539 247 0
-159 -225 -247 6539 0
-6540 160 0
-6540 226 0
-6540 248 0
-160 -226 -248 6540 0
-6541 161 0
-6541 227 0
-6541 249 0
-161 -227 -249 6541 0
-6542 162 0
-6542 228 0
-6542 250 0
-162 -228 -250 6542 0
-6543 163 0
-6543 229 0
-6543 251 0
-163 -229 -251 6543 0
-6544 164 0
-6544 230 0
-6544 252 0
-164 -230 -252 6544 0
-6545 165 0
-6545 231 0
-6545 253 0
-165 -231 -253 6545 0
-6546 166 0
-6546 232 0
-6546 254 0
-166 -232 -254 6546 0
-6547 167 0
-6547 233 0
-6547 255 0
-167 -233 -255 6547 0
-6548 168 0
-6548 234 0
-6548 256 0
-168 -234 -256 6548 0
-6549 169 0
-6549 235 0
-6549 257 0
-169 -235 -257 6549 0
-6550 170 0
-6550 236 0
-6550 258 0
-170 -236 -258 6550 0
-6551 171 0
-6551 237 0
-6551 259 0
-171 -237 -259 6551 0
-6552 172 0
-6552 238 0
-6552 260 0
-172 -238 -260 6552 0
-6553 173 0
-6553 239 0
-6553 261 0
-173 -239 -261 6553 0
-6554 174 0
-6554 240 0
-6554 262 0
-174 -240 -262 6554 0
-6555 175 0
-6555 241 0
-6555 263 0
-175 -241 -263 6555 0
-6556 176 0
-6556 242 0
-6556 264 0
-176 -242 -264 6556 0
-6535 6860 0
-6536 6860 0
-6537 6860 0
-6538 6860 0
-6539 6860 0
-6540 6860 0
-6541 6860 0
-6542 6860 0
-6543 6860 0
-6544 6860 0
-6545 6860 0
-6546 6860 0
-6547 6860 0
-6548 6860 0
-6549 6860 0
-6550 6860 0
-6551 6860 0
-6552 6860 0
-6553 6860 0
-6554 6860 0
-6555 6860 0
-6556 6860 0
-6860 6535 6536 6537 6538 6539 6540 6541 6542 6543 6544 6545 6546 6547 6548 6549 6550 6551 6552 6553 6554 6555 6556 0
-6557 177 0
-6557 199 0
-6557 221 0
-177 -199 -221 6557 0
-6558 178 0
-6558 200 0
-6558 222 0
-178 -200 -222 6558 0
-6559 179 0
-6559 201 0
-6559 223 0
-179 -201 -223 6559 0
-6560 180 0
-6560 202 0
-6560 224 0
-180 -202 -224 6560 0
-6561 181 0
-6561 203 0
-6561 225 0
-181 -203 -225 6561 0
-6562 182 0
-6562 204 0
-6562 226 0
-182 -204 -226 6562 0
-6563 183 0
-6563 205 0
-6563 227 0
-183 -205 -227 6563 0
-6564 184 0
-6564 206 0
-6564 228 0
-184 -206 -228 6564 0
-6565 185 0
-6565 207 0
-6565 229 0
-185 -207 -229 6565 0
-6566 186 0
-6566 208 0
-6566 230 0
-186 -208 -230 6566 0
-6567 187 0
-6567 209 0
-6567 231 0
-187 -209 -231 6567 0
-6568 188 0
-6568 210 0
-6568 232 0
-188 -210 -232 6568 0
-6569 189 0
-6569 211 0
-6569 233 0
-189 -211 -233 6569 0
-6570 190 0
-6570 212 0
-6570 234 0
-190 -212 -234 6570 0
-6571 191 0
-6571 213 0
-6571 235 0
-191 -213 -235 6571 0
-6572 192 0
-6572 214 0
-6572 236 0
-192 -214 -236 6572 0
-6573 193 0
-6573 215 0
-6573 237 0
-193 -215 -237 6573 0
-6574 194 0
-6574 216 0
-6574 238 0
-194 -216 -238 6574 0
-6575 195 0
-6575 217 0
-6575 239 0
-195 -217 -239 6575 0
-6576 196 0
-6576 218 0
-6576 240 0
-196 -218 -240 6576 0
-6577 197 0
-6577 219 0
-6577 241 0
-197 -219 -241 6577 0
-6578 198 0
-6578 220 0
-6578 242 0
-198 -220 -242 6578 0
-6557 6861 0
-6558 6861 0
-6559 6861 0
-6560 6861 0
-6561 6861 0
-6562 6861 0
-6563 6861 0
-6564 6861 0
-6565 6861 0
-6566 6861 0
-6567 6861 0
-6568 6861 0
-6569 6861 0
-6570 6861 0
-6571 6861 0
-6572 6861 0
-6573 6861 0
-6574 6861 0
-6575 6861 0
-6576 6861 0
-6577 6861 0
-6578 6861 0
-6861 6557 6558 6559 6560 6561 6562 6563 6564 6565 6566 6567 6568 6569 6570 6571 6572 6573 6574 6575 6576 6577 6578 0
-6579 177 0
-6579 199 0
-6579 243 0
-177 -199 -243 6579 0
-6580 178 0
-6580 200 0
-6580 244 0
-178 -200 -244 6580 0
-6581 179 0
-6581 201 0
-6581 245 0
-179 -201 -245 6581 0
-6582 180 0
-6582 202 0
-6582 246 0
-180 -202 -246 6582 0
-6583 181 0
-6583 203 0
-6583 247 0
-181 -203 -247 6583 0
-6584 182 0
-6584 204 0
-6584 248 0
-182 -204 -248 6584 0
-6585 183 0
-6585 205 0
-6585 249 0
-183 -205 -249 6585 0
-6586 184 0
-6586 206 0
-6586 250 0
-184 -206 -250 6586 0
-6587 185 0
-6587 207 0
-6587 251 0
-185 -207 -251 6587 0
-6588 186 0
-6588 208 0
-6588 252 0
-186 -208 -252 6588 0
-6589 187 0
-6589 209 0
-6589 253 0
-187 -209 -253 6589 0
-6590 188 0
-6590 210 0
-6590 254 0
-188 -210 -254 6590 0
-6591 189 0
-6591 211 0
-6591 255 0
-189 -211 -255 6591 0
-6592 190 0
-6592 212 0
-6592 256 0
-190 -212 -256 6592 0
-6593 191 0
-6593 213 0
-6593 257 0
-191 -213 -257 6593 0
-6594 192 0
-6594 214 0
-6594 258 0
-192 -214 -258 6594 0
-6595 193 0
-6595 215 0
-6595 259 0
-193 -215 -259 6595 0
-6596 194 0
-6596 216 0
-6596 260 0
-194 -216 -260 6596 0
-6597 195 0
-6597 217 0
-6597 261 0
-195 -217 -261 6597 0
-6598 196 0
-6598 218 0
-6598 262 0
-196 -218 -262 6598 0
-6599 197 0
-6599 219 0
-6599 263 0
-197 -219 -263 6599 0
-6600 198 0
-6600 220 0
-6600 264 0
-198 -220 -264 6600 0
-6579 6862 0
-6580 6862 0
-6581 6862 0
-6582 6862 0
-6583 6862 0
-6584 6862 0
-6585 6862 0
-6586 6862 0
-6587 6862 0
-6588 6862 0
-6589 6862 0
-6590 6862 0
-6591 6862 0
-6592 6862 0
-6593 6862 0
-6594 6862 0
-6595 6862 0
-6596 6862 0
-6597 6862 0
-6598 6862 0
-6599 6862 0
-6600 6862 0
-6862 6579 6580 6581 6582 6583 6584 6585 6586 6587 6588 6589 6590 6591 6592 6593 6594 6595 6596 6597 6598 6599 6600 0
-6601 177 0
-6601 221 0
-6601 243 0
-177 -221 -243 6601 0
-6602 178 0
-6602 222 0
-6602 244 0
-178 -222 -244 6602 0
-6603 179 0
-6603 223 0
-6603 245 0
-179 -223 -245 6603 0
-6604 180 0
-6604 224 0
-6604 246 0
-180 -224 -246 6604 0
-6605 181 0
-6605 225 0
-6605 247 0
-181 -225 -247 6605 0
-6606 182 0
-6606 226 0
-6606 248 0
-182 -226 -248 6606 0
-6607 183 0
-6607 227 0
-6607 249 0
-183 -227 -249 6607 0
-6608 184 0
-6608 228 0
-6608 250 0
-184 -228 -250 6608 0
-6609 185 0
-6609 229 0
-6609 251 0
-185 -229 -251 6609 0
-6610 186 0
-6610 230 0
-6610 252 0
-186 -230 -252 6610 0
-6611 187 0
-6611 231 0
-6611 253 0
-187 -231 -253 6611 0
-6612 188 0
-6612 232 0
-6612 254 0
-188 -232 -254 6612 0
-6613 189 0
-6613 233 0
-6613 255 0
-189 -233 -255 6613 0
-6614 190 0
-6614 234 0
-6614 256 0
-190 -234 -256 6614 0
-6615 191 0
-6615 235 0
-6615 257 0
-191 -235 -257 6615 0
-6616 192 0
-6616 236 0
-6616 258 0
-192 -236 -258 6616 0
-6617 193 0
-6617 237 0
-6617 259 0
-193 -237 -259 6617 0
-6618 194 0
-6618 238 0
-6618 260 0
-194 -238 -260 6618 0
-6619 195 0
-6619 239 0
-6619 261 0
-195 -239 -261 6619 0
-6620 196 0
-6620 240 0
-6620 262 0
-196 -240 -262 6620 0
-6621 197 0
-6621 241 0
-6621 263 0
-197 -241 -263 6621 0
-6622 198 0
-6622 242 0
-6622 264 0
-198 -242 -264 6622 0
-6601 6863 0
-6602 6863 0
-6603 6863 0
-6604 6863 0
-6605 6863 0
-6606 6863 0
-6607 6863 0
-6608 6863 0
-6609 6863 0
-6610 6863 0
-6611 6863 0
-6612 6863 0
-6613 6863 0
-6614 6863 0
-6615 6863 0
-6616 6863 0
-6617 6863 0
-6618 6863 0
-6619 6863 0
-6620 6863 0
-6621 6863 0
-6622 6863 0
-6863 6601 6602 6603 6604 6605 6606 6607 6608 6609 6610 6611 6612 6613 6614 6615 6616 6617 6618 6619 6620 6621 6622 0
-6623 199 0
-6623 221 0
-6623 243 0
-199 -221 -243 6623 0
-6624 200 0
-6624 222 0
-6624 244 0
-200 -222 -244 6624 0
-6625 201 0
-6625 223 0
-6625 245 0
-201 -223 -245 6625 0
-6626 202 0
-6626 224 0
-6626 246 0
-202 -224 -246 6626 0
-6627 203 0
-6627 225 0
-6627 247 0
-203 -225 -247 6627 0
-6628 204 0
-6628 226 0
-6628 248 0
-204 -226 -248 6628 0
-6629 205 0
-6629 227 0
-6629 249 0
-205 -227 -249 6629 0
-6630 206 0
-6630 228 0
-6630 250 0
-206 -228 -250 6630 0
-6631 207 0
-6631 229 0
-6631 251 0
-207 -229 -251 6631 0
-6632 208 0
-6632 230 0
-6632 252 0
-208 -230 -252 6632 0
-6633 209 0
-6633 231 0
-6633 253 0
-209 -231 -253 6633 0
-6634 210 0
-6634 232 0
-6634 254 0
-210 -232 -254 6634 0
-6635 211 0
-6635 233 0
-6635 255 0
-211 -233 -255 6635 0
-6636 212 0
-6636 234 0
-6636 256 0
-212 -234 -256 6636 0
-6637 213 0
-6637 235 0
-6637 257 0
-213 -235 -257 6637 0
-6638 214 0
-6638 236 0
-6638 258 0
-214 -236 -258 6638 0
-6639 215 0
-6639 237 0
-6639 259 0
-215 -237 -259 6639 0
-6640 216 0
-6640 238 0
-6640 260 0
-216 -238 -260 6640 0
-6641 217 0
-6641 239 0
-6641 261 0
-217 -239 -261 6641 0
-6642 218 0
-6642 240 0
-6642 262 0
-218 -240 -262 6642 0
-6643 219 0
-6643 241 0
-6643 263 0
-219 -241 -263 6643 0
-6644 220 0
-6644 242 0
-6644 264 0
-220 -242 -264 6644 0
-6623 6864 0
-6624 6864 0
-6625 6864 0
-6626 6864 0
-6627 6864 0
-6628 6864 0
-6629 6864 0
-6630 6864 0
-6631 6864 0
-6632 6864 0
-6633 6864 0
-6634 6864 0
-6635 6864 0
-6636 6864 0
-6637 6864 0
-6638 6864 0
-6639 6864 0
-6640 6864 0
-6641 6864 0
-6642 6864 0
-6643 6864 0
-6644 6864 0
-6864 6623 6624 6625 6626 6627 6628 6629 6630 6631 6632 6633 6634 6635 6636 6637 6638 6639 6640 6641 6642 6643 6644 0
-1739 -1750 -1760 -1741 6645 6700 6655 6646 0
-1739 -1751 -1760 -1740 6646 6700 6655 6645 0
-1740 -1750 -1751 -1741 6645 6700 6646 6655 0
-1739 -1750 -1761 -1742 6645 6701 6656 6647 0
-1739 -1752 -1761 -1740 6647 6701 6656 6645 0
-1740 -1750 -1752 -1742 6645 6701 6647 6656 0
-1739 -1750 -1762 -1743 6645 6702 6657 6648 0
-1739 -1753 -1762 -1740 6648 6702 6657 6645 0
-1740 -1750 -1753 -1743 6645 6702 6648 6657 0
-1739 -1750 -1763 -1744 6645 6703 6658 6649 0
-1739 -1754 -1763 -1740 6649 6703 6658 6645 0
-1740 -1750 -1754 -1744 6645 6703 6649 6658 0
-1739 -1750 -1764 -1745 6645 6704 6659 6650 0
-1739 -1755 -1764 -1740 6650 6704 6659 6645 0
-1740 -1750 -1755 -1745 6645 6704 6650 6659 0
-1739 -1750 -1765 -1746 6645 6705 6660 6651 0
-1739 -1756 -1765 -1740 6651 6705 6660 6645 0
-1740 -1750 -1756 -1746 6645 6705 6651 6660 0
-1739 -1750 -1766 -1747 6645 6706 6661 6652 0
-1739 -1757 -1766 -1740 6652 6706 6661 6645 0
-1740 -1750 -1757 -1747 6645 6706 6652 6661 0
-1739 -1750 -1767 -1748 6645 6707 6662 6653 0
-1739 -1758 -1767 -1740 6653 6707 6662 6645 0
-1740 -1750 -1758 -1748 6645 6707 6653 6662 0
-1739 -1750 -1768 -1749 6645 6708 6663 6654 0
-1739 -1759 -1768 -1740 6654 6708 6663 6645 0
-1740 -1750 -1759 -1749 6645 6708 6654 6663 0
-1739 -1751 -1769 -1742 6646 6709 6664 6647 0
-1739 -1752 -1769 -1741 6647 6709 6664 6646 0
-1741 -1751 -1752 -1742 6646 6709 6647 6664 0
-1739 -1751 -1770 -1743 6646 6710 6665 6648 0
-1739 -1753 -1770 -1741 6648 6710 6665 6646 0
-1741 -1751 -1753 -1743 6646 6710 6648 6665 0
-1739 -1751 -1771 -1744 6646 6711 6666 6649 0
-1739 -1754 -1771 -1741 6649 6711 6666 6646 0
-1741 -1751 -1754 -1744 6646 6711 6649 6666 0
-1739 -1751 -1772 -1745 6646 6712 6667 6650 0
-1739 -1755 -1772 -1741 6650 6712 6667 6646 0
-1741 -1751 -1755 -1745 6646 6712 6650 6667 0
-1739 -1751 -1773 -1746 6646 6713 6668 6651 0
-1739 -1756 -1773 -1741 6651 6713 6668 6646 0
-1741 -1751 -1756 -1746 6646 6713 6651 6668 0
-1739 -1751 -1774 -1747 6646 6714 6669 6652 0
-1739 -1757 -1774 -1741 6652 6714 6669 6646 0
-1741 -1751 -1757 -1747 6646 6714 6652 6669 0
-1739 -1751 -1775 -1748 6646 6715 6670 6653 0
-1739 -1758 -1775 -1741 6653 6715 6670 6646 0
-1741 -1751 -1758 -1748 6646 6715 6653 6670 0
-1739 -1751 -1776 -1749 6646 6716 6671 6654 0
-1739 -1759 -1776 -1741 6654 6716 6671 6646 0
-1741 -1751 -1759 -1749 6646 6716 6654 6671 0
-1739 -1752 -1777 -1743 6647 6717 6672 6648 0
-1739 -1753 -1777 -1742 6648 6717 6672 6647 0
-1742 -1752 -1753 -1743 6647 6717 6648 6672 0
-1739 -1752 -1778 -1744 6647 6718 6673 6649 0
-1739 -1754 -1778 -1742 6649 6718 6673 6647 0
-1742 -1752 -1754 -1744 6647 6718 6649 6673 0
-1739 -1752 -1779 -1745 6647 6719 6674 6650 0
-1739 -1755 -1779 -1742 6650 6719 6674 6647 0
-1742 -1752 -1755 -1745 6647 6719 6650 6674 0
-1739 -1752 -1780 -1746 6647 6720 6675 6651 0
-1739 -1756 -1780 -1742 6651 6720 6675 6647 0
-1742 -1752 -1756 -1746 6647 6720 6651 6675 0
-1739 -1752 -1781 -1747 6647 6721 6676 6652 0
-1739 -1757 -1781 -1742 6652 6721 6676 6647 0
-1742 -1752 -1757 -1747 6647 6721 6652 6676 0
-1739 -1752 -1782 -1748 6647 6722 6677 6653 0
-1739 -1758 -1782 -1742 6653 6722 6677 6647 0
-1742 -1752 -1758 -1748 6647 6722 6653 6677 0
-1739 -1752 -1783 -1749 6647 6723 6678 6654 0
-1739 -1759 -1783 -1742 6654 6723 6678 6647 0
-1742 -1752 -1759 -1749 6647 6723 6654 6678 0
-1739 -1753 -1784 -1744 6648 6724 6679 6649 0
-1739 -1754 -1784 -1743 6649 6724 6679 6648 0
-1743 -1753 -1754 -1744 6648 6724 6649 6679 0
-1739 -1753 -1785 -1745 6648 6725 6680 6650 0
-1739 -1755 -1785 -1743 6650 6725 6680 6648 0
-1743 -1753 -1755 -1745 6648 6725 6650 6680 0
-1739 -1753 -1786 -1746 6648 6726 6681 6651 0
-1739 -1756 -1786 -1743 6651 6726 6681 6648 0
-1743 -1753 -1756 -1746 6648 6726 6651 6681 0
-1739 -1753 -1787 -1747 6648 6727 6682 6652 0
-1739 -1757 -1787 -1743 6652 6727 6682 6648 0
-1743 -1753 -1757 -1747 6648 6727 6652 6682 0
-1739 -1753 -1788 -1748 6648 6728 6683 6653 0
-1739 -1758 -1788 -1743 6653 6728 6683 6648 0
-1743 -1753 -1758 -1748 6648 6728 6653 6683 0
-1739 -1753 -1789 -1749 6648 6729 6684 6654 0
-1739 -1759 -1789 -1743 6654 6729 6684 6648 0
-1743 -1753 -1759 -1749 6648 6729 6654 6684 0
-1739 -1754 -1790 -1745 6649 6730 6685 6650 0
-1739 -1755 -1790 -1744 6650 6730 6685 6649 0
-1744 -1754 -1755 -1745 6649 6730 6650 6685 0
-1739 -1754 -1791 -1746 6649 6731 6686 6651 0
-1739 -1756 -1791 -1744 6651 6731 6686 6649 0
-1744 -1754 -1756 -1746 6649 6731 6651 6686 0
-1739 -1754 -1792 -1747 6649 6732 6687 6652 0
-1739 -1757 -1792 -1744 6652 6732 6687 6649 0
-1744 -1754 -1757 -1747 6649 6732 6652 6687 0
-1739 -1754 -1793 -1748 6649 6733 6688 6653 0
-1739 -1758 -1793 -1744 6653 6733 6688 6649 0
-1744 -1754 -1758 -1748 6649 6733 6653 6688 0
-1739 -1754 -1794 -1749 6649 6734 6689 6654 0
-1739 -1759 -1794 -1744 6654 6734 6689 6649 0
-1744 -1754 -1759 -1749 6649 6734 6654 6689 0
-1739 -1755 -1795 -1746 6650 6735 6690 6651 0
-1739 -1756 -1795 -1745 6651 6735 6690 6650 0
-1745 -1755 -1756 -1746 6650 6735 6651 6690 0
-1739 -1755 -1796 -1747 6650 6736 6691 6652 0
-1739 -1757 -1796 -1745 6652 6736 6691 6650 0
-1745 -1755 -1757 -1747 6650 6736 6652 6691 0
-1739 -1755 -1797 -1748 6650 6737 6692 6653 0
-1739 -1758 -1797 -1745 6653 6737 6692 6650 0
-1745 -1755 -1758 -1748 6650 6737 6653 6692 0
-1739 -1755 -1798 -1749 6650 6738 6693 6654 0
-1739 -1759 -1798 -1745 6654 6738 6693 6650 0
-1745 -1755 -1759 -1749 6650 6738 6654 6693 0
-1739 -1756 -1799 -1747 6651 6739 6694 6652 0
-1739 -1757 -1799 -1746 6652 6739 6694 6651 0
-1746 -1756 -1757 -1747 6651 6739 6652 6694 0
-1739 -1756 -1800 -1748 6651 6740 6695 6653 0
-1739 -1758 -1800 -1746 6653 6740 6695 6651 0
-1746 -1756 -1758 -1748 6651 6740 6653 6695 0
-1739 -1756 -1801 -1749 6651 6741 6696 6654 0
-1739 -1759 -1801 -1746 6654 6741 6696 6651 0
-1746 -1756 -1759 -1749 6651 6741 6654 6696 0
-1739 -1757 -1802 -1748 6652 6742 6697 6653 0
-1739 -1758 -1802 -1747 6653 6742 6697 6652 0
-1747 -1757 -1758 -1748 6652 6742 6653 6697 0
-1739 -1757 -1803 -1749 6652 6743 6698 6654 0
-1739 -1759 -1803 -1747 6654 6743 6698 6652 0
-1747 -1757 -1759 -1749 6652 6743 6654 6698 0
-1739 -1758 -1804 -1749 6653 6744 6699 6654 0
-1739 -1759 -1804 -1748 6654 6744 6699 6653 0
-1748 -1758 -1759 -1749 6653 6744 6654 6699 0
-1740 -1760 -1769 -1742 6655 6745 6664 6656 0
-1740 -1761 -1769 -1741 6656 6745 6664 6655 0
-1741 -1760 -1761 -1742 6655 6745 6656 6664 0
-1740 -1760 -1770 -1743 6655 6746 6665 6657 0
-1740 -1762 -1770 -1741 6657 6746 6665 6655 0
-1741 -1760 -1762 -1743 6655 6746 6657 6665 0
-1740 -1760 -1771 -1744 6655 6747 6666 6658 0
-1740 -1763 -1771 -1741 6658 6747 6666 6655 0
-1741 -1760 -1763 -1744 6655 6747 6658 6666 0
-1740 -1760 -1772 -1745 6655 6748 6667 6659 0
-1740 -1764 -1772 -1741 6659 6748 6667 6655 0
-1741 -1760 -1764 -1745 6655 6748 6659 6667 0
-1740 -1760 -1773 -1746 6655 6749 6668 6660 0
-1740 -1765 -1773 -1741 6660 6749 6668 6655 0
-1741 -1760 -1765 -1746 6655 6749 6660 6668 0
-1740 -1760 -1774 -1747 6655 6750 6669 6661 0
-1740 -1766 -1774 -1741 6661 6750 6669 6655 0
-1741 -1760 -1766 -1747 6655 6750 6661 6669 0
-1740 -1760 -1775 -1748 6655 6751 6670 6662 0
-1740 -1767 -1775 -1741 6662 6751 6670 6655 0
-1741 -1760 -1767 -1748 6655 6751 6662 6670 0
-1740 -1760 -1776 -1749 6655 6752 6671 6663 0
-1740 -1768 -1776 -1741 6663 6752 6671 6655 0
-1741 -1760 -1768 -1749 6655 6752 6663 6671 0
-1740 -1761 -1777 -1743 6656 6753 6672 6657 0
-1740 -1762 -1777 -1742 6657 6753 6672 6656 0
-1742 -1761 -1762 -1743 6656 6753 6657 6672 0
-1740 -1761 -1778 -1744 6656 6754 6673 6658 0
-1740 -1763 -1778 -1742 6658 6754 6673 6656 0
-1742 -1761 -1763 -1744 6656 6754 6658 6673 0
-1740 -1761 -1779 -1745 6656 6755 6674 6659 0
-1740 -1764 -1779 -1742 6659 6755 6674 6656 0
-1742 -1761 -1764 -1745 6656 6755 6659 6674 0
-1740 -1761 -1780 -1746 6656 6756 6675 6660 0
-1740 -1765 -1780 -1742 6660 6756 6675 6656 0
-1742 -1761 -1765 -1746 6656 6756 6660 6675 0
-1740 -1761 -1781 -1747 6656 6757 6676 6661 0
-1740 -1766 -1781 -1742 6661 6757 6676 6656 0
-1742 -1761 -1766 -1747 6656 6757 6661 6676 0
-1740 -1761 -1782 -1748 6656 6758 6677 6662 0
-1740 -1767 -1782 -1742 6662 6758 6677 6656 0
-1742 -1761 -1767 -1748 6656 6758 6662 6677 0
-1740 -1761 -1783 -1749 6656 6759 6678 6663 0
-1740 -1768 -1783 -1742 6663 6759 6678 6656 0
-1742 -1761 -1768 -1749 6656 6759 6663 6678 0
-1740 -1762 -1784 -1744 6657 6760 6679 6658 0
-1740 -1763 -1784 -1743 6658 6760 6679 6657 0
-1743 -1762 -1763 -1744 6657 6760 6658 6679 0
-1740 -1762 -1785 -1745 6657 6761 6680 6659 0
-1740 -1764 -1785 -1743 6659 6761 6680 6657 0
-1743 -1762 -1764 -1745 6657 6761 6659 6680 0
-1740 -1762 -1786 -1746 6657 6762 6681 6660 0
-1740 -1765 -1786 -1743 6660 6762 6681 6657 0
-1743 -1762 -1765 -1746 6657 6762 6660 6681 0
-1740 -1762 -1787 -1747 6657 6763 6682 6661 0
-1740 -1766 -1787 -1743 6661 6763 6682 6657 0
-1743 -1762 -1766 -1747 6657 6763 6661 6682 0
-1740 -1762 -1788 -1748 6657 6764 6683 6662 0
-1740 -1767 -1788 -1743 6662 6764 6683 6657 0
-1743 -1762 -1767 -1748 6657 6764 6662 6683 0
-1740 -1762 -1789 -1749 6657 6765 6684 6663 0
-1740 -1768 -1789 -1743 6663 6765 6684 6657 0
-1743 -1762 -1768 -1749 6657 6765 6663 6684 0
-1740 -1763 -1790 -1745 6658 6766 6685 6659 0
-1740 -1764 -1790 -1744 6659 6766 6685 6658 0
-1744 -1763 -1764 -1745 6658 6766 6659 6685 0
-1740 -1763 -1791 -1746 6658 6767 6686 6660 0
-1740 -1765 -1791 -1744 6660 6767 6686 6658 0
-1744 -1763 -1765 -1746 6658 6767 6660 6686 0
-1740 -1763 -1792 -1747 6658 6768 6687 6661 0
-1740 -1766 -1792 -1744 6661 6768 6687 6658 0
-1744 -1763 -1766 -1747 6658 6768 6661 6687 0
-1740 -1763 -1793 -1748 6658 6769 6688 6662 0
-1740 -1767 -1793 -1744 6662 6769 6688 6658 0
-1744 -1763 -1767 -1748 6658 6769 6662 6688 0
-1740 -1763 -1794 -1749 6658 6770 6689 6663 0
-1740 -1768 -1794 -1744 6663 6770 6689 6658 0
-1744 -1763 -1768 -1749 6658 6770 6663 6689 0
-1740 -1764 -1795 -1746 6659 6771 6690 6660 0
-1740 -1765 -1795 -1745 6660 6771 6690 6659 0
-1745 -1764 -1765 -1746 6659 6771 6660 6690 0
-1740 -1764 -1796 -1747 6659 6772 6691 6661 0
-1740 -1766 -1796 -1745 6661 6772 6691 6659 0
-1745 -1764 -1766 -1747 6659 6772 6661 6691 0
-1740 -1764 -1797 -1748 6659 6773 6692 6662 0
-1740 -1767 -1797 -1745 6662 6773 6692 6659 0
-1745 -1764 -1767 -1748 6659 6773 6662 6692 0
-1740 -1764 -1798 -1749 6659 6774 6693 6663 0
-1740 -1768 -1798 -1745 6663 6774 6693 6659 0
-1745 -1764 -1768 -1749 6659 6774 6663 6693 0
-1740 -1765 -1799 -1747 6660 6775 6694 6661 0
-1740 -1766 -1799 -1746 6661 6775 6694 6660 0
-1746 -1765 -1766 -1747 6660 6775 6661 6694 0
-1740 -1765 -1800 -1748 6660 6776 6695 6662 0
-1740 -1767 -1800 -1746 6662 6776 6695 6660 0
-1746 -1765 -1767 -1748 6660 6776 6662 6695 0
-1740 -1765 -1801 -1749 6660 6777 6696 6663 0
-1740 -1768 -1801 -1746 6663 6777 6696 6660 0
-1746 -1765 -1768 -1749 6660 6777 6663 6696 0
-1740 -1766 -1802 -1748 6661 6778 6697 6662 0
-1740 -1767 -1802 -1747 6662 6778 6697 6661 0
-1747 -1766 -1767 -1748 6661 6778 6662 6697 0
-1740 -1766 -1803 -1749 6661 6779 6698 6663 0
-1740 -1768 -1803 -1747 6663 6779 6698 6661 0
-1747 -1766 -1768 -1749 6661 6779 6663 6698 0
-1740 -1767 -1804 -1749 6662 6780 6699 6663 0
-1740 -1768 -1804 -1748 6663 6780 6699 6662 0
-1748 -1767 -1768 -1749 6662 6780 6663 6699 0
-1741 -1769 -1777 -1743 6664 6781 6672 6665 0
-1741 -1770 -1777 -1742 6665 6781 6672 6664 0
-1742 -1769 -1770 -1743 6664 6781 6665 6672 0
-1741 -1769 -1778 -1744 6664 6782 6673 6666 0
-1741 -1771 -1778 -1742 6666 6782 6673 6664 0
-1742 -1769 -1771 -1744 6664 6782 6666 6673 0
-1741 -1769 -1779 -1745 6664 6783 6674 6667 0
-1741 -1772 -1779 -1742 6667 6783 6674 6664 0
-1742 -1769 -1772 -1745 6664 6783 6667 6674 0
-1741 -1769 -1780 -1746 6664 6784 6675 6668 0
-1741 -1773 -1780 -1742 6668 6784 6675 6664 0
-1742 -1769 -1773 -1746 6664 6784 6668 6675 0
-1741 -1769 -1781 -1747 6664 6785 6676 6669 0
-1741 -1774 -1781 -1742 6669 6785 6676 6664 0
-1742 -1769 -1774 -1747 6664 6785 6669 6676 0
-1741 -1769 -1782 -1748 6664 6786 6677 6670 0
-1741 -1775 -1782 -1742 6670 6786 6677 6664 0
-1742 -1769 -1775 -1748 6664 6786 6670 6677 0
-1741 -1769 -1783 -1749 6664 6787 6678 6671 0
-1741 -1776 -1783 -1742 6671 6787 6678 6664 0
-1742 -1769 -1776 -1749 6664 6787 6671 6678 0
-1741 -1770 -1784 -1744 6665 6788 6679 6666 0
-1741 -1771 -1784 -1743 6666 6788 6679 6665 0
-1743 -1770 -1771 -1744 6665 6788 6666 6679 0
-1741 -1770 -1785 -1745 6665 6789 6680 6667 0
-1741 -1772 -1785 -1743 6667 6789 6680 6665 0
-1743 -1770 -1772 -1745 6665 6789 6667 6680 0
-1741 -1770 -1786 -1746 6665 6790 6681 6668 0
-1741 -1773 -1786 -1743 6668 6790 6681 6665 0
-1743 -1770 -1773 -1746 6665 6790 6668 6681 0
-1741 -1770 -1787 -1747 6665 6791 6682 6669 0
-1741 -1774 -1787 -1743 6669 6791 6682 6665 0
-1743 -1770 -1774 -1747 6665 6791 6669 6682 0
-1741 -1770 -1788 -1748 6665 6792 6683 6670 0
-1741 -1775 -1788 -1743 6670 6792 6683 6665 0
-1743 -1770 -1775 -1748 6665 6792 6670 6683 0
-1741 -1770 -1789 -1749 6665 6793 6684 6671 0
-1741 -1776 -1789 -1743 6671 6793 6684 6665 0
-1743 -1770 -1776 -1749 6665 6793 6671 6684 0
-1741 -1771 -1790 -1745 6666 6794 6685 6667 0
-1741 -1772 -1790 -1744 6667 6794 6685 6666 0
-1744 -1771 -1772 -1745 6666 6794 6667 6685 0
-1741 -1771 -1791 -1746 6666 6795 6686 6668 0
-1741 -1773 -1791 -1744 6668 6795 6686 6666 0
-1744 -1771 -1773 -1746 6666 6795 6668 6686 0
-1741 -1771 -1792 -1747 6666 6796 6687 6669 0
-1741 -1774 -1792 -1744 6669 6796 6687 6666 0
-1744 -1771 -1774 -1747 6666 6796 6669 6687 0
-1741 -1771 -1793 -1748 6666 6797 6688 6670 0
-1741 -1775 -1793 -1744 6670 6797 6688 6666 0
-1744 -1771 -1775 -1748 6666 6797 6670 6688 0
-1741 -1771 -1794 -1749 6666 6798 6689 6671 0
-1741 -1776 -1794 -1744 6671 6798 6689 6666 0
-1744 -1771 -1776 -1749 6666 6798 6671 6689 0
-1741 -1772 -1795 -1746 6667 6799 6690 6668 0
-1741 -1773 -1795 -1745 6668 6799 6690 6667 0
-1745 -1772 -1773 -1746 6667 6799 6668 6690 0
-1741 -1772 -1796 -1747 6667 6800 6691 6669 0
-1741 -1774 -1796 -1745 6669 6800 6691 6667 0
-1745 -1772 -1774 -1747 6667 6800 6669 6691 0
-1741 -1772 -1797 -1748 6667 6801 6692 6670 0
-1741 -1775 -1797 -1745 6670 6801 6692 6667 0
-1745 -1772 -1775 -1748 6667 6801 6670 6692 0
-1741 -1772 -1798 -1749 6667 6802 6693 6671 0
-1741 -1776 -1798 -1745 6671 6802 6693 6667 0
-1745 -1772 -1776 -1749 6667 6802 6671 6693 0
-1741 -1773 -1799 -1747 6668 6803 6694 6669 0
-1741 -1774 -1799 -1746 6669 6803 6694 6668 0
-1746 -1773 -1774 -1747 6668 6803 6669 6694 0
-1741 -1773 -1800 -1748 6668 6804 6695 6670 0
-1741 -1775 -1800 -1746 6670 6804 6695 6668 0
-1746 -1773 -1775 -1748 6668 6804 6670 6695 0
-1741 -1773 -1801 -1749 6668 6805 6696 6671 0
-1741 -1776 -1801 -1746 6671 6805 6696 6668 0
-1746 -1773 -1776 -1749 6668 6805 6671 6696 0
-1741 -1774 -1802 -1748 6669 6806 6697 6670 0
-1741 -1775 -1802 -1747 6670 6806 6697 6669 0
-1747 -1774 -1775 -1748 6669 6806 6670 6697 0
-1741 -1774 -1803 -1749 6669 6807 6698 6671 0
-1741 -1776 -1803 -1747 6671 6807 6698 6669 0
-1747 -1774 -1776 -1749 6669 6807 6671 6698 0
-1741 -1775 -1804 -1749 6670 6808 6699 6671 0
-1741 -1776 -1804 -1748 6671 6808 6699 6670 0
-1748 -1775 -1776 -1749 6670 6808 6671 6699 0
-1742 -1777 -1784 -1744 6672 6809 6679 6673 0
-1742 -1778 -1784 -1743 6673 6809 6679 6672 0
-1743 -1777 -1778 -1744 6672 6809 6673 6679 0
-1742 -1777 -1785 -1745 6672 6810 6680 6674 0
-1742 -1779 -1785 -1743 6674 6810 6680 6672 0
-1743 -1777 -1779 -1745 6672 6810 6674 6680 0
-1742 -1777 -1786 -1746 6672 6811 6681 6675 0
-1742 -1780 -1786 -1743 6675 6811 6681 6672 0
-1743 -1777 -1780 -1746 6672 6811 6675 6681 0
-1742 -1777 -1787 -1747 6672 6812 6682 6676 0
-1742 -1781 -1787 -1743 6676 6812 6682 6672 0
-1743 -1777 -1781 -1747 6672 6812 6676 6682 0
-1742 -1777 -1788 -1748 6672 6813 6683 6677 0
-1742 -1782 -1788 -1743 6677 6813 6683 6672 0
-1743 -1777 -1782 -1748 6672 6813 6677 6683 0
-1742 -1777 -1789 -1749 6672 6814 6684 6678 0
-1742 -1783 -1789 -1743 6678 6814 6684 6672 0
-1743 -1777 -1783 -1749 6672 6814 6678 6684 0
-1742 -1778 -1790 -1745 6673 6815 6685 6674 0
-1742 -1779 -1790 -1744 6674 6815 6685 6673 0
-1744 -1778 -1779 -1745 6673 6815 6674 6685 0
-1742 -1778 -1791 -1746 6673 6816 6686 6675 0
-1742 -1780 -1791 -1744 6675 6816 6686 6673 0
-1744 -1778 -1780 -1746 6673 6816 6675 6686 0
-1742 -1778 -1792 -1747 6673 6817 6687 6676 0
-1742 -1781 -1792 -1744 6676 6817 6687 6673 0
-1744 -1778 -1781 -1747 6673 6817 6676 6687 0
-1742 -1778 -1793 -1748 6673 6818 6688 6677 0
-1742 -1782 -1793 -1744 6677 6818 6688 6673 0
-1744 -1778 -1782 -1748 6673 6818 6677 6688 0
-1742 -1778 -1794 -1749 6673 6819 6689 6678 0
-1742 -1783 -1794 -1744 6678 6819 6689 6673 0
-1744 -1778 -1783 -1749 6673 6819 6678 6689 0
-1742 -1779 -1795 -1746 6674 6820 6690 6675 0
-1742 -1780 -1795 -1745 6675 6820 6690 6674 0
-1745 -1779 -1780 -1746 6674 6820 6675 6690 0
-1742 -1779 -1796 -1747 6674 6821 6691 6676 0
-1742 -1781 -1796 -1745 6676 6821 6691 6674 0
-1745 -1779 -1781 -1747 6674 6821 6676 6691 0
-1742 -1779 -1797 -1748 6674 6822 6692 6677 0
-1742 -1782 -1797 -1745 6677 6822 6692 6674 0
-1745 -1779 -1782 -1748 6674 6822 6677 6692 0
-1742 -1779 -1798 -1749 6674 6823 6693 6678 0
-1742 -1783 -1798 -1745 6678 6823 6693 6674 0
-1745 -1779 -1783 -1749 6674 6823 6678 6693 0
-1742 -1780 -1799 -1747 6675 6824 6694 6676 0
-1742 -1781 -1799 -1746 6676 6824 6694 6675 0
-1746 -1780 -1781 -1747 6675 6824 6676 6694 0
-1742 -1780 -1800 -1748 6675 6825 6695 6677 0
-1742 -1782 -1800 -1746 6677 6825 6695 6675 0
-1746 -1780 -1782 -1748 6675 6825 6677 6695 0
-1742 -1780 -1801 -1749 6675 6826 6696 6678 0
-1742 -1783 -1801 -1746 6678 6826 6696 6675 0
-1746 -1780 -1783 -1749 6675 6826 6678 6696 0
-1742 -1781 -1802 -1748 6676 6827 6697 6677 0
-1742 -1782 -1802 -1747 6677 6827 6697 6676 0
-1747 -1781 -1782 -1748 6676 6827 6677 6697 0
-1742 -1781 -1803 -1749 6676 6828 6698 6678 0
-1742 -1783 -1803 -1747 6678 6828 6698 6676 0
-1747 -1781 -1783 -1749 6676 6828 6678 6698 0
-1742 -1782 -1804 -1749 6677 6829 6699 6678 0
-1742 -1783 -1804 -1748 6678 6829 6699 6677 0
-1748 -1782 -1783 -1749 6677 6829 6678 6699 0
-1743 -1784 -1790 -1745 6679 6830 6685 6680 0
-1743 -1785 -1790 -1744 6680 6830 6685 6679 0
-1744 -1784 -1785 -1745 6679 6830 6680 6685 0
-1743 -1784 -1791 -1746 6679 6831 6686 6681 0
-1743 -1786 -1791 -1744 6681 6831 6686 6679 0
-1744 -1784 -1786 -1746 6679 6831 6681 6686 0
-1743 -1784 -1792 -1747 6679 6832 6687 6682 0
-1743 -1787 -1792 -1744 6682 6832 6687 6679 0
-1744 -1784 -1787 -1747 6679 6832 6682 6687 0
-1743 -1784 -1793 -1748 6679 6833 6688 6683 0
-1743 -1788 -1793 -1744 6683 6833 6688 6679 0
-1744 -1784 -1788 -1748 6679 6833 6683 6688 0
-1743 -1784 -1794 -1749 6679 6834 6689 6684 0
-1743 -1789 -1794 -1744 6684 6834 6689 6679 0
-1744 -1784 -1789 -1749 6679 6834 6684 6689 0
-1743 -1785 -1795 -1746 6680 6835 6690 6681 0
-1743 -1786 -1795 -1745 6681 6835 6690 6680 0
-1745 -1785 -1786 -1746 6680 6835 6681 6690 0
-1743 -1785 -1796 -1747 6680 6836 6691 6682 0
-1743 -1787 -1796 -1745 6682 6836 6691 6680 0
-1745 -1785 -1787 -1747 6680 6836 6682 6691 0
-1743 -1785 -1797 -1748 6680 6837 6692 6683 0
-1743 -1788 -1797 -1745 6683 6837 6692 6680 0
-1745 -1785 -1788 -1748 6680 6837 6683 6692 0
-1743 -1785 -1798 -1749 6680 6838 6693 6684 0
-1743 -1789 -1798 -1745 6684 6838 6693 6680 0
-1745 -1785 -1789 -1749 6680 6838 6684 6693 0
-1743 -1786 -1799 -1747 6681 6839 6694 6682 0
-1743 -1787 -1799 -1746 6682 6839 6694 6681 0
-1746 -1786 -1787 -1747 6681 6839 6682 6694 0
-1743 -1786 -1800 -1748 6681 6840 6695 6683 0
-1743 -1788 -1800 -1746 6683 6840 6695 6681 0
-1746 -1786 -1788 -1748 6681 6840 6683 6695 0
-1743 -1786 -1801 -1749 6681 6841 6696 6684 0
-1743 -1789 -1801 -1746 6684 6841 6696 6681 0
-1746 -1786 -1789 -1749 6681 6841 6684 6696 0
-1743 -1787 -1802 -1748 6682 6842 6697 6683 0
-1743 -1788 -1802 -1747 6683 6842 6697 6682 0
-1747 -1787 -1788 -1748 6682 6842 6683 6697 0
-1743 -1787 -1803 -1749 6682 6843 6698 6684 0
-1743 -1789 -1803 -1747 6684 6843 6698 6682 0
-1747 -1787 -1789 -1749 6682 6843 6684 6698 0
-1743 -1788 -1804 -1749 6683 6844 6699 6684 0
-1743 -1789 -1804 -1748 6684 6844 6699 6683 0
-1748 -1788 -1789 -1749 6683 6844 6684 6699 0
-1744 -1790 -1795 -1746 6685 6845 6690 6686 0
-1744 -1791 -1795 -1745 6686 6845 6690 6685 0
-1745 -1790 -1791 -1746 6685 6845 6686 6690 0
-1744 -1790 -1796 -1747 6685 6846 6691 6687 0
-1744 -1792 -1796 -1745 6687 6846 6691 6685 0
-1745 -1790 -1792 -1747 6685 6846 6687 6691 0
-1744 -1790 -1797 -1748 6685 6847 6692 6688 0
-1744 -1793 -1797 -1745 6688 6847 6692 6685 0
-1745 -1790 -1793 -1748 6685 6847 6688 6692 0
-1744 -1790 -1798 -1749 6685 6848 6693 6689 0
-1744 -1794 -1798 -1745 6689 6848 6693 6685 0
-1745 -1790 -1794 -1749 6685 6848 6689 6693 0
-1744 -1791 -1799 -1747 6686 6849 6694 6687 0
-1744 -1792 -1799 -1746 6687 6849 6694 6686 0
-1746 -1791 -1792 -1747 6686 6849 6687 6694 0
-1744 -1791 -1800 -1748 6686 6850 6695 6688 0
-1744 -1793 -1800 -1746 6688 6850 6695 6686 0
-1746 -1791 -1793 -1748 6686 6850 6688 6695 0
-1744 -1791 -1801 -1749 6686 6851 6696 6689 0
-1744 -1794 -1801 -1746 6689 6851 6696 6686 0
-1746 -1791 -1794 -1749 6686 6851 6689 6696 0
-1744 -1792 -1802 -1748 6687 6852 6697 6688 0
-1744 -1793 -1802 -1747 6688 6852 6697 6687 0
-1747 -1792 -1793 -1748 6687 6852 6688 6697 0
-1744 -1792 -1803 -1749 6687 6853 6698 6689 0
-1744 -1794 -1803 -1747 6689 6853 6698 6687 0
-1747 -1792 -1794 -1749 6687 6853 6689 6698 0
-1744 -1793 -1804 -1749 6688 6854 6699 6689 0
-1744 -1794 -1804 -1748 6689 6854 6699 6688 0
-1748 -1793 -1794 -1749 6688 6854 6689 6699 0
-1745 -1795 -1799 -1747 6690 6855 6694 6691 0
-1745 -1796 -1799 -1746 6691 6855 6694 6690 0
-1746 -1795 -1796 -1747 6690 6855 6691 6694 0
-1745 -1795 -1800 -1748 6690 6856 6695 6692 0
-1745 -1797 -1800 -1746 6692 6856 6695 6690 0
-1746 -1795 -1797 -1748 6690 6856 6692 6695 0
-1745 -1795 -1801 -1749 6690 6857 6696 6693 0
-1745 -1798 -1801 -1746 6693 6857 6696 6690 0
-1746 -1795 -1798 -1749 6690 6857 6693 6696 0
-1745 -1796 -1802 -1748 6691 6858 6697 6692 0
-1745 -1797 -1802 -1747 6692 6858 6697 6691 0
-1747 -1796 -1797 -1748 6691 6858 6692 6697 0
-1745 -1796 -1803 -1749 6691 6859 6698 6693 0
-1745 -1798 -1803 -1747 6693 6859 6698 6691 0
-1747 -1796 -1798 -1749 6691 6859 6693 6698 0
-1745 -1797 -1804 -1749 6692 6860 6699 6693 0
-1745 -1798 -1804 -1748 6693 6860 6699 6692 0
-1748 -1797 -1798 -1749 6692 6860 6693 6699 0
-1746 -1799 -1802 -1748 6694 6861 6697 6695 0
-1746 -1800 -1802 -1747 6695 6861 6697 6694 0
-1747 -1799 -1800 -1748 6694 6861 6695 6697 0
-1746 -1799 -1803 -1749 6694 6862 6698 6696 0
-1746 -1801 -1803 -1747 6696 6862 6698 6694 0
-1747 -1799 -1801 -1749 6694 6862 6696 6698 0
-1746 -1800 -1804 -1749 6695 6863 6699 6696 0
-1746 -1801 -1804 -1748 6696 6863 6699 6695 0
-1748 -1800 -1801 -1749 6695 6863 6696 6699 0
-1747 -1802 -1804 -1749 6697 6864 6699 6698 0
-1747 -1803 -1804 -1748 6698 6864 6699 6697 0
-1748 -1802 -1803 -1749 6697 6864 6698 6699 0
-1750 -1760 -1769 -1752 6700 6745 6709 6701 0
-1750 -1761 -1769 -1751 6701 6745 6709 6700 0
-1751 -1760 -1761 -1752 6700 6745 6701 6709 0
-1750 -1760 -1770 -1753 6700 6746 6710 6702 0
-1750 -1762 -1770 -1751 6702 6746 6710 6700 0
-1751 -1760 -1762 -1753 6700 6746 6702 6710 0
-1750 -1760 -1771 -1754 6700 6747 6711 6703 0
-1750 -1763 -1771 -1751 6703 6747 6711 6700 0
-1751 -1760 -1763 -1754 6700 6747 6703 6711 0
-1750 -1760 -1772 -1755 6700 6748 6712 6704 0
-1750 -1764 -1772 -1751 6704 6748 6712 6700 0
-1751 -1760 -1764 -1755 6700 6748 6704 6712 0
-1750 -1760 -1773 -1756 6700 6749 6713 6705 0
-1750 -1765 -1773 -1751 6705 6749 6713 6700 0
-1751 -1760 -1765 -1756 6700 6749 6705 6713 0
-1750 -1760 -1774 -1757 6700 6750 6714 6706 0
-1750 -1766 -1774 -1751 6706 6750 6714 6700 0
-1751 -1760 -1766 -1757 6700 6750 6706 6714 0
-1750 -1760 -1775 -1758 6700 6751 6715 6707 0
-1750 -1767 -1775 -1751 6707 6751 6715 6700 0
-1751 -1760 -1767 -1758 6700 6751 6707 6715 0
-1750 -1760 -1776 -1759 6700 6752 6716 6708 0
-1750 -1768 -1776 -1751 6708 6752 6716 6700 0
-1751 -1760 -1768 -1759 6700 6752 6708 6716 0
-1750 -1761 -1777 -1753 6701 6753 6717 6702 0
-1750 -1762 -1777 -1752 6702 6753 6717 6701 0
-1752 -1761 -1762 -1753 6701 6753 6702 6717 0
-1750 -1761 -1778 -1754 6701 6754 6718 6703 0
-1750 -1763 -1778 -1752 6703 6754 6718 6701 0
-1752 -1761 -1763 -1754 6701 6754 6703 6718 0
-1750 -1761 -1779 -1755 6701 6755 6719 6704 0
-1750 -1764 -1779 -1752 6704 6755 6719 6701 0
-1752 -1761 -1764 -1755 6701 6755 6704 6719 0
-1750 -1761 -1780 -1756 6701 6756 6720 6705 0
-1750 -1765 -1780 -1752 6705 6756 6720 6701 0
-1752 -1761 -1765 -1756 6701 6756 6705 6720 0
-1750 -1761 -1781 -1757 6701 6757 6721 6706 0
-1750 -1766 -1781 -1752 6706 6757 6721 6701 0
-1752 -1761 -1766 -1757 6701 6757 6706 6721 0
-1750 -1761 -1782 -1758 6701 6758 6722 6707 0
-1750 -1767 -1782 -1752 6707 6758 6722 6701 0
-1752 -1761 -1767 -1758 6701 6758 6707 6722 0
-1750 -1761 -1783 -1759 6701 6759 6723 6708 0
-1750 -1768 -1783 -1752 6708 6759 6723 6701 0
-1752 -1761 -1768 -1759 6701 6759 6708 6723 0
-1750 -1762 -1784 -1754 6702 6760 6724 6703 0
-1750 -1763 -1784 -1753 6703 6760 6724 6702 0
-1753 -1762 -1763 -1754 6702 6760 6703 6724 0
-1750 -1762 -1785 -1755 6702 6761 6725 6704 0
-1750 -1764 -1785 -1753 6704 6761 6725 6702 0
-1753 -1762 -1764 -1755 6702 6761 6704 6725 0
-1750 -1762 -1786 -1756 6702 6762 6726 6705 0
-1750 -1765 -1786 -1753 6705 6762 6726 6702 0
-1753 -1762 -1765 -1756 6702 6762 6705 6726 0
-1750 -1762 -1787 -1757 6702 6763 6727 6706 0
-1750 -1766 -1787 -1753 6706 6763 6727 6702 0
-1753 -1762 -1766 -1757 6702 6763 6706 6727 0
-1750 -1762 -1788 -1758 6702 6764 6728 6707 0
-1750 -1767 -1788 -1753 6707 6764 6728 6702 0
-1753 -1762 -1767 -1758 6702 6764 6707 6728 0
-1750 -1762 -1789 -1759 6702 6765 6729 6708 0
-1750 -1768 -1789 -1753 6708 6765 6729 6702 0
-1753 -1762 -1768 -1759 6702 6765 6708 6729 0
-1750 -1763 -1790 -1755 6703 6766 6730 6704 0
-1750 -1764 -1790 -1754 6704 6766 6730 6703 0
-1754 -1763 -1764 -1755 6703 6766 6704 6730 0
-1750 -1763 -1791 -1756 6703 6767 6731 6705 0
-1750 -1765 -1791 -1754 6705 6767 6731 6703 0
-1754 -1763 -1765 -1756 6703 6767 6705 6731 0
-1750 -1763 -1792 -1757 6703 6768 6732 6706 0
-1750 -1766 -1792 -1754 6706 6768 6732 6703 0
-1754 -1763 -1766 -1757 6703 6768 6706 6732 0
-1750 -1763 -1793 -1758 6703 6769 6733 6707 0
-1750 -1767 -1793 -1754 6707 6769 6733 6703 0
-1754 -1763 -1767 -1758 6703 6769 6707 6733 0
-1750 -1763 -1794 -1759 6703 6770 6734 6708 0
-1750 -1768 -1794 -1754 6708 6770 6734 6703 0
-1754 -1763 -1768 -1759 6703 6770 6708 6734 0
-1750 -1764 -1795 -1756 6704 6771 6735 6705 0
-1750 -1765 -1795 -1755 6705 6771 6735 6704 0
-1755 -1764 -1765 -1756 6704 6771 6705 6735 0
-1750 -1764 -1796 -1757 6704 6772 6736 6706 0
-1750 -1766 -1796 -1755 6706 6772 6736 6704 0
-1755 -1764 -1766 -1757 6704 6772 6706 6736 0
-1750 -1764 -1797 -1758 6704 6773 6737 6707 0
-1750 -1767 -1797 -1755 6707 6773 6737 6704 0
-1755 -1764 -1767 -1758 6704 6773 6707 6737 0
-1750 -1764 -1798 -1759 6704 6774 6738 6708 0
-1750 -1768 -1798 -1755 6708 6774 6738 6704 0
-1755 -1764 -1768 -1759 6704 6774 6708 6738 0
-1750 -1765 -1799 -1757 6705 6775 6739 6706 0
-1750 -1766 -1799 -1756 6706 6775 6739 6705 0
-1756 -1765 -1766 -1757 6705 6775 6706 6739 0
-1750 -1765 -1800 -1758 6705 6776 6740 6707 0
-1750 -1767 -1800 -1756 6707 6776 6740 6705 0
-1756 -1765 -1767 -1758 6705 6776 6707 6740 0
-1750 -1765 -1801 -1759 6705 6777 6741 6708 0
-1750 -1768 -1801 -1756 6708 6777 6741 6705 0
-1756 -1765 -1768 -1759 6705 6777 6708 6741 0
-1750 -1766 -1802 -1758 6706 6778 6742 6707 0
-1750 -1767 -1802 -1757 6707 6778 6742 6706 0
-1757 -1766 -1767 -1758 6706 6778 6707 6742 0
-1750 -1766 -1803 -1759 6706 6779 6743 6708 0
-1750 -1768 -1803 -1757 6708 6779 6743 6706 0
-1757 -1766 -1768 -1759 6706 6779 6708 6743 0
-1750 -1767 -1804 -1759 6707 6780 6744 6708 0
-1750 -1768 -1804 -1758 6708 6780 6744 6707 0
-1758 -1767 -1768 -1759 6707 6780 6708 6744 0
-1751 -1769 -1777 -1753 6709 6781 6717 6710 0
-1751 -1770 -1777 -1752 6710 6781 6717 6709 0
-1752 -1769 -1770 -1753 6709 6781 6710 6717 0
-1751 -1769 -1778 -1754 6709 6782 6718 6711 0
-1751 -1771 -1778 -1752 6711 6782 6718 6709 0
-1752 -1769 -1771 -1754 6709 6782 6711 6718 0
-1751 -1769 -1779 -1755 6709 6783 6719 6712 0
-1751 -1772 -1779 -1752 6712 6783 6719 6709 0
-1752 -1769 -1772 -1755 6709 6783 6712 6719 0
-1751 -1769 -1780 -1756 6709 6784 6720 6713 0
-1751 -1773 -1780 -1752 6713 6784 6720 6709 0
-1752 -1769 -1773 -1756 6709 6784 6713 6720 0
-1751 -1769 -1781 -1757 6709 6785 6721 6714 0
-1751 -1774 -1781 -1752 6714 6785 6721 6709 0
-1752 -1769 -1774 -1757 6709 6785 6714 6721 0
-1751 -1769 -1782 -1758 6709 6786 6722 6715 0
-1751 -1775 -1782 -1752 6715 6786 6722 6709 0
-1752 -1769 -1775 -1758 6709 6786 6715 6722 0
-1751 -1769 -1783 -1759 6709 6787 6723 6716 0
-1751 -1776 -1783 -1752 6716 6787 6723 6709 0
-1752 -1769 -1776 -1759 6709 6787 6716 6723 0
-1751 -1770 -1784 -1754 6710 6788 6724 6711 0
-1751 -1771 -1784 -1753 6711 6788 6724 6710 0
-1753 -1770 -1771 -1754 6710 6788 6711 6724 0
-1751 -1770 -1785 -1755 6710 6789 6725 6712 0
-1751 -1772 -1785 -1753 6712 6789 6725 6710 0
-1753 -1770 -1772 -1755 6710 6789 6712 6725 0
-1751 -1770 -1786 -1756 6710 6790 6726 6713 0
-1751 -1773 -1786 -1753 6713 6790 6726 6710 0
-1753 -1770 -1773 -1756 6710 6790 6713 6726 0
-1751 -1770 -1787 -1757 6710 6791 6727 6714 0
-1751 -1774 -1787 -1753 6714 6791 6727 6710 0
-1753 -1770 -1774 -1757 6710 6791 6714 6727 0
-1751 -1770 -1788 -1758 6710 6792 6728 6715 0
-1751 -1775 -1788 -1753 6715 6792 6728 6710 0
-1753 -1770 -1775 -1758 6710 6792 6715 6728 0
-1751 -1770 -1789 -1759 6710 6793 6729 6716 0
-1751 -1776 -1789 -1753 6716 6793 6729 6710 0
-1753 -1770 -1776 -1759 6710 6793 6716 6729 0
-1751 -1771 -1790 -1755 6711 6794 6730 6712 0
-1751 -1772 -1790 -1754 6712 6794 6730 6711 0
-1754 -1771 -1772 -1755 6711 6794 6712 6730 0
-1751 -1771 -1791 -1756 6711 6795 6731 6713 0
-1751 -1773 -1791 -1754 6713 6795 6731 6711 0
-1754 -1771 -1773 -1756 6711 6795 6713 6731 0
-1751 -1771 -1792 -1757 6711 6796 6732 6714 0
-1751 -1774 -1792 -1754 6714 6796 6732 6711 0
-1754 -1771 -1774 -1757 6711 6796 6714 6732 0
-1751 -1771 -1793 -1758 6711 6797 6733 6715 0
-1751 -1775 -1793 -1754 6715 6797 6733 6711 0
-1754 -1771 -1775 -1758 6711 6797 6715 6733 0
-1751 -1771 -1794 -1759 6711 6798 6734 6716 0
-1751 -1776 -1794 -1754 6716 6798 6734 6711 0
-1754 -1771 -1776 -1759 6711 6798 6716 6734 0
-1751 -1772 -1795 -1756 6712 6799 6735 6713 0
-1751 -1773 -1795 -1755 6713 6799 6735 6712 0
-1755 -1772 -1773 -1756 6712 6799 6713 6735 0
-1751 -1772 -1796 -1757 6712 6800 6736 6714 0
-1751 -1774 -1796 -1755 6714 6800 6736 6712 0
-1755 -1772 -1774 -1757 6712 6800 6714 6736 0
-1751 -1772 -1797 -1758 6712 6801 6737 6715 0
-1751 -1775 -1797 -1755 6715 6801 6737 6712 0
-1755 -1772 -1775 -1758 6712 6801 6715 6737 0
-1751 -1772 -1798 -1759 6712 6802 6738 6716 0
-1751 -1776 -1798 -1755 6716 6802 6738 6712 0
-1755 -1772 -1776 -1759 6712 6802 6716 6738 0
-1751 -1773 -1799 -1757 6713 6803 6739 6714 0
-1751 -1774 -1799 -1756 6714 6803 6739 6713 0
-1756 -1773 -1774 -1757 6713 6803 6714 6739 0
-1751 -1773 -1800 -1758 6713 6804 6740 6715 0
-1751 -1775 -1800 -1756 6715 6804 6740 6713 0
-1756 -1773 -1775 -1758 6713 6804 6715 6740 0
-1751 -1773 -1801 -1759 6713 6805 6741 6716 0
-1751 -1776 -1801 -1756 6716 6805 6741 6713 0
-1756 -1773 -1776 -1759 6713 6805 6716 6741 0
-1751 -1774 -1802 -1758 6714 6806 6742 6715 0
-1751 -1775 -1802 -1757 6715 6806 6742 6714 0
-1757 -1774 -1775 -1758 6714 6806 6715 6742 0
-1751 -1774 -1803 -1759 6714 6807 6743 6716 0
-1751 -1776 -1803 -1757 6716 6807 6743 6714 0
-1757 -1774 -1776 -1759 6714 6807 6716 6743 0
-1751 -1775 -1804 -1759 6715 6808 6744 6716 0
-1751 -1776 -1804 -1758 6716 6808 6744 6715 0
-1758 -1775 -1776 -1759 6715 6808 6716 6744 0
-1752 -1777 -1784 -1754 6717 6809 6724 6718 0
-1752 -1778 -1784 -1753 6718 6809 6724 6717 0
-1753 -1777 -1778 -1754 6717 6809 6718 6724 0
-1752 -1777 -1785 -1755 6717 6810 6725 6719 0
-1752 -1779 -1785 -1753 6719 6810 6725 6717 0
-1753 -1777 -1779 -1755 6717 6810 6719 6725 0
-1752 -1777 -1786 -1756 6717 6811 6726 6720 0
-1752 -1780 -1786 -1753 6720 6811 6726 6717 0
-1753 -1777 -1780 -1756 6717 6811 6720 6726 0
-1752 -1777 -1787 -1757 6717 6812 6727 6721 0
-1752 -1781 -1787 -1753 6721 6812 6727 6717 0
-1753 -1777 -1781 -1757 6717 6812 6721 6727 0
-1752 -1777 -1788 -1758 6717 6813 6728 6722 0
-1752 -1782 -1788 -1753 6722 6813 6728 6717 0
-1753 -1777 -1782 -1758 6717 6813 6722 6728 0
-1752 -1777 -1789 -1759 6717 6814 6729 6723 0
-1752 -1783 -1789 -1753 6723 6814 6729 6717 0
-1753 -1777 -1783 -1759 6717 6814 6723 6729 0
-1752 -1778 -1790 -1755 6718 6815 6730 6719 0
-1752 -1779 -1790 -1754 6719 6815 6730 6718 0
-1754 -1778 -1779 -1755 6718 6815 6719 6730 0
-1752 -1778 -1791 -1756 6718 6816 6731 6720 0
-1752 -1780 -1791 -1754 6720 6816 6731 6718 0
-1754 -1778 -1780 -1756 6718 6816 6720 6731 0
-1752 -1778 -1792 -1757 6718 6817 6732 6721 0
-1752 -1781 -1792 -1754 6721 6817 6732 6718 0
-1754 -1778 -1781 -1757 6718 6817 6721 6732 0
-1752 -1778 -1793 -1758 6718 6818 6733 6722 0
-1752 -1782 -1793 -1754 6722 6818 6733 6718 0
-1754 -1778 -1782 -1758 6718 6818 6722 6733 0
-1752 -1778 -1794 -1759 6718 6819 6734 6723 0
-1752 -1783 -1794 -1754 6723 6819 6734 6718 0
-1754 -1778 -1783 -1759 6718 6819 6723 6734 0
-1752 -1779 -1795 -1756 6719 6820 6735 6720 0
-1752 -1780 -1795 -1755 6720 6820 6735 6719 0
-1755 -1779 -1780 -1756 6719 6820 6720 6735 0
-1752 -1779 -1796 -1757 6719 6821 6736 6721 0
-1752 -1781 -1796 -1755 6721 6821 6736 6719 0
-1755 -1779 -1781 -1757 6719 6821 6721 6736 0
-1752 -1779 -1797 -1758 6719 6822 6737 6722 0
-1752 -1782 -1797 -1755 6722 6822 6737 6719 0
-1755 -1779 -1782 -1758 6719 6822 6722 6737 0
-1752 -1779 -1798 -1759 6719 6823 6738 6723 0
-1752 -1783 -1798 -1755 6723 6823 6738 6719 0
-1755 -1779 -1783 -1759 6719 6823 6723 6738 0
-1752 -1780 -1799 -1757 6720 6824 6739 6721 0
-1752 -1781 -1799 -1756 6721 6824 6739 6720 0
-1756 -1780 -1781 -1757 6720 6824 6721 6739 0
-1752 -1780 -1800 -1758 6720 6825 6740 6722 0
-1752 -1782 -1800 -1756 6722 6825 6740 6720 0
-1756 -1780 -1782 -1758 6720 6825 6722 6740 0
-1752 -1780 -1801 -1759 6720 6826 6741 6723 0
-1752 -1783 -1801 -1756 6723 6826 6741 6720 0
-1756 -1780 -1783 -1759 6720 6826 6723 6741 0
-1752 -1781 -1802 -1758 6721 6827 6742 6722 0
-1752 -1782 -1802 -1757 6722 6827 6742 6721 0
-1757 -1781 -1782 -1758 6721 6827 6722 6742 0
-1752 -1781 -1803 -1759 6721 6828 6743 6723 0
-1752 -1783 -1803 -1757 6723 6828 6743 6721 0
-1757 -1781 -1783 -1759 6721 6828 6723 6743 0
-1752 -1782 -1804 -1759 6722 6829 6744 6723 0
-1752 -1783 -1804 -1758 6723 6829 6744 6722 0
-1758 -1782 -1783 -1759 6722 6829 6723 6744 0
-1753 -1784 -1790 -1755 6724 6830 6730 6725 0
-1753 -1785 -1790 -1754 6725 6830 6730 6724 0
-1754 -1784 -1785 -1755 6724 6830 6725 6730 0
-1753 -1784 -1791 -1756 6724 6831 6731 6726 0
-1753 -1786 -1791 -1754 6726 6831 6731 6724 0
-1754 -1784 -1786 -1756 6724 6831 6726 6731 0
-1753 -1784 -1792 -1757 6724 6832 6732 6727 0
-1753 -1787 -1792 -1754 6727 6832 6732 6724 0
-1754 -1784 -1787 -1757 6724 6832 6727 6732 0
-1753 -1784 -1793 -1758 6724 6833 6733 6728 0
-1753 -1788 -1793 -1754 6728 6833 6733 6724 0
-1754 -1784 -1788 -1758 6724 6833 6728 6733 0
-1753 -1784 -1794 -1759 6724 6834 6734 6729 0
-1753 -1789 -1794 -1754 6729 6834 6734 6724 0
-1754 -1784 -1789 -1759 6724 6834 6729 6734 0
-1753 -1785 -1795 -1756 6725 6835 6735 6726 0
-1753 -1786 -1795 -1755 6726 6835 6735 6725 0
-1755 -1785 -1786 -1756 6725 6835 6726 6735 0
-1753 -1785 -1796 -1757 6725 6836 6736 6727 0
-1753 -1787 -1796 -1755 6727 6836 6736 6725 0
-1755 -1785 -1787 -1757 6725 6836 6727 6736 0
-1753 -1785 -1797 -1758 6725 6837 6737 6728 0
-1753 -1788 -1797 -1755 6728 6837 6737 6725 0
-1755 -1785 -1788 -1758 6725 6837 6728 6737 0
-1753 -1785 -1798 -1759 6725 6838 6738 6729 0
-1753 -1789 -1798 -1755 6729 6838 6738 6725 0
-1755 -1785 -1789 -1759 6725 6838 6729 6738 0
-1753 -1786 -1799 -1757 6726 6839 6739 6727 0
-1753 -1787 -1799 -1756 6727 6839 6739 6726 0
-1756 -1786 -1787 -1757 6726 6839 6727 6739 0
-1753 -1786 -1800 -1758 6726 6840 6740 6728 0
-1753 -1788 -1800 -1756 6728 6840 6740 6726 0
-1756 -1786 -1788 -1758 6726 6840 6728 6740 0
-1753 -1786 -1801 -1759 6726 6841 6741 6729 0
-1753 -1789 -1801 -1756 6729 6841 6741 6726 0
-1756 -1786 -1789 -1759 6726 6841 6729 6741 0
-1753 -1787 -1802 -1758 6727 6842 6742 6728 0
-1753 -1788 -1802 -1757 6728 6842 6742 6727 0
-1757 -1787 -1788 -1758 6727 6842 6728 6742 0
-1753 -1787 -1803 -1759 6727 6843 6743 6729 0
-1753 -1789 -1803 -1757 6729 6843 6743 6727 0
-1757 -1787 -1789 -1759 6727 6843 6729 6743 0
-1753 -1788 -1804 -1759 6728 6844 6744 6729 0
-1753 -1789 -1804 -1758 6729 6844 6744 6728 0
-1758 -1788 -1789 -1759 6728 6844 6729 6744 0
-1754 -1790 -1795 -1756 6730 6845 6735 6731 0
-1754 -1791 -1795 -1755 6731 6845 6735 6730 0
-1755 -1790 -1791 -1756 6730 6845 6731 6735 0
-1754 -1790 -1796 -1757 6730 6846 6736 6732 0
-1754 -1792 -1796 -1755 6732 6846 6736 6730 0
-1755 -1790 -1792 -1757 6730 6846 6732 6736 0
-1754 -1790 -1797 -1758 6730 6847 6737 6733 0
-1754 -1793 -1797 -1755 6733 6847 6737 6730 0
-1755 -1790 -1793 -1758 6730 6847 6733 6737 0
-1754 -1790 -1798 -1759 6730 6848 6738 6734 0
-1754 -1794 -1798 -1755 6734 6848 6738 6730 0
-1755 -1790 -1794 -1759 6730 6848 6734 6738 0
-1754 -1791 -1799 -1757 6731 6849 6739 6732 0
-1754 -1792 -1799 -1756 6732 6849 6739 6731 0
-1756 -1791 -1792 -1757 6731 6849 6732 6739 0
-1754 -1791 -1800 -1758 6731 6850 6740 6733 0
-1754 -1793 -1800 -1756 6733 6850 6740 6731 0
-1756 -1791 -1793 -1758 6731 6850 6733 6740 0
-1754 -1791 -1801 -1759 6731 6851 6741 6734 0
-1754 -1794 -1801 -1756 6734 6851 6741 6731 0
-1756 -1791 -1794 -1759 6731 6851 6734 6741 0
-1754 -1792 -1802 -1758 6732 6852 6742 6733 0
-1754 -1793 -1802 -1757 6733 6852 6742 6732 0
-1757 -1792 -1793 -1758 6732 6852 6733 6742 0
-1754 -1792 -1803 -1759 6732 6853 6743 6734 0
-1754 -1794 -1803 -1757 6734 6853 6743 6732 0
-1757 -1792 -1794 -1759 6732 6853 6734 6743 0
-1754 -1793 -1804 -1759 6733 6854 6744 6734 0
-1754 -1794 -1804 -1758 6734 6854 6744 6733 0
-1758 -1793 -1794 -1759 6733 6854 6734 6744 0
-1755 -1795 -1799 -1757 6735 6855 6739 6736 0
-1755 -1796 -1799 -1756 6736 6855 6739 6735 0
-1756 -1795 -1796 -1757 6735 6855 6736 6739 0
-1755 -1795 -1800 -1758 6735 6856 6740 6737 0
-1755 -1797 -1800 -1756 6737 6856 6740 6735 0
-1756 -1795 -1797 -1758 6735 6856 6737 6740 0
-1755 -1795 -1801 -1759 6735 6857 6741 6738 0
-1755 -1798 -1801 -1756 6738 6857 6741 6735 0
-1756 -1795 -1798 -1759 6735 6857 6738 6741 0
-1755 -1796 -1802 -1758 6736 6858 6742 6737 0
-1755 -1797 -1802 -1757 6737 6858 6742 6736 0
-1757 -1796 -1797 -1758 6736 6858 6737 6742 0
-1755 -1796 -1803 -1759 6736 6859 6743 6738 0
-1755 -1798 -1803 -1757 6738 6859 6743 6736 0
-1757 -1796 -1798 -1759 6736 6859 6738 6743 0
-1755 -1797 -1804 -1759 6737 6860 6744 6738 0
-1755 -1798 -1804 -1758 6738 6860 6744 6737 0
-1758 -1797 -1798 -1759 6737 6860 6738 6744 0
-1756 -1799 -1802 -1758 6739 6861 6742 6740 0
-1756 -1800 -1802 -1757 6740 6861 6742 6739 0
-1757 -1799 -1800 -1758 6739 6861 6740 6742 0
-1756 -1799 -1803 -1759 6739 6862 6743 6741 0
-1756 -1801 -1803 -1757 6741 6862 6743 6739 0
-1757 -1799 -1801 -1759 6739 6862 6741 6743 0
-1756 -1800 -1804 -1759 6740 6863 6744 6741 0
-1756 -1801 -1804 -1758 6741 6863 6744 6740 0
-1758 -1800 -1801 -1759 6740 6863 6741 6744 0
-1757 -1802 -1804 -1759 6742 6864 6744 6743 0
-1757 -1803 -1804 -1758 6743 6864 6744 6742 0
-1758 -1802 -1803 -1759 6742 6864 6743 6744 0
-1760 -1769 -1777 -1762 6745 6781 6753 6746 0
-1760 -1770 -1777 -1761 6746 6781 6753 6745 0
-1761 -1769 -1770 -1762 6745 6781 6746 6753 0
-1760 -1769 -1778 -1763 6745 6782 6754 6747 0
-1760 -1771 -1778 -1761 6747 6782 6754 6745 0
-1761 -1769 -1771 -1763 6745 6782 6747 6754 0
-1760 -1769 -1779 -1764 6745 6783 6755 6748 0
-1760 -1772 -1779 -1761 6748 6783 6755 6745 0
-1761 -1769 -1772 -1764 6745 6783 6748 6755 0
-1760 -1769 -1780 -1765 6745 6784 6756 6749 0
-1760 -1773 -1780 -1761 6749 6784 6756 6745 0
-1761 -1769 -1773 -1765 6745 6784 6749 6756 0
-1760 -1769 -1781 -1766 6745 6785 6757 6750 0
-1760 -1774 -1781 -1761 6750 6785 6757 6745 0
-1761 -1769 -1774 -1766 6745 6785 6750 6757 0
-1760 -1769 -1782 -1767 6745 6786 6758 6751 0
-1760 -1775 -1782 -1761 6751 6786 6758 6745 0
-1761 -1769 -1775 -1767 6745 6786 6751 6758 0
-1760 -1769 -1783 -1768 6745 6787 6759 6752 0
-1760 -1776 -1783 -1761 6752 6787 6759 6745 0
-1761 -1769 -1776 -1768 6745 6787 6752 6759 0
-1760 -1770 -1784 -1763 6746 6788 6760 6747 0
-1760 -1771 -1784 -1762 6747 6788 6760 6746 0
-1762 -1770 -1771 -1763 6746 6788 6747 6760 0
-1760 -1770 -1785 -1764 6746 6789 6761 6748 0
-1760 -1772 -1785 -1762 6748 6789 6761 6746 0
-1762 -1770 -1772 -1764 6746 6789 6748 6761 0
-1760 -1770 -1786 -1765 6746 6790 6762 6749 0
-1760 -1773 -1786 -1762 6749 6790 6762 6746 0
-1762 -1770 -1773 -1765 6746 6790 6749 6762 0
-1760 -1770 -1787 -1766 6746 6791 6763 6750 0
-1760 -1774 -1787 -1762 6750 6791 6763 6746 0
-1762 -1770 -1774 -1766 6746 6791 6750 6763 0
-1760 -1770 -1788 -1767 6746 6792 6764 6751 0
-1760 -1775 -1788 -1762 6751 6792 6764 6746 0
-1762 -1770 -1775 -1767 6746 6792 6751 6764 0
-1760 -1770 -1789 -1768 6746 6793 6765 6752 0
-1760 -1776 -1789 -1762 6752 6793 6765 6746 0
-1762 -1770 -1776 -1768 6746 6793 6752 6765 0
-1760 -1771 -1790 -1764 6747 6794 6766 6748 0
-1760 -1772 -1790 -1763 6748 6794 6766 6747 0
-1763 -1771 -1772 -1764 6747 6794 6748 6766 0
-1760 -1771 -1791 -1765 6747 6795 6767 6749 0
-1760 -1773 -1791 -1763 6749 6795 6767 6747 0
-1763 -1771 -1773 -1765 6747 6795 6749 6767 0
-1760 -1771 -1792 -1766 6747 6796 6768 6750 0
-1760 -1774 -1792 -1763 6750 6796 6768 6747 0
-1763 -1771 -1774 -1766 6747 6796 6750 6768 0
-1760 -1771 -1793 -1767 6747 6797 6769 6751 0
-1760 -1775 -1793 -1763 6751 6797 6769 6747 0
-1763 -1771 -1775 -1767 6747 6797 6751 6769 0
-1760 -1771 -1794 -1768 6747 6798 6770 6752 0
-1760 -1776 -1794 -1763 6752 6798 6770 6747 0
-1763 -1771 -1776 -1768 6747 6798 6752 6770 0
-1760 -1772 -1795 -1765 6748 6799 6771 6749 0
-1760 -1773 -1795 -1764 6749 6799 6771 6748 0
-1764 -1772 -1773 -1765 6748 6799 6749 6771 0
-1760 -1772 -1796 -1766 6748 6800 6772 6750 0
-1760 -1774 -1796 -1764 6750 6800 6772 6748 0
-1764 -1772 -1774 -1766 6748 6800 6750 6772 0
-1760 -1772 -1797 -1767 6748 6801 6773 6751 0
-1760 -1775 -1797 -1764 6751 6801 6773 6748 0
-1764 -1772 -1775 -1767 6748 6801 6751 6773 0
-1760 -1772 -1798 -1768 6748 6802 6774 6752 0
-1760 -1776 -1798 -1764 6752 6802 6774 6748 0
-1764 -1772 -1776 -1768 6748 6802 6752 6774 0
-1760 -1773 -1799 -1766 6749 6803 6775 6750 0
-1760 -1774 -1799 -1765 6750 6803 6775 6749 0
-1765 -1773 -1774 -1766 6749 6803 6750 6775 0
-1760 -1773 -1800 -1767 6749 6804 6776 6751 0
-1760 -1775 -1800 -1765 6751 6804 6776 6749 0
-1765 -1773 -1775 -1767 6749 6804 6751 6776 0
-1760 -1773 -1801 -1768 6749 6805 6777 6752 0
-1760 -1776 -1801 -1765 6752 6805 6777 6749 0
-1765 -1773 -1776 -1768 6749 6805 6752 6777 0
-1760 -1774 -1802 -1767 6750 6806 6778 6751 0
-1760 -1775 -1802 -1766 6751 6806 6778 6750 0
-1766 -1774 -1775 -1767 6750 6806 6751 6778 0
-1760 -1774 -1803 -1768 6750 6807 6779 6752 0
-1760 -1776 -1803 -1766 6752 6807 6779 6750 0
-1766 -1774 -1776 -1768 6750 6807 6752 6779 0
-1760 -1775 -1804 -1768 6751 6808 6780 6752 0
-1760 -1776 -1804 -1767 6752 6808 6780 6751 0
-1767 -1775 -1776 -1768 6751 6808 6752 6780 0
-1761 -1777 -1784 -1763 6753 6809 6760 6754 0
-1761 -1778 -1784 -1762 6754 6809 6760 6753 0
-1762 -1777 -1778 -1763 6753 6809 6754 6760 0
-1761 -1777 -1785 -1764 6753 6810 6761 6755 0
-1761 -1779 -1785 -1762 6755 6810 6761 6753 0
-1762 -1777 -1779 -1764 6753 6810 6755 6761 0
-1761 -1777 -1786 -1765 6753 6811 6762 6756 0
-1761 -1780 -1786 -1762 6756 6811 6762 6753 0
-1762 -1777 -1780 -1765 6753 6811 6756 6762 0
-1761 -1777 -1787 -1766 6753 6812 6763 6757 0
-1761 -1781 -1787 -1762 6757 6812 6763 6753 0
-1762 -1777 -1781 -1766 6753 6812 6757 6763 0
-1761 -1777 -1788 -1767 6753 6813 6764 6758 0
-1761 -1782 -1788 -1762 6758 6813 6764 6753 0
-1762 -1777 -1782 -1767 6753 6813 6758 6764 0
-1761 -1777 -1789 -1768 6753 6814 6765 6759 0
-1761 -1783 -1789 -1762 6759 6814 6765 6753 0
-1762 -1777 -1783 -1768 6753 6814 6759 6765 0
-1761 -1778 -1790 -1764 6754 6815 6766 6755 0
-1761 -1779 -1790 -1763 6755 6815 6766 6754 0
-1763 -1778 -1779 -1764 6754 6815 6755 6766 0
-1761 -1778 -1791 -1765 6754 6816 6767 6756 0
-1761 -1780 -1791 -1763 6756 6816 6767 6754 0
-1763 -1778 -1780 -1765 6754 6816 6756 6767 0
-1761 -1778 -1792 -1766 6754 6817 6768 6757 0
-1761 -1781 -1792 -1763 6757 6817 6768 6754 0
-1763 -1778 -1781 -1766 6754 6817 6757 6768 0
-1761 -1778 -1793 -1767 6754 6818 6769 6758 0
-1761 -1782 -1793 -1763 6758 6818 6769 6754 0
-1763 -1778 -1782 -1767 6754 6818 6758 6769 0
-1761 -1778 -1794 -1768 6754 6819 6770 6759 0
-1761 -1783 -1794 -1763 6759 6819 6770 6754 0
-1763 -1778 -1783 -1768 6754 6819 6759 6770 0
-1761 -1779 -1795 -1765 6755 6820 6771 6756 0
-1761 -1780 -1795 -1764 6756 6820 6771 6755 0
-1764 -1779 -1780 -1765 6755 6820 6756 6771 0
-1761 -1779 -1796 -1766 6755 6821 6772 6757 0
-1761 -1781 -1796 -1764 6757 6821 6772 6755 0
-1764 -1779 -1781 -1766 6755 6821 6757 6772 0
-1761 -1779 -1797 -1767 6755 6822 6773 6758 0
-1761 -1782 -1797 -1764 6758 6822 6773 6755 0
-1764 -1779 -1782 -1767 6755 6822 6758 6773 0
-1761 -1779 -1798 -1768 6755 6823 6774 6759 0
-1761 -1783 -1798 -1764 6759 6823 6774 6755 0
-1764 -1779 -1783 -1768 6755 6823 6759 6774 0
-1761 -1780 -1799 -1766 6756 6824 6775 6757 0
-1761 -1781 -1799 -1765 6757 6824 6775 6756 0
-1765 -1780 -1781 -1766 6756 6824 6757 6775 0
-1761 -1780 -1800 -1767 6756 6825 6776 6758 0
-1761 -1782 -1800 -1765 6758 6825 6776 6756 0
-1765 -1780 -1782 -1767 6756 6825 6758 6776 0
-1761 -1780 -1801 -1768 6756 6826 6777 6759 0
-1761 -1783 -1801 -1765 6759 6826 6777 6756 0
-1765 -1780 -1783 -1768 6756 6826 6759 6777 0
-1761 -1781 -1802 -1767 6757 6827 6778 6758 0
-1761 -1782 -1802 -1766 6758 6827 6778 6757 0
-1766 -1781 -1782 -1767 6757 6827 6758 6778 0
-1761 -1781 -1803 -1768 6757 6828 6779 6759 0
-1761 -1783 -1803 -1766 6759 6828 6779 6757 0
-1766 -1781 -1783 -1768 6757 6828 6759 6779 0
-1761 -1782 -1804 -1768 6758 6829 6780 6759 0
-1761 -1783 -1804 -1767 6759 6829 6780 6758 0
-1767 -1782 -1783 -1768 6758 6829 6759 6780 0
-1762 -1784 -1790 -1764 6760 6830 6766 6761 0
-1762 -1785 -1790 -1763 6761 6830 6766 6760 0
-1763 -1784 -1785 -1764 6760 6830 6761 6766 0
-1762 -1784 -1791 -1765 6760 6831 6767 6762 0
-1762 -1786 -1791 -1763 6762 6831 6767 6760 0
-1763 -1784 -1786 -1765 6760 6831 6762 6767 0
-1762 -1784 -1792 -1766 6760 6832 6768 6763 0
-1762 -1787 -1792 -1763 6763 6832 6768 6760 0
-1763 -1784 -1787 -1766 6760 6832 6763 6768 0
-1762 -1784 -1793 -1767 6760 6833 6769 6764 0
-1762 -1788 -1793 -1763 6764 6833 6769 6760 0
-1763 -1784 -1788 -1767 6760 6833 6764 6769 0
-1762 -1784 -1794 -1768 6760 6834 6770 6765 0
-1762 -1789 -1794 -1763 6765 6834 6770 6760 0
-1763 -1784 -1789 -1768 6760 6834 6765 6770 0
-1762 -1785 -1795 -1765 6761 6835 6771 6762 0
-1762 -1786 -1795 -1764 6762 6835 6771 6761 0
-1764 -1785 -1786 -1765 6761 6835 6762 6771 0
-1762 -1785 -1796 -1766 6761 6836 6772 6763 0
-1762 -1787 -1796 -1764 6763 6836 6772 6761 0
-1764 -1785 -1787 -1766 6761 6836 6763 6772 0
-1762 -1785 -1797 -1767 6761 6837 6773 6764 0
-1762 -1788 -1797 -1764 6764 6837 6773 6761 0
-1764 -1785 -1788 -1767 6761 6837 6764 6773 0
-1762 -1785 -1798 -1768 6761 6838 6774 6765 0
-1762 -1789 -1798 -1764 6765 6838 6774 6761 0
-1764 -1785 -1789 -1768 6761 6838 6765 6774 0
-1762 -1786 -1799 -1766 6762 6839 6775 6763 0
-1762 -1787 -1799 -1765 6763 6839 6775 6762 0
-1765 -1786 -1787 -1766 6762 6839 6763 6775 0
-1762 -1786 -1800 -1767 6762 6840 6776 6764 0
-1762 -1788 -1800 -1765 6764 6840 6776 6762 0
-1765 -1786 -1788 -1767 6762 6840 6764 6776 0
-1762 -1786 -1801 -1768 6762 6841 6777 6765 0
-1762 -1789 -1801 -1765 6765 6841 6777 6762 0
-1765 -1786 -1789 -1768 6762 6841 6765 6777 0
-1762 -1787 -1802 -1767 6763 6842 6778 6764 0
-1762 -1788 -1802 -1766 6764 6842 6778 6763 0
-1766 -1787 -1788 -1767 6763 6842 6764 6778 0
-1762 -1787 -1803 -1768 6763 6843 6779 6765 0
-1762 -1789 -1803 -1766 6765 6843 6779 6763 0
-1766 -1787 -1789 -1768 6763 6843 6765 6779 0
-1762 -1788 -1804 -1768 6764 6844 6780 6765 0
-1762 -1789 -1804 -1767 6765 6844 6780 6764 0
-1767 -1788 -1789 -1768 6764 6844 6765 6780 0
-1763 -1790 -1795 -1765 6766 6845 6771 6767 0
-1763 -1791 -1795 -1764 6767 6845 6771 6766 0
-1764 -1790 -1791 -1765 6766 6845 6767 6771 0
-1763 -1790 -1796 -1766 6766 6846 6772 6768 0
-1763 -1792 -1796 -1764 6768 6846 6772 6766 0
-1764 -1790 -1792 -1766 6766 6846 6768 6772 0
-1763 -1790 -1797 -1767 6766 6847 6773 6769 0
-1763 -1793 -1797 -1764 6769 6847 6773 6766 0
-1764 -1790 -1793 -1767 6766 6847 6769 6773 0
-1763 -1790 -1798 -1768 6766 6848 6774 6770 0
-1763 -1794 -1798 -1764 6770 6848 6774 6766 0
-1764 -1790 -1794 -1768 6766 6848 6770 6774 0
-1763 -1791 -1799 -1766 6767 6849 6775 6768 0
-1763 -1792 -1799 -1765 6768 6849 6775 6767 0
-1765 -1791 -1792 -1766 6767 6849 6768 6775 0
-1763 -1791 -1800 -1767 6767 6850 6776 6769 0
-1763 -1793 -1800 -1765 6769 6850 6776 6767 0
-1765 -1791 -1793 -1767 6767 6850 6769 6776 0
-1763 -1791 -1801 -1768 6767 6851 6777 6770 0
-1763 -1794 -1801 -1765 6770 6851 6777 6767 0
-1765 -1791 -1794 -1768 6767 6851 6770 6777 0
-1763 -1792 -1802 -1767 6768 6852 6778 6769 0
-1763 -1793 -1802 -1766 6769 6852 6778 6768 0
-1766 -1792 -1793 -1767 6768 6852 6769 6778 0
-1763 -1792 -1803 -1768 6768 6853 6779 6770 0
-1763 -1794 -1803 -1766 6770 6853 6779 6768 0
-1766 -1792 -1794 -1768 6768 6853 6770 6779 0
-1763 -1793 -1804 -1768 6769 6854 6780 6770 0
-1763 -1794 -1804 -1767 6770 6854 6780 6769 0
-1767 -1793 -1794 -1768 6769 6854 6770 6780 0
-1764 -1795 -1799 -1766 6771 6855 6775 6772 0
-1764 -1796 -1799 -1765 6772 6855 6775 6771 0
-1765 -1795 -1796 -1766 6771 6855 6772 6775 0
-1764 -1795 -1800 -1767 6771 6856 6776 6773 0
-1764 -1797 -1800 -1765 6773 6856 6776 6771 0
-1765 -1795 -1797 -1767 6771 6856 6773 6776 0
-1764 -1795 -1801 -1768 6771 6857 6777 6774 0
-1764 -1798 -1801 -1765 6774 6857 6777 6771 0
-1765 -1795 -1798 -1768 6771 6857 6774 6777 0
-1764 -1796 -1802 -1767 6772 6858 6778 6773 0
-1764 -1797 -1802 -1766 6773 6858 6778 6772 0
-1766 -1796 -1797 -1767 6772 6858 6773 6778 0
-1764 -1796 -1803 -1768 6772 6859 6779 6774 0
-1764 -1798 -1803 -1766 6774 6859 6779 6772 0
-1766 -1796 -1798 -1768 6772 6859 6774 6779 0
-1764 -1797 -1804 -1768 6773 6860 6780 6774 0
-1764 -1798 -1804 -1767 6774 6860 6780 6773 0
-1767 -1797 -1798 -1768 6773 6860 6774 6780 0
-1765 -1799 -1802 -1767 6775 6861 6778 6776 0
-1765 -1800 -1802 -1766 6776 6861 6778 6775 0
-1766 -1799 -1800 -1767 6775 6861 6776 6778 0
-1765 -1799 -1803 -1768 6775 6862 6779 6777 0
-1765 -1801 -1803 -1766 6777 6862 6779 6775 0
-1766 -1799 -1801 -1768 6775 6862 6777 6779 0
-1765 -1800 -1804 -1768 6776 6863 6780 6777 0
-1765 -1801 -1804 -1767 6777 6863 6780 6776 0
-1767 -1800 -1801 -1768 6776 6863 6777 6780 0
-1766 -1802 -1804 -1768 6778 6864 6780 6779 0
-1766 -1803 -1804 -1767 6779 6864 6780 6778 0
-1767 -1802 -1803 -1768 6778 6864 6779 6780 0
-1769 -1777 -1784 -1771 6781 6809 6788 6782 0
-1769 -1778 -1784 -1770 6782 6809 6788 6781 0
-1770 -1777 -1778 -1771 6781 6809 6782 6788 0
-1769 -1777 -1785 -1772 6781 6810 6789 6783 0
-1769 -1779 -1785 -1770 6783 6810 6789 6781 0
-1770 -1777 -1779 -1772 6781 6810 6783 6789 0
-1769 -1777 -1786 -1773 6781 6811 6790 6784 0
-1769 -1780 -1786 -1770 6784 6811 6790 6781 0
-1770 -1777 -1780 -1773 6781 6811 6784 6790 0
-1769 -1777 -1787 -1774 6781 6812 6791 6785 0
-1769 -1781 -1787 -1770 6785 6812 6791 6781 0
-1770 -1777 -1781 -1774 6781 6812 6785 6791 0
-1769 -1777 -1788 -1775 6781 6813 6792 6786 0
-1769 -1782 -1788 -1770 6786 6813 6792 6781 0
-1770 -1777 -1782 -1775 6781 6813 6786 6792 0
-1769 -1777 -1789 -1776 6781 6814 6793 6787 0
-1769 -1783 -1789 -1770 6787 6814 6793 6781 0
-1770 -1777 -1783 -1776 6781 6814 6787 6793 0
-1769 -1778 -1790 -1772 6782 6815 6794 6783 0
-1769 -1779 -1790 -1771 6783 6815 6794 6782 0
-1771 -1778 -1779 -1772 6782 6815 6783 6794 0
-1769 -1778 -1791 -1773 6782 6816 6795 6784 0
-1769 -1780 -1791 -1771 6784 6816 6795 6782 0
-1771 -1778 -1780 -1773 6782 6816 6784 6795 0
-1769 -1778 -1792 -1774 6782 6817 6796 6785 0
-1769 -1781 -1792 -1771 6785 6817 6796 6782 0
-1771 -1778 -1781 -1774 6782 6817 6785 6796 0
-1769 -1778 -1793 -1775 6782 6818 6797 6786 0
-1769 -1782 -1793 -1771 6786 6818 6797 6782 0
-1771 -1778 -1782 -1775 6782 6818 6786 6797 0
-1769 -1778 -1794 -1776 6782 6819 6798 6787 0
-1769 -1783 -1794 -1771 6787 6819 6798 6782 0
-1771 -1778 -1783 -1776 6782 6819 6787 6798 0
-1769 -1779 -1795 -1773 6783 6820 6799 6784 0
-1769 -1780 -1795 -1772 6784 6820 6799 6783 0
-1772 -1779 -1780 -1773 6783 6820 6784 6799 0
-1769 -1779 -1796 -1774 6783 6821 6800 6785 0
-1769 -1781 -1796 -1772 6785 6821 6800 6783 0
-1772 -1779 -1781 -1774 6783 6821 6785 6800 0
-1769 -1779 -1797 -1775 6783 6822 6801 6786 0
-1769 -1782 -1797 -1772 6786 6822 6801 6783 0
-1772 -1779 -1782 -1775 6783 6822 6786 6801 0
-1769 -1779 -1798 -1776 6783 6823 6802 6787 0
-1769 -1783 -1798 -1772 6787 6823 6802 6783 0
-1772 -1779 -1783 -1776 6783 6823 6787 6802 0
-1769 -1780 -1799 -1774 6784 6824 6803 6785 0
-1769 -1781 -1799 -1773 6785 6824 6803 6784 0
-1773 -1780 -1781 -1774 6784 6824 6785 6803 0
-1769 -1780 -1800 -1775 6784 6825 6804 6786 0
-1769 -1782 -1800 -1773 6786 6825 6804 6784 0
-1773 -1780 -1782 -1775 6784 6825 6786 6804 0
-1769 -1780 -1801 -1776 6784 6826 6805 6787 0
-1769 -1783 -1801 -1773 6787 6826 6805 6784 0
-1773 -1780 -1783 -1776 6784 6826 6787 6805 0
-1769 -1781 -1802 -1775 6785 6827 6806 6786 0
-1769 -1782 -1802 -1774 6786 6827 6806 6785 0
-1774 -1781 -1782 -1775 6785 6827 6786 6806 0
-1769 -1781 -1803 -1776 6785 6828 6807 6787 0
-1769 -1783 -1803 -1774 6787 6828 6807 6785 0
-1774 -1781 -1783 -1776 6785 6828 6787 6807 0
-1769 -1782 -1804 -1776 6786 6829 6808 6787 0
-1769 -1783 -1804 -1775 6787 6829 6808 6786 0
-1775 -1782 -1783 -1776 6786 6829 6787 6808 0
-1770 -1784 -1790 -1772 6788 6830 6794 6789 0
-1770 -1785 -1790 -1771 6789 6830 6794 6788 0
-1771 -1784 -1785 -1772 6788 6830 6789 6794 0
-1770 -1784 -1791 -1773 6788 6831 6795 6790 0
-1770 -1786 -1791 -1771 6790 6831 6795 6788 0
-1771 -1784 -1786 -1773 6788 6831 6790 6795 0
-1770 -1784 -1792 -1774 6788 6832 6796 6791 0
-1770 -1787 -1792 -1771 6791 6832 6796 6788 0
-1771 -1784 -1787 -1774 6788 6832 6791 6796 0
-1770 -1784 -1793 -1775 6788 6833 6797 6792 0
-1770 -1788 -1793 -1771 6792 6833 6797 6788 0
-1771 -1784 -1788 -1775 6788 6833 6792 6797 0
-1770 -1784 -1794 -1776 6788 6834 6798 6793 0
-1770 -1789 -1794 -1771 6793 6834 6798 6788 0
-1771 -1784 -1789 -1776 6788 6834 6793 6798 0
-1770 -1785 -1795 -1773 6789 6835 6799 6790 0
-1770 -1786 -1795 -1772 6790 6835 6799 6789 0
-1772 -1785 -1786 -1773 6789 6835 6790 6799 0
-1770 -1785 -1796 -1774 6789 6836 6800 6791 0
-1770 -1787 -1796 -1772 6791 6836 6800 6789 0
-1772 -1785 -1787 -1774 6789 6836 6791 6800 0
-1770 -1785 -1797 -1775 6789 6837 6801 6792 0
-1770 -1788 -1797 -1772 6792 6837 6801 6789 0
-1772 -1785 -1788 -1775 6789 6837 6792 6801 0
-1770 -1785 -1798 -1776 6789 6838 6802 6793 0
-1770 -1789 -1798 -1772 6793 6838 6802 6789 0
-1772 -1785 -1789 -1776 6789 6838 6793 6802 0
-1770 -1786 -1799 -1774 6790 6839 6803 6791 0
-1770 -1787 -1799 -1773 6791 6839 6803 6790 0
-1773 -1786 -1787 -1774 6790 6839 6791 6803 0
-1770 -1786 -1800 -1775 6790 6840 6804 6792 0
-1770 -1788 -1800 -1773 6792 6840 6804 6790 0
-1773 -1786 -1788 -1775 6790 6840 6792 6804 0
-1770 -1786 -1801 -1776 6790 6841 6805 6793 0
-1770 -1789 -1801 -1773 6793 6841 6805 6790 0
-1773 -1786 -1789 -1776 6790 6841 6793 6805 0
-1770 -1787 -1802 -1775 6791 6842 6806 6792 0
-1770 -1788 -1802 -1774 6792 6842 6806 6791 0
-1774 -1787 -1788 -1775 6791 6842 6792 6806 0
-1770 -1787 -1803 -1776 6791 6843 6807 6793 0
-1770 -1789 -1803 -1774 6793 6843 6807 6791 0
-1774 -1787 -1789 -1776 6791 6843 6793 6807 0
-1770 -1788 -1804 -1776 6792 6844 6808 6793 0
-1770 -1789 -1804 -1775 6793 6844 6808 6792 0
-1775 -1788 -1789 -1776 6792 6844 6793 6808 0
-1771 -1790 -1795 -1773 6794 6845 6799 6795 0
-1771 -1791 -1795 -1772 6795 6845 6799 6794 0
-1772 -1790 -1791 -1773 6794 6845 6795 6799 0
-1771 -1790 -1796 -1774 6794 6846 6800 6796 0
-1771 -1792 -1796 -1772 6796 6846 6800 6794 0
-1772 -1790 -1792 -1774 6794 6846 6796 6800 0
-1771 -1790 -1797 -1775 6794 6847 6801 6797 0
-1771 -1793 -1797 -1772 6797 6847 6801 6794 0
-1772 -1790 -1793 -1775 6794 6847 6797 6801 0
-1771 -1790 -1798 -1776 6794 6848 6802 6798 0
-1771 -1794 -1798 -1772 6798 6848 6802 6794 0
-1772 -1790 -1794 -1776 6794 6848 6798 6802 0
-1771 -1791 -1799 -1774 6795 6849 6803 6796 0
-1771 -1792 -1799 -1773 6796 6849 6803 6795 0
-1773 -1791 -1792 -1774 6795 6849 6796 6803 0
-1771 -1791 -1800 -1775 6795 6850 6804 6797 0
-1771 -1793 -1800 -1773 6797 6850 6804 6795 0
-1773 -1791 -1793 -1775 6795 6850 6797 6804 0
-1771 -1791 -1801 -1776 6795 6851 6805 6798 0
-1771 -1794 -1801 -1773 6798 6851 6805 6795 0
-1773 -1791 -1794 -1776 6795 6851 6798 6805 0
-1771 -1792 -1802 -1775 6796 6852 6806 6797 0
-1771 -1793 -1802 -1774 6797 6852 6806 6796 0
-1774 -1792 -1793 -1775 6796 6852 6797 6806 0
-1771 -1792 -1803 -1776 6796 6853 6807 6798 0
-1771 -1794 -1803 -1774 6798 6853 6807 6796 0
-1774 -1792 -1794 -1776 6796 6853 6798 6807 0
-1771 -1793 -1804 -1776 6797 6854 6808 6798 0
-1771 -1794 -1804 -1775 6798 6854 6808 6797 0
-1775 -1793 -1794 -1776 6797 6854 6798 6808 0
-1772 -1795 -1799 -1774 6799 6855 6803 6800 0
-1772 -1796 -1799 -1773 6800 6855 6803 6799 0
-1773 -1795 -1796 -1774 6799 6855 6800 6803 0
-1772 -1795 -1800 -1775 6799 6856 6804 6801 0
-1772 -1797 -1800 -1773 6801 6856 6804 6799 0
-1773 -1795 -1797 -1775 6799 6856 6801 6804 0
-1772 -1795 -1801 -1776 6799 6857 6805 6802 0
-1772 -1798 -1801 -1773 6802 6857 6805 6799 0
-1773 -1795 -1798 -1776 6799 6857 6802 6805 0
-1772 -1796 -1802 -1775 6800 6858 6806 6801 0
-1772 -1797 -1802 -1774 6801 6858 6806 6800 0
-1774 -1796 -1797 -1775 6800 6858 6801 6806 0
-1772 -1796 -1803 -1776 6800 6859 6807 6802 0
-1772 -1798 -1803 -1774 6802 6859 6807 6800 0
-1774 -1796 -1798 -1776 6800 6859 6802 6807 0
-1772 -1797 -1804 -1776 6801 6860 6808 6802 0
-1772 -1798 -1804 -1775 6802 6860 6808 6801 0
-1775 -1797 -1798 -1776 6801 6860 6802 6808 0
-1773 -1799 -1802 -1775 6803 6861 6806 6804 0
-1773 -1800 -1802 -1774 6804 6861 6806 6803 0
-1774 -1799 -1800 -1775 6803 6861 6804 6806 0
-1773 -1799 -1803 -1776 6803 6862 6807 6805 0
-1773 -1801 -1803 -1774 6805 6862 6807 6803 0
-1774 -1799 -1801 -1776 6803 6862 6805 6807 0
-1773 -1800 -1804 -1776 6804 6863 6808 6805 0
-1773 -1801 -1804 -1775 6805 6863 6808 6804 0
-1775 -1800 -1801 -1776 6804 6863 6805 6808 0
-1774 -1802 -1804 -1776 6806 6864 6808 6807 0
-1774 -1803 -1804 -1775 6807 6864 6808 6806 0
-1775 -1802 -1803 -1776 6806 6864 6807 6808 0
-1777 -1784 -1790 -1779 6809 6830 6815 6810 0
-1777 -1785 -1790 -1778 6810 6830 6815 6809 0
-1778 -1784 -1785 -1779 6809 6830 6810 6815 0
-1777 -1784 -1791 -1780 6809 6831 6816 6811 0
-1777 -1786 -1791 -1778 6811 6831 6816 6809 0
-1778 -1784 -1786 -1780 6809 6831 6811 6816 0
-1777 -1784 -1792 -1781 6809 6832 6817 6812 0
-1777 -1787 -1792 -1778 6812 6832 6817 6809 0
-1778 -1784 -1787 -1781 6809 6832 6812 6817 0
-1777 -1784 -1793 -1782 6809 6833 6818 6813 0
-1777 -1788 -1793 -1778 6813 6833 6818 6809 0
-1778 -1784 -1788 -1782 6809 6833 6813 6818 0
-1777 -1784 -1794 -1783 6809 6834 6819 6814 0
-1777 -1789 -1794 -1778 6814 6834 6819 6809 0
-1778 -1784 -1789 -1783 6809 6834 6814 6819 0
-1777 -1785 -1795 -1780 6810 6835 6820 6811 0
-1777 -1786 -1795 -1779 6811 6835 6820 6810 0
-1779 -1785 -1786 -1780 6810 6835 6811 6820 0
-1777 -1785 -1796 -1781 6810 6836 6821 6812 0
-1777 -1787 -1796 -1779 6812 6836 6821 6810 0
-1779 -1785 -1787 -1781 6810 6836 6812 6821 0
-1777 -1785 -1797 -1782 6810 6837 6822 6813 0
-1777 -1788 -1797 -1779 6813 6837 6822 6810 0
-1779 -1785 -1788 -1782 6810 6837 6813 6822 0
-1777 -1785 -1798 -1783 6810 6838 6823 6814 0
-1777 -1789 -1798 -1779 6814 6838 6823 6810 0
-1779 -1785 -1789 -1783 6810 6838 6814 6823 0
-1777 -1786 -1799 -1781 6811 6839 6824 6812 0
-1777 -1787 -1799 -1780 6812 6839 6824 6811 0
-1780 -1786 -1787 -1781 6811 6839 6812 6824 0
-1777 -1786 -1800 -1782 6811 6840 6825 6813 0
-1777 -1788 -1800 -1780 6813 6840 6825 6811 0
-1780 -1786 -1788 -1782 6811 6840 6813 6825 0
-1777 -1786 -1801 -1783 6811 6841 6826 6814 0
-1777 -1789 -1801 -1780 6814 6841 6826 6811 0
-1780 -1786 -1789 -1783 6811 6841 6814 6826 0
-1777 -1787 -1802 -1782 6812 6842 6827 6813 0
-1777 -1788 -1802 -1781 6813 6842 6827 6812 0
-1781 -1787 -1788 -1782 6812 6842 6813 6827 0
-1777 -1787 -1803 -1783 6812 6843 6828 6814 0
-1777 -1789 -1803 -1781 6814 6843 6828 6812 0
-1781 -1787 -1789 -1783 6812 6843 6814 6828 0
-1777 -1788 -1804 -1783 6813 6844 6829 6814 0
-1777 -1789 -1804 -1782 6814 6844 6829 6813 0
-1782 -1788 -1789 -1783 6813 6844 6814 6829 0
-1778 -1790 -1795 -1780 6815 6845 6820 6816 0
-1778 -1791 -1795 -1779 6816 6845 6820 6815 0
-1779 -1790 -1791 -1780 6815 6845 6816 6820 0
-1778 -1790 -1796 -1781 6815 6846 6821 6817 0
-1778 -1792 -1796 -1779 6817 6846 6821 6815 0
-1779 -1790 -1792 -1781 6815 6846 6817 6821 0
-1778 -1790 -1797 -1782 6815 6847 6822 6818 0
-1778 -1793 -1797 -1779 6818 6847 6822 6815 0
-1779 -1790 -1793 -1782 6815 6847 6818 6822 0
-1778 -1790 -1798 -1783 6815 6848 6823 6819 0
-1778 -1794 -1798 -1779 6819 6848 6823 6815 0
-1779 -1790 -1794 -1783 6815 6848 6819 6823 0
-1778 -1791 -1799 -1781 6816 6849 6824 6817 0
-1778 -1792 -1799 -1780 6817 6849 6824 6816 0
-1780 -1791 -1792 -1781 6816 6849 6817 6824 0
-1778 -1791 -1800 -1782 6816 6850 6825 6818 0
-1778 -1793 -1800 -1780 6818 6850 6825 6816 0
-1780 -1791 -1793 -1782 6816 6850 6818 6825 0
-1778 -1791 -1801 -1783 6816 6851 6826 6819 0
-1778 -1794 -1801 -1780 6819 6851 6826 6816 0
-1780 -1791 -1794 -1783 6816 6851 6819 6826 0
-1778 -1792 -1802 -1782 6817 6852 6827 6818 0
-1778 -1793 -1802 -1781 6818 6852 6827 6817 0
-1781 -1792 -1793 -1782 6817 6852 6818 6827 0
-1778 -1792 -1803 -1783 6817 6853 6828 6819 0
-1778 -1794 -1803 -1781 6819 6853 6828 6817 0
-1781 -1792 -1794 -1783 6817 6853 6819 6828 0
-1778 -1793 -1804 -1783 6818 6854 6829 6819 0
-1778 -1794 -1804 -1782 6819 6854 6829 6818 0
-1782 -1793 -1794 -1783 6818 6854 6819 6829 0
-1779 -1795 -1799 -1781 6820 6855 6824 6821 0
-1779 -1796 -1799 -1780 6821 6855 6824 6820 0
-1780 -1795 -1796 -1781 6820 6855 6821 6824 0
-1779 -1795 -1800 -1782 6820 6856 6825 6822 0
-1779 -1797 -1800 -1780 6822 6856 6825 6820 0
-1780 -1795 -1797 -1782 6820 6856 6822 6825 0
-1779 -1795 -1801 -1783 6820 6857 6826 6823 0
-1779 -1798 -1801 -1780 6823 6857 6826 6820 0
-1780 -1795 -1798 -1783 6820 6857 6823 6826 0
-1779 -1796 -1802 -1782 6821 6858 6827 6822 0
-1779 -1797 -1802 -1781 6822 6858 6827 6821 0
-1781 -1796 -1797 -1782 6821 6858 6822 6827 0
-1779 -1796 -1803 -1783 6821 6859 6828 6823 0
-1779 -1798 -1803 -1781 6823 6859 6828 6821 0
-1781 -1796 -1798 -1783 6821 6859 6823 6828 0
-1779 -1797 -1804 -1783 6822 6860 6829 6823 0
-1779 -1798 -1804 -1782 6823 6860 6829 6822 0
-1782 -1797 -1798 -1783 6822 6860 6823 6829 0
-1780 -1799 -1802 -1782 6824 6861 6827 6825 0
-1780 -1800 -1802 -1781 6825 6861 6827 6824 0
-1781 -1799 -1800 -1782 6824 6861 6825 6827 0
-1780 -1799 -1803 -1783 6824 6862 6828 6826 0
-1780 -1801 -1803 -1781 6826 6862 6828 6824 0
-1781 -1799 -1801 -1783 6824 6862 6826 6828 0
-1780 -1800 -1804 -1783 6825 6863 6829 6826 0
-1780 -1801 -1804 -1782 6826 6863 6829 6825 0
-1782 -1800 -1801 -1783 6825 6863 6826 6829 0
-1781 -1802 -1804 -1783 6827 6864 6829 6828 0
-1781 -1803 -1804 -1782 6828 6864 6829 6827 0
-1782 -1802 -1803 -1783 6827 6864 6828 6829 0
-1784 -1790 -1795 -1786 6830 6845 6835 6831 0
-1784 -1791 -1795 -1785 6831 6845 6835 6830 0
-1785 -1790 -1791 -1786 6830 6845 6831 6835 0
-1784 -1790 -1796 -1787 6830 6846 6836 6832 0
-1784 -1792 -1796 -1785 6832 6846 6836 6830 0
-1785 -1790 -1792 -1787 6830 6846 6832 6836 0
-1784 -1790 -1797 -1788 6830 6847 6837 6833 0
-1784 -1793 -1797 -1785 6833 6847 6837 6830 0
-1785 -1790 -1793 -1788 6830 6847 6833 6837 0
-1784 -1790 -1798 -1789 6830 6848 6838 6834 0
-1784 -1794 -1798 -1785 6834 6848 6838 6830 0
-1785 -1790 -1794 -1789 6830 6848 6834 6838 0
-1784 -1791 -1799 -1787 6831 6849 6839 6832 0
-1784 -1792 -1799 -1786 6832 6849 6839 6831 0
-1786 -1791 -1792 -1787 6831 6849 6832 6839 0
-1784 -1791 -1800 -1788 6831 6850 6840 6833 0
-1784 -1793 -1800 -1786 6833 6850 6840 6831 0
-1786 -1791 -1793 -1788 6831 6850 6833 6840 0
-1784 -1791 -1801 -1789 6831 6851 6841 6834 0
-1784 -1794 -1801 -1786 6834 6851 6841 6831 0
-1786 -1791 -1794 -1789 6831 6851 6834 6841 0
-1784 -1792 -1802 -1788 6832 6852 6842 6833 0
-1784 -1793 -1802 -1787 6833 6852 6842 6832 0
-1787 -1792 -1793 -1788 6832 6852 6833 6842 0
-1784 -1792 -1803 -1789 6832 6853 6843 6834 0
-1784 -1794 -1803 -1787 6834 6853 6843 6832 0
-1787 -1792 -1794 -1789 6832 6853 6834 6843 0
-1784 -1793 -1804 -1789 6833 6854 6844 6834 0
-1784 -1794 -1804 -1788 6834 6854 6844 6833 0
-1788 -1793 -1794 -1789 6833 6854 6834 6844 0
-1785 -1795 -1799 -1787 6835 6855 6839 6836 0
-1785 -1796 -1799 -1786 6836 6855 6839 6835 0
-1786 -1795 -1796 -1787 6835 6855 6836 6839 0
-1785 -1795 -1800 -1788 6835 6856 6840 6837 0
-1785 -1797 -1800 -1786 6837 6856 6840 6835 0
-1786 -1795 -1797 -1788 6835 6856 6837 6840 0
-1785 -1795 -1801 -1789 6835 6857 6841 6838 0
-1785 -1798 -1801 -1786 6838 6857 6841 6835 0
-1786 -1795 -1798 -1789 6835 6857 6838 6841 0
-1785 -1796 -1802 -1788 6836 6858 6842 6837 0
-1785 -1797 -1802 -1787 6837 6858 6842 6836 0
-1787 -1796 -1797 -1788 6836 6858 6837 6842 0
-1785 -1796 -1803 -1789 6836 6859 6843 6838 0
-1785 -1798 -1803 -1787 6838 6859 6843 6836 0
-1787 -1796 -1798 -1789 6836 6859 6838 6843 0
-1785 -1797 -1804 -1789 6837 6860 6844 6838 0
-1785 -1798 -1804 -1788 6838 6860 6844 6837 0
-1788 -1797 -1798 -1789 6837 6860 6838 6844 0
-1786 -1799 -1802 -1788 6839 6861 6842 6840 0
-1786 -1800 -1802 -1787 6840 6861 6842 6839 0
-1787 -1799 -1800 -1788 6839 6861 6840 6842 0
-1786 -1799 -1803 -1789 6839 6862 6843 6841 0
-1786 -1801 -1803 -1787 6841 6862 6843 6839 0
-1787 -1799 -1801 -1789 6839 6862 6841 6843 0
-1786 -1800 -1804 -1789 6840 6863 6844 6841 0
-1786 -1801 -1804 -1788 6841 6863 6844 6840 0
-1788 -1800 -1801 -1789 6840 6863 6841 6844 0
-1787 -1802 -1804 -1789 6842 6864 6844 6843 0
-1787 -1803 -1804 -1788 6843 6864 6844 6842 0
-1788 -1802 -1803 -1789 6842 6864 6843 6844 0
-1790 -1795 -1799 -1792 6845 6855 6849 6846 0
-1790 -1796 -1799 -1791 6846 6855 6849 6845 0
-1791 -1795 -1796 -1792 6845 6855 6846 6849 0
-1790 -1795 -1800 -1793 6845 6856 6850 6847 0
-1790 -1797 -1800 -1791 6847 6856 6850 6845 0
-1791 -1795 -1797 -1793 6845 6856 6847 6850 0
-1790 -1795 -1801 -1794 6845 6857 6851 6848 0
-1790 -1798 -1801 -1791 6848 6857 6851 6845 0
-1791 -1795 -1798 -1794 6845 6857 6848 6851 0
-1790 -1796 -1802 -1793 6846 6858 6852 6847 0
-1790 -1797 -1802 -1792 6847 6858 6852 6846 0
-1792 -1796 -1797 -1793 6846 6858 6847 6852 0
-1790 -1796 -1803 -1794 6846 6859 6853 6848 0
-1790 -1798 -1803 -1792 6848 6859 6853 6846 0
-1792 -1796 -1798 -1794 6846 6859 6848 6853 0
-1790 -1797 -1804 -1794 6847 6860 6854 6848 0
-1790 -1798 -1804 -1793 6848 6860 6854 6847 0
-1793 -1797 -1798 -1794 6847 6860 6848 6854 0
-1791 -1799 -1802 -1793 6849 6861 6852 6850 0
-1791 -1800 -1802 -1792 6850 6861 6852 6849 0
-1792 -1799 -1800 -1793 6849 6861 6850 6852 0
-1791 -1799 -1803 -1794 6849 6862 6853 6851 0
-1791 -1801 -1803 -1792 6851 6862 6853 6849 0
-1792 -1799 -1801 -1794 6849 6862 6851 6853 0
-1791 -1800 -1804 -1794 6850 6863 6854 6851 0
-1791 -1801 -1804 -1793 6851 6863 6854 6850 0
-1793 -1800 -1801 -1794 6850 6863 6851 6854 0
-1792 -1802 -1804 -1794 6852 6864 6854 6853 0
-1792 -1803 -1804 -1793 6853 6864 6854 6852 0
-1793 -1802 -1803 -1794 6852 6864 6853 6854 0
-1795 -1799 -1802 -1797 6855 6861 6858 6856 0
-1795 -1800 -1802 -1796 6856 6861 6858 6855 0
-1796 -1799 -1800 -1797 6855 6861 6856 6858 0
-1795 -1799 -1803 -1798 6855 6862 6859 6857 0
-1795 -1801 -1803 -1796 6857 6862 6859 6855 0
-1796 -1799 -1801 -1798 6855 6862 6857 6859 0
-1795 -1800 -1804 -1798 6856 6863 6860 6857 0
-1795 -1801 -1804 -1797 6857 6863 6860 6856 0
-1797 -1800 -1801 -1798 6856 6863 6857 6860 0
-1796 -1802 -1804 -1798 6858 6864 6860 6859 0
-1796 -1803 -1804 -1797 6859 6864 6860 6858 0
-1797 -1802 -1803 -1798 6858 6864 6859 6860 0
-1799 -1802 -1804 -1801 6861 6864 6863 6862 0
-1799 -1803 -1804 -1800 6862 6864 6863 6861 0
-1800 -1802 -1803 -1801 6861 6864 6862 6863 0
9793 0
-9793 1 -2 0
-9794 9793 0
-9794 1 -2 0
-9794 -1 2 0
-9793 -1 -2 9794 0
-9793 1 2 9794 0
-9794 23 -24 0
-9795 9794 0
-9795 23 -24 0
-9795 -23 24 0
-9794 -23 -24 9795 0
-9794 23 24 9795 0
-9795 45 -46 0
-9796 9795 0
-9796 45 -46 0
-9796 -45 46 0
-9795 -45 -46 9796 0
-9795 45 46 9796 0
-9796 67 -68 0
-9797 9796 0
-9797 67 -68 0
-9797 -67 68 0
-9796 -67 -68 9797 0
-9796 67 68 9797 0
-9797 89 -90 0
-9798 9797 0
-9798 89 -90 0
-9798 -89 90 0
-9797 -89 -90 9798 0
-9797 89 90 9798 0
-9798 111 -112 0
-9799 9798 0
-9799 111 -112 0
-9799 -111 112 0
-9798 -111 -112 9799 0
-9798 111 112 9799 0
-9799 133 -134 0
-9800 9799 0
-9800 133 -134 0
-9800 -133 134 0
-9799 -133 -134 9800 0
-9799 133 134 9800 0
-9800 155 -156 0
-9801 9800 0
-9801 155 -156 0
-9801 -155 156 0
-9800 -155 -156 9801 0
-9800 155 156 9801 0
-9801 177 -178 0
-9802 9801 0
-9802 177 -178 0
-9802 -177 178 0
-9801 -177 -178 9802 0
-9801 177 178 9802 0
-9802 199 -200 0
-9803 9802 0
-9803 199 -200 0
-9803 -199 200 0
-9802 -199 -200 9803 0
-9802 199 200 9803 0
-9803 221 -222 0
-9804 9803 0
-9804 221 -222 0
-9804 -221 222 0
-9803 -221 -222 9804 0
-9803 221 222 9804 0
-9804 243 -244 0
-9805 9804 0
-9805 243 -244 0
-9805 -243 244 0
-9804 -243 -244 9805 0
-9804 243 244 9805 0
9806 0
-9806 2 -3 0
-9807 9806 0
-9807 2 -3 0
-9807 -2 3 0
-9806 -2 -3 9807 0
-9806 2 3 9807 0
-9807 24 -25 0
-9808 9807 0
-9808 24 -25 0
-9808 -24 25 0
-9807 -24 -25 9808 0
-9807 24 25 9808 0
-9808 46 -47 0
-9809 9808 0
-9809 46 -47 0
-9809 -46 47 0
-9808 -46 -47 9809 0
-9808 46 47 9809 0
-9809 68 -69 0
-9810 9809 0
-9810 68 -69 0
-9810 -68 69 0
-9809 -68 -69 9810 0
-9809 68 69 9810 0
-9810 90 -91 0
-9811 9810 0
-9811 90 -91 0
-9811 -90 91 0
-9810 -90 -91 9811 0
-9810 90 91 9811 0
-9811 112 -113 0
-9812 9811 0
-9812 112 -113 0
-9812 -112 113 0
-9811 -112 -113 9812 0
-9811 112 113 9812 0
-9812 134 -135 0
-9813 9812 0
-9813 134 -135 0
-9813 -134 135 0
-9812 -134 -135 9813 0
-9812 134 135 9813 0
-9813 156 -157 0
-9814 9813 0
-9814 156 -157 0
-9814 -156 157 0
-9813 -156 -157 9814 0
-9813 156 157 9814 0
-9814 178 -179 0
-9815 9814 0
-9815 178 -179 0
-9815 -178 179 0
-9814 -178 -179 9815 0
-9814 178 179 9815 0
-9815 200 -201 0
-9816 9815 0
-9816 200 -201 0
-9816 -200 201 0
-9815 -200 -201 9816 0
-9815 200 201 9816 0
-9816 222 -223 0
-9817 9816 0
-9817 222 -223 0
-9817 -222 223 0
-9816 -222 -223 9817 0
-9816 222 223 9817 0
-9817 244 -245 0
-9818 9817 0
-9818 244 -245 0
-9818 -244 245 0
-9817 -244 -245 9818 0
-9817 244 245 9818 0
9819 0
-9819 3 -4 0
-9820 9819 0
-9820 3 -4 0
-9820 -3 4 0
-9819 -3 -4 9820 0
-9819 3 4 9820 0
-9820 25 -26 0
-9821 9820 0
-9821 25 -26 0
-9821 -25 26 0
-9820 -25 -26 9821 0
-9820 25 26 9821 0
-9821 47 -48 0
-9822 9821 0
-9822 47 -48 0
-9822 -47 48 0
-9821 -47 -48 9822 0
-9821 47 48 9822 0
-9822 69 -70 0
-9823 9822 0
-9823 69 -70 0
-9823 -69 70 0
-9822 -69 -70 9823 0
-9822 69 70 9823 0
-9823 91 -92 0
-9824 9823 0
-9824 91 -92 0
-9824 -91 92 0
-9823 -91 -92 9824 0
-9823 91 92 9824 0
-9824 113 -114 0
-9825 9824 0
-9825 113 -114 0
-9825 -113 114 0
-9824 -113 -114 9825 0
-9824 113 114 9825 0
-9825 135 -136 0
-9826 9825 0
-9826 135 -136 0
-9826 -135 136 0
-9825 -135 -136 9826 0
-9825 135 136 9826 0
-9826 157 -158 0
-9827 9826 0
-9827 157 -158 0
-9827 -157 158 0
-9826 -157 -158 9827 0
-9826 157 158 9827 0
-9827 179 -180 0
-9828 9827 0
-9828 179 -180 0
-9828 -179 180 0
-9827 -179 -180 9828 0
-9827 179 180 9828 0
-9828 201 -202 0
-9829 9828 0
-9829 201 -202 0
-9829 -201 202 0
-9828 -201 -202 9829 0
-9828 201 202 9829 0
-9829 223 -224 0
-9830 9829 0
-9830 223 -224 0
-9830 -223 224 0
-9829 -223 -224 9830 0
-9829 223 224 9830 0
-9830 245 -246 0
-9831 9830 0
-9831 245 -246 0
-9831 -245 246 0
-9830 -245 -246 9831 0
-9830 245 246 9831 0
9832 0
-9832 4 -5 0
-9833 9832 0
-9833 4 -5 0
-9833 -4 5 0
-9832 -4 -5 9833 0
-9832 4 5 9833 0
-9833 26 -27 0
-9834 9833 0
-9834 26 -27 0
-9834 -26 27 0
-9833 -26 -27 9834 0
-9833 26 27 9834 0
-9834 48 -49 0
-9835 9834 0
-9835 48 -49 0
-9835 -48 49 0
-9834 -48 -49 9835 0
-9834 48 49 9835 0
-9835 70 -71 0
-9836 9835 0
-9836 70 -71 0
-9836 -70 71 0
-9835 -70 -71 9836 0
-9835 70 71 9836 0
-9836 92 -93 0
-9837 9836 0
-9837 92 -93 0
-9837 -92 93 0
-9836 -92 -93 9837 0
-9836 92 93 9837 0
-9837 114 -115 0
-9838 9837 0
-9838 114 -115 0
-9838 -114 115 0
-9837 -114 -115 9838 0
-9837 114 115 9838 0
-9838 136 -137 0
-9839 9838 0
-9839 136 -137 0
-9839 -136 137 0
-9838 -136 -137 9839 0
-9838 136 137 9839 0
-9839 158 -159 0
-9840 9839 0
-9840 158 -159 0
-9840 -158 159 0
-9839 -158 -159 9840 0
-9839 158 159 9840 0
-9840 180 -181 0
-9841 9840 0
-9841 180 -181 0
-9841 -180 181 0
-9840 -180 -181 9841 0
-9840 180 181 9841 0
-9841 202 -203 0
-9842 9841 0
-9842 202 -203 0
-9842 -202 203 0
-9841 -202 -203 9842 0
-9841 202 203 9842 0
-9842 224 -225 0
-9843 9842 0
-9843 224 -225 0
-9843 -224 225 0
-9842 -224 -225 9843 0
-9842 224 225 9843 0
-9843 246 -247 0
-9844 9843 0
-9844 246 -247 0
-9844 -246 247 0
-9843 -246 -247 9844 0
-9843 246 247 9844 0
9845 0
-9845 5 -6 0
-9846 9845 0
-9846 5 -6 0
-9846 -5 6 0
-9845 -5 -6 9846 0
-9845 5 6 9846 0
-9846 27 -28 0
-9847 9846 0
-9847 27 -28 0
-9847 -27 28 0
-9846 -27 -28 9847 0
-9846 27 28 9847 0
-9847 49 -50 0
-9848 9847 0
-9848 49 -50 0
-9848 -49 50 0
-9847 -49 -50 9848 0
-9847 49 50 9848 0
-9848 71 -72 0
-9849 9848 0
-9849 71 -72 0
-9849 -71 72 0
-9848 -71 -72 9849 0
-9848 71 72 9849 0
-9849 93 -94 0
-9850 9849 0
-9850 93 -94 0
-9850 -93 94 0
-9849 -93 -94 9850 0
-9849 93 94 9850 0
-9850 115 -116 0
-9851 9850 0
-9851 115 -116 0
-9851 -115 116 0
-9850 -115 -116 9851 0
-9850 115 116 9851 0
-9851 137 -138 0
-9852 9851 0
-9852 137 -138 0
-9852 -137 138 0
-9851 -137 -138 9852 0
-9851 137 138 9852 0
-9852 159 -160 0
-9853 9852 0
-9853 159 -160 0
-9853 -159 160 0
-9852 -159 -160 9853 0
-9852 159 160 9853 0
-9853 181 -182 0
-9854 9853 0
-9854 181 -182 0
-9854 -181 182 0
-9853 -181 -182 9854 0
-9853 181 182 9854 0
-9854 203 -204 0
-9855 9854 0
-9855 203 -204 0
-9855 -203 204 0
-9854 -203 -204 9855 0
-9854 203 204 9855 0
-9855 225 -226 0
-9856 9855 0
-9856 225 -226 0
-9856 -225 226 0
-9855 -225 -226 9856 0
-9855 225 226 9856 0
-9856 247 -248 0
-9857 9856 0
-9857 247 -248 0
-9857 -247 248 0
-9856 -247 -248 9857 0
-9856 247 248 9857 0
9858 0
-9858 6 -7 0
-9859 9858 0
-9859 6 -7 0
-9859 -6 7 0
-9858 -6 -7 9859 0
-9858 6 7 9859 0
-9859 28 -29 0
-9860 9859 0
-9860 28 -29 0
-9860 -28 29 0
-9859 -28 -29 9860 0
-9859 28 29 9860 0
-9860 50 -51 0
-9861 9860 0
-9861 50 -51 0
-9861 -50 51 0
-9860 -50 -51 9861 0
-9860 50 51 9861 0
-9861 72 -73 0
-9862 9861 0
-9862 72 -73 0
-9862 -72 73 0
-9861 -72 -73 9862 0
-9861 72 73 9862 0
-9862 94 -95 0
-9863 9862 0
-9863 94 -95 0
-9863 -94 95 0
-9862 -94 -95 9863 0
-9862 94 95 9863 0
-9863 116 -117 0
-9864 9863 0
-9864 116 -117 0
-9864 -116 117 0
-9863 -116 -117 9864 0
-9863 116 117 9864 0
-9864 138 -139 0
-9865 9864 0
-9865 138 -139 0
-9865 -138 139 0
-9864 -138 -139 9865 0
-9864 138 139 9865 0
-9865 160 -161 0
-9866 9865 0
-9866 160 -161 0
-9866 -160 161 0
-9865 -160 -161 9866 0
-9865 160 161 9866 0
-9866 182 -183 0
-9867 9866 0
-9867 182 -183 0
-9867 -182 183 0
-9866 -182 -183 9867 0
-9866 182 183 9867 0
-9867 204 -205 0
-9868 9867 0
-9868 204 -205 0
-9868 -204 205 0
-9867 -204 -205 9868 0
-9867 204 205 9868 0
-9868 226 -227 0
-9869 9868 0
-9869 226 -227 0
-9869 -226 227 0
-9868 -226 -227 9869 0
-9868 226 227 9869 0
-9869 248 -249 0
-9870 9869 0
-9870 248 -249 0
-9870 -248 249 0
-9869 -248 -249 9870 0
-9869 248 249 9870 0
9871 0
-9871 7 -8 0
-9872 9871 0
-9872 7 -8 0
-9872 -7 8 0
-9871 -7 -8 9872 0
-9871 7 8 9872 0
-9872 29 -30 0
-9873 9872 0
-9873 29 -30 0
-9873 -29 30 0
-9872 -29 -30 9873 0
-9872 29 30 9873 0
-9873 51 -52 0
-9874 9873 0
-9874 51 -52 0
-9874 -51 52 0
-9873 -51 -52 9874 0
-9873 51 52 9874 0
-9874 73 -74 0
-9875 9874 0
-9875 73 -74 0
-9875 -73 74 0
-9874 -73 -74 9875 0
-9874 73 74 9875 0
-9875 95 -96 0
-9876 9875 0
-9876 95 -96 0
-9876 -95 96 0
-9875 -95 -96 9876 0
-9875 95 96 9876 0
-9876 117 -118 0
-9877 9876 0
-9877 117 -118 0
-9877 -117 118 0
-9876 -117 -118 9877 0
-9876 117 118 9877 0
-9877 139 -140 0
-9878 9877 0
-9878 139 -140 0
-9878 -139 140 0
-9877 -139 -140 9878 0
-9877 139 140 9878 0
-9878 161 -162 0
-9879 9878 0
-9879 161 -162 0
-9879 -161 162 0
-9878 -161 -162 9879 0
-9878 161 162 9879 0
-9879 183 -184 0
-9880 9879 0
-9880 183 -184 0
-9880 -183 184 0
-9879 -183 -184 9880 0
-9879 183 184 9880 0
-9880 205 -206 0
-9881 9880 0
-9881 205 -206 0
-9881 -205 206 0
-9880 -205 -206 9881 0
-9880 205 206 9881 0
-9881 227 -228 0
-9882 9881 0
-9882 227 -228 0
-9882 -227 228 0
-9881 -227 -228 9882 0
-9881 227 228 9882 0
-9882 249 -250 0
-9883 9882 0
-9883 249 -250 0
-9883 -249 250 0
-9882 -249 -250 9883 0
-9882 249 250 9883 0
9884 0
-9884 8 -9 0
-9885 9884 0
-9885 8 -9 0
-9885 -8 9 0
-9884 -8 -9 9885 0
-9884 8 9 9885 0
-9885 30 -31 0
-9886 9885 0
-9886 30 -31 0
-9886 -30 31 0
-9885 -30 -31 9886 0
-9885 30 31 9886 0
-9886 52 -53 0
-9887 9886 0
-9887 52 -53 0
-9887 -52 53 0
-9886 -52 -53 9887 0
-9886 52 53 9887 0
-9887 74 -75 0
-9888 9887 0
-9888 74 -75 0
-9888 -74 75 0
-9887 -74 -75 9888 0
-9887 74 75 9888 0
-9888 96 -97 0
-9889 9888 0
-9889 96 -97 0
-9889 -96 97 0
-9888 -96 -97 9889 0
-9888 96 97 9889 0
-9889 118 -119 0
-9890 9889 0
-9890 118 -119 0
-9890 -118 119 0
-9889 -118 -119 9890 0
-9889 118 119 9890 0
-9890 140 -141 0
-9891 9890 0
-9891 140 -141 0
-9891 -140 141 0
-9890 -140 -141 9891 0
-9890 140 141 9891 0
-9891 162 -163 0
-9892 9891 0
-9892 162 -163 0
-9892 -162 163 0
-9891 -162 -163 9892 0
-9891 162 163 9892 0
-9892 184 -185 0
-9893 9892 0
-9893 184 -185 0
-9893 -184 185 0
-9892 -184 -185 9893 0
-9892 184 185 9893 0
-9893 206 -207 0
-9894 9893 0
-9894 206 -207 0
-9894 -206 207 0
-9893 -206 -207 9894 0
-9893 206 207 9894 0
-9894 228 -229 0
-9895 9894 0
-9895 228 -229 0
-9895 -228 229 0
-9894 -228 -229 9895 0
-9894 228 229 9895 0
-9895 250 -251 0
-9896 9895 0
-9896 250 -251 0
-9896 -250 251 0
-9895 -250 -251 9896 0
-9895 250 251 9896 0
9897 0
-9897 9 -10 0
-9898 9897 0
-9898 9 -10 0
-9898 -9 10 0
-9897 -9 -10 9898 0
-9897 9 10 9898 0
-9898 31 -32 0
-9899 9898 0
-9899 31 -32 0
-9899 -31 32 0
-9898 -31 -32 9899 0
-9898 31 32 9899 0
-9899 53 -54 0
-9900 9899 0
-9900 53 -54 0
-9900 -53 54 0
-9899 -53 -54 9900 0
-9899 53 54 9900 0
-9900 75 -76 0
-9901 9900 0
-9901 75 -76 0
-9901 -75 76 0
-9900 -75 -76 9901 0
-9900 75 76 9901 0
-9901 97 -98 0
-9902 9901 0
-9902 97 -98 0
-9902 -97 98 0
-9901 -97 -98 9902 0
-9901 97 98 9902 0
-9902 119 -120 0
-9903 9902 0
-9903 119 -120 0
-9903 -119 120 0
-9902 -119 -120 9903 0
-9902 119 120 9903 0
-9903 141 -142 0
-9904 9903 0
-9904 141 -142 0
-9904 -141 142 0
-9903 -141 -142 9904 0
-9903 141 142 9904 0
-9904 163 -164 0
-9905 9904 0
-9905 163 -164 0
-9905 -163 164 0
-9904 -163 -164 9905 0
-9904 163 164 9905 0
-9905 185 -186 0
-9906 9905 0
-9906 185 -186 0
-9906 -185 186 0
-9905 -185 -186 9906 0
-9905 185 186 9906 0
-9906 207 -208 0
-9907 9906 0
-9907 207 -208 0
-9907 -207 208 0
-9906 -207 -208 9907 0
-9906 207 208 9907 0
-9907 229 -230 0
-9908 9907 0
-9908 229 -230 0
-9908 -229 230 0
-9907 -229 -230 9908 0
-9907 229 230 9908 0
-9908 251 -252 0
-9909 9908 0
-9909 251 -252 0
-9909 -251 252 0
-9908 -251 -252 9909 0
-9908 251 252 9909 0
9910 0
-9910 10 -11 0
-9911 9910 0
-9911 10 -11 0
-9911 -10 11 0
-9910 -10 -11 9911 0
-9910 10 11 9911 0
-9911 32 -33 0
-9912 9911 0
-9912 32 -33 0
-9912 -32 33 0
-9911 -32 -33 9912 0
-9911 32 33 9912 0
-9912 54 -55 0
-9913 9912 0
-9913 54 -55 0
-9913 -54 55 0
-9912 -54 -55 9913 0
-9912 54 55 9913 0
-9913 76 -77 0
-9914 9913 0
-9914 76 -77 0
-9914 -76 77 0
-9913 -76 -77 9914 0
-9913 76 77 9914 0
-9914 98 -99 0
-9915 9914 0
-9915 98 -99 0
-9915 -98 99 0
-9914 -98 -99 9915 0
-9914 98 99 9915 0
-9915 120 -121 0
-9916 9915 0
-9916 120 -121 0
-9916 -120 121 0
-9915 -120 -121 9916 0
-9915 120 121 9916 0
-9916 142 -143 0
-9917 9916 0
-9917 142 -143 0
-9917 -142 143 0
-9916 -142 -143 9917 0
-9916 142 143 9917 0
-9917 164 -165 0
-9918 9917 0
-9918 164 -165 0
-9918 -164 165 0
-9917 -164 -165 9918 0
-9917 164 165 9918 0
-9918 186 -187 0
-9919 9918 0
-9919 186 -187 0
-9919 -186 187 0
-9918 -186 -187 9919 0
-9918 186 187 9919 0
-9919 208 -209 0
-9920 9919 0
-9920 208 -209 0
-9920 -208 209 0
-9919 -208 -209 9920 0
-9919 208 209 9920 0
-9920 230 -231 0
-9921 9920 0
-9921 230 -231 0
-9921 -230 231 0
-9920 -230 -231 9921 0
-9920 230 231 9921 0
-9921 252 -253 0
-9922 9921 0
-9922 252 -253 0
-9922 -252 253 0
-9921 -252 -253 9922 0
-9921 252 253 9922 0
9923 0
-9923 11 -12 0
-9924 9923 0
-9924 11 -12 0
-9924 -11 12 0
-9923 -11 -12 9924 0
-9923 11 12 9924 0
-9924 33 -34 0
-9925 9924 0
-9925 33 -34 0
-9925 -33 34 0
-9924 -33 -34 9925 0
-9924 33 34 9925 0
-9925 55 -56 0
-9926 9925 0
-9926 55 -56 0
-9926 -55 56 0
-9925 -55 -56 9926 0
-9925 55 56 9926 0
-9926 77 -78 0
-9927 9926 0
-9927 77 -78 0
-9927 -77 78 0
-9926 -77 -78 9927 0
-9926 77 78 9927 0
-9927 99 -100 0
-9928 9927 0
-9928 99 -100 0
-9928 -99 100 0
-9927 -99 -100 9928 0
-9927 99 100 9928 0
-9928 121 -122 0
-9929 9928 0
-9929 121 -122 0
-9929 -121 122 0
-9928 -121 -122 9929 0
-9928 121 122 9929 0
-9929 143 -144 0
-9930 9929 0
-9930 143 -144 0
-9930 -143 144 0
-9929 -143 -144 9930 0
-9929 143 144 9930 0
-9930 165 -166 0
-9931 9930 0
-9931 165 -166 0
-9931 -165 166 0
-9930 -165 -166 9931 0
-9930 165 166 9931 0
-9931 187 -188 0
-9932 9931 0
-9932 187 -188 0
-9932 -187 188 0
-9931 -187 -188 9932 0
-9931 187 188 9932 0
-9932 209 -210 0
-9933 9932 0
-9933 209 -210 0
-9933 -209 210 0
-9932 -209 -210 9933 0
-9932 209 210 9933 0
-9933 231 -232 0
-9934 9933 0
-9934 231 -232 0
-9934 -231 232 0
-9933 -231 -232 9934 0
-9933 231 232 9934 0
-9934 253 -254 0
-9935 9934 0
-9935 253 -254 0
-9935 -253 254 0
-9934 -253 -254 9935 0
-9934 253 254 9935 0
9936 0
-9936 12 -13 0
-9937 9936 0
-9937 12 -13 0
-9937 -12 13 0
-9936 -12 -13 9937 0
-9936 12 13 9937 0
-9937 34 -35 0
-9938 9937 0
-9938 34 -35 0
-9938 -34 35 0
-9937 -34 -35 9938 0
-9937 34 35 9938 0
-9938 56 -57 0
-9939 9938 0
-9939 56 -57 0
-9939 -56 57 0
-9938 -56 -57 9939 0
-9938 56 57 9939 0
-9939 78 -79 0
-9940 9939 0
-9940 78 -79 0
-9940 -78 79 0
-9939 -78 -79 9940 0
-9939 78 79 9940 0
-9940 100 -101 0
-9941 9940 0
-9941 100 -101 0
-9941 -100 101 0
-9940 -100 -101 9941 0
-9940 100 101 9941 0
-9941 122 -123 0
-9942 9941 0
-9942 122 -123 0
-9942 -122 123 0
-9941 -122 -123 9942 0
-9941 122 123 9942 0
-9942 144 -145 0
-9943 9942 0
-9943 144 -145 0
-9943 -144 145 0
-9942 -144 -145 9943 0
-9942 144 145 9943 0
-9943 166 -167 0
-9944 9943 0
-9944 166 -167 0
-9944 -166 167 0
-9943 -166 -167 9944 0
-9943 166 167 9944 0
-9944 188 -189 0
-9945 9944 0
-9945 188 -189 0
-9945 -188 189 0
-9944 -188 -189 9945 0
-9944 188 189 9945 0
-9945 210 -211 0
-9946 9945 0
-9946 210 -211 0
-9946 -210 211 0
-9945 -210 -211 9946 0
-9945 210 211 9946 0
-9946 232 -233 0
-9947 9946 0
-9947 232 -233 0
-9947 -232 233 0
-9946 -232 -233 9947 0
-9946 232 233 9947 0
-9947 254 -255 0
-9948 9947 0
-9948 254 -255 0
-9948 -254 255 0
-9947 -254 -255 9948 0
-9947 254 255 9948 0
9949 0
-9949 13 -14 0
-9950 9949 0
-9950 13 -14 0
-9950 -13 14 0
-9949 -13 -14 9950 0
-9949 13 14 9950 0
-9950 35 -36 0
-9951 9950 0
-9951 35 -36 0
-9951 -35 36 0
-9950 -35 -36 9951 0
-9950 35 36 9951 0
-9951 57 -58 0
-9952 9951 0
-9952 57 -58 0
-9952 -57 58 0
-9951 -57 -58 9952 0
-9951 57 58 9952 0
-9952 79 -80 0
-9953 9952 0
-9953 79 -80 0
-9953 -79 80 0
-9952 -79 -80 9953 0
-9952 79 80 9953 0
-9953 101 -102 0
-9954 9953 0
-9954 101 -102 0
-9954 -101 102 0
-9953 -101 -102 9954 0
-9953 101 102 9954 0
-9954 123 -124 0
-9955 9954 0
-9955 123 -124 0
-9955 -123 124 0
-9954 -123 -124 9955 0
-9954 123 124 9955 0
-9955 145 -146 0
-9956 9955 0
-9956 145 -146 0
-9956 -145 146 0
-9955 -145 -146 9956 0
-9955 145 146 9956 0
-9956 167 -168 0
-9957 9956 0
-9957 167 -168 0
-9957 -167 168 0
-9956 -167 -168 9957 0
-9956 167 168 9957 0
-9957 189 -190 0
-9958 9957 0
-9958 189 -190 0
-9958 -189 190 0
-9957 -189 -190 9958 0
-9957 189 190 9958 0
-9958 211 -212 0
-9959 9958 0
-9959 211 -212 0
-9959 -211 212 0
-9958 -211 -212 9959 0
-9958 211 212 9959 0
-9959 233 -234 0
-9960 9959 0
-9960 233 -234 0
-9960 -233 234 0
-9959 -233 -234 9960 0
-9959 233 234 9960 0
-9960 255 -256 0
-9961 9960 0
-9961 255 -256 0
-9961 -255 256 0
-9960 -255 -256 9961 0
-9960 255 256 9961 0
9962 0
-9962 14 -15 0
-9963 9962 0
-9963 14 -15 0
-9963 -14 15 0
-9962 -14 -15 9963 0
-9962 14 15 9963 0
-9963 36 -37 0
-9964 9963 0
-9964 36 -37 0
-9964 -36 37 0
-9963 -36 -37 9964 0
-9963 36 37 9964 0
-9964 58 -59 0
-9965 9964 0
-9965 58 -59 0
-9965 -58 59 0
-9964 -58 -59 9965 0
-9964 58 59 9965 0
-9965 80 -81 0
-9966 9965 0
-9966 80 -81 0
-9966 -80 81 0
-9965 -80 -81 9966 0
-9965 80 81 9966 0
-9966 102 -103 0
-9967 9966 0
-9967 102 -103 0
-9967 -102 103 0
-9966 -102 -103 9967 0
-9966 102 103 9967 0
-9967 124 -125 0
-9968 9967 0
-9968 124 -125 0
-9968 -124 125 0
-9967 -124 -125 9968 0
-9967 124 125 9968 0
-9968 146 -147 0
-9969 9968 0
-9969 146 -147 0
-9969 -146 147 0
-9968 -146 -147 9969 0
-9968 146 147 9969 0
-9969 168 -169 0
-9970 9969 0
-9970 168 -169 0
-9970 -168 169 0
-9969 -168 -169 9970 0
-9969 168 169 9970 0
-9970 190 -191 0
-9971 9970 0
-9971 190 -191 0
-9971 -190 191 0
-9970 -190 -191 9971 0
-9970 190 191 9971 0
-9971 212 -213 0
-9972 9971 0
-9972 212 -213 0
-9972 -212 213 0
-9971 -212 -213 9972 0
-9971 212 213 9972 0
-9972 234 -235 0
-9973 9972 0
-9973 234 -235 0
-9973 -234 235 0
-9972 -234 -235 9973 0
-9972 234 235 9973 0
-9973 256 -257 0
-9974 9973 0
-9974 256 -257 0
-9974 -256 257 0
-9973 -256 -257 9974 0
-9973 256 257 9974 0
9975 0
-9975 15 -16 0
-9976 9975 0
-9976 15 -16 0
-9976 -15 16 0
-9975 -15 -16 9976 0
-9975 15 16 9976 0
-9976 37 -38 0
-9977 9976 0
-9977 37 -38 0
-9977 -37 38 0
-9976 -37 -38 9977 0
-9976 37 38 9977 0
-9977 59 -60 0
-9978 9977 0
-9978 59 -60 0
-9978 -59 60 0
-9977 -59 -60 9978 0
-9977 59 60 9978 0
-9978 81 -82 0
-9979 9978 0
-9979 81 -82 0
-9979 -81 82 0
-9978 -81 -82 9979 0
-9978 81 82 9979 0
-9979 103 -104 0
-9980 9979 0
-9980 103 -104 0
-9980 -103 104 0
-9979 -103 -104 9980 0
-9979 103 104 9980 0
-9980 125 -126 0
-9981 9980 0
-9981 125 -126 0
-9981 -125 126 0
-9980 -125 -126 9981 0
-9980 125 126 9981 0
-9981 147 -148 0
-9982 9981 0
-9982 147 -148 0
-9982 -147 148 0
-9981 -147 -148 9982 0
-9981 147 148 9982 0
-9982 169 -170 0
-9983 9982 0
-9983 169 -170 0
-9983 -169 170 0
-9982 -169 -170 9983 0
-9982 169 170 9983 0
-9983 191 -192 0
-9984 9983 0
-9984 191 -192 0
-9984 -191 192 0
-9983 -191 -192 9984 0
-9983 191 192 9984 0
-9984 213 -214 0
-9985 9984 0
-9985 213 -214 0
-9985 -213 214 0
-9984 -213 -214 9985 0
-9984 213 214 9985 0
-9985 235 -236 0
-9986 9985 0
-9986 235 -236 0
-9986 -235 236 0
-9985 -235 -236 9986 0
-9985 235 236 9986 0
-9986 257 -258 0
-9987 9986 0
-9987 257 -258 0
-9987 -257 258 0
-9986 -257 -258 9987 0
-9986 257 258 9987 0
9988 0
-9988 16 -17 0
-9989 9988 0
-9989 16 -17 0
-9989 -16 17 0
-9988 -16 -17 9989 0
-9988 16 17 9989 0
-9989 38 -39 0
-9990 9989 0
-9990 38 -39 0
-9990 -38 39 0
-9989 -38 -39 9990 0
-9989 38 39 9990 0
-9990 60 -61 0
-9991 9990 0
-9991 60 -61 0
-9991 -60 61 0
-9990 -60 -61 9991 0
-9990 60 61 9991 0
-9991 82 -83 0
-9992 9991 0
-9992 82 -83 0
-9992 -82 83 0
-9991 -82 -83 9992 0
-9991 82 83 9992 0
-9992 104 -105 0
-9993 9992 0
-9993 104 -105 0
-9993 -104 105 0
-9992 -104 -105 9993 0
-9992 104 105 9993 0
-9993 126 -127 0
-9994 9993 0
-9994 126 -127 0
-9994 -126 127 0
-9993 -126 -127 9994 0
-9993 126 127 9994 0
-9994 148 -149 0
-9995 9994 0
-9995 148 -149 0
-9995 -148 149 0
-9994 -148 -149 9995 0
-9994 148 149 9995 0
-9995 170 -171 0
-9996 9995 0
-9996 170 -171 0
-9996 -170 171 0
-9995 -170 -171 9996 0
-9995 170 171 9996 0
-9996 192 -193 0
-9997 9996 0
-9997 192 -193 0
-9997 -192 193 0
-9996 -192 -193 9997 0
-9996 192 193 9997 0
-9997 214 -215 0
-9998 9997 0
-9998 214 -215 0
-9998 -214 215 0
-9997 -214 -215 9998 0
-9997 214 215 9998 0
-9998 236 -237 0
-9999 9998 0
-9999 236 -237 0
-9999 -236 237 0
-9998 -236 -237 9999 0
-9998 236 237 9999 0
-9999 258 -259 0
-10000 9999 0
-10000 258 -259 0
-10000 -258 259 0
-9999 -258 -259 10000 0
-9999 258 259 10000 0
10001 0
-10001 17 -18 0
-10002 10001 0
-10002 17 -18 0
-10002 -17 18 0
-10001 -17 -18 10002 0
-10001 17 18 10002 0
-10002 39 -40 0
-10003 10002 0
-10003 39 -40 0
-10003 -39 40 0
-10002 -39 -40 10003 0
-10002 39 40 10003 0
-10003 61 -62 0
-10004 10003 0
-10004 61 -62 0
-10004 -61 62 0
-10003 -61 -62 10004 0
-10003 61 62 10004 0
-10004 83 -84 0
-10005 10004 0
-10005 83 -84 0
-10005 -83 84 0
-10004 -83 -84 10005 0
-10004 83 84 10005 0
-10005 105 -106 0
-10006 10005 0
-10006 105 -106 0
-10006 -105 106 0
-10005 -105 -106 10006 0
-10005 105 106 10006 0
-10006 127 -128 0
-10007 10006 0
-10007 127 -128 0
-10007 -127 128 0
-10006 -127 -128 10007 0
-10006 127 128 10007 0
-10007 149 -150 0
-10008 10007 0
-10008 149 -150 0
-10008 -149 150 0
-10007 -149 -150 10008 0
-10007 149 150 10008 0
-10008 171 -172 0
-10009 10008 0
-10009 171 -172 0
-10009 -171 172 0
-10008 -171 -172 10009 0
-10008 171 172 10009 0
-10009 193 -194 0
-10010 10009 0
-10010 193 -194 0
-10010 -193 194 0
-10009 -193 -194 10010 0
-10009 193 194 10010 0
-10010 215 -216 0
-10011 10010 0
-10011 215 -216 0
-10011 -215 216 0
-10010 -215 -216 10011 0
-10010 215 216 10011 0
-10011 237 -238 0
-10012 10011 0
-10012 237 -238 0
-10012 -237 238 0
-10011 -237 -238 10012 0
-10011 237 238 10012 0
-10012 259 -260 0
-10013 10012 0
-10013 259 -260 0
-10013 -259 260 0
-10012 -259 -260 10013 0
-10012 259 260 10013 0
10014 0
-10014 18 -19 0
-10015 10014 0
-10015 18 -19 0
-10015 -18 19 0
-10014 -18 -19 10015 0
-10014 18 19 10015 0
-10015 40 -41 0
-10016 10015 0
-10016 40 -41 0
-10016 -40 41 0
-10015 -40 -41 10016 0
-10015 40 41 10016 0
-10016 62 -63 0
-10017 10016 0
-10017 62 -63 0
-10017 -62 63 0
-10016 -62 -63 10017 0
-10016 62 63 10017 0
-10017 84 -85 0
-10018 10017 0
-10018 84 -85 0
-10018 -84 85 0
-10017 -84 -85 10018 0
-10017 84 85 10018 0
-10018 106 -107 0
-10019 10018 0
-10019 106 -107 0
-10019 -106 107 0
-10018 -106 -107 10019 0
-10018 106 107 10019 0
-10019 128 -129 0
-10020 10019 0
-10020 128 -129 0
-10020 -128 129 0
-10019 -128 -129 10020 0
-10019 128 129 10020 0
-10020 150 -151 0
-10021 10020 0
-10021 150 -151 0
-10021 -150 151 0
-10020 -150 -151 10021 0
-10020 150 151 10021 0
-10021 172 -173 0
-10022 10021 0
-10022 172 -173 0
-10022 -172 173 0
-10021 -172 -173 10022 0
-10021 172 173 10022 0
-10022 194 -195 0
-10023 10022 0
-10023 194 -195 0
-10023 -194 195 0
-10022 -194 -195 10023 0
-10022 194 195 10023 0
-10023 216 -217 0
-10024 10023 0
-10024 216 -217 0
-10024 -216 217 0
-10023 -216 -217 10024 0
-10023 216 217 10024 0
-10024 238 -239 0
-10025 10024 0
-10025 238 -239 0
-10025 -238 239 0
-10024 -238 -239 10025 0
-10024 238 239 10025 0
-10025 260 -261 0
-10026 10025 0
-10026 260 -261 0
-10026 -260 261 0
-10025 -260 -261 10026 0
-10025 260 261 10026 0
10027 0
-10027 19 -20 0
-10028 10027 0
-10028 19 -20 0
-10028 -19 20 0
-10027 -19 -20 10028 0
-10027 19 20 10028 0
-10028 41 -42 0
-10029 10028 0
-10029 41 -42 0
-10029 -41 42 0
-10028 -41 -42 10029 0
-10028 41 42 10029 0
-10029 63 -64 0
-10030 10029 0
-10030 63 -64 0
-10030 -63 64 0
-10029 -63 -64 10030 0
-10029 63 64 10030 0
-10030 85 -86 0
-10031 10030 0
-10031 85 -86 0
-10031 -85 86 0
-10030 -85 -86 10031 0
-10030 85 86 10031 0
-10031 107 -108 0
-10032 10031 0
-10032 107 -108 0
-10032 -107 108 0
-10031 -107 -108 10032 0
-10031 107 108 10032 0
-10032 129 -130 0
-10033 10032 0
-10033 129 -130 0
-10033 -129 130 0
-10032 -129 -130 10033 0
-10032 129 130 10033 0
-10033 151 -152 0
-10034 10033 0
-10034 151 -152 0
-10034 -151 152 0
-10033 -151 -152 10034 0
-10033 151 152 10034 0
-10034 173 -174 0
-10035 10034 0
-10035 173 -174 0
-10035 -173 174 0
-10034 -173 -174 10035 0
-10034 173 174 10035 0
-10035 195 -196 0
-10036 10035 0
-10036 195 -196 0
-10036 -195 196 0
-10035 -195 -196 10036 0
-10035 195 196 10036 0
-10036 217 -218 0
-10037 10036 0
-10037 217 -218 0
-10037 -217 218 0
-10036 -217 -218 10037 0
-10036 217 218 10037 0
-10037 239 -240 0
-10038 10037 0
-10038 239 -240 0
-10038 -239 240 0
-10037 -239 -240 10038 0
-10037 239 240 10038 0
-10038 261 -262 0
-10039 10038 0
-10039 261 -262 0
-10039 -261 262 0
-10038 -261 -262 10039 0
-10038 261 262 10039 0
10040 0
-10040 20 -21 0
-10041 10040 0
-10041 20 -21 0
-10041 -20 21 0
-10040 -20 -21 10041 0
-10040 20 21 10041 0
-10041 42 -43 0
-10042 10041 0
-10042 42 -43 0
-10042 -42 43 0
-10041 -42 -43 10042 0
-10041 42 43 10042 0
-10042 64 -65 0
-10043 10042 0
-10043 64 -65 0
-10043 -64 65 0
-10042 -64 -65 10043 0
-10042 64 65 10043 0
-10043 86 -87 0
-10044 10043 0
-10044 86 -87 0
-10044 -86 87 0
-10043 -86 -87 10044 0
-10043 86 87 10044 0
-10044 108 -109 0
-10045 10044 0
-10045 108 -109 0
-10045 -108 109 0
-10044 -108 -109 10045 0
-10044 108 109 10045 0
-10045 130 -131 0
-10046 10045 0
-10046 130 -131 0
-10046 -130 131 0
-10045 -130 -131 10046 0
-10045 130 131 10046 0
-10046 152 -153 0
-10047 10046 0
-10047 152 -153 0
-10047 -152 153 0
-10046 -152 -153 10047 0
-10046 152 153 10047 0
-10047 174 -175 0
-10048 10047 0
-10048 174 -175 0
-10048 -174 175 0
-10047 -174 -175 10048 0
-10047 174 175 10048 0
-10048 196 -197 0
-10049 10048 0
-10049 196 -197 0
-10049 -196 197 0
-10048 -196 -197 10049 0
-10048 196 197 10049 0
-10049 218 -219 0
-10050 10049 0
-10050 218 -219 0
-10050 -218 219 0
-10049 -218 -219 10050 0
-10049 218 219 10050 0
-10050 240 -241 0
-10051 10050 0
-10051 240 -241 0
-10051 -240 241 0
-10050 -240 -241 10051 0
-10050 240 241 10051 0
-10051 262 -263 0
-10052 10051 0
-10052 262 -263 0
-10052 -262 263 0
-10051 -262 -263 10052 0
-10051 262 263 10052 0
10053 0
-10053 21 -22 0
-10054 10053 0
-10054 21 -22 0
-10054 -21 22 0
-10053 -21 -22 10054 0
-10053 21 22 10054 0
-10054 43 -44 0
-10055 10054 0
-10055 43 -44 0
-10055 -43 44 0
-10054 -43 -44 10055 0
-10054 43 44 10055 0
-10055 65 -66 0
-10056 10055 0
-10056 65 -66 0
-10056 -65 66 0
-10055 -65 -66 10056 0
-10055 65 66 10056 0
-10056 87 -88 0
-10057 10056 0
-10057 87 -88 0
-10057 -87 88 0
-10056 -87 -88 10057 0
-10056 87 88 10057 0
-10057 109 -110 0
-10058 10057 0
-10058 109 -110 0
-10058 -109 110 0
-10057 -109 -110 10058 0
-10057 109 110 10058 0
-10058 131 -132 0
-10059 10058 0
-10059 131 -132 0
-10059 -131 132 0
-10058 -131 -132 10059 0
-10058 131 132 10059 0
-10059 153 -154 0
-10060 10059 0
-10060 153 -154 0
-10060 -153 154 0
-10059 -153 -154 10060 0
-10059 153 154 10060 0
-10060 175 -176 0
-10061 10060 0
-10061 175 -176 0
-10061 -175 176 0
-10060 -175 -176 10061 0
-10060 175 176 10061 0
-10061 197 -198 0
-10062 10061 0
-10062 197 -198 0
-10062 -197 198 0
-10061 -197 -198 10062 0
-10061 197 198 10062 0
-10062 219 -220 0
-10063 10062 0
-10063 219 -220 0
-10063 -219 220 0
-10062 -219 -220 10063 0
-10062 219 220 10063 0
-10063 241 -242 0
-10064 10063 0
-10064 241 -242 0
-10064 -241 242 0
-10063 -241 -242 10064 0
-10063 241 242 10064 0
-10064 263 -264 0
-10065 10064 0
-10065 263 -264 0
-10065 -263 264 0
-10064 -263 -264 10065 0
-10064 263 264 10065 0
10066 0
-10066 1 -23 0
-10067 10066 0
-10067 1 -23 0
-10067 -1 23 0
-10066 -1 -23 10067 0
-10066 1 23 10067 0
-10067 2 -24 0
-10068 10067 0
-10068 2 -24 0
-10068 -2 24 0
-10067 -2 -24 10068 0
-10067 2 24 10068 0
-10068 3 -25 0
-10069 10068 0
-10069 3 -25 0
-10069 -3 25 0
-10068 -3 -25 10069 0
-10068 3 25 10069 0
-10069 4 -26 0
-10070 10069 0
-10070 4 -26 0
-10070 -4 26 0
-10069 -4 -26 10070 0
-10069 4 26 10070 0
-10070 5 -27 0
-10071 10070 0
-10071 5 -27 0
-10071 -5 27 0
-10070 -5 -27 10071 0
-10070 5 27 10071 0
-10071 6 -28 0
-10072 10071 0
-10072 6 -28 0
-10072 -6 28 0
-10071 -6 -28 10072 0
-10071 6 28 10072 0
-10072 7 -29 0
-10073 10072 0
-10073 7 -29 0
-10073 -7 29 0
-10072 -7 -29 10073 0
-10072 7 29 10073 0
-10073 8 -30 0
-10074 10073 0
-10074 8 -30 0
-10074 -8 30 0
-10073 -8 -30 10074 0
-10073 8 30 10074 0
-10074 9 -31 0
-10075 10074 0
-10075 9 -31 0
-10075 -9 31 0
-10074 -9 -31 10075 0
-10074 9 31 10075 0
-10075 10 -32 0
-10076 10075 0
-10076 10 -32 0
-10076 -10 32 0
-10075 -10 -32 10076 0
-10075 10 32 10076 0
-10076 11 -33 0
-10077 10076 0
-10077 11 -33 0
-10077 -11 33 0
-10076 -11 -33 10077 0
-10076 11 33 10077 0
-10077 12 -34 0
-10078 10077 0
-10078 12 -34 0
-10078 -12 34 0
-10077 -12 -34 10078 0
-10077 12 34 10078 0
-10078 13 -35 0
-10079 10078 0
-10079 13 -35 0
-10079 -13 35 0
-10078 -13 -35 10079 0
-10078 13 35 10079 0
-10079 14 -36 0
-10080 10079 0
-10080 14 -36 0
-10080 -14 36 0
-10079 -14 -36 10080 0
-10079 14 36 10080 0
-10080 15 -37 0
-10081 10080 0
-10081 15 -37 0
-10081 -15 37 0
-10080 -15 -37 10081 0
-10080 15 37 10081 0
-10081 16 -38 0
-10082 10081 0
-10082 16 -38 0
-10082 -16 38 0
-10081 -16 -38 10082 0
-10081 16 38 10082 0
-10082 17 -39 0
-10083 10082 0
-10083 17 -39 0
-10083 -17 39 0
-10082 -17 -39 10083 0
-10082 17 39 10083 0
-10083 18 -40 0
-10084 10083 0
-10084 18 -40 0
-10084 -18 40 0
-10083 -18 -40 10084 0
-10083 18 40 10084 0
-10084 19 -41 0
-10085 10084 0
-10085 19 -41 0
-10085 -19 41 0
-10084 -19 -41 10085 0
-10084 19 41 10085 0
-10085 20 -42 0
-10086 10085 0
-10086 20 -42 0
-10086 -20 42 0
-10085 -20 -42 10086 0
-10085 20 42 10086 0
-10086 21 -43 0
-10087 10086 0
-10087 21 -43 0
-10087 -21 43 0
-10086 -21 -43 10087 0
-10086 21 43 10087 0
-10087 22 -44 0
-10088 10087 0
-10088 22 -44 0
-10088 -22 44 0
-10087 -22 -44 10088 0
-10087 22 44 10088 0
10089 0
-10089 23 -45 0
-10090 10089 0
-10090 23 -45 0
-10090 -23 45 0
-10089 -23 -45 10090 0
-10089 23 45 10090 0
-10090 24 -46 0
-10091 10090 0
-10091 24 -46 0
-10091 -24 46 0
-10090 -24 -46 10091 0
-10090 24 46 10091 0
-10091 25 -47 0
-10092 10091 0
-10092 25 -47 0
-10092 -25 47 0
-10091 -25 -47 10092 0
-10091 25 47 10092 0
-10092 26 -48 0
-10093 10092 0
-10093 26 -48 0
-10093 -26 48 0
-10092 -26 -48 10093 0
-10092 26 48 10093 0
-10093 27 -49 0
-10094 10093 0
-10094 27 -49 0
-10094 -27 49 0
-10093 -27 -49 10094 0
-10093 27 49 10094 0
-10094 28 -50 0
-10095 10094 0
-10095 28 -50 0
-10095 -28 50 0
-10094 -28 -50 10095 0
-10094 28 50 10095 0
-10095 29 -51 0
-10096 10095 0
-10096 29 -51 0
-10096 -29 51 0
-10095 -29 -51 10096 0
-10095 29 51 10096 0
-10096 30 -52 0
-10097 10096 0
-10097 30 -52 0
-10097 -30 52 0
-10096 -30 -52 10097 0
-10096 30 52 10097 0
-10097 31 -53 0
-10098 10097 0
-10098 31 -53 0
-10098 -31 53 0
-10097 -31 -53 10098 0
-10097 31 53 10098 0
-10098 32 -54 0
-10099 10098 0
-10099 32 -54 0
-10099 -32 54 0
-10098 -32 -54 10099 0
-10098 32 54 10099 0
-10099 33 -55 0
-10100 10099 0
-10100 33 -55 0
-10100 -33 55 0
-10099 -33 -55 10100 0
-10099 33 55 10100 0
-10100 34 -56 0
-10101 10100 0
-10101 34 -56 0
-10101 -34 56 0
-10100 -34 -56 10101 0
-10100 34 56 10101 0
-10101 35 -57 0
-10102 10101 0
-10102 35 -57 0
-10102 -35 57 0
-10101 -35 -57 10102 0
-10101 35 57 10102 0
-10102 36 -58 0
-10103 10102 0
-10103 36 -58 0
-10103 -36 58 0
-10102 -36 -58 10103 0
-10102 36 58 10103 0
-10103 37 -59 0
-10104 10103 0
-10104 37 -59 0
-10104 -37 59 0
-10103 -37 -59 10104 0
-10103 37 59 10104 0
-10104 38 -60 0
-10105 10104 0
-10105 38 -60 0
-10105 -38 60 0
-10104 -38 -60 10105 0
-10104 38 60 10105 0
-10105 39 -61 0
-10106 10105 0
-10106 39 -61 0
-10106 -39 61 0
-10105 -39 -61 10106 0
-10105 39 61 10106 0
-10106 40 -62 0
-10107 10106 0
-10107 40 -62 0
-10107 -40 62 0
-10106 -40 -62 10107 0
-10106 40 62 10107 0
-10107 41 -63 0
-10108 10107 0
-10108 41 -63 0
-10108 -41 63 0
-10107 -41 -63 10108 0
-10107 41 63 10108 0
-10108 42 -64 0
-10109 10108 0
-10109 42 -64 0
-10109 -42 64 0
-10108 -42 -64 10109 0
-10108 42 64 10109 0
-10109 43 -65 0
-10110 10109 0
-10110 43 -65 0
-10110 -43 65 0
-10109 -43 -65 10110 0
-10109 43 65 10110 0
-10110 44 -66 0
-10111 10110 0
-10111 44 -66 0
-10111 -44 66 0
-10110 -44 -66 10111 0
-10110 44 66 10111 0
10112 0
-10112 45 -67 0
-10113 10112 0
-10113 45 -67 0
-10113 -45 67 0
-10112 -45 -67 10113 0
-10112 45 67 10113 0
-10113 46 -68 0
-10114 10113 0
-10114 46 -68 0
-10114 -46 68 0
-10113 -46 -68 10114 0
-10113 46 68 10114 0
-10114 47 -69 0
-10115 10114 0
-10115 47 -69 0
-10115 -47 69 0
-10114 -47 -69 10115 0
-10114 47 69 10115 0
-10115 48 -70 0
-10116 10115 0
-10116 48 -70 0
-10116 -48 70 0
-10115 -48 -70 10116 0
-10115 48 70 10116 0
-10116 49 -71 0
-10117 10116 0
-10117 49 -71 0
-10117 -49 71 0
-10116 -49 -71 10117 0
-10116 49 71 10117 0
-10117 50 -72 0
-10118 10117 0
-10118 50 -72 0
-10118 -50 72 0
-10117 -50 -72 10118 0
-10117 50 72 10118 0
-10118 51 -73 0
-10119 10118 0
-10119 51 -73 0
-10119 -51 73 0
-10118 -51 -73 10119 0
-10118 51 73 10119 0
-10119 52 -74 0
-10120 10119 0
-10120 52 -74 0
-10120 -52 74 0
-10119 -52 -74 10120 0
-10119 52 74 10120 0
-10120 53 -75 0
-10121 10120 0
-10121 53 -75 0
-10121 -53 75 0
-10120 -53 -75 10121 0
-10120 53 75 10121 0
-10121 54 -76 0
-10122 10121 0
-10122 54 -76 0
-10122 -54 76 0
-10121 -54 -76 10122 0
-10121 54 76 10122 0
-10122 55 -77 0
-10123 10122 0
-10123 55 -77 0
-10123 -55 77 0
-10122 -55 -77 10123 0
-10122 55 77 10123 0
-10123 56 -78 0
-10124 10123 0
-10124 56 -78 0
-10124 -56 78 0
-10123 -56 -78 10124 0
-10123 56 78 10124 0
-10124 57 -79 0
-10125 10124 0
-10125 57 -79 0
-10125 -57 79 0
-10124 -57 -79 10125 0
-10124 57 79 10125 0
-10125 58 -80 0
-10126 10125 0
-10126 58 -80 0
-10126 -58 80 0
-10125 -58 -80 10126 0
-10125 58 80 10126 0
-10126 59 -81 0
-10127 10126 0
-10127 59 -81 0
-10127 -59 81 0
-10126 -59 -81 10127 0
-10126 59 81 10127 0
-10127 60 -82 0
-10128 10127 0
-10128 60 -82 0
-10128 -60 82 0
-10127 -60 -82 10128 0
-10127 60 82 10128 0
-10128 61 -83 0
-10129 10128 0
-10129 61 -83 0
-10129 -61 83 0
-10128 -61 -83 10129 0
-10128 61 83 10129 0
-10129 62 -84 0
-10130 10129 0
-10130 62 -84 0
-10130 -62 84 0
-10129 -62 -84 10130 0
-10129 62 84 10130 0
-10130 63 -85 0
-10131 10130 0
-10131 63 -85 0
-10131 -63 85 0
-10130 -63 -85 10131 0
-10130 63 85 10131 0
-10131 64 -86 0
-10132 10131 0
-10132 64 -86 0
-10132 -64 86 0
-10131 -64 -86 10132 0
-10131 64 86 10132 0
-10132 65 -87 0
-10133 10132 0
-10133 65 -87 0
-10133 -65 87 0
-10132 -65 -87 10133 0
-10132 65 87 10133 0
-10133 66 -88 0
-10134 10133 0
-10134 66 -88 0
-10134 -66 88 0
-10133 -66 -88 10134 0
-10133 66 88 10134 0
10135 0
-10135 67 -89 0
-10136 10135 0
-10136 67 -89 0
-10136 -67 89 0
-10135 -67 -89 10136 0
-10135 67 89 10136 0
-10136 68 -90 0
-10137 10136 0
-10137 68 -90 0
-10137 -68 90 0
-10136 -68 -90 10137 0
-10136 68 90 10137 0
-10137 69 -91 0
-10138 10137 0
-10138 69 -91 0
-10138 -69 91 0
-10137 -69 -91 10138 0
-10137 69 91 10138 0
-10138 70 -92 0
-10139 10138 0
-10139 70 -92 0
-10139 -70 92 0
-10138 -70 -92 10139 0
-10138 70 92 10139 0
-10139 71 -93 0
-10140 10139 0
-10140 71 -93 0
-10140 -71 93 0
-10139 -71 -93 10140 0
-10139 71 93 10140 0
-10140 72 -94 0
-10141 10140 0
-10141 72 -94 0
-10141 -72 94 0
-10140 -72 -94 10141 0
-10140 72 94 10141 0
-10141 73 -95 0
-10142 10141 0
-10142 73 -95 0
-10142 -73 95 0
-10141 -73 -95 10142 0
-10141 73 95 10142 0
-10142 74 -96 0
-10143 10142 0
-10143 74 -96 0
-10143 -74 96 0
-10142 -74 -96 10143 0
-10142 74 96 10143 0
-10143 75 -97 0
-10144 10143 0
-10144 75 -97 0
-10144 -75 97 0
-10143 -75 -97 10144 0
-10143 75 97 10144 0
-10144 76 -98 0
-10145 10144 0
-10145 76 -98 0
-10145 -76 98 0
-10144 -76 -98 10145 0
-10144 76 98 10145 0
-10145 77 -99 0
-10146 10145 0
-10146 77 -99 0
-10146 -77 99 0
-10145 -77 -99 10146 0
-10145 77 99 10146 0
-10146 78 -100 0
-10147 10146 0
-10147 78 -100 0
-10147 -78 100 0
-10146 -78 -100 10147 0
-10146 78 100 10147 0
-10147 79 -101 0
-10148 10147 0
-10148 79 -101 0
-10148 -79 101 0
-10147 -79 -101 10148 0
-10147 79 101 10148 0
-10148 80 -102 0
-10149 10148 0
-10149 80 -102 0
-10149 -80 102 0
-10148 -80 -102 10149 0
-10148 80 102 10149 0
-10149 81 -103 0
-10150 10149 0
-10150 81 -103 0
-10150 -81 103 0
-10149 -81 -103 10150 0
-10149 81 103 10150 0
-10150 82 -104 0
-10151 10150 0
-10151 82 -104 0
-10151 -82 104 0
-10150 -82 -104 10151 0
-10150 82 104 10151 0
-10151 83 -105 0
-10152 10151 0
-10152 83 -105 0
-10152 -83 105 0
-10151 -83 -105 10152 0
-10151 83 105 10152 0
-10152 84 -106 0
-10153 10152 0
-10153 84 -106 0
-10153 -84 106 0
-10152 -84 -106 10153 0
-10152 84 106 10153 0
-10153 85 -107 0
-10154 10153 0
-10154 85 -107 0
-10154 -85 107 0
-10153 -85 -107 10154 0
-10153 85 107 10154 0
-10154 86 -108 0
-10155 10154 0
-10155 86 -108 0
-10155 -86 108 0
-10154 -86 -108 10155 0
-10154 86 108 10155 0
-10155 87 -109 0
-10156 10155 0
-10156 87 -109 0
-10156 -87 109 0
-10155 -87 -109 10156 0
-10155 87 109 10156 0
-10156 88 -110 0
-10157 10156 0
-10157 88 -110 0
-10157 -88 110 0
-10156 -88 -110 10157 0
-10156 88 110 10157 0
10158 0
-10158 89 -111 0
-10159 10158 0
-10159 89 -111 0
-10159 -89 111 0
-10158 -89 -111 10159 0
-10158 89 111 10159 0
-10159 90 -112 0
-10160 10159 0
-10160 90 -112 0
-10160 -90 112 0
-10159 -90 -112 10160 0
-10159 90 112 10160 0
-10160 91 -113 0
-10161 10160 0
-10161 91 -113 0
-10161 -91 113 0
-10160 -91 -113 10161 0
-10160 91 113 10161 0
-10161 92 -114 0
-10162 10161 0
-10162 92 -114 0
-10162 -92 114 0
-10161 -92 -114 10162 0
-10161 92 114 10162 0
-10162 93 -115 0
-10163 10162 0
-10163 93 -115 0
-10163 -93 115 0
-10162 -93 -115 10163 0
-10162 93 115 10163 0
-10163 94 -116 0
-10164 10163 0
-10164 94 -116 0
-10164 -94 116 0
-10163 -94 -116 10164 0
-10163 94 116 10164 0
-10164 95 -117 0
-10165 10164 0
-10165 95 -117 0
-10165 -95 117 0
-10164 -95 -117 10165 0
-10164 95 117 10165 0
-10165 96 -118 0
-10166 10165 0
-10166 96 -118 0
-10166 -96 118 0
-10165 -96 -118 10166 0
-10165 96 118 10166 0
-10166 97 -119 0
-10167 10166 0
-10167 97 -119 0
-10167 -97 119 0
-10166 -97 -119 10167 0
-10166 97 119 10167 0
-10167 98 -120 0
-10168 10167 0
-10168 98 -120 0
-10168 -98 120 0
-10167 -98 -120 10168 0
-10167 98 120 10168 0
-10168 99 -121 0
-10169 10168 0
-10169 99 -121 0
-10169 -99 121 0
-10168 -99 -121 10169 0
-10168 99 121 10169 0
-10169 100 -122 0
-10170 10169 0
-10170 100 -122 0
-10170 -100 122 0
-10169 -100 -122 10170 0
-10169 100 122 10170 0
-10170 101 -123 0
-10171 10170 0
-10171 101 -123 0
-10171 -101 123 0
-10170 -101 -123 10171 0
-10170 101 123 10171 0
-10171 102 -124 0
-10172 10171 0
-10172 102 -124 0
-10172 -102 124 0
-10171 -102 -124 10172 0
-10171 102 124 10172 0
-10172 103 -125 0
-10173 10172 0
-10173 103 -125 0
-10173 -103 125 0
-10172 -103 -125 10173 0
-10172 103 125 10173 0
-10173 104 -126 0
-10174 10173 0
-10174 104 -126 0
-10174 -104 126 0
-10173 -104 -126 10174 0
-10173 104 126 10174 0
-10174 105 -127 0
-10175 10174 0
-10175 105 -127 0
-10175 -105 127 0
-10174 -105 -127 10175 0
-10174 105 127 10175 0
-10175 106 -128 0
-10176 10175 0
-10176 106 -128 0
-10176 -106 128 0
-10175 -106 -128 10176 0
-10175 106 128 10176 0
-10176 107 -129 0
-10177 10176 0
-10177 107 -129 0
-10177 -107 129 0
-10176 -107 -129 10177 0
-10176 107 129 10177 0
-10177 108 -130 0
-10178 10177 0
-10178 108 -130 0
-10178 -108 130 0
-10177 -108 -130 10178 0
-10177 108 130 10178 0
-10178 109 -131 0
-10179 10178 0
-10179 109 -131 0
-10179 -109 131 0
-10178 -109 -131 10179 0
-10178 109 131 10179 0
-10179 110 -132 0
-10180 10179 0
-10180 110 -132 0
-10180 -110 132 0
-10179 -110 -132 10180 0
-10179 110 132 10180 0
10181 0
-10181 111 -133 0
-10182 10181 0
-10182 111 -133 0
-10182 -111 133 0
-10181 -111 -133 10182 0
-10181 111 133 10182 0
-10182 112 -134 0
-10183 10182 0
-10183 112 -134 0
-10183 -112 134 0
-10182 -112 -134 10183 0
-10182 112 134 10183 0
-10183 113 -135 0
-10184 10183 0
-10184 113 -135 0
-10184 -113 135 0
-10183 -113 -135 10184 0
-10183 113 135 10184 0
-10184 114 -136 0
-10185 10184 0
-10185 114 -136 0
-10185 -114 136 0
-10184 -114 -136 10185 0
-10184 114 136 10185 0
-10185 115 -137 0
-10186 10185 0
-10186 115 -137 0
-10186 -115 137 0
-10185 -115 -137 10186 0
-10185 115 137 10186 0
-10186 116 -138 0
-10187 10186 0
-10187 116 -138 0
-10187 -116 138 0
-10186 -116 -138 10187 0
-10186 116 138 10187 0
-10187 117 -139 0
-10188 10187 0
-10188 117 -139 0
-10188 -117 139 0
-10187 -117 -139 10188 0
-10187 117 139 10188 0
-10188 118 -140 0
-10189 10188 0
-10189 118 -140 0
-10189 -118 140 0
-10188 -118 -140 10189 0
-10188 118 140 10189 0
-10189 119 -141 0
-10190 10189 0
-10190 119 -141 0
-10190 -119 141 0
-10189 -119 -141 10190 0
-10189 119 141 10190 0
-10190 120 -142 0
-10191 10190 0
-10191 120 -142 0
-10191 -120 142 0
-10190 -120 -142 10191 0
-10190 120 142 10191 0
-10191 121 -143 0
-10192 10191 0
-10192 121 -143 0
-10192 -121 143 0
-10191 -121 -143 10192 0
-10191 121 143 10192 0
-10192 122 -144 0
-10193 10192 0
-10193 122 -144 0
-10193 -122 144 0
-10192 -122 -144 10193 0
-10192 122 144 10193 0
-10193 123 -145 0
-10194 10193 0
-10194 123 -145 0
-10194 -123 145 0
-10193 -123 -145 10194 0
-10193 123 145 10194 0
-10194 124 -146 0
-10195 10194 0
-10195 124 -146 0
-10195 -124 146 0
-10194 -124 -146 10195 0
-10194 124 146 10195 0
-10195 125 -147 0
-10196 10195 0
-10196 125 -147 0
-10196 -125 147 0
-10195 -125 -147 10196 0
-10195 125 147 10196 0
-10196 126 -148 0
-10197 10196 0
-10197 126 -148 0
-10197 -126 148 0
-10196 -126 -148 10197 0
-10196 126 148 10197 0
-10197 127 -149 0
-10198 10197 0
-10198 127 -149 0
-10198 -127 149 0
-10197 -127 -149 10198 0
-10197 127 149 10198 0
-10198 128 -150 0
-10199 10198 0
-10199 128 -150 0
-10199 -128 150 0
-10198 -128 -150 10199 0
-10198 128 150 10199 0
-10199 129 -151 0
-10200 10199 0
-10200 129 -151 0
-10200 -129 151 0
-10199 -129 -151 10200 0
-10199 129 151 10200 0
-10200 130 -152 0
-10201 10200 0
-10201 130 -152 0
-10201 -130 152 0
-10200 -130 -152 10201 0
-10200 130 152 10201 0
-10201 131 -153 0
-10202 10201 0
-10202 131 -153 0
-10202 -131 153 0
-10201 -131 -153 10202 0
-10201 131 153 10202 0
-10202 132 -154 0
-10203 10202 0
-10203 132 -154 0
-10203 -132 154 0
-10202 -132 -154 10203 0
-10202 132 154 10203 0
10204 0
-10204 133 -155 0
-10205 10204 0
-10205 133 -155 0
-10205 -133 155 0
-10204 -133 -155 10205 0
-10204 133 155 10205 0
-10205 134 -156 0
-10206 10205 0
-10206 134 -156 0
-10206 -134 156 0
-10205 -134 -156 10206 0
-10205 134 156 10206 0
-10206 135 -157 0
-10207 10206 0
-10207 135 -157 0
-10207 -135 157 0
-10206 -135 -157 10207 0
-10206 135 157 10207 0
-10207 136 -158 0
-10208 10207 0
-10208 136 -158 0
-10208 -136 158 0
-10207 -136 -158 10208 0
-10207 136 158 10208 0
-10208 137 -159 0
-10209 10208 0
-10209 137 -159 0
-10209 -137 159 0
-10208 -137 -159 10209 0
-10208 137 159 10209 0
-10209 138 -160 0
-10210 10209 0
-10210 138 -160 0
-10210 -138 160 0
-10209 -138 -160 10210 0
-10209 138 160 10210 0
-10210 139 -161 0
-10211 10210 0
-10211 139 -161 0
-10211 -139 161 0
-10210 -139 -161 10211 0
-10210 139 161 10211 0
-10211 140 -162 0
-10212 10211 0
-10212 140 -162 0
-10212 -140 162 0
-10211 -140 -162 10212 0
-10211 140 162 10212 0
-10212 141 -163 0
-10213 10212 0
-10213 141 -163 0
-10213 -141 163 0
-10212 -141 -163 10213 0
-10212 141 163 10213 0
-10213 142 -164 0
-10214 10213 0
-10214 142 -164 0
-10214 -142 164 0
-10213 -142 -164 10214 0
-10213 142 164 10214 0
-10214 143 -165 0
-10215 10214 0
-10215 143 -165 0
-10215 -143 165 0
-10214 -143 -165 10215 0
-10214 143 165 10215 0
-10215 144 -166 0
-10216 10215 0
-10216 144 -166 0
-10216 -144 166 0
-10215 -144 -166 10216 0
-10215 144 166 10216 0
-10216 145 -167 0
-10217 10216 0
-10217 145 -167 0
-10217 -145 167 0
-10216 -145 -167 10217 0
-10216 145 167 10217 0
-10217 146 -168 0
-10218 10217 0
-10218 146 -168 0
-10218 -146 168 0
-10217 -146 -168 10218 0
-10217 146 168 10218 0
-10218 147 -169 0
-10219 10218 0
-10219 147 -169 0
-10219 -147 169 0
-10218 -147 -169 10219 0
-10218 147 169 10219 0
-10219 148 -170 0
-10220 10219 0
-10220 148 -170 0
-10220 -148 170 0
-10219 -148 -170 10220 0
-10219 148 170 10220 0
-10220 149 -171 0
-10221 10220 0
-10221 149 -171 0
-10221 -149 171 0
-10220 -149 -171 10221 0
-10220 149 171 10221 0
-10221 150 -172 0
-10222 10221 0
-10222 150 -172 0
-10222 -150 172 0
-10221 -150 -172 10222 0
-10221 150 172 10222 0
-10222 151 -173 0
-10223 10222 0
-10223 151 -173 0
-10223 -151 173 0
-10222 -151 -173 10223 0
-10222 151 173 10223 0
-10223 152 -174 0
-10224 10223 0
-10224 152 -174 0
-10224 -152 174 0
-10223 -152 -174 10224 0
-10223 152 174 10224 0
-10224 153 -175 0
-10225 10224 0
-10225 153 -175 0
-10225 -153 175 0
-10224 -153 -175 10225 0
-10224 153 175 10225 0
-10225 154 -176 0
-10226 10225 0
-10226 154 -176 0
-10226 -154 176 0
-10225 -154 -176 10226 0
-10225 154 176 10226 0
10227 0
-10227 155 -177 0
-10228 10227 0
-10228 155 -177 0
-10228 -155 177 0
-10227 -155 -177 10228 0
-10227 155 177 10228 0
-10228 156 -178 0
-10229 10228 0
-10229 156 -178 0
-10229 -156 178 0
-10228 -156 -178 10229 0
-10228 156 178 10229 0
-10229 157 -179 0
-10230 10229 0
-10230 157 -179 0
-10230 -157 179 0
-10229 -157 -179 10230 0
-10229 157 179 10230 0
-10230 158 -180 0
-10231 10230 0
-10231 158 -180 0
-10231 -158 180 0
-10230 -158 -180 10231 0
-10230 158 180 10231 0
-10231 159 -181 0
-10232 10231 0
-10232 159 -181 0
-10232 -159 181 0
-10231 -159 -181 10232 0
-10231 159 181 10232 0
-10232 160 -182 0
-10233 10232 0
-10233 160 -182 0
-10233 -160 182 0
-10232 -160 -182 10233 0
-10232 160 182 10233 0
-10233 161 -183 0
-10234 10233 0
-10234 161 -183 0
-10234 -161 183 0
-10233 -161 -183 10234 0
-10233 161 183 10234 0
-10234 162 -184 0
-10235 10234 0
-10235 162 -184 0
-10235 -162 184 0
-10234 -162 -184 10235 0
-10234 162 184 10235 0
-10235 163 -185 0
-10236 10235 0
-10236 163 -185 0
-10236 -163 185 0
-10235 -163 -185 10236 0
-10235 163 185 10236 0
-10236 164 -186 0
-10237 10236 0
-10237 164 -186 0
-10237 -164 186 0
-10236 -164 -186 10237 0
-10236 164 186 10237 0
-10237 165 -187 0
-10238 10237 0
-10238 165 -187 0
-10238 -165 187 0
-10237 -165 -187 10238 0
-10237 165 187 10238 0
-10238 166 -188 0
-10239 10238 0
-10239 166 -188 0
-10239 -166 188 0
-10238 -166 -188 10239 0
-10238 166 188 10239 0
-10239 167 -189 0
-10240 10239 0
-10240 167 -189 0
-10240 -167 189 0
-10239 -167 -189 10240 0
-10239 167 189 10240 0
-10240 168 -190 0
-10241 10240 0
-10241 168 -190 0
-10241 -168 190 0
-10240 -168 -190 10241 0
-10240 168 190 10241 0
-10241 169 -191 0
-10242 10241 0
-10242 169 -191 0
-10242 -169 191 0
-10241 -169 -191 10242 0
-10241 169 191 10242 0
-10242 170 -192 0
-10243 10242 0
-10243 170 -192 0
-10243 -170 192 0
-10242 -170 -192 10243 0
-10242 170 192 10243 0
-10243 171 -193 0
-10244 10243 0
-10244 171 -193 0
-10244 -171 193 0
-10243 -171 -193 10244 0
-10243 171 193 10244 0
-10244 172 -194 0
-10245 10244 0
-10245 172 -194 0
-10245 -172 194 0
-10244 -172 -194 10245 0
-10244 172 194 10245 0
-10245 173 -195 0
-10246 10245 0
-10246 173 -195 0
-10246 -173 195 0
-10245 -173 -195 10246 0
-10245 173 195 10246 0
-10246 174 -196 0
-10247 10246 0
-10247 174 -196 0
-10247 -174 196 0
-10246 -174 -196 10247 0
-10246 174 196 10247 0
-10247 175 -197 0
-10248 10247 0
-10248 175 -197 0
-10248 -175 197 0
-10247 -175 -197 10248 0
-10247 175 197 10248 0
-10248 176 -198 0
-10249 10248 0
-10249 176 -198 0
-10249 -176 198 0
-10248 -176 -198 10249 0
-10248 176 198 10249 0
10250 0
-10250 177 -199 0
-10251 10250 0
-10251 177 -199 0
-10251 -177 199 0
-10250 -177 -199 10251 0
-10250 177 199 10251 0
-10251 178 -200 0
-10252 10251 0
-10252 178 -200 0
-10252 -178 200 0
-10251 -178 -200 10252 0
-10251 178 200 10252 0
-10252 179 -201 0
-10253 10252 0
-10253 179 -201 0
-10253 -179 201 0
-10252 -179 -201 10253 0
-10252 179 201 10253 0
-10253 180 -202 0
-10254 10253 0
-10254 180 -202 0
-10254 -180 202 0
-10253 -180 -202 10254 0
-10253 180 202 10254 0
-10254 181 -203 0
-10255 10254 0
-10255 181 -203 0
-10255 -181 203 0
-10254 -181 -203 10255 0
-10254 181 203 10255 0
-10255 182 -204 0
-10256 10255 0
-10256 182 -204 0
-10256 -182 204 0
-10255 -182 -204 10256 0
-10255 182 204 10256 0
-10256 183 -205 0
-10257 10256 0
-10257 183 -205 0
-10257 -183 205 0
-10256 -183 -205 10257 0
-10256 183 205 10257 0
-10257 184 -206 0
-10258 10257 0
-10258 184 -206 0
-10258 -184 206 0
-10257 -184 -206 10258 0
-10257 184 206 10258 0
-10258 185 -207 0
-10259 10258 0
-10259 185 -207 0
-10259 -185 207 0
-10258 -185 -207 10259 0
-10258 185 207 10259 0
-10259 186 -208 0
-10260 10259 0
-10260 186 -208 0
-10260 -186 208 0
-10259 -186 -208 10260 0
-10259 186 208 10260 0
-10260 187 -209 0
-10261 10260 0
-10261 187 -209 0
-10261 -187 209 0
-10260 -187 -209 10261 0
-10260 187 209 10261 0
-10261 188 -210 0
-10262 10261 0
-10262 188 -210 0
-10262 -188 210 0
-10261 -188 -210 10262 0
-10261 188 210 10262 0
-10262 189 -211 0
-10263 10262 0
-10263 189 -211 0
-10263 -189 211 0
-10262 -189 -211 10263 0
-10262 189 211 10263 0
-10263 190 -212 0
-10264 10263 0
-10264 190 -212 0
-10264 -190 212 0
-10263 -190 -212 10264 0
-10263 190 212 10264 0
-10264 191 -213 0
-10265 10264 0
-10265 191 -213 0
-10265 -191 213 0
-10264 -191 -213 10265 0
-10264 191 213 10265 0
-10265 192 -214 0
-10266 10265 0
-10266 192 -214 0
-10266 -192 214 0
-10265 -192 -214 10266 0
-10265 192 214 10266 0
-10266 193 -215 0
-10267 10266 0
-10267 193 -215 0
-10267 -193 215 0
-10266 -193 -215 10267 0
-10266 193 215 10267 0
-10267 194 -216 0
-10268 10267 0
-10268 194 -216 0
-10268 -194 216 0
-10267 -194 -216 10268 0
-10267 194 216 10268 0
-10268 195 -217 0
-10269 10268 0
-10269 195 -217 0
-10269 -195 217 0
-10268 -195 -217 10269 0
-10268 195 217 10269 0
-10269 196 -218 0
-10270 10269 0
-10270 196 -218 0
-10270 -196 218 0
-10269 -196 -218 10270 0
-10269 196 218 10270 0
-10270 197 -219 0
-10271 10270 0
-10271 197 -219 0
-10271 -197 219 0
-10270 -197 -219 10271 0
-10270 197 219 10271 0
-10271 198 -220 0
-10272 10271 0
-10272 198 -220 0
-10272 -198 220 0
-10271 -198 -220 10272 0
-10271 198 220 10272 0
10273 0
-10273 199 -221 0
-10274 10273 0
-10274 199 -221 0
-10274 -199 221 0
-10273 -199 -221 10274 0
-10273 199 221 10274 0
-10274 200 -222 0
-10275 10274 0
-10275 200 -222 0
-10275 -200 222 0
-10274 -200 -222 10275 0
-10274 200 222 10275 0
-10275 201 -223 0
-10276 10275 0
-10276 201 -223 0
-10276 -201 223 0
-10275 -201 -223 10276 0
-10275 201 223 10276 0
-10276 202 -224 0
-10277 10276 0
-10277 202 -224 0
-10277 -202 224 0
-10276 -202 -224 10277 0
-10276 202 224 10277 0
-10277 203 -225 0
-10278 10277 0
-10278 203 -225 0
-10278 -203 225 0
-10277 -203 -225 10278 0
-10277 203 225 10278 0
-10278 204 -226 0
-10279 10278 0
-10279 204 -226 0
-10279 -204 226 0
-10278 -204 -226 10279 0
-10278 204 226 10279 0
-10279 205 -227 0
-10280 10279 0
-10280 205 -227 0
-10280 -205 227 0
-10279 -205 -227 10280 0
-10279 205 227 10280 0
-10280 206 -228 0
-10281 10280 0
-10281 206 -228 0
-10281 -206 228 0
-10280 -206 -228 10281 0
-10280 206 228 10281 0
-10281 207 -229 0
-10282 10281 0
-10282 207 -229 0
-10282 -207 229 0
-10281 -207 -229 10282 0
-10281 207 229 10282 0
-10282 208 -230 0
-10283 10282 0
-10283 208 -230 0
-10283 -208 230 0
-10282 -208 -230 10283 0
-10282 208 230 10283 0
-10283 209 -231 0
-10284 10283 0
-10284 209 -231 0
-10284 -209 231 0
-10283 -209 -231 10284 0
-10283 209 231 10284 0
-10284 210 -232 0
-10285 10284 0
-10285 210 -232 0
-10285 -210 232 0
-10284 -210 -232 10285 0
-10284 210 232 10285 0
-10285 211 -233 0
-10286 10285 0
-10286 211 -233 0
-10286 -211 233 0
-10285 -211 -233 10286 0
-10285 211 233 10286 0
-10286 212 -234 0
-10287 10286 0
-10287 212 -234 0
-10287 -212 234 0
-10286 -212 -234 10287 0
-10286 212 234 10287 0
-10287 213 -235 0
-10288 10287 0
-10288 213 -235 0
-10288 -213 235 0
-10287 -213 -235 10288 0
-10287 213 235 10288 0
-10288 214 -236 0
-10289 10288 0
-10289 214 -236 0
-10289 -214 236 0
-10288 -214 -236 10289 0
-10288 214 236 10289 0
-10289 215 -237 0
-10290 10289 0
-10290 215 -237 0
-10290 -215 237 0
-10289 -215 -237 10290 0
-10289 215 237 10290 0
-10290 216 -238 0
-10291 10290 0
-10291 216 -238 0
-10291 -216 238 0
-10290 -216 -238 10291 0
-10290 216 238 10291 0
-10291 217 -239 0
-10292 10291 0
-10292 217 -239 0
-10292 -217 239 0
-10291 -217 -239 10292 0
-10291 217 239 10292 0
-10292 218 -240 0
-10293 10292 0
-10293 218 -240 0
-10293 -218 240 0
-10292 -218 -240 10293 0
-10292 218 240 10293 0
-10293 219 -241 0
-10294 10293 0
-10294 219 -241 0
-10294 -219 241 0
-10293 -219 -241 10294 0
-10293 219 241 10294 0
-10294 220 -242 0
-10295 10294 0
-10295 220 -242 0
-10295 -220 242 0
-10294 -220 -242 10295 0
-10294 220 242 10295 0
10296 0
-10296 221 -243 0
-10297 10296 0
-10297 221 -243 0
-10297 -221 243 0
-10296 -221 -243 10297 0
-10296 221 243 10297 0
-10297 222 -244 0
-10298 10297 0
-10298 222 -244 0
-10298 -222 244 0
-10297 -222 -244 10298 0
-10297 222 244 10298 0
-10298 223 -245 0
-10299 10298 0
-10299 223 -245 0
-10299 -223 245 0
-10298 -223 -245 10299 0
-10298 223 245 10299 0
-10299 224 -246 0
-10300 10299 0
-10300 224 -246 0
-10300 -224 246 0
-10299 -224 -246 10300 0
-10299 224 246 10300 0
-10300 225 -247 0
-10301 10300 0
-10301 225 -247 0
-10301 -225 247 0
-10300 -225 -247 10301 0
-10300 225 247 10301 0
-10301 226 -248 0
-10302 10301 0
-10302 226 -248 0
-10302 -226 248 0
-10301 -226 -248 10302 0
-10301 226 248 10302 0
-10302 227 -249 0
-10303 10302 0
-10303 227 -249 0
-10303 -227 249 0
-10302 -227 -249 10303 0
-10302 227 249 10303 0
-10303 228 -250 0
-10304 10303 0
-10304 228 -250 0
-10304 -228 250 0
-10303 -228 -250 10304 0
-10303 228 250 10304 0
-10304 229 -251 0
-10305 10304 0
-10305 229 -251 0
-10305 -229 251 0
-10304 -229 -251 10305 0
-10304 229 251 10305 0
-10305 230 -252 0
-10306 10305 0
-10306 230 -252 0
-10306 -230 252 0
-10305 -230 -252 10306 0
-10305 230 252 10306 0
-10306 231 -253 0
-10307 10306 0
-10307 231 -253 0
-10307 -231 253 0
-10306 -231 -253 10307 0
-10306 231 253 10307 0
-10307 232 -254 0
-10308 10307 0
-10308 232 -254 0
-10308 -232 254 0
-10307 -232 -254 10308 0
-10307 232 254 10308 0
-10308 233 -255 0
-10309 10308 0
-10309 233 -255 0
-10309 -233 255 0
-10308 -233 -255 10309 0
-10308 233 255 10309 0
-10309 234 -256 0
-10310 10309 0
-10310 234 -256 0
-10310 -234 256 0
-10309 -234 -256 10310 0
-10309 234 256 10310 0
-10310 235 -257 0
-10311 10310 0
-10311 235 -257 0
-10311 -235 257 0
-10310 -235 -257 10311 0
-10310 235 257 10311 0
-10311 236 -258 0
-10312 10311 0
-10312 236 -258 0
-10312 -236 258 0
-10311 -236 -258 10312 0
-10311 236 258 10312 0
-10312 237 -259 0
-10313 10312 0
-10313 237 -259 0
-10313 -237 259 0
-10312 -237 -259 10313 0
-10312 237 259 10313 0
-10313 238 -260 0
-10314 10313 0
-10314 238 -260 0
-10314 -238 260 0
-10313 -238 -260 10314 0
-10313 238 260 10314 0
-10314 239 -261 0
-10315 10314 0
-10315 239 -261 0
-10315 -239 261 0
-10314 -239 -261 10315 0
-10314 239 261 10315 0
-10315 240 -262 0
-10316 10315 0
-10316 240 -262 0
-10316 -240 262 0
-10315 -240 -262 10316 0
-10315 240 262 10316 0
-10316 241 -263 0
-10317 10316 0
-10317 241 -263 0
-10317 -241 263 0
-10316 -241 -263 10317 0
-10316 241 263 10317 0
-10317 242 -264 0
-10318 10317 0
-10318 242 -264 0
-10318 -242 264 0
-10317 -242 -264 10318 0
-10317 242 264 10318 0
