p cnf 504 1655
-1 31 0
-6 31 0
-11 31 0
-16 31 0
-21 31 0
-26 31 0
-2 32 0
-7 32 0
-12 32 0
-17 32 0
-22 32 0
-27 32 0
-3 33 0
-8 33 0
-13 33 0
-18 33 0
-23 33 0
-28 33 0
-4 34 0
-9 34 0
-14 34 0
-19 34 0
-24 34 0
-29 34 0
-5 35 0
-10 35 0
-15 35 0
-20 35 0
-25 35 0
-30 35 0
-32 31 0
-33 32 0
-34 33 0
-35 34 0
31 246 0
-246 -31 0
31 247 0
-247 -31 0
31 248 0
-248 -31 0
1 249 0
-249 250 0
6 -249 251 0
-251 252 0
11 -251 253 0
-253 254 0
16 -253 255 0
-255 256 0
21 -255 257 0
-257 258 0
26 -257 259 0
-259 260 0
246 -259 0
6 250 0
-250 261 0
11 -250 252 0
-252 262 0
16 -252 254 0
-254 263 0
21 -254 256 0
-256 264 0
26 -256 258 0
-258 265 0
246 -258 260 0
-260 266 0
247 -260 0
11 261 0
16 -261 262 0
21 -262 263 0
26 -263 264 0
246 -264 265 0
247 -265 266 0
248 -266 0
32 267 0
-267 -32 0
32 268 0
-268 -32 0
32 269 0
-269 -32 0
2 270 0
-270 271 0
7 -270 272 0
-272 273 0
12 -272 274 0
-274 275 0
17 -274 276 0
-276 277 0
22 -276 278 0
-278 279 0
27 -278 280 0
-280 281 0
267 -280 0
7 271 0
-271 282 0
12 -271 273 0
-273 283 0
17 -273 275 0
-275 284 0
22 -275 277 0
-277 285 0
27 -277 279 0
-279 286 0
267 -279 281 0
-281 287 0
268 -281 0
12 282 0
17 -282 283 0
22 -283 284 0
27 -284 285 0
267 -285 286 0
268 -286 287 0
269 -287 0
33 288 0
-288 -33 0
33 289 0
-289 -33 0
33 290 0
-290 -33 0
3 291 0
-291 292 0
8 -291 293 0
-293 294 0
13 -293 295 0
-295 296 0
18 -295 297 0
-297 298 0
23 -297 299 0
-299 300 0
28 -299 301 0
-301 302 0
288 -301 0
8 292 0
-292 303 0
13 -292 294 0
-294 304 0
18 -294 296 0
-296 305 0
23 -296 298 0
-298 306 0
28 -298 300 0
-300 307 0
288 -300 302 0
-302 308 0
289 -302 0
13 303 0
18 -303 304 0
23 -304 305 0
28 -305 306 0
288 -306 307 0
289 -307 308 0
290 -308 0
34 309 0
-309 -34 0
34 310 0
-310 -34 0
34 311 0
-311 -34 0
4 312 0
-312 313 0
9 -312 314 0
-314 315 0
14 -314 316 0
-316 317 0
19 -316 318 0
-318 319 0
24 -318 320 0
-320 321 0
29 -320 322 0
-322 323 0
309 -322 0
9 313 0
-313 324 0
14 -313 315 0
-315 325 0
19 -315 317 0
-317 326 0
24 -317 319 0
-319 327 0
29 -319 321 0
-321 328 0
309 -321 323 0
-323 329 0
310 -323 0
14 324 0
19 -324 325 0
24 -325 326 0
29 -326 327 0
309 -327 328 0
310 -328 329 0
311 -329 0
35 330 0
-330 -35 0
35 331 0
-331 -35 0
35 332 0
-332 -35 0
5 333 0
-333 334 0
10 -333 335 0
-335 336 0
15 -335 337 0
-337 338 0
20 -337 339 0
-339 340 0
25 -339 341 0
-341 342 0
30 -341 343 0
-343 344 0
330 -343 0
10 334 0
-334 345 0
15 -334 336 0
-336 346 0
20 -336 338 0
-338 347 0
25 -338 340 0
-340 348 0
30 -340 342 0
-342 349 0
330 -342 344 0
-344 350 0
331 -344 0
15 345 0
20 -345 346 0
25 -346 347 0
30 -347 348 0
330 -348 349 0
331 -349 350 0
332 -350 0
1 351 0
-351 352 0
2 -351 353 0
-353 354 0
3 -353 0
2 352 0
-352 355 0
3 -352 354 0
-354 356 0
4 -354 0
3 355 0
4 -355 356 0
5 -356 0
6 357 0
-357 358 0
7 -357 359 0
-359 360 0
8 -359 0
7 358 0
-358 361 0
8 -358 360 0
-360 362 0
9 -360 0
8 361 0
9 -361 362 0
10 -362 0
11 363 0
-363 364 0
12 -363 365 0
-365 366 0
13 -365 0
12 364 0
-364 367 0
13 -364 366 0
-366 368 0
14 -366 0
13 367 0
14 -367 368 0
15 -368 0
16 369 0
-369 370 0
17 -369 371 0
-371 372 0
18 -371 0
17 370 0
-370 373 0
18 -370 372 0
-372 374 0
19 -372 0
18 373 0
19 -373 374 0
20 -374 0
21 375 0
-375 376 0
22 -375 377 0
-377 378 0
23 -377 0
22 376 0
-376 379 0
23 -376 378 0
-378 380 0
24 -378 0
23 379 0
24 -379 380 0
25 -380 0
26 381 0
-381 382 0
27 -381 383 0
-383 384 0
28 -383 0
27 382 0
-382 385 0
28 -382 384 0
-384 386 0
29 -384 0
28 385 0
29 -385 386 0
30 -386 0
-36 1 0
-36 6 0
-1 -6 36 0
-37 2 0
-37 7 0
-2 -7 37 0
-38 3 0
-38 8 0
-3 -8 38 0
-39 4 0
-39 9 0
-4 -9 39 0
-40 5 0
-40 10 0
-5 -10 40 0
-36 387 0
-387 388 0
-37 -387 0
-37 388 0
-388 389 0
-38 -388 0
-38 389 0
-389 390 0
-39 -389 0
-39 390 0
-40 -390 0
-36 111 0
-37 111 0
-38 111 0
-39 111 0
-40 111 0
-111 36 37 38 39 40 0
-41 1 0
-41 11 0
-1 -11 41 0
-42 2 0
-42 12 0
-2 -12 42 0
-43 3 0
-43 13 0
-3 -13 43 0
-44 4 0
-44 14 0
-4 -14 44 0
-45 5 0
-45 15 0
-5 -15 45 0
-41 391 0
-391 392 0
-42 -391 0
-42 392 0
-392 393 0
-43 -392 0
-43 393 0
-393 394 0
-44 -393 0
-44 394 0
-45 -394 0
-41 112 0
-42 112 0
-43 112 0
-44 112 0
-45 112 0
-112 41 42 43 44 45 0
-46 1 0
-46 16 0
-1 -16 46 0
-47 2 0
-47 17 0
-2 -17 47 0
-48 3 0
-48 18 0
-3 -18 48 0
-49 4 0
-49 19 0
-4 -19 49 0
-50 5 0
-50 20 0
-5 -20 50 0
-46 395 0
-395 396 0
-47 -395 0
-47 396 0
-396 397 0
-48 -396 0
-48 397 0
-397 398 0
-49 -397 0
-49 398 0
-50 -398 0
-46 113 0
-47 113 0
-48 113 0
-49 113 0
-50 113 0
-113 46 47 48 49 50 0
-51 1 0
-51 21 0
-1 -21 51 0
-52 2 0
-52 22 0
-2 -22 52 0
-53 3 0
-53 23 0
-3 -23 53 0
-54 4 0
-54 24 0
-4 -24 54 0
-55 5 0
-55 25 0
-5 -25 55 0
-51 399 0
-399 400 0
-52 -399 0
-52 400 0
-400 401 0
-53 -400 0
-53 401 0
-401 402 0
-54 -401 0
-54 402 0
-55 -402 0
-51 114 0
-52 114 0
-53 114 0
-54 114 0
-55 114 0
-114 51 52 53 54 55 0
-56 1 0
-56 26 0
-1 -26 56 0
-57 2 0
-57 27 0
-2 -27 57 0
-58 3 0
-58 28 0
-3 -28 58 0
-59 4 0
-59 29 0
-4 -29 59 0
-60 5 0
-60 30 0
-5 -30 60 0
-56 403 0
-403 404 0
-57 -403 0
-57 404 0
-404 405 0
-58 -404 0
-58 405 0
-405 406 0
-59 -405 0
-59 406 0
-60 -406 0
-56 115 0
-57 115 0
-58 115 0
-59 115 0
-60 115 0
-115 56 57 58 59 60 0
-61 6 0
-61 11 0
-6 -11 61 0
-62 7 0
-62 12 0
-7 -12 62 0
-63 8 0
-63 13 0
-8 -13 63 0
-64 9 0
-64 14 0
-9 -14 64 0
-65 10 0
-65 15 0
-10 -15 65 0
-61 407 0
-407 408 0
-62 -407 0
-62 408 0
-408 409 0
-63 -408 0
-63 409 0
-409 410 0
-64 -409 0
-64 410 0
-65 -410 0
-61 116 0
-62 116 0
-63 116 0
-64 116 0
-65 116 0
-116 61 62 63 64 65 0
-66 6 0
-66 16 0
-6 -16 66 0
-67 7 0
-67 17 0
-7 -17 67 0
-68 8 0
-68 18 0
-8 -18 68 0
-69 9 0
-69 19 0
-9 -19 69 0
-70 10 0
-70 20 0
-10 -20 70 0
-66 411 0
-411 412 0
-67 -411 0
-67 412 0
-412 413 0
-68 -412 0
-68 413 0
-413 414 0
-69 -413 0
-69 414 0
-70 -414 0
-66 117 0
-67 117 0
-68 117 0
-69 117 0
-70 117 0
-117 66 67 68 69 70 0
-71 6 0
-71 21 0
-6 -21 71 0
-72 7 0
-72 22 0
-7 -22 72 0
-73 8 0
-73 23 0
-8 -23 73 0
-74 9 0
-74 24 0
-9 -24 74 0
-75 10 0
-75 25 0
-10 -25 75 0
-71 415 0
-415 416 0
-72 -415 0
-72 416 0
-416 417 0
-73 -416 0
-73 417 0
-417 418 0
-74 -417 0
-74 418 0
-75 -418 0
-71 118 0
-72 118 0
-73 118 0
-74 118 0
-75 118 0
-118 71 72 73 74 75 0
-76 6 0
-76 26 0
-6 -26 76 0
-77 7 0
-77 27 0
-7 -27 77 0
-78 8 0
-78 28 0
-8 -28 78 0
-79 9 0
-79 29 0
-9 -29 79 0
-80 10 0
-80 30 0
-10 -30 80 0
-76 419 0
-419 420 0
-77 -419 0
-77 420 0
-420 421 0
-78 -420 0
-78 421 0
-421 422 0
-79 -421 0
-79 422 0
-80 -422 0
-76 119 0
-77 119 0
-78 119 0
-79 119 0
-80 119 0
-119 76 77 78 79 80 0
-81 11 0
-81 16 0
-11 -16 81 0
-82 12 0
-82 17 0
-12 -17 82 0
-83 13 0
-83 18 0
-13 -18 83 0
-84 14 0
-84 19 0
-14 -19 84 0
-85 15 0
-85 20 0
-15 -20 85 0
-81 423 0
-423 424 0
-82 -423 0
-82 424 0
-424 425 0
-83 -424 0
-83 425 0
-425 426 0
-84 -425 0
-84 426 0
-85 -426 0
-81 120 0
-82 120 0
-83 120 0
-84 120 0
-85 120 0
-120 81 82 83 84 85 0
-86 11 0
-86 21 0
-11 -21 86 0
-87 12 0
-87 22 0
-12 -22 87 0
-88 13 0
-88 23 0
-13 -23 88 0
-89 14 0
-89 24 0
-14 -24 89 0
-90 15 0
-90 25 0
-15 -25 90 0
-86 427 0
-427 428 0
-87 -427 0
-87 428 0
-428 429 0
-88 -428 0
-88 429 0
-429 430 0
-89 -429 0
-89 430 0
-90 -430 0
-86 121 0
-87 121 0
-88 121 0
-89 121 0
-90 121 0
-121 86 87 88 89 90 0
-91 11 0
-91 26 0
-11 -26 91 0
-92 12 0
-92 27 0
-12 -27 92 0
-93 13 0
-93 28 0
-13 -28 93 0
-94 14 0
-94 29 0
-14 -29 94 0
-95 15 0
-95 30 0
-15 -30 95 0
-91 431 0
-431 432 0
-92 -431 0
-92 432 0
-432 433 0
-93 -432 0
-93 433 0
-433 434 0
-94 -433 0
-94 434 0
-95 -434 0
-91 122 0
-92 122 0
-93 122 0
-94 122 0
-95 122 0
-122 91 92 93 94 95 0
-96 16 0
-96 21 0
-16 -21 96 0
-97 17 0
-97 22 0
-17 -22 97 0
-98 18 0
-98 23 0
-18 -23 98 0
-99 19 0
-99 24 0
-19 -24 99 0
-100 20 0
-100 25 0
-20 -25 100 0
-96 435 0
-435 436 0
-97 -435 0
-97 436 0
-436 437 0
-98 -436 0
-98 437 0
-437 438 0
-99 -437 0
-99 438 0
-100 -438 0
-96 123 0
-97 123 0
-98 123 0
-99 123 0
-100 123 0
-123 96 97 98 99 100 0
-101 16 0
-101 26 0
-16 -26 101 0
-102 17 0
-102 27 0
-17 -27 102 0
-103 18 0
-103 28 0
-18 -28 103 0
-104 19 0
-104 29 0
-19 -29 104 0
-105 20 0
-105 30 0
-20 -30 105 0
-101 439 0
-439 440 0
-102 -439 0
-102 440 0
-440 441 0
-103 -440 0
-103 441 0
-441 442 0
-104 -441 0
-104 442 0
-105 -442 0
-101 124 0
-102 124 0
-103 124 0
-104 124 0
-105 124 0
-124 101 102 103 104 105 0
-106 21 0
-106 26 0
-21 -26 106 0
-107 22 0
-107 27 0
-22 -27 107 0
-108 23 0
-108 28 0
-23 -28 108 0
-109 24 0
-109 29 0
-24 -29 109 0
-110 25 0
-110 30 0
-25 -30 110 0
-106 443 0
-443 444 0
-107 -443 0
-107 444 0
-444 445 0
-108 -444 0
-108 445 0
-445 446 0
-109 -445 0
-109 446 0
-110 -446 0
-106 125 0
-107 125 0
-108 125 0
-109 125 0
-110 125 0
-125 106 107 108 109 110 0
-126 1 0
-126 6 0
-126 11 0
-1 -6 -11 126 0
-127 2 0
-127 7 0
-127 12 0
-2 -7 -12 127 0
-128 3 0
-128 8 0
-128 13 0
-3 -8 -13 128 0
-129 4 0
-129 9 0
-129 14 0
-4 -9 -14 129 0
-130 5 0
-130 10 0
-130 15 0
-5 -10 -15 130 0
-126 226 0
-127 226 0
-128 226 0
-129 226 0
-130 226 0
-226 126 127 128 129 130 0
-131 1 0
-131 6 0
-131 16 0
-1 -6 -16 131 0
-132 2 0
-132 7 0
-132 17 0
-2 -7 -17 132 0
-133 3 0
-133 8 0
-133 18 0
-3 -8 -18 133 0
-134 4 0
-134 9 0
-134 19 0
-4 -9 -19 134 0
-135 5 0
-135 10 0
-135 20 0
-5 -10 -20 135 0
-131 227 0
-132 227 0
-133 227 0
-134 227 0
-135 227 0
-227 131 132 133 134 135 0
-136 1 0
-136 6 0
-136 21 0
-1 -6 -21 136 0
-137 2 0
-137 7 0
-137 22 0
-2 -7 -22 137 0
-138 3 0
-138 8 0
-138 23 0
-3 -8 -23 138 0
-139 4 0
-139 9 0
-139 24 0
-4 -9 -24 139 0
-140 5 0
-140 10 0
-140 25 0
-5 -10 -25 140 0
-136 228 0
-137 228 0
-138 228 0
-139 228 0
-140 228 0
-228 136 137 138 139 140 0
-141 1 0
-141 6 0
-141 26 0
-1 -6 -26 141 0
-142 2 0
-142 7 0
-142 27 0
-2 -7 -27 142 0
-143 3 0
-143 8 0
-143 28 0
-3 -8 -28 143 0
-144 4 0
-144 9 0
-144 29 0
-4 -9 -29 144 0
-145 5 0
-145 10 0
-145 30 0
-5 -10 -30 145 0
-141 229 0
-142 229 0
-143 229 0
-144 229 0
-145 229 0
-229 141 142 143 144 145 0
-146 1 0
-146 11 0
-146 16 0
-1 -11 -16 146 0
-147 2 0
-147 12 0
-147 17 0
-2 -12 -17 147 0
-148 3 0
-148 13 0
-148 18 0
-3 -13 -18 148 0
-149 4 0
-149 14 0
-149 19 0
-4 -14 -19 149 0
-150 5 0
-150 15 0
-150 20 0
-5 -15 -20 150 0
-146 230 0
-147 230 0
-148 230 0
-149 230 0
-150 230 0
-230 146 147 148 149 150 0
-151 1 0
-151 11 0
-151 21 0
-1 -11 -21 151 0
-152 2 0
-152 12 0
-152 22 0
-2 -12 -22 152 0
-153 3 0
-153 13 0
-153 23 0
-3 -13 -23 153 0
-154 4 0
-154 14 0
-154 24 0
-4 -14 -24 154 0
-155 5 0
-155 15 0
-155 25 0
-5 -15 -25 155 0
-151 231 0
-152 231 0
-153 231 0
-154 231 0
-155 231 0
-231 151 152 153 154 155 0
-156 1 0
-156 11 0
-156 26 0
-1 -11 -26 156 0
-157 2 0
-157 12 0
-157 27 0
-2 -12 -27 157 0
-158 3 0
-158 13 0
-158 28 0
-3 -13 -28 158 0
-159 4 0
-159 14 0
-159 29 0
-4 -14 -29 159 0
-160 5 0
-160 15 0
-160 30 0
-5 -15 -30 160 0
-156 232 0
-157 232 0
-158 232 0
-159 232 0
-160 232 0
-232 156 157 158 159 160 0
-161 1 0
-161 16 0
-161 21 0
-1 -16 -21 161 0
-162 2 0
-162 17 0
-162 22 0
-2 -17 -22 162 0
-163 3 0
-163 18 0
-163 23 0
-3 -18 -23 163 0
-164 4 0
-164 19 0
-164 24 0
-4 -19 -24 164 0
-165 5 0
-165 20 0
-165 25 0
-5 -20 -25 165 0
-161 233 0
-162 233 0
-163 233 0
-164 233 0
-165 233 0
-233 161 162 163 164 165 0
-166 1 0
-166 16 0
-166 26 0
-1 -16 -26 166 0
-167 2 0
-167 17 0
-167 27 0
-2 -17 -27 167 0
-168 3 0
-168 18 0
-168 28 0
-3 -18 -28 168 0
-169 4 0
-169 19 0
-169 29 0
-4 -19 -29 169 0
-170 5 0
-170 20 0
-170 30 0
-5 -20 -30 170 0
-166 234 0
-167 234 0
-168 234 0
-169 234 0
-170 234 0
-234 166 167 168 169 170 0
-171 1 0
-171 21 0
-171 26 0
-1 -21 -26 171 0
-172 2 0
-172 22 0
-172 27 0
-2 -22 -27 172 0
-173 3 0
-173 23 0
-173 28 0
-3 -23 -28 173 0
-174 4 0
-174 24 0
-174 29 0
-4 -24 -29 174 0
-175 5 0
-175 25 0
-175 30 0
-5 -25 -30 175 0
-171 235 0
-172 235 0
-173 235 0
-174 235 0
-175 235 0
-235 171 172 173 174 175 0
-176 6 0
-176 11 0
-176 16 0
-6 -11 -16 176 0
-177 7 0
-177 12 0
-177 17 0
-7 -12 -17 177 0
-178 8 0
-178 13 0
-178 18 0
-8 -13 -18 178 0
-179 9 0
-179 14 0
-179 19 0
-9 -14 -19 179 0
-180 10 0
-180 15 0
-180 20 0
-10 -15 -20 180 0
-176 236 0
-177 236 0
-178 236 0
-179 236 0
-180 236 0
-236 176 177 178 179 180 0
-181 6 0
-181 11 0
-181 21 0
-6 -11 -21 181 0
-182 7 0
-182 12 0
-182 22 0
-7 -12 -22 182 0
-183 8 0
-183 13 0
-183 23 0
-8 -13 -23 183 0
-184 9 0
-184 14 0
-184 24 0
-9 -14 -24 184 0
-185 10 0
-185 15 0
-185 25 0
-10 -15 -25 185 0
-181 237 0
-182 237 0
-183 237 0
-184 237 0
-185 237 0
-237 181 182 183 184 185 0
-186 6 0
-186 11 0
-186 26 0
-6 -11 -26 186 0
-187 7 0
-187 12 0
-187 27 0
-7 -12 -27 187 0
-188 8 0
-188 13 0
-188 28 0
-8 -13 -28 188 0
-189 9 0
-189 14 0
-189 29 0
-9 -14 -29 189 0
-190 10 0
-190 15 0
-190 30 0
-10 -15 -30 190 0
-186 238 0
-187 238 0
-188 238 0
-189 238 0
-190 238 0
-238 186 187 188 189 190 0
-191 6 0
-191 16 0
-191 21 0
-6 -16 -21 191 0
-192 7 0
-192 17 0
-192 22 0
-7 -17 -22 192 0
-193 8 0
-193 18 0
-193 23 0
-8 -18 -23 193 0
-194 9 0
-194 19 0
-194 24 0
-9 -19 -24 194 0
-195 10 0
-195 20 0
-195 25 0
-10 -20 -25 195 0
-191 239 0
-192 239 0
-193 239 0
-194 239 0
-195 239 0
-239 191 192 193 194 195 0
-196 6 0
-196 16 0
-196 26 0
-6 -16 -26 196 0
-197 7 0
-197 17 0
-197 27 0
-7 -17 -27 197 0
-198 8 0
-198 18 0
-198 28 0
-8 -18 -28 198 0
-199 9 0
-199 19 0
-199 29 0
-9 -19 -29 199 0
-200 10 0
-200 20 0
-200 30 0
-10 -20 -30 200 0
-196 240 0
-197 240 0
-198 240 0
-199 240 0
-200 240 0
-240 196 197 198 199 200 0
-201 6 0
-201 21 0
-201 26 0
-6 -21 -26 201 0
-202 7 0
-202 22 0
-202 27 0
-7 -22 -27 202 0
-203 8 0
-203 23 0
-203 28 0
-8 -23 -28 203 0
-204 9 0
-204 24 0
-204 29 0
-9 -24 -29 204 0
-205 10 0
-205 25 0
-205 30 0
-10 -25 -30 205 0
-201 241 0
-202 241 0
-203 241 0
-204 241 0
-205 241 0
-241 201 202 203 204 205 0
-206 11 0
-206 16 0
-206 21 0
-11 -16 -21 206 0
-207 12 0
-207 17 0
-207 22 0
-12 -17 -22 207 0
-208 13 0
-208 18 0
-208 23 0
-13 -18 -23 208 0
-209 14 0
-209 19 0
-209 24 0
-14 -19 -24 209 0
-210 15 0
-210 20 0
-210 25 0
-15 -20 -25 210 0
-206 242 0
-207 242 0
-208 242 0
-209 242 0
-210 242 0
-242 206 207 208 209 210 0
-211 11 0
-211 16 0
-211 26 0
-11 -16 -26 211 0
-212 12 0
-212 17 0
-212 27 0
-12 -17 -27 212 0
-213 13 0
-213 18 0
-213 28 0
-13 -18 -28 213 0
-214 14 0
-214 19 0
-214 29 0
-14 -19 -29 214 0
-215 15 0
-215 20 0
-215 30 0
-15 -20 -30 215 0
-211 243 0
-212 243 0
-213 243 0
-214 243 0
-215 243 0
-243 211 212 213 214 215 0
-216 11 0
-216 21 0
-216 26 0
-11 -21 -26 216 0
-217 12 0
-217 22 0
-217 27 0
-12 -22 -27 217 0
-218 13 0
-218 23 0
-218 28 0
-13 -23 -28 218 0
-219 14 0
-219 24 0
-219 29 0
-14 -24 -29 219 0
-220 15 0
-220 25 0
-220 30 0
-15 -25 -30 220 0
-216 244 0
-217 244 0
-218 244 0
-219 244 0
-220 244 0
-244 216 217 218 219 220 0
-221 16 0
-221 21 0
-221 26 0
-16 -21 -26 221 0
-222 17 0
-222 22 0
-222 27 0
-17 -22 -27 222 0
-223 18 0
-223 23 0
-223 28 0
-18 -23 -28 223 0
-224 19 0
-224 24 0
-224 29 0
-19 -24 -29 224 0
-225 20 0
-225 25 0
-225 30 0
-20 -25 -30 225 0
-221 245 0
-222 245 0
-223 245 0
-224 245 0
-225 245 0
-245 221 222 223 224 225 0
-111 -116 -120 -113 226 236 230 227 0
-111 -117 -120 -112 227 236 230 226 0
-112 -116 -117 -113 226 236 227 230 0
-111 -116 -121 -114 226 237 231 228 0
-111 -118 -121 -112 228 237 231 226 0
-112 -116 -118 -114 226 237 228 231 0
-111 -116 -122 -115 226 238 232 229 0
-111 -119 -122 -112 229 238 232 226 0
-112 -116 -119 -115 226 238 229 232 0
-111 -117 -123 -114 227 239 233 228 0
-111 -118 -123 -113 228 239 233 227 0
-113 -117 -118 -114 227 239 228 233 0
-111 -117 -124 -115 227 240 234 229 0
-111 -119 -124 -113 229 240 234 227 0
-113 -117 -119 -115 227 240 229 234 0
-111 -118 -125 -115 228 241 235 229 0
-111 -119 -125 -114 229 241 235 228 0
-114 -118 -119 -115 228 241 229 235 0
-112 -120 -123 -114 230 242 233 231 0
-112 -121 -123 -113 231 242 233 230 0
-113 -120 -121 -114 230 242 231 233 0
-112 -120 -124 -115 230 243 234 232 0
-112 -122 -124 -113 232 243 234 230 0
-113 -120 -122 -115 230 243 232 234 0
-112 -121 -125 -115 231 244 235 232 0
-112 -122 -125 -114 232 244 235 231 0
-114 -121 -122 -115 231 244 232 235 0
-113 -123 -125 -115 233 245 235 234 0
-113 -124 -125 -114 234 245 235 233 0
-114 -123 -124 -115 233 245 234 235 0
-116 -120 -123 -118 236 242 239 237 0
-116 -121 -123 -117 237 242 239 236 0
-117 -120 -121 -118 236 242 237 239 0
-116 -120 -124 -119 236 243 240 238 0
-116 -122 -124 -117 238 243 240 236 0
-117 -120 -122 -119 236 243 238 240 0
-116 -121 -125 -119 237 244 241 238 0
-116 -122 -125 -118 238 244 241 237 0
-118 -121 -122 -119 237 244 238 241 0
-117 -123 -125 -119 239 245 241 240 0
-117 -124 -125 -118 240 245 241 239 0
-118 -123 -124 -119 239 245 240 241 0
-120 -123 -125 -122 242 245 244 243 0
-120 -124 -125 -121 243 245 244 242 0
-121 -123 -124 -122 242 245 243 244 0
447 0
-447 1 -2 0
-448 447 0
-448 1 -2 0
-448 -1 2 0
-447 -1 -2 448 0
-447 1 2 448 0
-448 6 -7 0
-449 448 0
-449 6 -7 0
-449 -6 7 0
-448 -6 -7 449 0
-448 6 7 449 0
-449 11 -12 0
-450 449 0
-450 11 -12 0
-450 -11 12 0
-449 -11 -12 450 0
-449 11 12 450 0
-450 16 -17 0
-451 450 0
-451 16 -17 0
-451 -16 17 0
-450 -16 -17 451 0
-450 16 17 451 0
-451 21 -22 0
-452 451 0
-452 21 -22 0
-452 -21 22 0
-451 -21 -22 452 0
-451 21 22 452 0
-452 26 -27 0
-453 452 0
-453 26 -27 0
-453 -26 27 0
-452 -26 -27 453 0
-452 26 27 453 0
454 0
-454 2 -3 0
-455 454 0
-455 2 -3 0
-455 -2 3 0
-454 -2 -3 455 0
-454 2 3 455 0
-455 7 -8 0
-456 455 0
-456 7 -8 0
-456 -7 8 0
-455 -7 -8 456 0
-455 7 8 456 0
-456 12 -13 0
-457 456 0
-457 12 -13 0
-457 -12 13 0
-456 -12 -13 457 0
-456 12 13 457 0
-457 17 -18 0
-458 457 0
-458 17 -18 0
-458 -17 18 0
-457 -17 -18 458 0
-457 17 18 458 0
-458 22 -23 0
-459 458 0
-459 22 -23 0
-459 -22 23 0
-458 -22 -23 459 0
-458 22 23 459 0
-459 27 -28 0
-460 459 0
-460 27 -28 0
-460 -27 28 0
-459 -27 -28 460 0
-459 27 28 460 0
461 0
-461 3 -4 0
-462 461 0
-462 3 -4 0
-462 -3 4 0
-461 -3 -4 462 0
-461 3 4 462 0
-462 8 -9 0
-463 462 0
-463 8 -9 0
-463 -8 9 0
-462 -8 -9 463 0
-462 8 9 463 0
-463 13 -14 0
-464 463 0
-464 13 -14 0
-464 -13 14 0
-463 -13 -14 464 0
-463 13 14 464 0
-464 18 -19 0
-465 464 0
-465 18 -19 0
-465 -18 19 0
-464 -18 -19 465 0
-464 18 19 465 0
-465 23 -24 0
-466 465 0
-466 23 -24 0
-466 -23 24 0
-465 -23 -24 466 0
-465 23 24 466 0
-466 28 -29 0
-467 466 0
-467 28 -29 0
-467 -28 29 0
-466 -28 -29 467 0
-466 28 29 467 0
468 0
-468 4 -5 0
-469 468 0
-469 4 -5 0
-469 -4 5 0
-468 -4 -5 469 0
-468 4 5 469 0
-469 9 -10 0
-470 469 0
-470 9 -10 0
-470 -9 10 0
-469 -9 -10 470 0
-469 9 10 470 0
-470 14 -15 0
-471 470 0
-471 14 -15 0
-471 -14 15 0
-470 -14 -15 471 0
-470 14 15 471 0
-471 19 -20 0
-472 471 0
-472 19 -20 0
-472 -19 20 0
-471 -19 -20 472 0
-471 19 20 472 0
-472 24 -25 0
-473 472 0
-473 24 -25 0
-473 -24 25 0
-472 -24 -25 473 0
-472 24 25 473 0
-473 29 -30 0
-474 473 0
-474 29 -30 0
-474 -29 30 0
-473 -29 -30 474 0
-473 29 30 474 0
475 0
-475 1 -6 0
-476 475 0
-476 1 -6 0
-476 -1 6 0
-475 -1 -6 476 0
-475 1 6 476 0
-476 2 -7 0
-477 476 0
-477 2 -7 0
-477 -2 7 0
-476 -2 -7 477 0
-476 2 7 477 0
-477 3 -8 0
-478 477 0
-478 3 -8 0
-478 -3 8 0
-477 -3 -8 478 0
-477 3 8 478 0
-478 4 -9 0
-479 478 0
-479 4 -9 0
-479 -4 9 0
-478 -4 -9 479 0
-478 4 9 479 0
-479 5 -10 0
-480 479 0
-480 5 -10 0
-480 -5 10 0
-479 -5 -10 480 0
-479 5 10 480 0
481 0
-481 6 -11 0
-482 481 0
-482 6 -11 0
-482 -6 11 0
-481 -6 -11 482 0
-481 6 11 482 0
-482 7 -12 0
-483 482 0
-483 7 -12 0
-483 -7 12 0
-482 -7 -12 483 0
-482 7 12 483 0
-483 8 -13 0
-484 483 0
-484 8 -13 0
-484 -8 13 0
-483 -8 -13 484 0
-483 8 13 484 0
-484 9 -14 0
-485 484 0
-485 9 -14 0
-485 -9 14 0
-484 -9 -14 485 0
-484 9 14 485 0
-485 10 -15 0
-486 485 0
-486 10 -15 0
-486 -10 15 0
-485 -10 -15 486 0
-485 10 15 486 0
487 0
-487 11 -16 0
-488 487 0
-488 11 -16 0
-488 -11 16 0
-487 -11 -16 488 0
-487 11 16 488 0
-488 12 -17 0
-489 488 0
-489 12 -17 0
-489 -12 17 0
-488 -12 -17 489 0
-488 12 17 489 0
-489 13 -18 0
-490 489 0
-490 13 -18 0
-490 -13 18 0
-489 -13 -18 490 0
-489 13 18 490 0
-490 14 -19 0
-491 490 0
-491 14 -19 0
-491 -14 19 0
-490 -14 -19 491 0
-490 14 19 491 0
-491 15 -20 0
-492 491 0
-492 15 -20 0
-492 -15 20 0
-491 -15 -20 492 0
-491 15 20 492 0
493 0
-493 16 -21 0
-494 493 0
-494 16 -21 0
-494 -16 21 0
-493 -16 -21 494 0
-493 16 21 494 0
-494 17 -22 0
-495 494 0
-495 17 -22 0
-495 -17 22 0
-494 -17 -22 495 0
-494 17 22 495 0
-495 18 -23 0
-496 495 0
-496 18 -23 0
-496 -18 23 0
-495 -18 -23 496 0
-495 18 23 496 0
-496 19 -24 0
-497 496 0
-497 19 -24 0
-497 -19 24 0
-496 -19 -24 497 0
-496 19 24 497 0
-497 20 -25 0
-498 497 0
-498 20 -25 0
-498 -20 25 0
-497 -20 -25 498 0
-497 20 25 498 0
499 0
-499 21 -26 0
-500 499 0
-500 21 -26 0
-500 -21 26 0
-499 -21 -26 500 0
-499 21 26 500 0
-500 22 -27 0
-501 500 0
-501 22 -27 0
-501 -22 27 0
-500 -22 -27 501 0
-500 22 27 501 0
-501 23 -28 0
-502 501 0
-502 23 -28 0
-502 -23 28 0
-501 -23 -28 502 0
-501 23 28 502 0
-502 24 -29 0
-503 502 0
-503 24 -29 0
-503 -24 29 0
-502 -24 -29 503 0
-502 24 29 503 0
-503 25 -30 0
-504 503 0
-504 25 -30 0
-504 -25 30 0
-503 -25 -30 504 0
-503 25 30 504 0
