p cnf 6116 24247
1 3863 0
-3863 3864 0
13 -3863 3865 0
-3865 3866 0
25 -3865 3867 0
-3867 3868 0
37 -3867 3869 0
-3869 3870 0
49 -3869 3871 0
-3871 3872 0
61 -3871 3873 0
-3873 3874 0
73 -3873 3875 0
-3875 3876 0
85 -3875 3877 0
-3877 3878 0
97 -3877 3879 0
-3879 3880 0
109 -3879 3881 0
-3881 3882 0
121 -3881 0
13 3864 0
25 -3864 3866 0
37 -3866 3868 0
49 -3868 3870 0
61 -3870 3872 0
73 -3872 3874 0
85 -3874 3876 0
97 -3876 3878 0
109 -3878 3880 0
121 -3880 3882 0
133 -3882 0
-1 3883 0
-3883 3884 0
-13 -3883 3885 0
-3885 3886 0
-25 -3885 0
-13 3884 0
-3884 3887 0
-25 -3884 3886 0
-3886 3888 0
-37 -3886 0
-25 3887 0
-3887 3889 0
-37 -3887 3888 0
-3888 3890 0
-49 -3888 0
-37 3889 0
-3889 3891 0
-49 -3889 3890 0
-3890 3892 0
-61 -3890 0
-49 3891 0
-3891 3893 0
-61 -3891 3892 0
-3892 3894 0
-73 -3892 0
-61 3893 0
-3893 3895 0
-73 -3893 3894 0
-3894 3896 0
-85 -3894 0
-73 3895 0
-3895 3897 0
-85 -3895 3896 0
-3896 3898 0
-97 -3896 0
-85 3897 0
-3897 3899 0
-97 -3897 3898 0
-3898 3900 0
-109 -3898 0
-97 3899 0
-3899 3901 0
-109 -3899 3900 0
-3900 3902 0
-121 -3900 0
-109 3901 0
-121 -3901 3902 0
-133 -3902 0
2 3903 0
-3903 3904 0
14 -3903 3905 0
-3905 3906 0
26 -3905 3907 0
-3907 3908 0
38 -3907 3909 0
-3909 3910 0
50 -3909 3911 0
-3911 3912 0
62 -3911 3913 0
-3913 3914 0
74 -3913 3915 0
-3915 3916 0
86 -3915 3917 0
-3917 3918 0
98 -3917 3919 0
-3919 3920 0
110 -3919 0
14 3904 0
-3904 3921 0
26 -3904 3906 0
-3906 3922 0
38 -3906 3908 0
-3908 3923 0
50 -3908 3910 0
-3910 3924 0
62 -3910 3912 0
-3912 3925 0
74 -3912 3914 0
-3914 3926 0
86 -3914 3916 0
-3916 3927 0
98 -3916 3918 0
-3918 3928 0
110 -3918 3920 0
-3920 3929 0
122 -3920 0
26 3921 0
38 -3921 3922 0
50 -3922 3923 0
62 -3923 3924 0
74 -3924 3925 0
86 -3925 3926 0
98 -3926 3927 0
110 -3927 3928 0
122 -3928 3929 0
134 -3929 0
-2 3930 0
-3930 3931 0
-14 -3930 3932 0
-3932 3933 0
-26 -3932 3934 0
-3934 3935 0
-38 -3934 0
-14 3931 0
-3931 3936 0
-26 -3931 3933 0
-3933 3937 0
-38 -3933 3935 0
-3935 3938 0
-50 -3935 0
-26 3936 0
-3936 3939 0
-38 -3936 3937 0
-3937 3940 0
-50 -3937 3938 0
-3938 3941 0
-62 -3938 0
-38 3939 0
-3939 3942 0
-50 -3939 3940 0
-3940 3943 0
-62 -3940 3941 0
-3941 3944 0
-74 -3941 0
-50 3942 0
-3942 3945 0
-62 -3942 3943 0
-3943 3946 0
-74 -3943 3944 0
-3944 3947 0
-86 -3944 0
-62 3945 0
-3945 3948 0
-74 -3945 3946 0
-3946 3949 0
-86 -3946 3947 0
-3947 3950 0
-98 -3947 0
-74 3948 0
-3948 3951 0
-86 -3948 3949 0
-3949 3952 0
-98 -3949 3950 0
-3950 3953 0
-110 -3950 0
-86 3951 0
-3951 3954 0
-98 -3951 3952 0
-3952 3955 0
-110 -3952 3953 0
-3953 3956 0
-122 -3953 0
-98 3954 0
-110 -3954 3955 0
-122 -3955 3956 0
-134 -3956 0
3 3957 0
-3957 3958 0
15 -3957 3959 0
-3959 3960 0
27 -3959 3961 0
-3961 3962 0
39 -3961 3963 0
-3963 3964 0
51 -3963 3965 0
-3965 3966 0
63 -3965 3967 0
-3967 3968 0
75 -3967 3969 0
-3969 3970 0
87 -3969 3971 0
-3971 3972 0
99 -3971 3973 0
-3973 3974 0
111 -3973 0
15 3958 0
-3958 3975 0
27 -3958 3960 0
-3960 3976 0
39 -3960 3962 0
-3962 3977 0
51 -3962 3964 0
-3964 3978 0
63 -3964 3966 0
-3966 3979 0
75 -3966 3968 0
-3968 3980 0
87 -3968 3970 0
-3970 3981 0
99 -3970 3972 0
-3972 3982 0
111 -3972 3974 0
-3974 3983 0
123 -3974 0
27 3975 0
39 -3975 3976 0
51 -3976 3977 0
63 -3977 3978 0
75 -3978 3979 0
87 -3979 3980 0
99 -3980 3981 0
111 -3981 3982 0
123 -3982 3983 0
135 -3983 0
-3 3984 0
-3984 3985 0
-15 -3984 3986 0
-3986 3987 0
-27 -3986 3988 0
-3988 3989 0
-39 -3988 0
-15 3985 0
-3985 3990 0
-27 -3985 3987 0
-3987 3991 0
-39 -3987 3989 0
-3989 3992 0
-51 -3989 0
-27 3990 0
-3990 3993 0
-39 -3990 3991 0
-3991 3994 0
-51 -3991 3992 0
-3992 3995 0
-63 -3992 0
-39 3993 0
-3993 3996 0
-51 -3993 3994 0
-3994 3997 0
-63 -3994 3995 0
-3995 3998 0
-75 -3995 0
-51 3996 0
-3996 3999 0
-63 -3996 3997 0
-3997 4000 0
-75 -3997 3998 0
-3998 4001 0
-87 -3998 0
-63 3999 0
-3999 4002 0
-75 -3999 4000 0
-4000 4003 0
-87 -4000 4001 0
-4001 4004 0
-99 -4001 0
-75 4002 0
-4002 4005 0
-87 -4002 4003 0
-4003 4006 0
-99 -4003 4004 0
-4004 4007 0
-111 -4004 0
-87 4005 0
-4005 4008 0
-99 -4005 4006 0
-4006 4009 0
-111 -4006 4007 0
-4007 4010 0
-123 -4007 0
-99 4008 0
-111 -4008 4009 0
-123 -4009 4010 0
-135 -4010 0
4 4011 0
-4011 4012 0
16 -4011 4013 0
-4013 4014 0
28 -4013 4015 0
-4015 4016 0
40 -4015 4017 0
-4017 4018 0
52 -4017 4019 0
-4019 4020 0
64 -4019 4021 0
-4021 4022 0
76 -4021 4023 0
-4023 4024 0
88 -4023 4025 0
-4025 4026 0
100 -4025 4027 0
-4027 4028 0
112 -4027 0
16 4012 0
-4012 4029 0
28 -4012 4014 0
-4014 4030 0
40 -4014 4016 0
-4016 4031 0
52 -4016 4018 0
-4018 4032 0
64 -4018 4020 0
-4020 4033 0
76 -4020 4022 0
-4022 4034 0
88 -4022 4024 0
-4024 4035 0
100 -4024 4026 0
-4026 4036 0
112 -4026 4028 0
-4028 4037 0
124 -4028 0
28 4029 0
40 -4029 4030 0
52 -4030 4031 0
64 -4031 4032 0
76 -4032 4033 0
88 -4033 4034 0
100 -4034 4035 0
112 -4035 4036 0
124 -4036 4037 0
136 -4037 0
-4 4038 0
-4038 4039 0
-16 -4038 4040 0
-4040 4041 0
-28 -4040 4042 0
-4042 4043 0
-40 -4042 0
-16 4039 0
-4039 4044 0
-28 -4039 4041 0
-4041 4045 0
-40 -4041 4043 0
-4043 4046 0
-52 -4043 0
-28 4044 0
-4044 4047 0
-40 -4044 4045 0
-4045 4048 0
-52 -4045 4046 0
-4046 4049 0
-64 -4046 0
-40 4047 0
-4047 4050 0
-52 -4047 4048 0
-4048 4051 0
-64 -4048 4049 0
-4049 4052 0
-76 -4049 0
-52 4050 0
-4050 4053 0
-64 -4050 4051 0
-4051 4054 0
-76 -4051 4052 0
-4052 4055 0
-88 -4052 0
-64 4053 0
-4053 4056 0
-76 -4053 4054 0
-4054 4057 0
-88 -4054 4055 0
-4055 4058 0
-100 -4055 0
-76 4056 0
-4056 4059 0
-88 -4056 4057 0
-4057 4060 0
-100 -4057 4058 0
-4058 4061 0
-112 -4058 0
-88 4059 0
-4059 4062 0
-100 -4059 4060 0
-4060 4063 0
-112 -4060 4061 0
-4061 4064 0
-124 -4061 0
-100 4062 0
-112 -4062 4063 0
-124 -4063 4064 0
-136 -4064 0
5 4065 0
-4065 4066 0
17 -4065 4067 0
-4067 4068 0
29 -4067 4069 0
-4069 4070 0
41 -4069 4071 0
-4071 4072 0
53 -4071 4073 0
-4073 4074 0
65 -4073 4075 0
-4075 4076 0
77 -4075 4077 0
-4077 4078 0
89 -4077 4079 0
-4079 4080 0
101 -4079 4081 0
-4081 4082 0
113 -4081 0
17 4066 0
-4066 4083 0
29 -4066 4068 0
-4068 4084 0
41 -4068 4070 0
-4070 4085 0
53 -4070 4072 0
-4072 4086 0
65 -4072 4074 0
-4074 4087 0
77 -4074 4076 0
-4076 4088 0
89 -4076 4078 0
-4078 4089 0
101 -4078 4080 0
-4080 4090 0
113 -4080 4082 0
-4082 4091 0
125 -4082 0
29 4083 0
41 -4083 4084 0
53 -4084 4085 0
65 -4085 4086 0
77 -4086 4087 0
89 -4087 4088 0
101 -4088 4089 0
113 -4089 4090 0
125 -4090 4091 0
137 -4091 0
-5 4092 0
-4092 4093 0
-17 -4092 4094 0
-4094 4095 0
-29 -4094 4096 0
-4096 4097 0
-41 -4096 0
-17 4093 0
-4093 4098 0
-29 -4093 4095 0
-4095 4099 0
-41 -4095 4097 0
-4097 4100 0
-53 -4097 0
-29 4098 0
-4098 4101 0
-41 -4098 4099 0
-4099 4102 0
-53 -4099 4100 0
-4100 4103 0
-65 -4100 0
-41 4101 0
-4101 4104 0
-53 -4101 4102 0
-4102 4105 0
-65 -4102 4103 0
-4103 4106 0
-77 -4103 0
-53 4104 0
-4104 4107 0
-65 -4104 4105 0
-4105 4108 0
-77 -4105 4106 0
-4106 4109 0
-89 -4106 0
-65 4107 0
-4107 4110 0
-77 -4107 4108 0
-4108 4111 0
-89 -4108 4109 0
-4109 4112 0
-101 -4109 0
-77 4110 0
-4110 4113 0
-89 -4110 4111 0
-4111 4114 0
-101 -4111 4112 0
-4112 4115 0
-113 -4112 0
-89 4113 0
-4113 4116 0
-101 -4113 4114 0
-4114 4117 0
-113 -4114 4115 0
-4115 4118 0
-125 -4115 0
-101 4116 0
-113 -4116 4117 0
-125 -4117 4118 0
-137 -4118 0
6 4119 0
-4119 4120 0
18 -4119 4121 0
-4121 4122 0
30 -4121 4123 0
-4123 4124 0
42 -4123 4125 0
-4125 4126 0
54 -4125 4127 0
-4127 4128 0
66 -4127 4129 0
-4129 4130 0
78 -4129 4131 0
-4131 4132 0
90 -4131 4133 0
-4133 4134 0
102 -4133 4135 0
-4135 4136 0
114 -4135 0
18 4120 0
-4120 4137 0
30 -4120 4122 0
-4122 4138 0
42 -4122 4124 0
-4124 4139 0
54 -4124 4126 0
-4126 4140 0
66 -4126 4128 0
-4128 4141 0
78 -4128 4130 0
-4130 4142 0
90 -4130 4132 0
-4132 4143 0
102 -4132 4134 0
-4134 4144 0
114 -4134 4136 0
-4136 4145 0
126 -4136 0
30 4137 0
42 -4137 4138 0
54 -4138 4139 0
66 -4139 4140 0
78 -4140 4141 0
90 -4141 4142 0
102 -4142 4143 0
114 -4143 4144 0
126 -4144 4145 0
138 -4145 0
-6 4146 0
-4146 4147 0
-18 -4146 4148 0
-4148 4149 0
-30 -4148 4150 0
-4150 4151 0
-42 -4150 0
-18 4147 0
-4147 4152 0
-30 -4147 4149 0
-4149 4153 0
-42 -4149 4151 0
-4151 4154 0
-54 -4151 0
-30 4152 0
-4152 4155 0
-42 -4152 4153 0
-4153 4156 0
-54 -4153 4154 0
-4154 4157 0
-66 -4154 0
-42 4155 0
-4155 4158 0
-54 -4155 4156 0
-4156 4159 0
-66 -4156 4157 0
-4157 4160 0
-78 -4157 0
-54 4158 0
-4158 4161 0
-66 -4158 4159 0
-4159 4162 0
-78 -4159 4160 0
-4160 4163 0
-90 -4160 0
-66 4161 0
-4161 4164 0
-78 -4161 4162 0
-4162 4165 0
-90 -4162 4163 0
-4163 4166 0
-102 -4163 0
-78 4164 0
-4164 4167 0
-90 -4164 4165 0
-4165 4168 0
-102 -4165 4166 0
-4166 4169 0
-114 -4166 0
-90 4167 0
-4167 4170 0
-102 -4167 4168 0
-4168 4171 0
-114 -4168 4169 0
-4169 4172 0
-126 -4169 0
-102 4170 0
-114 -4170 4171 0
-126 -4171 4172 0
-138 -4172 0
7 4173 0
-4173 4174 0
19 -4173 4175 0
-4175 4176 0
31 -4175 4177 0
-4177 4178 0
43 -4177 4179 0
-4179 4180 0
55 -4179 4181 0
-4181 4182 0
67 -4181 4183 0
-4183 4184 0
79 -4183 4185 0
-4185 4186 0
91 -4185 4187 0
-4187 4188 0
103 -4187 4189 0
-4189 4190 0
115 -4189 0
19 4174 0
-4174 4191 0
31 -4174 4176 0
-4176 4192 0
43 -4176 4178 0
-4178 4193 0
55 -4178 4180 0
-4180 4194 0
67 -4180 4182 0
-4182 4195 0
79 -4182 4184 0
-4184 4196 0
91 -4184 4186 0
-4186 4197 0
103 -4186 4188 0
-4188 4198 0
115 -4188 4190 0
-4190 4199 0
127 -4190 0
31 4191 0
43 -4191 4192 0
55 -4192 4193 0
67 -4193 4194 0
79 -4194 4195 0
91 -4195 4196 0
103 -4196 4197 0
115 -4197 4198 0
127 -4198 4199 0
139 -4199 0
-7 4200 0
-4200 4201 0
-19 -4200 4202 0
-4202 4203 0
-31 -4202 4204 0
-4204 4205 0
-43 -4204 0
-19 4201 0
-4201 4206 0
-31 -4201 4203 0
-4203 4207 0
-43 -4203 4205 0
-4205 4208 0
-55 -4205 0
-31 4206 0
-4206 4209 0
-43 -4206 4207 0
-4207 4210 0
-55 -4207 4208 0
-4208 4211 0
-67 -4208 0
-43 4209 0
-4209 4212 0
-55 -4209 4210 0
-4210 4213 0
-67 -4210 4211 0
-4211 4214 0
-79 -4211 0
-55 4212 0
-4212 4215 0
-67 -4212 4213 0
-4213 4216 0
-79 -4213 4214 0
-4214 4217 0
-91 -4214 0
-67 4215 0
-4215 4218 0
-79 -4215 4216 0
-4216 4219 0
-91 -4216 4217 0
-4217 4220 0
-103 -4217 0
-79 4218 0
-4218 4221 0
-91 -4218 4219 0
-4219 4222 0
-103 -4219 4220 0
-4220 4223 0
-115 -4220 0
-91 4221 0
-4221 4224 0
-103 -4221 4222 0
-4222 4225 0
-115 -4222 4223 0
-4223 4226 0
-127 -4223 0
-103 4224 0
-115 -4224 4225 0
-127 -4225 4226 0
-139 -4226 0
8 4227 0
-4227 4228 0
20 -4227 4229 0
-4229 4230 0
32 -4229 4231 0
-4231 4232 0
44 -4231 4233 0
-4233 4234 0
56 -4233 4235 0
-4235 4236 0
68 -4235 4237 0
-4237 4238 0
80 -4237 4239 0
-4239 4240 0
92 -4239 4241 0
-4241 4242 0
104 -4241 4243 0
-4243 4244 0
116 -4243 0
20 4228 0
-4228 4245 0
32 -4228 4230 0
-4230 4246 0
44 -4230 4232 0
-4232 4247 0
56 -4232 4234 0
-4234 4248 0
68 -4234 4236 0
-4236 4249 0
80 -4236 4238 0
-4238 4250 0
92 -4238 4240 0
-4240 4251 0
104 -4240 4242 0
-4242 4252 0
116 -4242 4244 0
-4244 4253 0
128 -4244 0
32 4245 0
44 -4245 4246 0
56 -4246 4247 0
68 -4247 4248 0
80 -4248 4249 0
92 -4249 4250 0
104 -4250 4251 0
116 -4251 4252 0
128 -4252 4253 0
140 -4253 0
-8 4254 0
-4254 4255 0
-20 -4254 4256 0
-4256 4257 0
-32 -4256 4258 0
-4258 4259 0
-44 -4258 0
-20 4255 0
-4255 4260 0
-32 -4255 4257 0
-4257 4261 0
-44 -4257 4259 0
-4259 4262 0
-56 -4259 0
-32 4260 0
-4260 4263 0
-44 -4260 4261 0
-4261 4264 0
-56 -4261 4262 0
-4262 4265 0
-68 -4262 0
-44 4263 0
-4263 4266 0
-56 -4263 4264 0
-4264 4267 0
-68 -4264 4265 0
-4265 4268 0
-80 -4265 0
-56 4266 0
-4266 4269 0
-68 -4266 4267 0
-4267 4270 0
-80 -4267 4268 0
-4268 4271 0
-92 -4268 0
-68 4269 0
-4269 4272 0
-80 -4269 4270 0
-4270 4273 0
-92 -4270 4271 0
-4271 4274 0
-104 -4271 0
-80 4272 0
-4272 4275 0
-92 -4272 4273 0
-4273 4276 0
-104 -4273 4274 0
-4274 4277 0
-116 -4274 0
-92 4275 0
-4275 4278 0
-104 -4275 4276 0
-4276 4279 0
-116 -4276 4277 0
-4277 4280 0
-128 -4277 0
-104 4278 0
-116 -4278 4279 0
-128 -4279 4280 0
-140 -4280 0
9 4281 0
-4281 4282 0
21 -4281 4283 0
-4283 4284 0
33 -4283 4285 0
-4285 4286 0
45 -4285 4287 0
-4287 4288 0
57 -4287 4289 0
-4289 4290 0
69 -4289 4291 0
-4291 4292 0
81 -4291 4293 0
-4293 4294 0
93 -4293 4295 0
-4295 4296 0
105 -4295 4297 0
-4297 4298 0
117 -4297 0
21 4282 0
-4282 4299 0
33 -4282 4284 0
-4284 4300 0
45 -4284 4286 0
-4286 4301 0
57 -4286 4288 0
-4288 4302 0
69 -4288 4290 0
-4290 4303 0
81 -4290 4292 0
-4292 4304 0
93 -4292 4294 0
-4294 4305 0
105 -4294 4296 0
-4296 4306 0
117 -4296 4298 0
-4298 4307 0
129 -4298 0
33 4299 0
45 -4299 4300 0
57 -4300 4301 0
69 -4301 4302 0
81 -4302 4303 0
93 -4303 4304 0
105 -4304 4305 0
117 -4305 4306 0
129 -4306 4307 0
141 -4307 0
-9 4308 0
-4308 4309 0
-21 -4308 4310 0
-4310 4311 0
-33 -4310 4312 0
-4312 4313 0
-45 -4312 0
-21 4309 0
-4309 4314 0
-33 -4309 4311 0
-4311 4315 0
-45 -4311 4313 0
-4313 4316 0
-57 -4313 0
-33 4314 0
-4314 4317 0
-45 -4314 4315 0
-4315 4318 0
-57 -4315 4316 0
-4316 4319 0
-69 -4316 0
-45 4317 0
-4317 4320 0
-57 -4317 4318 0
-4318 4321 0
-69 -4318 4319 0
-4319 4322 0
-81 -4319 0
-57 4320 0
-4320 4323 0
-69 -4320 4321 0
-4321 4324 0
-81 -4321 4322 0
-4322 4325 0
-93 -4322 0
-69 4323 0
-4323 4326 0
-81 -4323 4324 0
-4324 4327 0
-93 -4324 4325 0
-4325 4328 0
-105 -4325 0
-81 4326 0
-4326 4329 0
-93 -4326 4327 0
-4327 4330 0
-105 -4327 4328 0
-4328 4331 0
-117 -4328 0
-93 4329 0
-4329 4332 0
-105 -4329 4330 0
-4330 4333 0
-117 -4330 4331 0
-4331 4334 0
-129 -4331 0
-105 4332 0
-117 -4332 4333 0
-129 -4333 4334 0
-141 -4334 0
10 4335 0
-4335 4336 0
22 -4335 4337 0
-4337 4338 0
34 -4337 4339 0
-4339 4340 0
46 -4339 4341 0
-4341 4342 0
58 -4341 4343 0
-4343 4344 0
70 -4343 4345 0
-4345 4346 0
82 -4345 4347 0
-4347 4348 0
94 -4347 4349 0
-4349 4350 0
106 -4349 4351 0
-4351 4352 0
118 -4351 0
22 4336 0
-4336 4353 0
34 -4336 4338 0
-4338 4354 0
46 -4338 4340 0
-4340 4355 0
58 -4340 4342 0
-4342 4356 0
70 -4342 4344 0
-4344 4357 0
82 -4344 4346 0
-4346 4358 0
94 -4346 4348 0
-4348 4359 0
106 -4348 4350 0
-4350 4360 0
118 -4350 4352 0
-4352 4361 0
130 -4352 0
34 4353 0
46 -4353 4354 0
58 -4354 4355 0
70 -4355 4356 0
82 -4356 4357 0
94 -4357 4358 0
106 -4358 4359 0
118 -4359 4360 0
130 -4360 4361 0
142 -4361 0
-10 4362 0
-4362 4363 0
-22 -4362 4364 0
-4364 4365 0
-34 -4364 4366 0
-4366 4367 0
-46 -4366 0
-22 4363 0
-4363 4368 0
-34 -4363 4365 0
-4365 4369 0
-46 -4365 4367 0
-4367 4370 0
-58 -4367 0
-34 4368 0
-4368 4371 0
-46 -4368 4369 0
-4369 4372 0
-58 -4369 4370 0
-4370 4373 0
-70 -4370 0
-46 4371 0
-4371 4374 0
-58 -4371 4372 0
-4372 4375 0
-70 -4372 4373 0
-4373 4376 0
-82 -4373 0
-58 4374 0
-4374 4377 0
-70 -4374 4375 0
-4375 4378 0
-82 -4375 4376 0
-4376 4379 0
-94 -4376 0
-70 4377 0
-4377 4380 0
-82 -4377 4378 0
-4378 4381 0
-94 -4378 4379 0
-4379 4382 0
-106 -4379 0
-82 4380 0
-4380 4383 0
-94 -4380 4381 0
-4381 4384 0
-106 -4381 4382 0
-4382 4385 0
-118 -4382 0
-94 4383 0
-4383 4386 0
-106 -4383 4384 0
-4384 4387 0
-118 -4384 4385 0
-4385 4388 0
-130 -4385 0
-106 4386 0
-118 -4386 4387 0
-130 -4387 4388 0
-142 -4388 0
11 4389 0
-4389 4390 0
23 -4389 4391 0
-4391 4392 0
35 -4391 4393 0
-4393 4394 0
47 -4393 4395 0
-4395 4396 0
59 -4395 4397 0
-4397 4398 0
71 -4397 4399 0
-4399 4400 0
83 -4399 4401 0
-4401 4402 0
95 -4401 4403 0
-4403 4404 0
107 -4403 4405 0
-4405 4406 0
119 -4405 0
23 4390 0
-4390 4407 0
35 -4390 4392 0
-4392 4408 0
47 -4392 4394 0
-4394 4409 0
59 -4394 4396 0
-4396 4410 0
71 -4396 4398 0
-4398 4411 0
83 -4398 4400 0
-4400 4412 0
95 -4400 4402 0
-4402 4413 0
107 -4402 4404 0
-4404 4414 0
119 -4404 4406 0
-4406 4415 0
131 -4406 0
35 4407 0
47 -4407 4408 0
59 -4408 4409 0
71 -4409 4410 0
83 -4410 4411 0
95 -4411 4412 0
107 -4412 4413 0
119 -4413 4414 0
131 -4414 4415 0
143 -4415 0
-11 4416 0
-4416 4417 0
-23 -4416 4418 0
-4418 4419 0
-35 -4418 4420 0
-4420 4421 0
-47 -4420 0
-23 4417 0
-4417 4422 0
-35 -4417 4419 0
-4419 4423 0
-47 -4419 4421 0
-4421 4424 0
-59 -4421 0
-35 4422 0
-4422 4425 0
-47 -4422 4423 0
-4423 4426 0
-59 -4423 4424 0
-4424 4427 0
-71 -4424 0
-47 4425 0
-4425 4428 0
-59 -4425 4426 0
-4426 4429 0
-71 -4426 4427 0
-4427 4430 0
-83 -4427 0
-59 4428 0
-4428 4431 0
-71 -4428 4429 0
-4429 4432 0
-83 -4429 4430 0
-4430 4433 0
-95 -4430 0
-71 4431 0
-4431 4434 0
-83 -4431 4432 0
-4432 4435 0
-95 -4432 4433 0
-4433 4436 0
-107 -4433 0
-83 4434 0
-4434 4437 0
-95 -4434 4435 0
-4435 4438 0
-107 -4435 4436 0
-4436 4439 0
-119 -4436 0
-95 4437 0
-4437 4440 0
-107 -4437 4438 0
-4438 4441 0
-119 -4438 4439 0
-4439 4442 0
-131 -4439 0
-107 4440 0
-119 -4440 4441 0
-131 -4441 4442 0
-143 -4442 0
12 4443 0
-4443 4444 0
24 -4443 4445 0
-4445 4446 0
36 -4445 4447 0
-4447 4448 0
48 -4447 4449 0
-4449 4450 0
60 -4449 4451 0
-4451 4452 0
72 -4451 4453 0
-4453 4454 0
84 -4453 4455 0
-4455 4456 0
96 -4455 4457 0
-4457 4458 0
108 -4457 4459 0
-4459 4460 0
120 -4459 0
24 4444 0
-4444 4461 0
36 -4444 4446 0
-4446 4462 0
48 -4446 4448 0
-4448 4463 0
60 -4448 4450 0
-4450 4464 0
72 -4450 4452 0
-4452 4465 0
84 -4452 4454 0
-4454 4466 0
96 -4454 4456 0
-4456 4467 0
108 -4456 4458 0
-4458 4468 0
120 -4458 4460 0
-4460 4469 0
132 -4460 0
36 4461 0
48 -4461 4462 0
60 -4462 4463 0
72 -4463 4464 0
84 -4464 4465 0
96 -4465 4466 0
108 -4466 4467 0
120 -4467 4468 0
132 -4468 4469 0
144 -4469 0
-12 4470 0
-4470 4471 0
-24 -4470 4472 0
-4472 4473 0
-36 -4472 4474 0
-4474 4475 0
-48 -4474 0
-24 4471 0
-4471 4476 0
-36 -4471 4473 0
-4473 4477 0
-48 -4473 4475 0
-4475 4478 0
-60 -4475 0
-36 4476 0
-4476 4479 0
-48 -4476 4477 0
-4477 4480 0
-60 -4477 4478 0
-4478 4481 0
-72 -4478 0
-48 4479 0
-4479 4482 0
-60 -4479 4480 0
-4480 4483 0
-72 -4480 4481 0
-4481 4484 0
-84 -4481 0
-60 4482 0
-4482 4485 0
-72 -4482 4483 0
-4483 4486 0
-84 -4483 4484 0
-4484 4487 0
-96 -4484 0
-72 4485 0
-4485 4488 0
-84 -4485 4486 0
-4486 4489 0
-96 -4486 4487 0
-4487 4490 0
-108 -4487 0
-84 4488 0
-4488 4491 0
-96 -4488 4489 0
-4489 4492 0
-108 -4489 4490 0
-4490 4493 0
-120 -4490 0
-96 4491 0
-4491 4494 0
-108 -4491 4492 0
-4492 4495 0
-120 -4492 4493 0
-4493 4496 0
-132 -4493 0
-108 4494 0
-120 -4494 4495 0
-132 -4495 4496 0
-144 -4496 0
1 4497 0
-4497 4498 0
2 -4497 4499 0
-4499 4500 0
3 -4499 4501 0
-4501 4502 0
4 -4501 4503 0
-4503 4504 0
5 -4503 4505 0
-4505 4506 0
6 -4505 4507 0
-4507 4508 0
7 -4507 4509 0
-4509 4510 0
8 -4509 4511 0
-4511 4512 0
9 -4511 4513 0
-4513 4514 0
10 -4513 4515 0
-4515 4516 0
11 -4515 0
2 4498 0
3 -4498 4500 0
4 -4500 4502 0
5 -4502 4504 0
6 -4504 4506 0
7 -4506 4508 0
8 -4508 4510 0
9 -4510 4512 0
10 -4512 4514 0
11 -4514 4516 0
12 -4516 0
-1 4517 0
-4517 4518 0
-2 -4517 4519 0
-4519 4520 0
-3 -4519 0
-2 4518 0
-4518 4521 0
-3 -4518 4520 0
-4520 4522 0
-4 -4520 0
-3 4521 0
-4521 4523 0
-4 -4521 4522 0
-4522 4524 0
-5 -4522 0
-4 4523 0
-4523 4525 0
-5 -4523 4524 0
-4524 4526 0
-6 -4524 0
-5 4525 0
-4525 4527 0
-6 -4525 4526 0
-4526 4528 0
-7 -4526 0
-6 4527 0
-4527 4529 0
-7 -4527 4528 0
-4528 4530 0
-8 -4528 0
-7 4529 0
-4529 4531 0
-8 -4529 4530 0
-4530 4532 0
-9 -4530 0
-8 4531 0
-4531 4533 0
-9 -4531 4532 0
-4532 4534 0
-10 -4532 0
-9 4533 0
-4533 4535 0
-10 -4533 4534 0
-4534 4536 0
-11 -4534 0
-10 4535 0
-11 -4535 4536 0
-12 -4536 0
13 4537 0
-4537 4538 0
14 -4537 4539 0
-4539 4540 0
15 -4539 4541 0
-4541 4542 0
16 -4541 4543 0
-4543 4544 0
17 -4543 4545 0
-4545 4546 0
18 -4545 4547 0
-4547 4548 0
19 -4547 4549 0
-4549 4550 0
20 -4549 4551 0
-4551 4552 0
21 -4551 4553 0
-4553 4554 0
22 -4553 0
14 4538 0
-4538 4555 0
15 -4538 4540 0
-4540 4556 0
16 -4540 4542 0
-4542 4557 0
17 -4542 4544 0
-4544 4558 0
18 -4544 4546 0
-4546 4559 0
19 -4546 4548 0
-4548 4560 0
20 -4548 4550 0
-4550 4561 0
21 -4550 4552 0
-4552 4562 0
22 -4552 4554 0
-4554 4563 0
23 -4554 0
15 4555 0
16 -4555 4556 0
17 -4556 4557 0
18 -4557 4558 0
19 -4558 4559 0
20 -4559 4560 0
21 -4560 4561 0
22 -4561 4562 0
23 -4562 4563 0
24 -4563 0
-13 4564 0
-4564 4565 0
-14 -4564 4566 0
-4566 4567 0
-15 -4566 4568 0
-4568 4569 0
-16 -4568 0
-14 4565 0
-4565 4570 0
-15 -4565 4567 0
-4567 4571 0
-16 -4567 4569 0
-4569 4572 0
-17 -4569 0
-15 4570 0
-4570 4573 0
-16 -4570 4571 0
-4571 4574 0
-17 -4571 4572 0
-4572 4575 0
-18 -4572 0
-16 4573 0
-4573 4576 0
-17 -4573 4574 0
-4574 4577 0
-18 -4574 4575 0
-4575 4578 0
-19 -4575 0
-17 4576 0
-4576 4579 0
-18 -4576 4577 0
-4577 4580 0
-19 -4577 4578 0
-4578 4581 0
-20 -4578 0
-18 4579 0
-4579 4582 0
-19 -4579 4580 0
-4580 4583 0
-20 -4580 4581 0
-4581 4584 0
-21 -4581 0
-19 4582 0
-4582 4585 0
-20 -4582 4583 0
-4583 4586 0
-21 -4583 4584 0
-4584 4587 0
-22 -4584 0
-20 4585 0
-4585 4588 0
-21 -4585 4586 0
-4586 4589 0
-22 -4586 4587 0
-4587 4590 0
-23 -4587 0
-21 4588 0
-22 -4588 4589 0
-23 -4589 4590 0
-24 -4590 0
25 4591 0
-4591 4592 0
26 -4591 4593 0
-4593 4594 0
27 -4593 4595 0
-4595 4596 0
28 -4595 4597 0
-4597 4598 0
29 -4597 4599 0
-4599 4600 0
30 -4599 4601 0
-4601 4602 0
31 -4601 4603 0
-4603 4604 0
32 -4603 4605 0
-4605 4606 0
33 -4605 4607 0
-4607 4608 0
34 -4607 0
26 4592 0
-4592 4609 0
27 -4592 4594 0
-4594 4610 0
28 -4594 4596 0
-4596 4611 0
29 -4596 4598 0
-4598 4612 0
30 -4598 4600 0
-4600 4613 0
31 -4600 4602 0
-4602 4614 0
32 -4602 4604 0
-4604 4615 0
33 -4604 4606 0
-4606 4616 0
34 -4606 4608 0
-4608 4617 0
35 -4608 0
27 4609 0
28 -4609 4610 0
29 -4610 4611 0
30 -4611 4612 0
31 -4612 4613 0
32 -4613 4614 0
33 -4614 4615 0
34 -4615 4616 0
35 -4616 4617 0
36 -4617 0
-25 4618 0
-4618 4619 0
-26 -4618 4620 0
-4620 4621 0
-27 -4620 4622 0
-4622 4623 0
-28 -4622 0
-26 4619 0
-4619 4624 0
-27 -4619 4621 0
-4621 4625 0
-28 -4621 4623 0
-4623 4626 0
-29 -4623 0
-27 4624 0
-4624 4627 0
-28 -4624 4625 0
-4625 4628 0
-29 -4625 4626 0
-4626 4629 0
-30 -4626 0
-28 4627 0
-4627 4630 0
-29 -4627 4628 0
-4628 4631 0
-30 -4628 4629 0
-4629 4632 0
-31 -4629 0
-29 4630 0
-4630 4633 0
-30 -4630 4631 0
-4631 4634 0
-31 -4631 4632 0
-4632 4635 0
-32 -4632 0
-30 4633 0
-4633 4636 0
-31 -4633 4634 0
-4634 4637 0
-32 -4634 4635 0
-4635 4638 0
-33 -4635 0
-31 4636 0
-4636 4639 0
-32 -4636 4637 0
-4637 4640 0
-33 -4637 4638 0
-4638 4641 0
-34 -4638 0
-32 4639 0
-4639 4642 0
-33 -4639 4640 0
-4640 4643 0
-34 -4640 4641 0
-4641 4644 0
-35 -4641 0
-33 4642 0
-34 -4642 4643 0
-35 -4643 4644 0
-36 -4644 0
37 4645 0
-4645 4646 0
38 -4645 4647 0
-4647 4648 0
39 -4647 4649 0
-4649 4650 0
40 -4649 4651 0
-4651 4652 0
41 -4651 4653 0
-4653 4654 0
42 -4653 4655 0
-4655 4656 0
43 -4655 4657 0
-4657 4658 0
44 -4657 4659 0
-4659 4660 0
45 -4659 4661 0
-4661 4662 0
46 -4661 0
38 4646 0
-4646 4663 0
39 -4646 4648 0
-4648 4664 0
40 -4648 4650 0
-4650 4665 0
41 -4650 4652 0
-4652 4666 0
42 -4652 4654 0
-4654 4667 0
43 -4654 4656 0
-4656 4668 0
44 -4656 4658 0
-4658 4669 0
45 -4658 4660 0
-4660 4670 0
46 -4660 4662 0
-4662 4671 0
47 -4662 0
39 4663 0
40 -4663 4664 0
41 -4664 4665 0
42 -4665 4666 0
43 -4666 4667 0
44 -4667 4668 0
45 -4668 4669 0
46 -4669 4670 0
47 -4670 4671 0
48 -4671 0
-37 4672 0
-4672 4673 0
-38 -4672 4674 0
-4674 4675 0
-39 -4674 4676 0
-4676 4677 0
-40 -4676 0
-38 4673 0
-4673 4678 0
-39 -4673 4675 0
-4675 4679 0
-40 -4675 4677 0
-4677 4680 0
-41 -4677 0
-39 4678 0
-4678 4681 0
-40 -4678 4679 0
-4679 4682 0
-41 -4679 4680 0
-4680 4683 0
-42 -4680 0
-40 4681 0
-4681 4684 0
-41 -4681 4682 0
-4682 4685 0
-42 -4682 4683 0
-4683 4686 0
-43 -4683 0
-41 4684 0
-4684 4687 0
-42 -4684 4685 0
-4685 4688 0
-43 -4685 4686 0
-4686 4689 0
-44 -4686 0
-42 4687 0
-4687 4690 0
-43 -4687 4688 0
-4688 4691 0
-44 -4688 4689 0
-4689 4692 0
-45 -4689 0
-43 4690 0
-4690 4693 0
-44 -4690 4691 0
-4691 4694 0
-45 -4691 4692 0
-4692 4695 0
-46 -4692 0
-44 4693 0
-4693 4696 0
-45 -4693 4694 0
-4694 4697 0
-46 -4694 4695 0
-4695 4698 0
-47 -4695 0
-45 4696 0
-46 -4696 4697 0
-47 -4697 4698 0
-48 -4698 0
49 4699 0
-4699 4700 0
50 -4699 4701 0
-4701 4702 0
51 -4701 4703 0
-4703 4704 0
52 -4703 4705 0
-4705 4706 0
53 -4705 4707 0
-4707 4708 0
54 -4707 4709 0
-4709 4710 0
55 -4709 4711 0
-4711 4712 0
56 -4711 4713 0
-4713 4714 0
57 -4713 4715 0
-4715 4716 0
58 -4715 0
50 4700 0
-4700 4717 0
51 -4700 4702 0
-4702 4718 0
52 -4702 4704 0
-4704 4719 0
53 -4704 4706 0
-4706 4720 0
54 -4706 4708 0
-4708 4721 0
55 -4708 4710 0
-4710 4722 0
56 -4710 4712 0
-4712 4723 0
57 -4712 4714 0
-4714 4724 0
58 -4714 4716 0
-4716 4725 0
59 -4716 0
51 4717 0
52 -4717 4718 0
53 -4718 4719 0
54 -4719 4720 0
55 -4720 4721 0
56 -4721 4722 0
57 -4722 4723 0
58 -4723 4724 0
59 -4724 4725 0
60 -4725 0
-49 4726 0
-4726 4727 0
-50 -4726 4728 0
-4728 4729 0
-51 -4728 4730 0
-4730 4731 0
-52 -4730 0
-50 4727 0
-4727 4732 0
-51 -4727 4729 0
-4729 4733 0
-52 -4729 4731 0
-4731 4734 0
-53 -4731 0
-51 4732 0
-4732 4735 0
-52 -4732 4733 0
-4733 4736 0
-53 -4733 4734 0
-4734 4737 0
-54 -4734 0
-52 4735 0
-4735 4738 0
-53 -4735 4736 0
-4736 4739 0
-54 -4736 4737 0
-4737 4740 0
-55 -4737 0
-53 4738 0
-4738 4741 0
-54 -4738 4739 0
-4739 4742 0
-55 -4739 4740 0
-4740 4743 0
-56 -4740 0
-54 4741 0
-4741 4744 0
-55 -4741 4742 0
-4742 4745 0
-56 -4742 4743 0
-4743 4746 0
-57 -4743 0
-55 4744 0
-4744 4747 0
-56 -4744 4745 0
-4745 4748 0
-57 -4745 4746 0
-4746 4749 0
-58 -4746 0
-56 4747 0
-4747 4750 0
-57 -4747 4748 0
-4748 4751 0
-58 -4748 4749 0
-4749 4752 0
-59 -4749 0
-57 4750 0
-58 -4750 4751 0
-59 -4751 4752 0
-60 -4752 0
61 4753 0
-4753 4754 0
62 -4753 4755 0
-4755 4756 0
63 -4755 4757 0
-4757 4758 0
64 -4757 4759 0
-4759 4760 0
65 -4759 4761 0
-4761 4762 0
66 -4761 4763 0
-4763 4764 0
67 -4763 4765 0
-4765 4766 0
68 -4765 4767 0
-4767 4768 0
69 -4767 4769 0
-4769 4770 0
70 -4769 0
62 4754 0
-4754 4771 0
63 -4754 4756 0
-4756 4772 0
64 -4756 4758 0
-4758 4773 0
65 -4758 4760 0
-4760 4774 0
66 -4760 4762 0
-4762 4775 0
67 -4762 4764 0
-4764 4776 0
68 -4764 4766 0
-4766 4777 0
69 -4766 4768 0
-4768 4778 0
70 -4768 4770 0
-4770 4779 0
71 -4770 0
63 4771 0
64 -4771 4772 0
65 -4772 4773 0
66 -4773 4774 0
67 -4774 4775 0
68 -4775 4776 0
69 -4776 4777 0
70 -4777 4778 0
71 -4778 4779 0
72 -4779 0
-61 4780 0
-4780 4781 0
-62 -4780 4782 0
-4782 4783 0
-63 -4782 4784 0
-4784 4785 0
-64 -4784 0
-62 4781 0
-4781 4786 0
-63 -4781 4783 0
-4783 4787 0
-64 -4783 4785 0
-4785 4788 0
-65 -4785 0
-63 4786 0
-4786 4789 0
-64 -4786 4787 0
-4787 4790 0
-65 -4787 4788 0
-4788 4791 0
-66 -4788 0
-64 4789 0
-4789 4792 0
-65 -4789 4790 0
-4790 4793 0
-66 -4790 4791 0
-4791 4794 0
-67 -4791 0
-65 4792 0
-4792 4795 0
-66 -4792 4793 0
-4793 4796 0
-67 -4793 4794 0
-4794 4797 0
-68 -4794 0
-66 4795 0
-4795 4798 0
-67 -4795 4796 0
-4796 4799 0
-68 -4796 4797 0
-4797 4800 0
-69 -4797 0
-67 4798 0
-4798 4801 0
-68 -4798 4799 0
-4799 4802 0
-69 -4799 4800 0
-4800 4803 0
-70 -4800 0
-68 4801 0
-4801 4804 0
-69 -4801 4802 0
-4802 4805 0
-70 -4802 4803 0
-4803 4806 0
-71 -4803 0
-69 4804 0
-70 -4804 4805 0
-71 -4805 4806 0
-72 -4806 0
73 4807 0
-4807 4808 0
74 -4807 4809 0
-4809 4810 0
75 -4809 4811 0
-4811 4812 0
76 -4811 4813 0
-4813 4814 0
77 -4813 4815 0
-4815 4816 0
78 -4815 4817 0
-4817 4818 0
79 -4817 4819 0
-4819 4820 0
80 -4819 4821 0
-4821 4822 0
81 -4821 4823 0
-4823 4824 0
82 -4823 0
74 4808 0
-4808 4825 0
75 -4808 4810 0
-4810 4826 0
76 -4810 4812 0
-4812 4827 0
77 -4812 4814 0
-4814 4828 0
78 -4814 4816 0
-4816 4829 0
79 -4816 4818 0
-4818 4830 0
80 -4818 4820 0
-4820 4831 0
81 -4820 4822 0
-4822 4832 0
82 -4822 4824 0
-4824 4833 0
83 -4824 0
75 4825 0
76 -4825 4826 0
77 -4826 4827 0
78 -4827 4828 0
79 -4828 4829 0
80 -4829 4830 0
81 -4830 4831 0
82 -4831 4832 0
83 -4832 4833 0
84 -4833 0
-73 4834 0
-4834 4835 0
-74 -4834 4836 0
-4836 4837 0
-75 -4836 4838 0
-4838 4839 0
-76 -4838 0
-74 4835 0
-4835 4840 0
-75 -4835 4837 0
-4837 4841 0
-76 -4837 4839 0
-4839 4842 0
-77 -4839 0
-75 4840 0
-4840 4843 0
-76 -4840 4841 0
-4841 4844 0
-77 -4841 4842 0
-4842 4845 0
-78 -4842 0
-76 4843 0
-4843 4846 0
-77 -4843 4844 0
-4844 4847 0
-78 -4844 4845 0
-4845 4848 0
-79 -4845 0
-77 4846 0
-4846 4849 0
-78 -4846 4847 0
-4847 4850 0
-79 -4847 4848 0
-4848 4851 0
-80 -4848 0
-78 4849 0
-4849 4852 0
-79 -4849 4850 0
-4850 4853 0
-80 -4850 4851 0
-4851 4854 0
-81 -4851 0
-79 4852 0
-4852 4855 0
-80 -4852 4853 0
-4853 4856 0
-81 -4853 4854 0
-4854 4857 0
-82 -4854 0
-80 4855 0
-4855 4858 0
-81 -4855 4856 0
-4856 4859 0
-82 -4856 4857 0
-4857 4860 0
-83 -4857 0
-81 4858 0
-82 -4858 4859 0
-83 -4859 4860 0
-84 -4860 0
85 4861 0
-4861 4862 0
86 -4861 4863 0
-4863 4864 0
87 -4863 4865 0
-4865 4866 0
88 -4865 4867 0
-4867 4868 0
89 -4867 4869 0
-4869 4870 0
90 -4869 4871 0
-4871 4872 0
91 -4871 4873 0
-4873 4874 0
92 -4873 4875 0
-4875 4876 0
93 -4875 4877 0
-4877 4878 0
94 -4877 0
86 4862 0
-4862 4879 0
87 -4862 4864 0
-4864 4880 0
88 -4864 4866 0
-4866 4881 0
89 -4866 4868 0
-4868 4882 0
90 -4868 4870 0
-4870 4883 0
91 -4870 4872 0
-4872 4884 0
92 -4872 4874 0
-4874 4885 0
93 -4874 4876 0
-4876 4886 0
94 -4876 4878 0
-4878 4887 0
95 -4878 0
87 4879 0
88 -4879 4880 0
89 -4880 4881 0
90 -4881 4882 0
91 -4882 4883 0
92 -4883 4884 0
93 -4884 4885 0
94 -4885 4886 0
95 -4886 4887 0
96 -4887 0
-85 4888 0
-4888 4889 0
-86 -4888 4890 0
-4890 4891 0
-87 -4890 4892 0
-4892 4893 0
-88 -4892 0
-86 4889 0
-4889 4894 0
-87 -4889 4891 0
-4891 4895 0
-88 -4891 4893 0
-4893 4896 0
-89 -4893 0
-87 4894 0
-4894 4897 0
-88 -4894 4895 0
-4895 4898 0
-89 -4895 4896 0
-4896 4899 0
-90 -4896 0
-88 4897 0
-4897 4900 0
-89 -4897 4898 0
-4898 4901 0
-90 -4898 4899 0
-4899 4902 0
-91 -4899 0
-89 4900 0
-4900 4903 0
-90 -4900 4901 0
-4901 4904 0
-91 -4901 4902 0
-4902 4905 0
-92 -4902 0
-90 4903 0
-4903 4906 0
-91 -4903 4904 0
-4904 4907 0
-92 -4904 4905 0
-4905 4908 0
-93 -4905 0
-91 4906 0
-4906 4909 0
-92 -4906 4907 0
-4907 4910 0
-93 -4907 4908 0
-4908 4911 0
-94 -4908 0
-92 4909 0
-4909 4912 0
-93 -4909 4910 0
-4910 4913 0
-94 -4910 4911 0
-4911 4914 0
-95 -4911 0
-93 4912 0
-94 -4912 4913 0
-95 -4913 4914 0
-96 -4914 0
97 4915 0
-4915 4916 0
98 -4915 4917 0
-4917 4918 0
99 -4917 4919 0
-4919 4920 0
100 -4919 4921 0
-4921 4922 0
101 -4921 4923 0
-4923 4924 0
102 -4923 4925 0
-4925 4926 0
103 -4925 4927 0
-4927 4928 0
104 -4927 4929 0
-4929 4930 0
105 -4929 4931 0
-4931 4932 0
106 -4931 0
98 4916 0
-4916 4933 0
99 -4916 4918 0
-4918 4934 0
100 -4918 4920 0
-4920 4935 0
101 -4920 4922 0
-4922 4936 0
102 -4922 4924 0
-4924 4937 0
103 -4924 4926 0
-4926 4938 0
104 -4926 4928 0
-4928 4939 0
105 -4928 4930 0
-4930 4940 0
106 -4930 4932 0
-4932 4941 0
107 -4932 0
99 4933 0
100 -4933 4934 0
101 -4934 4935 0
102 -4935 4936 0
103 -4936 4937 0
104 -4937 4938 0
105 -4938 4939 0
106 -4939 4940 0
107 -4940 4941 0
108 -4941 0
-97 4942 0
-4942 4943 0
-98 -4942 4944 0
-4944 4945 0
-99 -4944 4946 0
-4946 4947 0
-100 -4946 0
-98 4943 0
-4943 4948 0
-99 -4943 4945 0
-4945 4949 0
-100 -4945 4947 0
-4947 4950 0
-101 -4947 0
-99 4948 0
-4948 4951 0
-100 -4948 4949 0
-4949 4952 0
-101 -4949 4950 0
-4950 4953 0
-102 -4950 0
-100 4951 0
-4951 4954 0
-101 -4951 4952 0
-4952 4955 0
-102 -4952 4953 0
-4953 4956 0
-103 -4953 0
-101 4954 0
-4954 4957 0
-102 -4954 4955 0
-4955 4958 0
-103 -4955 4956 0
-4956 4959 0
-104 -4956 0
-102 4957 0
-4957 4960 0
-103 -4957 4958 0
-4958 4961 0
-104 -4958 4959 0
-4959 4962 0
-105 -4959 0
-103 4960 0
-4960 4963 0
-104 -4960 4961 0
-4961 4964 0
-105 -4961 4962 0
-4962 4965 0
-106 -4962 0
-104 4963 0
-4963 4966 0
-105 -4963 4964 0
-4964 4967 0
-106 -4964 4965 0
-4965 4968 0
-107 -4965 0
-105 4966 0
-106 -4966 4967 0
-107 -4967 4968 0
-108 -4968 0
109 4969 0
-4969 4970 0
110 -4969 4971 0
-4971 4972 0
111 -4971 4973 0
-4973 4974 0
112 -4973 4975 0
-4975 4976 0
113 -4975 4977 0
-4977 4978 0
114 -4977 4979 0
-4979 4980 0
115 -4979 4981 0
-4981 4982 0
116 -4981 4983 0
-4983 4984 0
117 -4983 4985 0
-4985 4986 0
118 -4985 0
110 4970 0
-4970 4987 0
111 -4970 4972 0
-4972 4988 0
112 -4972 4974 0
-4974 4989 0
113 -4974 4976 0
-4976 4990 0
114 -4976 4978 0
-4978 4991 0
115 -4978 4980 0
-4980 4992 0
116 -4980 4982 0
-4982 4993 0
117 -4982 4984 0
-4984 4994 0
118 -4984 4986 0
-4986 4995 0
119 -4986 0
111 4987 0
112 -4987 4988 0
113 -4988 4989 0
114 -4989 4990 0
115 -4990 4991 0
116 -4991 4992 0
117 -4992 4993 0
118 -4993 4994 0
119 -4994 4995 0
120 -4995 0
-109 4996 0
-4996 4997 0
-110 -4996 4998 0
-4998 4999 0
-111 -4998 5000 0
-5000 5001 0
-112 -5000 0
-110 4997 0
-4997 5002 0
-111 -4997 4999 0
-4999 5003 0
-112 -4999 5001 0
-5001 5004 0
-113 -5001 0
-111 5002 0
-5002 5005 0
-112 -5002 5003 0
-5003 5006 0
-113 -5003 5004 0
-5004 5007 0
-114 -5004 0
-112 5005 0
-5005 5008 0
-113 -5005 5006 0
-5006 5009 0
-114 -5006 5007 0
-5007 5010 0
-115 -5007 0
-113 5008 0
-5008 5011 0
-114 -5008 5009 0
-5009 5012 0
-115 -5009 5010 0
-5010 5013 0
-116 -5010 0
-114 5011 0
-5011 5014 0
-115 -5011 5012 0
-5012 5015 0
-116 -5012 5013 0
-5013 5016 0
-117 -5013 0
-115 5014 0
-5014 5017 0
-116 -5014 5015 0
-5015 5018 0
-117 -5015 5016 0
-5016 5019 0
-118 -5016 0
-116 5017 0
-5017 5020 0
-117 -5017 5018 0
-5018 5021 0
-118 -5018 5019 0
-5019 5022 0
-119 -5019 0
-117 5020 0
-118 -5020 5021 0
-119 -5021 5022 0
-120 -5022 0
121 5023 0
-5023 5024 0
122 -5023 5025 0
-5025 5026 0
123 -5025 5027 0
-5027 5028 0
124 -5027 5029 0
-5029 5030 0
125 -5029 5031 0
-5031 5032 0
126 -5031 5033 0
-5033 5034 0
127 -5033 5035 0
-5035 5036 0
128 -5035 5037 0
-5037 5038 0
129 -5037 5039 0
-5039 5040 0
130 -5039 0
122 5024 0
-5024 5041 0
123 -5024 5026 0
-5026 5042 0
124 -5026 5028 0
-5028 5043 0
125 -5028 5030 0
-5030 5044 0
126 -5030 5032 0
-5032 5045 0
127 -5032 5034 0
-5034 5046 0
128 -5034 5036 0
-5036 5047 0
129 -5036 5038 0
-5038 5048 0
130 -5038 5040 0
-5040 5049 0
131 -5040 0
123 5041 0
124 -5041 5042 0
125 -5042 5043 0
126 -5043 5044 0
127 -5044 5045 0
128 -5045 5046 0
129 -5046 5047 0
130 -5047 5048 0
131 -5048 5049 0
132 -5049 0
-121 5050 0
-5050 5051 0
-122 -5050 5052 0
-5052 5053 0
-123 -5052 5054 0
-5054 5055 0
-124 -5054 0
-122 5051 0
-5051 5056 0
-123 -5051 5053 0
-5053 5057 0
-124 -5053 5055 0
-5055 5058 0
-125 -5055 0
-123 5056 0
-5056 5059 0
-124 -5056 5057 0
-5057 5060 0
-125 -5057 5058 0
-5058 5061 0
-126 -5058 0
-124 5059 0
-5059 5062 0
-125 -5059 5060 0
-5060 5063 0
-126 -5060 5061 0
-5061 5064 0
-127 -5061 0
-125 5062 0
-5062 5065 0
-126 -5062 5063 0
-5063 5066 0
-127 -5063 5064 0
-5064 5067 0
-128 -5064 0
-126 5065 0
-5065 5068 0
-127 -5065 5066 0
-5066 5069 0
-128 -5066 5067 0
-5067 5070 0
-129 -5067 0
-127 5068 0
-5068 5071 0
-128 -5068 5069 0
-5069 5072 0
-129 -5069 5070 0
-5070 5073 0
-130 -5070 0
-128 5071 0
-5071 5074 0
-129 -5071 5072 0
-5072 5075 0
-130 -5072 5073 0
-5073 5076 0
-131 -5073 0
-129 5074 0
-130 -5074 5075 0
-131 -5075 5076 0
-132 -5076 0
133 5077 0
-5077 5078 0
134 -5077 5079 0
-5079 5080 0
135 -5079 5081 0
-5081 5082 0
136 -5081 5083 0
-5083 5084 0
137 -5083 5085 0
-5085 5086 0
138 -5085 5087 0
-5087 5088 0
139 -5087 5089 0
-5089 5090 0
140 -5089 5091 0
-5091 5092 0
141 -5091 5093 0
-5093 5094 0
142 -5093 0
134 5078 0
-5078 5095 0
135 -5078 5080 0
-5080 5096 0
136 -5080 5082 0
-5082 5097 0
137 -5082 5084 0
-5084 5098 0
138 -5084 5086 0
-5086 5099 0
139 -5086 5088 0
-5088 5100 0
140 -5088 5090 0
-5090 5101 0
141 -5090 5092 0
-5092 5102 0
142 -5092 5094 0
-5094 5103 0
143 -5094 0
135 5095 0
136 -5095 5096 0
137 -5096 5097 0
138 -5097 5098 0
139 -5098 5099 0
140 -5099 5100 0
141 -5100 5101 0
142 -5101 5102 0
143 -5102 5103 0
144 -5103 0
-133 5104 0
-5104 5105 0
-134 -5104 5106 0
-5106 5107 0
-135 -5106 5108 0
-5108 5109 0
-136 -5108 0
-134 5105 0
-5105 5110 0
-135 -5105 5107 0
-5107 5111 0
-136 -5107 5109 0
-5109 5112 0
-137 -5109 0
-135 5110 0
-5110 5113 0
-136 -5110 5111 0
-5111 5114 0
-137 -5111 5112 0
-5112 5115 0
-138 -5112 0
-136 5113 0
-5113 5116 0
-137 -5113 5114 0
-5114 5117 0
-138 -5114 5115 0
-5115 5118 0
-139 -5115 0
-137 5116 0
-5116 5119 0
-138 -5116 5117 0
-5117 5120 0
-139 -5117 5118 0
-5118 5121 0
-140 -5118 0
-138 5119 0
-5119 5122 0
-139 -5119 5120 0
-5120 5123 0
-140 -5120 5121 0
-5121 5124 0
-141 -5121 0
-139 5122 0
-5122 5125 0
-140 -5122 5123 0
-5123 5126 0
-141 -5123 5124 0
-5124 5127 0
-142 -5124 0
-140 5125 0
-5125 5128 0
-141 -5125 5126 0
-5126 5129 0
-142 -5126 5127 0
-5127 5130 0
-143 -5127 0
-141 5128 0
-142 -5128 5129 0
-143 -5129 5130 0
-144 -5130 0
-145 1 0
-145 13 0
-1 -13 145 0
-146 2 0
-146 14 0
-2 -14 146 0
-147 3 0
-147 15 0
-3 -15 147 0
-148 4 0
-148 16 0
-4 -16 148 0
-149 5 0
-149 17 0
-5 -17 149 0
-150 6 0
-150 18 0
-6 -18 150 0
-151 7 0
-151 19 0
-7 -19 151 0
-152 8 0
-152 20 0
-8 -20 152 0
-153 9 0
-153 21 0
-9 -21 153 0
-154 10 0
-154 22 0
-10 -22 154 0
-155 11 0
-155 23 0
-11 -23 155 0
-156 12 0
-156 24 0
-12 -24 156 0
-145 5131 0
-5131 5132 0
-146 -5131 0
-146 5132 0
-5132 5133 0
-147 -5132 0
-147 5133 0
-5133 5134 0
-148 -5133 0
-148 5134 0
-5134 5135 0
-149 -5134 0
-149 5135 0
-5135 5136 0
-150 -5135 0
-150 5136 0
-5136 5137 0
-151 -5136 0
-151 5137 0
-5137 5138 0
-152 -5137 0
-152 5138 0
-5138 5139 0
-153 -5138 0
-153 5139 0
-5139 5140 0
-154 -5139 0
-154 5140 0
-5140 5141 0
-155 -5140 0
-155 5141 0
-156 -5141 0
-145 937 0
-146 937 0
-147 937 0
-148 937 0
-149 937 0
-150 937 0
-151 937 0
-152 937 0
-153 937 0
-154 937 0
-155 937 0
-156 937 0
-937 145 146 147 148 149 150 151 152 153 154 155 156 0
-157 1 0
-157 25 0
-1 -25 157 0
-158 2 0
-158 26 0
-2 -26 158 0
-159 3 0
-159 27 0
-3 -27 159 0
-160 4 0
-160 28 0
-4 -28 160 0
-161 5 0
-161 29 0
-5 -29 161 0
-162 6 0
-162 30 0
-6 -30 162 0
-163 7 0
-163 31 0
-7 -31 163 0
-164 8 0
-164 32 0
-8 -32 164 0
-165 9 0
-165 33 0
-9 -33 165 0
-166 10 0
-166 34 0
-10 -34 166 0
-167 11 0
-167 35 0
-11 -35 167 0
-168 12 0
-168 36 0
-12 -36 168 0
-157 5142 0
-5142 5143 0
-158 -5142 0
-158 5143 0
-5143 5144 0
-159 -5143 0
-159 5144 0
-5144 5145 0
-160 -5144 0
-160 5145 0
-5145 5146 0
-161 -5145 0
-161 5146 0
-5146 5147 0
-162 -5146 0
-162 5147 0
-5147 5148 0
-163 -5147 0
-163 5148 0
-5148 5149 0
-164 -5148 0
-164 5149 0
-5149 5150 0
-165 -5149 0
-165 5150 0
-5150 5151 0
-166 -5150 0
-166 5151 0
-5151 5152 0
-167 -5151 0
-167 5152 0
-168 -5152 0
-157 938 0
-158 938 0
-159 938 0
-160 938 0
-161 938 0
-162 938 0
-163 938 0
-164 938 0
-165 938 0
-166 938 0
-167 938 0
-168 938 0
-938 157 158 159 160 161 162 163 164 165 166 167 168 0
-169 1 0
-169 37 0
-1 -37 169 0
-170 2 0
-170 38 0
-2 -38 170 0
-171 3 0
-171 39 0
-3 -39 171 0
-172 4 0
-172 40 0
-4 -40 172 0
-173 5 0
-173 41 0
-5 -41 173 0
-174 6 0
-174 42 0
-6 -42 174 0
-175 7 0
-175 43 0
-7 -43 175 0
-176 8 0
-176 44 0
-8 -44 176 0
-177 9 0
-177 45 0
-9 -45 177 0
-178 10 0
-178 46 0
-10 -46 178 0
-179 11 0
-179 47 0
-11 -47 179 0
-180 12 0
-180 48 0
-12 -48 180 0
-169 5153 0
-5153 5154 0
-170 -5153 0
-170 5154 0
-5154 5155 0
-171 -5154 0
-171 5155 0
-5155 5156 0
-172 -5155 0
-172 5156 0
-5156 5157 0
-173 -5156 0
-173 5157 0
-5157 5158 0
-174 -5157 0
-174 5158 0
-5158 5159 0
-175 -5158 0
-175 5159 0
-5159 5160 0
-176 -5159 0
-176 5160 0
-5160 5161 0
-177 -5160 0
-177 5161 0
-5161 5162 0
-178 -5161 0
-178 5162 0
-5162 5163 0
-179 -5162 0
-179 5163 0
-180 -5163 0
-169 939 0
-170 939 0
-171 939 0
-172 939 0
-173 939 0
-174 939 0
-175 939 0
-176 939 0
-177 939 0
-178 939 0
-179 939 0
-180 939 0
-939 169 170 171 172 173 174 175 176 177 178 179 180 0
-181 1 0
-181 49 0
-1 -49 181 0
-182 2 0
-182 50 0
-2 -50 182 0
-183 3 0
-183 51 0
-3 -51 183 0
-184 4 0
-184 52 0
-4 -52 184 0
-185 5 0
-185 53 0
-5 -53 185 0
-186 6 0
-186 54 0
-6 -54 186 0
-187 7 0
-187 55 0
-7 -55 187 0
-188 8 0
-188 56 0
-8 -56 188 0
-189 9 0
-189 57 0
-9 -57 189 0
-190 10 0
-190 58 0
-10 -58 190 0
-191 11 0
-191 59 0
-11 -59 191 0
-192 12 0
-192 60 0
-12 -60 192 0
-181 5164 0
-5164 5165 0
-182 -5164 0
-182 5165 0
-5165 5166 0
-183 -5165 0
-183 5166 0
-5166 5167 0
-184 -5166 0
-184 5167 0
-5167 5168 0
-185 -5167 0
-185 5168 0
-5168 5169 0
-186 -5168 0
-186 5169 0
-5169 5170 0
-187 -5169 0
-187 5170 0
-5170 5171 0
-188 -5170 0
-188 5171 0
-5171 5172 0
-189 -5171 0
-189 5172 0
-5172 5173 0
-190 -5172 0
-190 5173 0
-5173 5174 0
-191 -5173 0
-191 5174 0
-192 -5174 0
-181 940 0
-182 940 0
-183 940 0
-184 940 0
-185 940 0
-186 940 0
-187 940 0
-188 940 0
-189 940 0
-190 940 0
-191 940 0
-192 940 0
-940 181 182 183 184 185 186 187 188 189 190 191 192 0
-193 1 0
-193 61 0
-1 -61 193 0
-194 2 0
-194 62 0
-2 -62 194 0
-195 3 0
-195 63 0
-3 -63 195 0
-196 4 0
-196 64 0
-4 -64 196 0
-197 5 0
-197 65 0
-5 -65 197 0
-198 6 0
-198 66 0
-6 -66 198 0
-199 7 0
-199 67 0
-7 -67 199 0
-200 8 0
-200 68 0
-8 -68 200 0
-201 9 0
-201 69 0
-9 -69 201 0
-202 10 0
-202 70 0
-10 -70 202 0
-203 11 0
-203 71 0
-11 -71 203 0
-204 12 0
-204 72 0
-12 -72 204 0
-193 5175 0
-5175 5176 0
-194 -5175 0
-194 5176 0
-5176 5177 0
-195 -5176 0
-195 5177 0
-5177 5178 0
-196 -5177 0
-196 5178 0
-5178 5179 0
-197 -5178 0
-197 5179 0
-5179 5180 0
-198 -5179 0
-198 5180 0
-5180 5181 0
-199 -5180 0
-199 5181 0
-5181 5182 0
-200 -5181 0
-200 5182 0
-5182 5183 0
-201 -5182 0
-201 5183 0
-5183 5184 0
-202 -5183 0
-202 5184 0
-5184 5185 0
-203 -5184 0
-203 5185 0
-204 -5185 0
-193 941 0
-194 941 0
-195 941 0
-196 941 0
-197 941 0
-198 941 0
-199 941 0
-200 941 0
-201 941 0
-202 941 0
-203 941 0
-204 941 0
-941 193 194 195 196 197 198 199 200 201 202 203 204 0
-205 1 0
-205 73 0
-1 -73 205 0
-206 2 0
-206 74 0
-2 -74 206 0
-207 3 0
-207 75 0
-3 -75 207 0
-208 4 0
-208 76 0
-4 -76 208 0
-209 5 0
-209 77 0
-5 -77 209 0
-210 6 0
-210 78 0
-6 -78 210 0
-211 7 0
-211 79 0
-7 -79 211 0
-212 8 0
-212 80 0
-8 -80 212 0
-213 9 0
-213 81 0
-9 -81 213 0
-214 10 0
-214 82 0
-10 -82 214 0
-215 11 0
-215 83 0
-11 -83 215 0
-216 12 0
-216 84 0
-12 -84 216 0
-205 5186 0
-5186 5187 0
-206 -5186 0
-206 5187 0
-5187 5188 0
-207 -5187 0
-207 5188 0
-5188 5189 0
-208 -5188 0
-208 5189 0
-5189 5190 0
-209 -5189 0
-209 5190 0
-5190 5191 0
-210 -5190 0
-210 5191 0
-5191 5192 0
-211 -5191 0
-211 5192 0
-5192 5193 0
-212 -5192 0
-212 5193 0
-5193 5194 0
-213 -5193 0
-213 5194 0
-5194 5195 0
-214 -5194 0
-214 5195 0
-5195 5196 0
-215 -5195 0
-215 5196 0
-216 -5196 0
-205 942 0
-206 942 0
-207 942 0
-208 942 0
-209 942 0
-210 942 0
-211 942 0
-212 942 0
-213 942 0
-214 942 0
-215 942 0
-216 942 0
-942 205 206 207 208 209 210 211 212 213 214 215 216 0
-217 1 0
-217 85 0
-1 -85 217 0
-218 2 0
-218 86 0
-2 -86 218 0
-219 3 0
-219 87 0
-3 -87 219 0
-220 4 0
-220 88 0
-4 -88 220 0
-221 5 0
-221 89 0
-5 -89 221 0
-222 6 0
-222 90 0
-6 -90 222 0
-223 7 0
-223 91 0
-7 -91 223 0
-224 8 0
-224 92 0
-8 -92 224 0
-225 9 0
-225 93 0
-9 -93 225 0
-226 10 0
-226 94 0
-10 -94 226 0
-227 11 0
-227 95 0
-11 -95 227 0
-228 12 0
-228 96 0
-12 -96 228 0
-217 5197 0
-5197 5198 0
-218 -5197 0
-218 5198 0
-5198 5199 0
-219 -5198 0
-219 5199 0
-5199 5200 0
-220 -5199 0
-220 5200 0
-5200 5201 0
-221 -5200 0
-221 5201 0
-5201 5202 0
-222 -5201 0
-222 5202 0
-5202 5203 0
-223 -5202 0
-223 5203 0
-5203 5204 0
-224 -5203 0
-224 5204 0
-5204 5205 0
-225 -5204 0
-225 5205 0
-5205 5206 0
-226 -5205 0
-226 5206 0
-5206 5207 0
-227 -5206 0
-227 5207 0
-228 -5207 0
-217 943 0
-218 943 0
-219 943 0
-220 943 0
-221 943 0
-222 943 0
-223 943 0
-224 943 0
-225 943 0
-226 943 0
-227 943 0
-228 943 0
-943 217 218 219 220 221 222 223 224 225 226 227 228 0
-229 1 0
-229 97 0
-1 -97 229 0
-230 2 0
-230 98 0
-2 -98 230 0
-231 3 0
-231 99 0
-3 -99 231 0
-232 4 0
-232 100 0
-4 -100 232 0
-233 5 0
-233 101 0
-5 -101 233 0
-234 6 0
-234 102 0
-6 -102 234 0
-235 7 0
-235 103 0
-7 -103 235 0
-236 8 0
-236 104 0
-8 -104 236 0
-237 9 0
-237 105 0
-9 -105 237 0
-238 10 0
-238 106 0
-10 -106 238 0
-239 11 0
-239 107 0
-11 -107 239 0
-240 12 0
-240 108 0
-12 -108 240 0
-229 5208 0
-5208 5209 0
-230 -5208 0
-230 5209 0
-5209 5210 0
-231 -5209 0
-231 5210 0
-5210 5211 0
-232 -5210 0
-232 5211 0
-5211 5212 0
-233 -5211 0
-233 5212 0
-5212 5213 0
-234 -5212 0
-234 5213 0
-5213 5214 0
-235 -5213 0
-235 5214 0
-5214 5215 0
-236 -5214 0
-236 5215 0
-5215 5216 0
-237 -5215 0
-237 5216 0
-5216 5217 0
-238 -5216 0
-238 5217 0
-5217 5218 0
-239 -5217 0
-239 5218 0
-240 -5218 0
-229 944 0
-230 944 0
-231 944 0
-232 944 0
-233 944 0
-234 944 0
-235 944 0
-236 944 0
-237 944 0
-238 944 0
-239 944 0
-240 944 0
-944 229 230 231 232 233 234 235 236 237 238 239 240 0
-241 1 0
-241 109 0
-1 -109 241 0
-242 2 0
-242 110 0
-2 -110 242 0
-243 3 0
-243 111 0
-3 -111 243 0
-244 4 0
-244 112 0
-4 -112 244 0
-245 5 0
-245 113 0
-5 -113 245 0
-246 6 0
-246 114 0
-6 -114 246 0
-247 7 0
-247 115 0
-7 -115 247 0
-248 8 0
-248 116 0
-8 -116 248 0
-249 9 0
-249 117 0
-9 -117 249 0
-250 10 0
-250 118 0
-10 -118 250 0
-251 11 0
-251 119 0
-11 -119 251 0
-252 12 0
-252 120 0
-12 -120 252 0
-241 5219 0
-5219 5220 0
-242 -5219 0
-242 5220 0
-5220 5221 0
-243 -5220 0
-243 5221 0
-5221 5222 0
-244 -5221 0
-244 5222 0
-5222 5223 0
-245 -5222 0
-245 5223 0
-5223 5224 0
-246 -5223 0
-246 5224 0
-5224 5225 0
-247 -5224 0
-247 5225 0
-5225 5226 0
-248 -5225 0
-248 5226 0
-5226 5227 0
-249 -5226 0
-249 5227 0
-5227 5228 0
-250 -5227 0
-250 5228 0
-5228 5229 0
-251 -5228 0
-251 5229 0
-252 -5229 0
-241 945 0
-242 945 0
-243 945 0
-244 945 0
-245 945 0
-246 945 0
-247 945 0
-248 945 0
-249 945 0
-250 945 0
-251 945 0
-252 945 0
-945 241 242 243 244 245 246 247 248 249 250 251 252 0
-253 1 0
-253 121 0
-1 -121 253 0
-254 2 0
-254 122 0
-2 -122 254 0
-255 3 0
-255 123 0
-3 -123 255 0
-256 4 0
-256 124 0
-4 -124 256 0
-257 5 0
-257 125 0
-5 -125 257 0
-258 6 0
-258 126 0
-6 -126 258 0
-259 7 0
-259 127 0
-7 -127 259 0
-260 8 0
-260 128 0
-8 -128 260 0
-261 9 0
-261 129 0
-9 -129 261 0
-262 10 0
-262 130 0
-10 -130 262 0
-263 11 0
-263 131 0
-11 -131 263 0
-264 12 0
-264 132 0
-12 -132 264 0
-253 5230 0
-5230 5231 0
-254 -5230 0
-254 5231 0
-5231 5232 0
-255 -5231 0
-255 5232 0
-5232 5233 0
-256 -5232 0
-256 5233 0
-5233 5234 0
-257 -5233 0
-257 5234 0
-5234 5235 0
-258 -5234 0
-258 5235 0
-5235 5236 0
-259 -5235 0
-259 5236 0
-5236 5237 0
-260 -5236 0
-260 5237 0
-5237 5238 0
-261 -5237 0
-261 5238 0
-5238 5239 0
-262 -5238 0
-262 5239 0
-5239 5240 0
-263 -5239 0
-263 5240 0
-264 -5240 0
-253 946 0
-254 946 0
-255 946 0
-256 946 0
-257 946 0
-258 946 0
-259 946 0
-260 946 0
-261 946 0
-262 946 0
-263 946 0
-264 946 0
-946 253 254 255 256 257 258 259 260 261 262 263 264 0
-265 1 0
-265 133 0
-1 -133 265 0
-266 2 0
-266 134 0
-2 -134 266 0
-267 3 0
-267 135 0
-3 -135 267 0
-268 4 0
-268 136 0
-4 -136 268 0
-269 5 0
-269 137 0
-5 -137 269 0
-270 6 0
-270 138 0
-6 -138 270 0
-271 7 0
-271 139 0
-7 -139 271 0
-272 8 0
-272 140 0
-8 -140 272 0
-273 9 0
-273 141 0
-9 -141 273 0
-274 10 0
-274 142 0
-10 -142 274 0
-275 11 0
-275 143 0
-11 -143 275 0
-276 12 0
-276 144 0
-12 -144 276 0
-265 5241 0
-5241 5242 0
-266 -5241 0
-266 5242 0
-5242 5243 0
-267 -5242 0
-267 5243 0
-5243 5244 0
-268 -5243 0
-268 5244 0
-5244 5245 0
-269 -5244 0
-269 5245 0
-5245 5246 0
-270 -5245 0
-270 5246 0
-5246 5247 0
-271 -5246 0
-271 5247 0
-5247 5248 0
-272 -5247 0
-272 5248 0
-5248 5249 0
-273 -5248 0
-273 5249 0
-5249 5250 0
-274 -5249 0
-274 5250 0
-5250 5251 0
-275 -5250 0
-275 5251 0
-276 -5251 0
-265 947 0
-266 947 0
-267 947 0
-268 947 0
-269 947 0
-270 947 0
-271 947 0
-272 947 0
-273 947 0
-274 947 0
-275 947 0
-276 947 0
-947 265 266 267 268 269 270 271 272 273 274 275 276 0
-277 13 0
-277 25 0
-13 -25 277 0
-278 14 0
-278 26 0
-14 -26 278 0
-279 15 0
-279 27 0
-15 -27 279 0
-280 16 0
-280 28 0
-16 -28 280 0
-281 17 0
-281 29 0
-17 -29 281 0
-282 18 0
-282 30 0
-18 -30 282 0
-283 19 0
-283 31 0
-19 -31 283 0
-284 20 0
-284 32 0
-20 -32 284 0
-285 21 0
-285 33 0
-21 -33 285 0
-286 22 0
-286 34 0
-22 -34 286 0
-287 23 0
-287 35 0
-23 -35 287 0
-288 24 0
-288 36 0
-24 -36 288 0
-277 5252 0
-5252 5253 0
-278 -5252 0
-278 5253 0
-5253 5254 0
-279 -5253 0
-279 5254 0
-5254 5255 0
-280 -5254 0
-280 5255 0
-5255 5256 0
-281 -5255 0
-281 5256 0
-5256 5257 0
-282 -5256 0
-282 5257 0
-5257 5258 0
-283 -5257 0
-283 5258 0
-5258 5259 0
-284 -5258 0
-284 5259 0
-5259 5260 0
-285 -5259 0
-285 5260 0
-5260 5261 0
-286 -5260 0
-286 5261 0
-5261 5262 0
-287 -5261 0
-287 5262 0
-288 -5262 0
-277 948 0
-278 948 0
-279 948 0
-280 948 0
-281 948 0
-282 948 0
-283 948 0
-284 948 0
-285 948 0
-286 948 0
-287 948 0
-288 948 0
-948 277 278 279 280 281 282 283 284 285 286 287 288 0
-289 13 0
-289 37 0
-13 -37 289 0
-290 14 0
-290 38 0
-14 -38 290 0
-291 15 0
-291 39 0
-15 -39 291 0
-292 16 0
-292 40 0
-16 -40 292 0
-293 17 0
-293 41 0
-17 -41 293 0
-294 18 0
-294 42 0
-18 -42 294 0
-295 19 0
-295 43 0
-19 -43 295 0
-296 20 0
-296 44 0
-20 -44 296 0
-297 21 0
-297 45 0
-21 -45 297 0
-298 22 0
-298 46 0
-22 -46 298 0
-299 23 0
-299 47 0
-23 -47 299 0
-300 24 0
-300 48 0
-24 -48 300 0
-289 5263 0
-5263 5264 0
-290 -5263 0
-290 5264 0
-5264 5265 0
-291 -5264 0
-291 5265 0
-5265 5266 0
-292 -5265 0
-292 5266 0
-5266 5267 0
-293 -5266 0
-293 5267 0
-5267 5268 0
-294 -5267 0
-294 5268 0
-5268 5269 0
-295 -5268 0
-295 5269 0
-5269 5270 0
-296 -5269 0
-296 5270 0
-5270 5271 0
-297 -5270 0
-297 5271 0
-5271 5272 0
-298 -5271 0
-298 5272 0
-5272 5273 0
-299 -5272 0
-299 5273 0
-300 -5273 0
-289 949 0
-290 949 0
-291 949 0
-292 949 0
-293 949 0
-294 949 0
-295 949 0
-296 949 0
-297 949 0
-298 949 0
-299 949 0
-300 949 0
-949 289 290 291 292 293 294 295 296 297 298 299 300 0
-301 13 0
-301 49 0
-13 -49 301 0
-302 14 0
-302 50 0
-14 -50 302 0
-303 15 0
-303 51 0
-15 -51 303 0
-304 16 0
-304 52 0
-16 -52 304 0
-305 17 0
-305 53 0
-17 -53 305 0
-306 18 0
-306 54 0
-18 -54 306 0
-307 19 0
-307 55 0
-19 -55 307 0
-308 20 0
-308 56 0
-20 -56 308 0
-309 21 0
-309 57 0
-21 -57 309 0
-310 22 0
-310 58 0
-22 -58 310 0
-311 23 0
-311 59 0
-23 -59 311 0
-312 24 0
-312 60 0
-24 -60 312 0
-301 5274 0
-5274 5275 0
-302 -5274 0
-302 5275 0
-5275 5276 0
-303 -5275 0
-303 5276 0
-5276 5277 0
-304 -5276 0
-304 5277 0
-5277 5278 0
-305 -5277 0
-305 5278 0
-5278 5279 0
-306 -5278 0
-306 5279 0
-5279 5280 0
-307 -5279 0
-307 5280 0
-5280 5281 0
-308 -5280 0
-308 5281 0
-5281 5282 0
-309 -5281 0
-309 5282 0
-5282 5283 0
-310 -5282 0
-310 5283 0
-5283 5284 0
-311 -5283 0
-311 5284 0
-312 -5284 0
-301 950 0
-302 950 0
-303 950 0
-304 950 0
-305 950 0
-306 950 0
-307 950 0
-308 950 0
-309 950 0
-310 950 0
-311 950 0
-312 950 0
-950 301 302 303 304 305 306 307 308 309 310 311 312 0
-313 13 0
-313 61 0
-13 -61 313 0
-314 14 0
-314 62 0
-14 -62 314 0
-315 15 0
-315 63 0
-15 -63 315 0
-316 16 0
-316 64 0
-16 -64 316 0
-317 17 0
-317 65 0
-17 -65 317 0
-318 18 0
-318 66 0
-18 -66 318 0
-319 19 0
-319 67 0
-19 -67 319 0
-320 20 0
-320 68 0
-20 -68 320 0
-321 21 0
-321 69 0
-21 -69 321 0
-322 22 0
-322 70 0
-22 -70 322 0
-323 23 0
-323 71 0
-23 -71 323 0
-324 24 0
-324 72 0
-24 -72 324 0
-313 5285 0
-5285 5286 0
-314 -5285 0
-314 5286 0
-5286 5287 0
-315 -5286 0
-315 5287 0
-5287 5288 0
-316 -5287 0
-316 5288 0
-5288 5289 0
-317 -5288 0
-317 5289 0
-5289 5290 0
-318 -5289 0
-318 5290 0
-5290 5291 0
-319 -5290 0
-319 5291 0
-5291 5292 0
-320 -5291 0
-320 5292 0
-5292 5293 0
-321 -5292 0
-321 5293 0
-5293 5294 0
-322 -5293 0
-322 5294 0
-5294 5295 0
-323 -5294 0
-323 5295 0
-324 -5295 0
-313 951 0
-314 951 0
-315 951 0
-316 951 0
-317 951 0
-318 951 0
-319 951 0
-320 951 0
-321 951 0
-322 951 0
-323 951 0
-324 951 0
-951 313 314 315 316 317 318 319 320 321 322 323 324 0
-325 13 0
-325 73 0
-13 -73 325 0
-326 14 0
-326 74 0
-14 -74 326 0
-327 15 0
-327 75 0
-15 -75 327 0
-328 16 0
-328 76 0
-16 -76 328 0
-329 17 0
-329 77 0
-17 -77 329 0
-330 18 0
-330 78 0
-18 -78 330 0
-331 19 0
-331 79 0
-19 -79 331 0
-332 20 0
-332 80 0
-20 -80 332 0
-333 21 0
-333 81 0
-21 -81 333 0
-334 22 0
-334 82 0
-22 -82 334 0
-335 23 0
-335 83 0
-23 -83 335 0
-336 24 0
-336 84 0
-24 -84 336 0
-325 5296 0
-5296 5297 0
-326 -5296 0
-326 5297 0
-5297 5298 0
-327 -5297 0
-327 5298 0
-5298 5299 0
-328 -5298 0
-328 5299 0
-5299 5300 0
-329 -5299 0
-329 5300 0
-5300 5301 0
-330 -5300 0
-330 5301 0
-5301 5302 0
-331 -5301 0
-331 5302 0
-5302 5303 0
-332 -5302 0
-332 5303 0
-5303 5304 0
-333 -5303 0
-333 5304 0
-5304 5305 0
-334 -5304 0
-334 5305 0
-5305 5306 0
-335 -5305 0
-335 5306 0
-336 -5306 0
-325 952 0
-326 952 0
-327 952 0
-328 952 0
-329 952 0
-330 952 0
-331 952 0
-332 952 0
-333 952 0
-334 952 0
-335 952 0
-336 952 0
-952 325 326 327 328 329 330 331 332 333 334 335 336 0
-337 13 0
-337 85 0
-13 -85 337 0
-338 14 0
-338 86 0
-14 -86 338 0
-339 15 0
-339 87 0
-15 -87 339 0
-340 16 0
-340 88 0
-16 -88 340 0
-341 17 0
-341 89 0
-17 -89 341 0
-342 18 0
-342 90 0
-18 -90 342 0
-343 19 0
-343 91 0
-19 -91 343 0
-344 20 0
-344 92 0
-20 -92 344 0
-345 21 0
-345 93 0
-21 -93 345 0
-346 22 0
-346 94 0
-22 -94 346 0
-347 23 0
-347 95 0
-23 -95 347 0
-348 24 0
-348 96 0
-24 -96 348 0
-337 5307 0
-5307 5308 0
-338 -5307 0
-338 5308 0
-5308 5309 0
-339 -5308 0
-339 5309 0
-5309 5310 0
-340 -5309 0
-340 5310 0
-5310 5311 0
-341 -5310 0
-341 5311 0
-5311 5312 0
-342 -5311 0
-342 5312 0
-5312 5313 0
-343 -5312 0
-343 5313 0
-5313 5314 0
-344 -5313 0
-344 5314 0
-5314 5315 0
-345 -5314 0
-345 5315 0
-5315 5316 0
-346 -5315 0
-346 5316 0
-5316 5317 0
-347 -5316 0
-347 5317 0
-348 -5317 0
-337 953 0
-338 953 0
-339 953 0
-340 953 0
-341 953 0
-342 953 0
-343 953 0
-344 953 0
-345 953 0
-346 953 0
-347 953 0
-348 953 0
-953 337 338 339 340 341 342 343 344 345 346 347 348 0
-349 13 0
-349 97 0
-13 -97 349 0
-350 14 0
-350 98 0
-14 -98 350 0
-351 15 0
-351 99 0
-15 -99 351 0
-352 16 0
-352 100 0
-16 -100 352 0
-353 17 0
-353 101 0
-17 -101 353 0
-354 18 0
-354 102 0
-18 -102 354 0
-355 19 0
-355 103 0
-19 -103 355 0
-356 20 0
-356 104 0
-20 -104 356 0
-357 21 0
-357 105 0
-21 -105 357 0
-358 22 0
-358 106 0
-22 -106 358 0
-359 23 0
-359 107 0
-23 -107 359 0
-360 24 0
-360 108 0
-24 -108 360 0
-349 5318 0
-5318 5319 0
-350 -5318 0
-350 5319 0
-5319 5320 0
-351 -5319 0
-351 5320 0
-5320 5321 0
-352 -5320 0
-352 5321 0
-5321 5322 0
-353 -5321 0
-353 5322 0
-5322 5323 0
-354 -5322 0
-354 5323 0
-5323 5324 0
-355 -5323 0
-355 5324 0
-5324 5325 0
-356 -5324 0
-356 5325 0
-5325 5326 0
-357 -5325 0
-357 5326 0
-5326 5327 0
-358 -5326 0
-358 5327 0
-5327 5328 0
-359 -5327 0
-359 5328 0
-360 -5328 0
-349 954 0
-350 954 0
-351 954 0
-352 954 0
-353 954 0
-354 954 0
-355 954 0
-356 954 0
-357 954 0
-358 954 0
-359 954 0
-360 954 0
-954 349 350 351 352 353 354 355 356 357 358 359 360 0
-361 13 0
-361 109 0
-13 -109 361 0
-362 14 0
-362 110 0
-14 -110 362 0
-363 15 0
-363 111 0
-15 -111 363 0
-364 16 0
-364 112 0
-16 -112 364 0
-365 17 0
-365 113 0
-17 -113 365 0
-366 18 0
-366 114 0
-18 -114 366 0
-367 19 0
-367 115 0
-19 -115 367 0
-368 20 0
-368 116 0
-20 -116 368 0
-369 21 0
-369 117 0
-21 -117 369 0
-370 22 0
-370 118 0
-22 -118 370 0
-371 23 0
-371 119 0
-23 -119 371 0
-372 24 0
-372 120 0
-24 -120 372 0
-361 5329 0
-5329 5330 0
-362 -5329 0
-362 5330 0
-5330 5331 0
-363 -5330 0
-363 5331 0
-5331 5332 0
-364 -5331 0
-364 5332 0
-5332 5333 0
-365 -5332 0
-365 5333 0
-5333 5334 0
-366 -5333 0
-366 5334 0
-5334 5335 0
-367 -5334 0
-367 5335 0
-5335 5336 0
-368 -5335 0
-368 5336 0
-5336 5337 0
-369 -5336 0
-369 5337 0
-5337 5338 0
-370 -5337 0
-370 5338 0
-5338 5339 0
-371 -5338 0
-371 5339 0
-372 -5339 0
-361 955 0
-362 955 0
-363 955 0
-364 955 0
-365 955 0
-366 955 0
-367 955 0
-368 955 0
-369 955 0
-370 955 0
-371 955 0
-372 955 0
-955 361 362 363 364 365 366 367 368 369 370 371 372 0
-373 13 0
-373 121 0
-13 -121 373 0
-374 14 0
-374 122 0
-14 -122 374 0
-375 15 0
-375 123 0
-15 -123 375 0
-376 16 0
-376 124 0
-16 -124 376 0
-377 17 0
-377 125 0
-17 -125 377 0
-378 18 0
-378 126 0
-18 -126 378 0
-379 19 0
-379 127 0
-19 -127 379 0
-380 20 0
-380 128 0
-20 -128 380 0
-381 21 0
-381 129 0
-21 -129 381 0
-382 22 0
-382 130 0
-22 -130 382 0
-383 23 0
-383 131 0
-23 -131 383 0
-384 24 0
-384 132 0
-24 -132 384 0
-373 5340 0
-5340 5341 0
-374 -5340 0
-374 5341 0
-5341 5342 0
-375 -5341 0
-375 5342 0
-5342 5343 0
-376 -5342 0
-376 5343 0
-5343 5344 0
-377 -5343 0
-377 5344 0
-5344 5345 0
-378 -5344 0
-378 5345 0
-5345 5346 0
-379 -5345 0
-379 5346 0
-5346 5347 0
-380 -5346 0
-380 5347 0
-5347 5348 0
-381 -5347 0
-381 5348 0
-5348 5349 0
-382 -5348 0
-382 5349 0
-5349 5350 0
-383 -5349 0
-383 5350 0
-384 -5350 0
-373 956 0
-374 956 0
-375 956 0
-376 956 0
-377 956 0
-378 956 0
-379 956 0
-380 956 0
-381 956 0
-382 956 0
-383 956 0
-384 956 0
-956 373 374 375 376 377 378 379 380 381 382 383 384 0
-385 13 0
-385 133 0
-13 -133 385 0
-386 14 0
-386 134 0
-14 -134 386 0
-387 15 0
-387 135 0
-15 -135 387 0
-388 16 0
-388 136 0
-16 -136 388 0
-389 17 0
-389 137 0
-17 -137 389 0
-390 18 0
-390 138 0
-18 -138 390 0
-391 19 0
-391 139 0
-19 -139 391 0
-392 20 0
-392 140 0
-20 -140 392 0
-393 21 0
-393 141 0
-21 -141 393 0
-394 22 0
-394 142 0
-22 -142 394 0
-395 23 0
-395 143 0
-23 -143 395 0
-396 24 0
-396 144 0
-24 -144 396 0
-385 5351 0
-5351 5352 0
-386 -5351 0
-386 5352 0
-5352 5353 0
-387 -5352 0
-387 5353 0
-5353 5354 0
-388 -5353 0
-388 5354 0
-5354 5355 0
-389 -5354 0
-389 5355 0
-5355 5356 0
-390 -5355 0
-390 5356 0
-5356 5357 0
-391 -5356 0
-391 5357 0
-5357 5358 0
-392 -5357 0
-392 5358 0
-5358 5359 0
-393 -5358 0
-393 5359 0
-5359 5360 0
-394 -5359 0
-394 5360 0
-5360 5361 0
-395 -5360 0
-395 5361 0
-396 -5361 0
-385 957 0
-386 957 0
-387 957 0
-388 957 0
-389 957 0
-390 957 0
-391 957 0
-392 957 0
-393 957 0
-394 957 0
-395 957 0
-396 957 0
-957 385 386 387 388 389 390 391 392 393 394 395 396 0
-397 25 0
-397 37 0
-25 -37 397 0
-398 26 0
-398 38 0
-26 -38 398 0
-399 27 0
-399 39 0
-27 -39 399 0
-400 28 0
-400 40 0
-28 -40 400 0
-401 29 0
-401 41 0
-29 -41 401 0
-402 30 0
-402 42 0
-30 -42 402 0
-403 31 0
-403 43 0
-31 -43 403 0
-404 32 0
-404 44 0
-32 -44 404 0
-405 33 0
-405 45 0
-33 -45 405 0
-406 34 0
-406 46 0
-34 -46 406 0
-407 35 0
-407 47 0
-35 -47 407 0
-408 36 0
-408 48 0
-36 -48 408 0
-397 5362 0
-5362 5363 0
-398 -5362 0
-398 5363 0
-5363 5364 0
-399 -5363 0
-399 5364 0
-5364 5365 0
-400 -5364 0
-400 5365 0
-5365 5366 0
-401 -5365 0
-401 5366 0
-5366 5367 0
-402 -5366 0
-402 5367 0
-5367 5368 0
-403 -5367 0
-403 5368 0
-5368 5369 0
-404 -5368 0
-404 5369 0
-5369 5370 0
-405 -5369 0
-405 5370 0
-5370 5371 0
-406 -5370 0
-406 5371 0
-5371 5372 0
-407 -5371 0
-407 5372 0
-408 -5372 0
-397 958 0
-398 958 0
-399 958 0
-400 958 0
-401 958 0
-402 958 0
-403 958 0
-404 958 0
-405 958 0
-406 958 0
-407 958 0
-408 958 0
-958 397 398 399 400 401 402 403 404 405 406 407 408 0
-409 25 0
-409 49 0
-25 -49 409 0
-410 26 0
-410 50 0
-26 -50 410 0
-411 27 0
-411 51 0
-27 -51 411 0
-412 28 0
-412 52 0
-28 -52 412 0
-413 29 0
-413 53 0
-29 -53 413 0
-414 30 0
-414 54 0
-30 -54 414 0
-415 31 0
-415 55 0
-31 -55 415 0
-416 32 0
-416 56 0
-32 -56 416 0
-417 33 0
-417 57 0
-33 -57 417 0
-418 34 0
-418 58 0
-34 -58 418 0
-419 35 0
-419 59 0
-35 -59 419 0
-420 36 0
-420 60 0
-36 -60 420 0
-409 5373 0
-5373 5374 0
-410 -5373 0
-410 5374 0
-5374 5375 0
-411 -5374 0
-411 5375 0
-5375 5376 0
-412 -5375 0
-412 5376 0
-5376 5377 0
-413 -5376 0
-413 5377 0
-5377 5378 0
-414 -5377 0
-414 5378 0
-5378 5379 0
-415 -5378 0
-415 5379 0
-5379 5380 0
-416 -5379 0
-416 5380 0
-5380 5381 0
-417 -5380 0
-417 5381 0
-5381 5382 0
-418 -5381 0
-418 5382 0
-5382 5383 0
-419 -5382 0
-419 5383 0
-420 -5383 0
-409 959 0
-410 959 0
-411 959 0
-412 959 0
-413 959 0
-414 959 0
-415 959 0
-416 959 0
-417 959 0
-418 959 0
-419 959 0
-420 959 0
-959 409 410 411 412 413 414 415 416 417 418 419 420 0
-421 25 0
-421 61 0
-25 -61 421 0
-422 26 0
-422 62 0
-26 -62 422 0
-423 27 0
-423 63 0
-27 -63 423 0
-424 28 0
-424 64 0
-28 -64 424 0
-425 29 0
-425 65 0
-29 -65 425 0
-426 30 0
-426 66 0
-30 -66 426 0
-427 31 0
-427 67 0
-31 -67 427 0
-428 32 0
-428 68 0
-32 -68 428 0
-429 33 0
-429 69 0
-33 -69 429 0
-430 34 0
-430 70 0
-34 -70 430 0
-431 35 0
-431 71 0
-35 -71 431 0
-432 36 0
-432 72 0
-36 -72 432 0
-421 5384 0
-5384 5385 0
-422 -5384 0
-422 5385 0
-5385 5386 0
-423 -5385 0
-423 5386 0
-5386 5387 0
-424 -5386 0
-424 5387 0
-5387 5388 0
-425 -5387 0
-425 5388 0
-5388 5389 0
-426 -5388 0
-426 5389 0
-5389 5390 0
-427 -5389 0
-427 5390 0
-5390 5391 0
-428 -5390 0
-428 5391 0
-5391 5392 0
-429 -5391 0
-429 5392 0
-5392 5393 0
-430 -5392 0
-430 5393 0
-5393 5394 0
-431 -5393 0
-431 5394 0
-432 -5394 0
-421 960 0
-422 960 0
-423 960 0
-424 960 0
-425 960 0
-426 960 0
-427 960 0
-428 960 0
-429 960 0
-430 960 0
-431 960 0
-432 960 0
-960 421 422 423 424 425 426 427 428 429 430 431 432 0
-433 25 0
-433 73 0
-25 -73 433 0
-434 26 0
-434 74 0
-26 -74 434 0
-435 27 0
-435 75 0
-27 -75 435 0
-436 28 0
-436 76 0
-28 -76 436 0
-437 29 0
-437 77 0
-29 -77 437 0
-438 30 0
-438 78 0
-30 -78 438 0
-439 31 0
-439 79 0
-31 -79 439 0
-440 32 0
-440 80 0
-32 -80 440 0
-441 33 0
-441 81 0
-33 -81 441 0
-442 34 0
-442 82 0
-34 -82 442 0
-443 35 0
-443 83 0
-35 -83 443 0
-444 36 0
-444 84 0
-36 -84 444 0
-433 5395 0
-5395 5396 0
-434 -5395 0
-434 5396 0
-5396 5397 0
-435 -5396 0
-435 5397 0
-5397 5398 0
-436 -5397 0
-436 5398 0
-5398 5399 0
-437 -5398 0
-437 5399 0
-5399 5400 0
-438 -5399 0
-438 5400 0
-5400 5401 0
-439 -5400 0
-439 5401 0
-5401 5402 0
-440 -5401 0
-440 5402 0
-5402 5403 0
-441 -5402 0
-441 5403 0
-5403 5404 0
-442 -5403 0
-442 5404 0
-5404 5405 0
-443 -5404 0
-443 5405 0
-444 -5405 0
-433 961 0
-434 961 0
-435 961 0
-436 961 0
-437 961 0
-438 961 0
-439 961 0
-440 961 0
-441 961 0
-442 961 0
-443 961 0
-444 961 0
-961 433 434 435 436 437 438 439 440 441 442 443 444 0
-445 25 0
-445 85 0
-25 -85 445 0
-446 26 0
-446 86 0
-26 -86 446 0
-447 27 0
-447 87 0
-27 -87 447 0
-448 28 0
-448 88 0
-28 -88 448 0
-449 29 0
-449 89 0
-29 -89 449 0
-450 30 0
-450 90 0
-30 -90 450 0
-451 31 0
-451 91 0
-31 -91 451 0
-452 32 0
-452 92 0
-32 -92 452 0
-453 33 0
-453 93 0
-33 -93 453 0
-454 34 0
-454 94 0
-34 -94 454 0
-455 35 0
-455 95 0
-35 -95 455 0
-456 36 0
-456 96 0
-36 -96 456 0
-445 5406 0
-5406 5407 0
-446 -5406 0
-446 5407 0
-5407 5408 0
-447 -5407 0
-447 5408 0
-5408 5409 0
-448 -5408 0
-448 5409 0
-5409 5410 0
-449 -5409 0
-449 5410 0
-5410 5411 0
-450 -5410 0
-450 5411 0
-5411 5412 0
-451 -5411 0
-451 5412 0
-5412 5413 0
-452 -5412 0
-452 5413 0
-5413 5414 0
-453 -5413 0
-453 5414 0
-5414 5415 0
-454 -5414 0
-454 5415 0
-5415 5416 0
-455 -5415 0
-455 5416 0
-456 -5416 0
-445 962 0
-446 962 0
-447 962 0
-448 962 0
-449 962 0
-450 962 0
-451 962 0
-452 962 0
-453 962 0
-454 962 0
-455 962 0
-456 962 0
-962 445 446 447 448 449 450 451 452 453 454 455 456 0
-457 25 0
-457 97 0
-25 -97 457 0
-458 26 0
-458 98 0
-26 -98 458 0
-459 27 0
-459 99 0
-27 -99 459 0
-460 28 0
-460 100 0
-28 -100 460 0
-461 29 0
-461 101 0
-29 -101 461 0
-462 30 0
-462 102 0
-30 -102 462 0
-463 31 0
-463 103 0
-31 -103 463 0
-464 32 0
-464 104 0
-32 -104 464 0
-465 33 0
-465 105 0
-33 -105 465 0
-466 34 0
-466 106 0
-34 -106 466 0
-467 35 0
-467 107 0
-35 -107 467 0
-468 36 0
-468 108 0
-36 -108 468 0
-457 5417 0
-5417 5418 0
-458 -5417 0
-458 5418 0
-5418 5419 0
-459 -5418 0
-459 5419 0
-5419 5420 0
-460 -5419 0
-460 5420 0
-5420 5421 0
-461 -5420 0
-461 5421 0
-5421 5422 0
-462 -5421 0
-462 5422 0
-5422 5423 0
-463 -5422 0
-463 5423 0
-5423 5424 0
-464 -5423 0
-464 5424 0
-5424 5425 0
-465 -5424 0
-465 5425 0
-5425 5426 0
-466 -5425 0
-466 5426 0
-5426 5427 0
-467 -5426 0
-467 5427 0
-468 -5427 0
-457 963 0
-458 963 0
-459 963 0
-460 963 0
-461 963 0
-462 963 0
-463 963 0
-464 963 0
-465 963 0
-466 963 0
-467 963 0
-468 963 0
-963 457 458 459 460 461 462 463 464 465 466 467 468 0
-469 25 0
-469 109 0
-25 -109 469 0
-470 26 0
-470 110 0
-26 -110 470 0
-471 27 0
-471 111 0
-27 -111 471 0
-472 28 0
-472 112 0
-28 -112 472 0
-473 29 0
-473 113 0
-29 -113 473 0
-474 30 0
-474 114 0
-30 -114 474 0
-475 31 0
-475 115 0
-31 -115 475 0
-476 32 0
-476 116 0
-32 -116 476 0
-477 33 0
-477 117 0
-33 -117 477 0
-478 34 0
-478 118 0
-34 -118 478 0
-479 35 0
-479 119 0
-35 -119 479 0
-480 36 0
-480 120 0
-36 -120 480 0
-469 5428 0
-5428 5429 0
-470 -5428 0
-470 5429 0
-5429 5430 0
-471 -5429 0
-471 5430 0
-5430 5431 0
-472 -5430 0
-472 5431 0
-5431 5432 0
-473 -5431 0
-473 5432 0
-5432 5433 0
-474 -5432 0
-474 5433 0
-5433 5434 0
-475 -5433 0
-475 5434 0
-5434 5435 0
-476 -5434 0
-476 5435 0
-5435 5436 0
-477 -5435 0
-477 5436 0
-5436 5437 0
-478 -5436 0
-478 5437 0
-5437 5438 0
-479 -5437 0
-479 5438 0
-480 -5438 0
-469 964 0
-470 964 0
-471 964 0
-472 964 0
-473 964 0
-474 964 0
-475 964 0
-476 964 0
-477 964 0
-478 964 0
-479 964 0
-480 964 0
-964 469 470 471 472 473 474 475 476 477 478 479 480 0
-481 25 0
-481 121 0
-25 -121 481 0
-482 26 0
-482 122 0
-26 -122 482 0
-483 27 0
-483 123 0
-27 -123 483 0
-484 28 0
-484 124 0
-28 -124 484 0
-485 29 0
-485 125 0
-29 -125 485 0
-486 30 0
-486 126 0
-30 -126 486 0
-487 31 0
-487 127 0
-31 -127 487 0
-488 32 0
-488 128 0
-32 -128 488 0
-489 33 0
-489 129 0
-33 -129 489 0
-490 34 0
-490 130 0
-34 -130 490 0
-491 35 0
-491 131 0
-35 -131 491 0
-492 36 0
-492 132 0
-36 -132 492 0
-481 5439 0
-5439 5440 0
-482 -5439 0
-482 5440 0
-5440 5441 0
-483 -5440 0
-483 5441 0
-5441 5442 0
-484 -5441 0
-484 5442 0
-5442 5443 0
-485 -5442 0
-485 5443 0
-5443 5444 0
-486 -5443 0
-486 5444 0
-5444 5445 0
-487 -5444 0
-487 5445 0
-5445 5446 0
-488 -5445 0
-488 5446 0
-5446 5447 0
-489 -5446 0
-489 5447 0
-5447 5448 0
-490 -5447 0
-490 5448 0
-5448 5449 0
-491 -5448 0
-491 5449 0
-492 -5449 0
-481 965 0
-482 965 0
-483 965 0
-484 965 0
-485 965 0
-486 965 0
-487 965 0
-488 965 0
-489 965 0
-490 965 0
-491 965 0
-492 965 0
-965 481 482 483 484 485 486 487 488 489 490 491 492 0
-493 25 0
-493 133 0
-25 -133 493 0
-494 26 0
-494 134 0
-26 -134 494 0
-495 27 0
-495 135 0
-27 -135 495 0
-496 28 0
-496 136 0
-28 -136 496 0
-497 29 0
-497 137 0
-29 -137 497 0
-498 30 0
-498 138 0
-30 -138 498 0
-499 31 0
-499 139 0
-31 -139 499 0
-500 32 0
-500 140 0
-32 -140 500 0
-501 33 0
-501 141 0
-33 -141 501 0
-502 34 0
-502 142 0
-34 -142 502 0
-503 35 0
-503 143 0
-35 -143 503 0
-504 36 0
-504 144 0
-36 -144 504 0
-493 5450 0
-5450 5451 0
-494 -5450 0
-494 5451 0
-5451 5452 0
-495 -5451 0
-495 5452 0
-5452 5453 0
-496 -5452 0
-496 5453 0
-5453 5454 0
-497 -5453 0
-497 5454 0
-5454 5455 0
-498 -5454 0
-498 5455 0
-5455 5456 0
-499 -5455 0
-499 5456 0
-5456 5457 0
-500 -5456 0
-500 5457 0
-5457 5458 0
-501 -5457 0
-501 5458 0
-5458 5459 0
-502 -5458 0
-502 5459 0
-5459 5460 0
-503 -5459 0
-503 5460 0
-504 -5460 0
-493 966 0
-494 966 0
-495 966 0
-496 966 0
-497 966 0
-498 966 0
-499 966 0
-500 966 0
-501 966 0
-502 966 0
-503 966 0
-504 966 0
-966 493 494 495 496 497 498 499 500 501 502 503 504 0
-505 37 0
-505 49 0
-37 -49 505 0
-506 38 0
-506 50 0
-38 -50 506 0
-507 39 0
-507 51 0
-39 -51 507 0
-508 40 0
-508 52 0
-40 -52 508 0
-509 41 0
-509 53 0
-41 -53 509 0
-510 42 0
-510 54 0
-42 -54 510 0
-511 43 0
-511 55 0
-43 -55 511 0
-512 44 0
-512 56 0
-44 -56 512 0
-513 45 0
-513 57 0
-45 -57 513 0
-514 46 0
-514 58 0
-46 -58 514 0
-515 47 0
-515 59 0
-47 -59 515 0
-516 48 0
-516 60 0
-48 -60 516 0
-505 5461 0
-5461 5462 0
-506 -5461 0
-506 5462 0
-5462 5463 0
-507 -5462 0
-507 5463 0
-5463 5464 0
-508 -5463 0
-508 5464 0
-5464 5465 0
-509 -5464 0
-509 5465 0
-5465 5466 0
-510 -5465 0
-510 5466 0
-5466 5467 0
-511 -5466 0
-511 5467 0
-5467 5468 0
-512 -5467 0
-512 5468 0
-5468 5469 0
-513 -5468 0
-513 5469 0
-5469 5470 0
-514 -5469 0
-514 5470 0
-5470 5471 0
-515 -5470 0
-515 5471 0
-516 -5471 0
-505 967 0
-506 967 0
-507 967 0
-508 967 0
-509 967 0
-510 967 0
-511 967 0
-512 967 0
-513 967 0
-514 967 0
-515 967 0
-516 967 0
-967 505 506 507 508 509 510 511 512 513 514 515 516 0
-517 37 0
-517 61 0
-37 -61 517 0
-518 38 0
-518 62 0
-38 -62 518 0
-519 39 0
-519 63 0
-39 -63 519 0
-520 40 0
-520 64 0
-40 -64 520 0
-521 41 0
-521 65 0
-41 -65 521 0
-522 42 0
-522 66 0
-42 -66 522 0
-523 43 0
-523 67 0
-43 -67 523 0
-524 44 0
-524 68 0
-44 -68 524 0
-525 45 0
-525 69 0
-45 -69 525 0
-526 46 0
-526 70 0
-46 -70 526 0
-527 47 0
-527 71 0
-47 -71 527 0
-528 48 0
-528 72 0
-48 -72 528 0
-517 5472 0
-5472 5473 0
-518 -5472 0
-518 5473 0
-5473 5474 0
-519 -5473 0
-519 5474 0
-5474 5475 0
-520 -5474 0
-520 5475 0
-5475 5476 0
-521 -5475 0
-521 5476 0
-5476 5477 0
-522 -5476 0
-522 5477 0
-5477 5478 0
-523 -5477 0
-523 5478 0
-5478 5479 0
-524 -5478 0
-524 5479 0
-5479 5480 0
-525 -5479 0
-525 5480 0
-5480 5481 0
-526 -5480 0
-526 5481 0
-5481 5482 0
-527 -5481 0
-527 5482 0
-528 -5482 0
-517 968 0
-518 968 0
-519 968 0
-520 968 0
-521 968 0
-522 968 0
-523 968 0
-524 968 0
-525 968 0
-526 968 0
-527 968 0
-528 968 0
-968 517 518 519 520 521 522 523 524 525 526 527 528 0
-529 37 0
-529 73 0
-37 -73 529 0
-530 38 0
-530 74 0
-38 -74 530 0
-531 39 0
-531 75 0
-39 -75 531 0
-532 40 0
-532 76 0
-40 -76 532 0
-533 41 0
-533 77 0
-41 -77 533 0
-534 42 0
-534 78 0
-42 -78 534 0
-535 43 0
-535 79 0
-43 -79 535 0
-536 44 0
-536 80 0
-44 -80 536 0
-537 45 0
-537 81 0
-45 -81 537 0
-538 46 0
-538 82 0
-46 -82 538 0
-539 47 0
-539 83 0
-47 -83 539 0
-540 48 0
-540 84 0
-48 -84 540 0
-529 5483 0
-5483 5484 0
-530 -5483 0
-530 5484 0
-5484 5485 0
-531 -5484 0
-531 5485 0
-5485 5486 0
-532 -5485 0
-532 5486 0
-5486 5487 0
-533 -5486 0
-533 5487 0
-5487 5488 0
-534 -5487 0
-534 5488 0
-5488 5489 0
-535 -5488 0
-535 5489 0
-5489 5490 0
-536 -5489 0
-536 5490 0
-5490 5491 0
-537 -5490 0
-537 5491 0
-5491 5492 0
-538 -5491 0
-538 5492 0
-5492 5493 0
-539 -5492 0
-539 5493 0
-540 -5493 0
-529 969 0
-530 969 0
-531 969 0
-532 969 0
-533 969 0
-534 969 0
-535 969 0
-536 969 0
-537 969 0
-538 969 0
-539 969 0
-540 969 0
-969 529 530 531 532 533 534 535 536 537 538 539 540 0
-541 37 0
-541 85 0
-37 -85 541 0
-542 38 0
-542 86 0
-38 -86 542 0
-543 39 0
-543 87 0
-39 -87 543 0
-544 40 0
-544 88 0
-40 -88 544 0
-545 41 0
-545 89 0
-41 -89 545 0
-546 42 0
-546 90 0
-42 -90 546 0
-547 43 0
-547 91 0
-43 -91 547 0
-548 44 0
-548 92 0
-44 -92 548 0
-549 45 0
-549 93 0
-45 -93 549 0
-550 46 0
-550 94 0
-46 -94 550 0
-551 47 0
-551 95 0
-47 -95 551 0
-552 48 0
-552 96 0
-48 -96 552 0
-541 5494 0
-5494 5495 0
-542 -5494 0
-542 5495 0
-5495 5496 0
-543 -5495 0
-543 5496 0
-5496 5497 0
-544 -5496 0
-544 5497 0
-5497 5498 0
-545 -5497 0
-545 5498 0
-5498 5499 0
-546 -5498 0
-546 5499 0
-5499 5500 0
-547 -5499 0
-547 5500 0
-5500 5501 0
-548 -5500 0
-548 5501 0
-5501 5502 0
-549 -5501 0
-549 5502 0
-5502 5503 0
-550 -5502 0
-550 5503 0
-5503 5504 0
-551 -5503 0
-551 5504 0
-552 -5504 0
-541 970 0
-542 970 0
-543 970 0
-544 970 0
-545 970 0
-546 970 0
-547 970 0
-548 970 0
-549 970 0
-550 970 0
-551 970 0
-552 970 0
-970 541 542 543 544 545 546 547 548 549 550 551 552 0
-553 37 0
-553 97 0
-37 -97 553 0
-554 38 0
-554 98 0
-38 -98 554 0
-555 39 0
-555 99 0
-39 -99 555 0
-556 40 0
-556 100 0
-40 -100 556 0
-557 41 0
-557 101 0
-41 -101 557 0
-558 42 0
-558 102 0
-42 -102 558 0
-559 43 0
-559 103 0
-43 -103 559 0
-560 44 0
-560 104 0
-44 -104 560 0
-561 45 0
-561 105 0
-45 -105 561 0
-562 46 0
-562 106 0
-46 -106 562 0
-563 47 0
-563 107 0
-47 -107 563 0
-564 48 0
-564 108 0
-48 -108 564 0
-553 5505 0
-5505 5506 0
-554 -5505 0
-554 5506 0
-5506 5507 0
-555 -5506 0
-555 5507 0
-5507 5508 0
-556 -5507 0
-556 5508 0
-5508 5509 0
-557 -5508 0
-557 5509 0
-5509 5510 0
-558 -5509 0
-558 5510 0
-5510 5511 0
-559 -5510 0
-559 5511 0
-5511 5512 0
-560 -5511 0
-560 5512 0
-5512 5513 0
-561 -5512 0
-561 5513 0
-5513 5514 0
-562 -5513 0
-562 5514 0
-5514 5515 0
-563 -5514 0
-563 5515 0
-564 -5515 0
-553 971 0
-554 971 0
-555 971 0
-556 971 0
-557 971 0
-558 971 0
-559 971 0
-560 971 0
-561 971 0
-562 971 0
-563 971 0
-564 971 0
-971 553 554 555 556 557 558 559 560 561 562 563 564 0
-565 37 0
-565 109 0
-37 -109 565 0
-566 38 0
-566 110 0
-38 -110 566 0
-567 39 0
-567 111 0
-39 -111 567 0
-568 40 0
-568 112 0
-40 -112 568 0
-569 41 0
-569 113 0
-41 -113 569 0
-570 42 0
-570 114 0
-42 -114 570 0
-571 43 0
-571 115 0
-43 -115 571 0
-572 44 0
-572 116 0
-44 -116 572 0
-573 45 0
-573 117 0
-45 -117 573 0
-574 46 0
-574 118 0
-46 -118 574 0
-575 47 0
-575 119 0
-47 -119 575 0
-576 48 0
-576 120 0
-48 -120 576 0
-565 5516 0
-5516 5517 0
-566 -5516 0
-566 5517 0
-5517 5518 0
-567 -5517 0
-567 5518 0
-5518 5519 0
-568 -5518 0
-568 5519 0
-5519 5520 0
-569 -5519 0
-569 5520 0
-5520 5521 0
-570 -5520 0
-570 5521 0
-5521 5522 0
-571 -5521 0
-571 5522 0
-5522 5523 0
-572 -5522 0
-572 5523 0
-5523 5524 0
-573 -5523 0
-573 5524 0
-5524 5525 0
-574 -5524 0
-574 5525 0
-5525 5526 0
-575 -5525 0
-575 5526 0
-576 -5526 0
-565 972 0
-566 972 0
-567 972 0
-568 972 0
-569 972 0
-570 972 0
-571 972 0
-572 972 0
-573 972 0
-574 972 0
-575 972 0
-576 972 0
-972 565 566 567 568 569 570 571 572 573 574 575 576 0
-577 37 0
-577 121 0
-37 -121 577 0
-578 38 0
-578 122 0
-38 -122 578 0
-579 39 0
-579 123 0
-39 -123 579 0
-580 40 0
-580 124 0
-40 -124 580 0
-581 41 0
-581 125 0
-41 -125 581 0
-582 42 0
-582 126 0
-42 -126 582 0
-583 43 0
-583 127 0
-43 -127 583 0
-584 44 0
-584 128 0
-44 -128 584 0
-585 45 0
-585 129 0
-45 -129 585 0
-586 46 0
-586 130 0
-46 -130 586 0
-587 47 0
-587 131 0
-47 -131 587 0
-588 48 0
-588 132 0
-48 -132 588 0
-577 5527 0
-5527 5528 0
-578 -5527 0
-578 5528 0
-5528 5529 0
-579 -5528 0
-579 5529 0
-5529 5530 0
-580 -5529 0
-580 5530 0
-5530 5531 0
-581 -5530 0
-581 5531 0
-5531 5532 0
-582 -5531 0
-582 5532 0
-5532 5533 0
-583 -5532 0
-583 5533 0
-5533 5534 0
-584 -5533 0
-584 5534 0
-5534 5535 0
-585 -5534 0
-585 5535 0
-5535 5536 0
-586 -5535 0
-586 5536 0
-5536 5537 0
-587 -5536 0
-587 5537 0
-588 -5537 0
-577 973 0
-578 973 0
-579 973 0
-580 973 0
-581 973 0
-582 973 0
-583 973 0
-584 973 0
-585 973 0
-586 973 0
-587 973 0
-588 973 0
-973 577 578 579 580 581 582 583 584 585 586 587 588 0
-589 37 0
-589 133 0
-37 -133 589 0
-590 38 0
-590 134 0
-38 -134 590 0
-591 39 0
-591 135 0
-39 -135 591 0
-592 40 0
-592 136 0
-40 -136 592 0
-593 41 0
-593 137 0
-41 -137 593 0
-594 42 0
-594 138 0
-42 -138 594 0
-595 43 0
-595 139 0
-43 -139 595 0
-596 44 0
-596 140 0
-44 -140 596 0
-597 45 0
-597 141 0
-45 -141 597 0
-598 46 0
-598 142 0
-46 -142 598 0
-599 47 0
-599 143 0
-47 -143 599 0
-600 48 0
-600 144 0
-48 -144 600 0
-589 5538 0
-5538 5539 0
-590 -5538 0
-590 5539 0
-5539 5540 0
-591 -5539 0
-591 5540 0
-5540 5541 0
-592 -5540 0
-592 5541 0
-5541 5542 0
-593 -5541 0
-593 5542 0
-5542 5543 0
-594 -5542 0
-594 5543 0
-5543 5544 0
-595 -5543 0
-595 5544 0
-5544 5545 0
-596 -5544 0
-596 5545 0
-5545 5546 0
-597 -5545 0
-597 5546 0
-5546 5547 0
-598 -5546 0
-598 5547 0
-5547 5548 0
-599 -5547 0
-599 5548 0
-600 -5548 0
-589 974 0
-590 974 0
-591 974 0
-592 974 0
-593 974 0
-594 974 0
-595 974 0
-596 974 0
-597 974 0
-598 974 0
-599 974 0
-600 974 0
-974 589 590 591 592 593 594 595 596 597 598 599 600 0
-601 49 0
-601 61 0
-49 -61 601 0
-602 50 0
-602 62 0
-50 -62 602 0
-603 51 0
-603 63 0
-51 -63 603 0
-604 52 0
-604 64 0
-52 -64 604 0
-605 53 0
-605 65 0
-53 -65 605 0
-606 54 0
-606 66 0
-54 -66 606 0
-607 55 0
-607 67 0
-55 -67 607 0
-608 56 0
-608 68 0
-56 -68 608 0
-609 57 0
-609 69 0
-57 -69 609 0
-610 58 0
-610 70 0
-58 -70 610 0
-611 59 0
-611 71 0
-59 -71 611 0
-612 60 0
-612 72 0
-60 -72 612 0
-601 5549 0
-5549 5550 0
-602 -5549 0
-602 5550 0
-5550 5551 0
-603 -5550 0
-603 5551 0
-5551 5552 0
-604 -5551 0
-604 5552 0
-5552 5553 0
-605 -5552 0
-605 5553 0
-5553 5554 0
-606 -5553 0
-606 5554 0
-5554 5555 0
-607 -5554 0
-607 5555 0
-5555 5556 0
-608 -5555 0
-608 5556 0
-5556 5557 0
-609 -5556 0
-609 5557 0
-5557 5558 0
-610 -5557 0
-610 5558 0
-5558 5559 0
-611 -5558 0
-611 5559 0
-612 -5559 0
-601 975 0
-602 975 0
-603 975 0
-604 975 0
-605 975 0
-606 975 0
-607 975 0
-608 975 0
-609 975 0
-610 975 0
-611 975 0
-612 975 0
-975 601 602 603 604 605 606 607 608 609 610 611 612 0
-613 49 0
-613 73 0
-49 -73 613 0
-614 50 0
-614 74 0
-50 -74 614 0
-615 51 0
-615 75 0
-51 -75 615 0
-616 52 0
-616 76 0
-52 -76 616 0
-617 53 0
-617 77 0
-53 -77 617 0
-618 54 0
-618 78 0
-54 -78 618 0
-619 55 0
-619 79 0
-55 -79 619 0
-620 56 0
-620 80 0
-56 -80 620 0
-621 57 0
-621 81 0
-57 -81 621 0
-622 58 0
-622 82 0
-58 -82 622 0
-623 59 0
-623 83 0
-59 -83 623 0
-624 60 0
-624 84 0
-60 -84 624 0
-613 5560 0
-5560 5561 0
-614 -5560 0
-614 5561 0
-5561 5562 0
-615 -5561 0
-615 5562 0
-5562 5563 0
-616 -5562 0
-616 5563 0
-5563 5564 0
-617 -5563 0
-617 5564 0
-5564 5565 0
-618 -5564 0
-618 5565 0
-5565 5566 0
-619 -5565 0
-619 5566 0
-5566 5567 0
-620 -5566 0
-620 5567 0
-5567 5568 0
-621 -5567 0
-621 5568 0
-5568 5569 0
-622 -5568 0
-622 5569 0
-5569 5570 0
-623 -5569 0
-623 5570 0
-624 -5570 0
-613 976 0
-614 976 0
-615 976 0
-616 976 0
-617 976 0
-618 976 0
-619 976 0
-620 976 0
-621 976 0
-622 976 0
-623 976 0
-624 976 0
-976 613 614 615 616 617 618 619 620 621 622 623 624 0
-625 49 0
-625 85 0
-49 -85 625 0
-626 50 0
-626 86 0
-50 -86 626 0
-627 51 0
-627 87 0
-51 -87 627 0
-628 52 0
-628 88 0
-52 -88 628 0
-629 53 0
-629 89 0
-53 -89 629 0
-630 54 0
-630 90 0
-54 -90 630 0
-631 55 0
-631 91 0
-55 -91 631 0
-632 56 0
-632 92 0
-56 -92 632 0
-633 57 0
-633 93 0
-57 -93 633 0
-634 58 0
-634 94 0
-58 -94 634 0
-635 59 0
-635 95 0
-59 -95 635 0
-636 60 0
-636 96 0
-60 -96 636 0
-625 5571 0
-5571 5572 0
-626 -5571 0
-626 5572 0
-5572 5573 0
-627 -5572 0
-627 5573 0
-5573 5574 0
-628 -5573 0
-628 5574 0
-5574 5575 0
-629 -5574 0
-629 5575 0
-5575 5576 0
-630 -5575 0
-630 5576 0
-5576 5577 0
-631 -5576 0
-631 5577 0
-5577 5578 0
-632 -5577 0
-632 5578 0
-5578 5579 0
-633 -5578 0
-633 5579 0
-5579 5580 0
-634 -5579 0
-634 5580 0
-5580 5581 0
-635 -5580 0
-635 5581 0
-636 -5581 0
-625 977 0
-626 977 0
-627 977 0
-628 977 0
-629 977 0
-630 977 0
-631 977 0
-632 977 0
-633 977 0
-634 977 0
-635 977 0
-636 977 0
-977 625 626 627 628 629 630 631 632 633 634 635 636 0
-637 49 0
-637 97 0
-49 -97 637 0
-638 50 0
-638 98 0
-50 -98 638 0
-639 51 0
-639 99 0
-51 -99 639 0
-640 52 0
-640 100 0
-52 -100 640 0
-641 53 0
-641 101 0
-53 -101 641 0
-642 54 0
-642 102 0
-54 -102 642 0
-643 55 0
-643 103 0
-55 -103 643 0
-644 56 0
-644 104 0
-56 -104 644 0
-645 57 0
-645 105 0
-57 -105 645 0
-646 58 0
-646 106 0
-58 -106 646 0
-647 59 0
-647 107 0
-59 -107 647 0
-648 60 0
-648 108 0
-60 -108 648 0
-637 5582 0
-5582 5583 0
-638 -5582 0
-638 5583 0
-5583 5584 0
-639 -5583 0
-639 5584 0
-5584 5585 0
-640 -5584 0
-640 5585 0
-5585 5586 0
-641 -5585 0
-641 5586 0
-5586 5587 0
-642 -5586 0
-642 5587 0
-5587 5588 0
-643 -5587 0
-643 5588 0
-5588 5589 0
-644 -5588 0
-644 5589 0
-5589 5590 0
-645 -5589 0
-645 5590 0
-5590 5591 0
-646 -5590 0
-646 5591 0
-5591 5592 0
-647 -5591 0
-647 5592 0
-648 -5592 0
-637 978 0
-638 978 0
-639 978 0
-640 978 0
-641 978 0
-642 978 0
-643 978 0
-644 978 0
-645 978 0
-646 978 0
-647 978 0
-648 978 0
-978 637 638 639 640 641 642 643 644 645 646 647 648 0
-649 49 0
-649 109 0
-49 -109 649 0
-650 50 0
-650 110 0
-50 -110 650 0
-651 51 0
-651 111 0
-51 -111 651 0
-652 52 0
-652 112 0
-52 -112 652 0
-653 53 0
-653 113 0
-53 -113 653 0
-654 54 0
-654 114 0
-54 -114 654 0
-655 55 0
-655 115 0
-55 -115 655 0
-656 56 0
-656 116 0
-56 -116 656 0
-657 57 0
-657 117 0
-57 -117 657 0
-658 58 0
-658 118 0
-58 -118 658 0
-659 59 0
-659 119 0
-59 -119 659 0
-660 60 0
-660 120 0
-60 -120 660 0
-649 5593 0
-5593 5594 0
-650 -5593 0
-650 5594 0
-5594 5595 0
-651 -5594 0
-651 5595 0
-5595 5596 0
-652 -5595 0
-652 5596 0
-5596 5597 0
-653 -5596 0
-653 5597 0
-5597 5598 0
-654 -5597 0
-654 5598 0
-5598 5599 0
-655 -5598 0
-655 5599 0
-5599 5600 0
-656 -5599 0
-656 5600 0
-5600 5601 0
-657 -5600 0
-657 5601 0
-5601 5602 0
-658 -5601 0
-658 5602 0
-5602 5603 0
-659 -5602 0
-659 5603 0
-660 -5603 0
-649 979 0
-650 979 0
-651 979 0
-652 979 0
-653 979 0
-654 979 0
-655 979 0
-656 979 0
-657 979 0
-658 979 0
-659 979 0
-660 979 0
-979 649 650 651 652 653 654 655 656 657 658 659 660 0
-661 49 0
-661 121 0
-49 -121 661 0
-662 50 0
-662 122 0
-50 -122 662 0
-663 51 0
-663 123 0
-51 -123 663 0
-664 52 0
-664 124 0
-52 -124 664 0
-665 53 0
-665 125 0
-53 -125 665 0
-666 54 0
-666 126 0
-54 -126 666 0
-667 55 0
-667 127 0
-55 -127 667 0
-668 56 0
-668 128 0
-56 -128 668 0
-669 57 0
-669 129 0
-57 -129 669 0
-670 58 0
-670 130 0
-58 -130 670 0
-671 59 0
-671 131 0
-59 -131 671 0
-672 60 0
-672 132 0
-60 -132 672 0
-661 5604 0
-5604 5605 0
-662 -5604 0
-662 5605 0
-5605 5606 0
-663 -5605 0
-663 5606 0
-5606 5607 0
-664 -5606 0
-664 5607 0
-5607 5608 0
-665 -5607 0
-665 5608 0
-5608 5609 0
-666 -5608 0
-666 5609 0
-5609 5610 0
-667 -5609 0
-667 5610 0
-5610 5611 0
-668 -5610 0
-668 5611 0
-5611 5612 0
-669 -5611 0
-669 5612 0
-5612 5613 0
-670 -5612 0
-670 5613 0
-5613 5614 0
-671 -5613 0
-671 5614 0
-672 -5614 0
-661 980 0
-662 980 0
-663 980 0
-664 980 0
-665 980 0
-666 980 0
-667 980 0
-668 980 0
-669 980 0
-670 980 0
-671 980 0
-672 980 0
-980 661 662 663 664 665 666 667 668 669 670 671 672 0
-673 49 0
-673 133 0
-49 -133 673 0
-674 50 0
-674 134 0
-50 -134 674 0
-675 51 0
-675 135 0
-51 -135 675 0
-676 52 0
-676 136 0
-52 -136 676 0
-677 53 0
-677 137 0
-53 -137 677 0
-678 54 0
-678 138 0
-54 -138 678 0
-679 55 0
-679 139 0
-55 -139 679 0
-680 56 0
-680 140 0
-56 -140 680 0
-681 57 0
-681 141 0
-57 -141 681 0
-682 58 0
-682 142 0
-58 -142 682 0
-683 59 0
-683 143 0
-59 -143 683 0
-684 60 0
-684 144 0
-60 -144 684 0
-673 5615 0
-5615 5616 0
-674 -5615 0
-674 5616 0
-5616 5617 0
-675 -5616 0
-675 5617 0
-5617 5618 0
-676 -5617 0
-676 5618 0
-5618 5619 0
-677 -5618 0
-677 5619 0
-5619 5620 0
-678 -5619 0
-678 5620 0
-5620 5621 0
-679 -5620 0
-679 5621 0
-5621 5622 0
-680 -5621 0
-680 5622 0
-5622 5623 0
-681 -5622 0
-681 5623 0
-5623 5624 0
-682 -5623 0
-682 5624 0
-5624 5625 0
-683 -5624 0
-683 5625 0
-684 -5625 0
-673 981 0
-674 981 0
-675 981 0
-676 981 0
-677 981 0
-678 981 0
-679 981 0
-680 981 0
-681 981 0
-682 981 0
-683 981 0
-684 981 0
-981 673 674 675 676 677 678 679 680 681 682 683 684 0
-685 61 0
-685 73 0
-61 -73 685 0
-686 62 0
-686 74 0
-62 -74 686 0
-687 63 0
-687 75 0
-63 -75 687 0
-688 64 0
-688 76 0
-64 -76 688 0
-689 65 0
-689 77 0
-65 -77 689 0
-690 66 0
-690 78 0
-66 -78 690 0
-691 67 0
-691 79 0
-67 -79 691 0
-692 68 0
-692 80 0
-68 -80 692 0
-693 69 0
-693 81 0
-69 -81 693 0
-694 70 0
-694 82 0
-70 -82 694 0
-695 71 0
-695 83 0
-71 -83 695 0
-696 72 0
-696 84 0
-72 -84 696 0
-685 5626 0
-5626 5627 0
-686 -5626 0
-686 5627 0
-5627 5628 0
-687 -5627 0
-687 5628 0
-5628 5629 0
-688 -5628 0
-688 5629 0
-5629 5630 0
-689 -5629 0
-689 5630 0
-5630 5631 0
-690 -5630 0
-690 5631 0
-5631 5632 0
-691 -5631 0
-691 5632 0
-5632 5633 0
-692 -5632 0
-692 5633 0
-5633 5634 0
-693 -5633 0
-693 5634 0
-5634 5635 0
-694 -5634 0
-694 5635 0
-5635 5636 0
-695 -5635 0
-695 5636 0
-696 -5636 0
-685 982 0
-686 982 0
-687 982 0
-688 982 0
-689 982 0
-690 982 0
-691 982 0
-692 982 0
-693 982 0
-694 982 0
-695 982 0
-696 982 0
-982 685 686 687 688 689 690 691 692 693 694 695 696 0
-697 61 0
-697 85 0
-61 -85 697 0
-698 62 0
-698 86 0
-62 -86 698 0
-699 63 0
-699 87 0
-63 -87 699 0
-700 64 0
-700 88 0
-64 -88 700 0
-701 65 0
-701 89 0
-65 -89 701 0
-702 66 0
-702 90 0
-66 -90 702 0
-703 67 0
-703 91 0
-67 -91 703 0
-704 68 0
-704 92 0
-68 -92 704 0
-705 69 0
-705 93 0
-69 -93 705 0
-706 70 0
-706 94 0
-70 -94 706 0
-707 71 0
-707 95 0
-71 -95 707 0
-708 72 0
-708 96 0
-72 -96 708 0
-697 5637 0
-5637 5638 0
-698 -5637 0
-698 5638 0
-5638 5639 0
-699 -5638 0
-699 5639 0
-5639 5640 0
-700 -5639 0
-700 5640 0
-5640 5641 0
-701 -5640 0
-701 5641 0
-5641 5642 0
-702 -5641 0
-702 5642 0
-5642 5643 0
-703 -5642 0
-703 5643 0
-5643 5644 0
-704 -5643 0
-704 5644 0
-5644 5645 0
-705 -5644 0
-705 5645 0
-5645 5646 0
-706 -5645 0
-706 5646 0
-5646 5647 0
-707 -5646 0
-707 5647 0
-708 -5647 0
-697 983 0
-698 983 0
-699 983 0
-700 983 0
-701 983 0
-702 983 0
-703 983 0
-704 983 0
-705 983 0
-706 983 0
-707 983 0
-708 983 0
-983 697 698 699 700 701 702 703 704 705 706 707 708 0
-709 61 0
-709 97 0
-61 -97 709 0
-710 62 0
-710 98 0
-62 -98 710 0
-711 63 0
-711 99 0
-63 -99 711 0
-712 64 0
-712 100 0
-64 -100 712 0
-713 65 0
-713 101 0
-65 -101 713 0
-714 66 0
-714 102 0
-66 -102 714 0
-715 67 0
-715 103 0
-67 -103 715 0
-716 68 0
-716 104 0
-68 -104 716 0
-717 69 0
-717 105 0
-69 -105 717 0
-718 70 0
-718 106 0
-70 -106 718 0
-719 71 0
-719 107 0
-71 -107 719 0
-720 72 0
-720 108 0
-72 -108 720 0
-709 5648 0
-5648 5649 0
-710 -5648 0
-710 5649 0
-5649 5650 0
-711 -5649 0
-711 5650 0
-5650 5651 0
-712 -5650 0
-712 5651 0
-5651 5652 0
-713 -5651 0
-713 5652 0
-5652 5653 0
-714 -5652 0
-714 5653 0
-5653 5654 0
-715 -5653 0
-715 5654 0
-5654 5655 0
-716 -5654 0
-716 5655 0
-5655 5656 0
-717 -5655 0
-717 5656 0
-5656 5657 0
-718 -5656 0
-718 5657 0
-5657 5658 0
-719 -5657 0
-719 5658 0
-720 -5658 0
-709 984 0
-710 984 0
-711 984 0
-712 984 0
-713 984 0
-714 984 0
-715 984 0
-716 984 0
-717 984 0
-718 984 0
-719 984 0
-720 984 0
-984 709 710 711 712 713 714 715 716 717 718 719 720 0
-721 61 0
-721 109 0
-61 -109 721 0
-722 62 0
-722 110 0
-62 -110 722 0
-723 63 0
-723 111 0
-63 -111 723 0
-724 64 0
-724 112 0
-64 -112 724 0
-725 65 0
-725 113 0
-65 -113 725 0
-726 66 0
-726 114 0
-66 -114 726 0
-727 67 0
-727 115 0
-67 -115 727 0
-728 68 0
-728 116 0
-68 -116 728 0
-729 69 0
-729 117 0
-69 -117 729 0
-730 70 0
-730 118 0
-70 -118 730 0
-731 71 0
-731 119 0
-71 -119 731 0
-732 72 0
-732 120 0
-72 -120 732 0
-721 5659 0
-5659 5660 0
-722 -5659 0
-722 5660 0
-5660 5661 0
-723 -5660 0
-723 5661 0
-5661 5662 0
-724 -5661 0
-724 5662 0
-5662 5663 0
-725 -5662 0
-725 5663 0
-5663 5664 0
-726 -5663 0
-726 5664 0
-5664 5665 0
-727 -5664 0
-727 5665 0
-5665 5666 0
-728 -5665 0
-728 5666 0
-5666 5667 0
-729 -5666 0
-729 5667 0
-5667 5668 0
-730 -5667 0
-730 5668 0
-5668 5669 0
-731 -5668 0
-731 5669 0
-732 -5669 0
-721 985 0
-722 985 0
-723 985 0
-724 985 0
-725 985 0
-726 985 0
-727 985 0
-728 985 0
-729 985 0
-730 985 0
-731 985 0
-732 985 0
-985 721 722 723 724 725 726 727 728 729 730 731 732 0
-733 61 0
-733 121 0
-61 -121 733 0
-734 62 0
-734 122 0
-62 -122 734 0
-735 63 0
-735 123 0
-63 -123 735 0
-736 64 0
-736 124 0
-64 -124 736 0
-737 65 0
-737 125 0
-65 -125 737 0
-738 66 0
-738 126 0
-66 -126 738 0
-739 67 0
-739 127 0
-67 -127 739 0
-740 68 0
-740 128 0
-68 -128 740 0
-741 69 0
-741 129 0
-69 -129 741 0
-742 70 0
-742 130 0
-70 -130 742 0
-743 71 0
-743 131 0
-71 -131 743 0
-744 72 0
-744 132 0
-72 -132 744 0
-733 5670 0
-5670 5671 0
-734 -5670 0
-734 5671 0
-5671 5672 0
-735 -5671 0
-735 5672 0
-5672 5673 0
-736 -5672 0
-736 5673 0
-5673 5674 0
-737 -5673 0
-737 5674 0
-5674 5675 0
-738 -5674 0
-738 5675 0
-5675 5676 0
-739 -5675 0
-739 5676 0
-5676 5677 0
-740 -5676 0
-740 5677 0
-5677 5678 0
-741 -5677 0
-741 5678 0
-5678 5679 0
-742 -5678 0
-742 5679 0
-5679 5680 0
-743 -5679 0
-743 5680 0
-744 -5680 0
-733 986 0
-734 986 0
-735 986 0
-736 986 0
-737 986 0
-738 986 0
-739 986 0
-740 986 0
-741 986 0
-742 986 0
-743 986 0
-744 986 0
-986 733 734 735 736 737 738 739 740 741 742 743 744 0
-745 61 0
-745 133 0
-61 -133 745 0
-746 62 0
-746 134 0
-62 -134 746 0
-747 63 0
-747 135 0
-63 -135 747 0
-748 64 0
-748 136 0
-64 -136 748 0
-749 65 0
-749 137 0
-65 -137 749 0
-750 66 0
-750 138 0
-66 -138 750 0
-751 67 0
-751 139 0
-67 -139 751 0
-752 68 0
-752 140 0
-68 -140 752 0
-753 69 0
-753 141 0
-69 -141 753 0
-754 70 0
-754 142 0
-70 -142 754 0
-755 71 0
-755 143 0
-71 -143 755 0
-756 72 0
-756 144 0
-72 -144 756 0
-745 5681 0
-5681 5682 0
-746 -5681 0
-746 5682 0
-5682 5683 0
-747 -5682 0
-747 5683 0
-5683 5684 0
-748 -5683 0
-748 5684 0
-5684 5685 0
-749 -5684 0
-749 5685 0
-5685 5686 0
-750 -5685 0
-750 5686 0
-5686 5687 0
-751 -5686 0
-751 5687 0
-5687 5688 0
-752 -5687 0
-752 5688 0
-5688 5689 0
-753 -5688 0
-753 5689 0
-5689 5690 0
-754 -5689 0
-754 5690 0
-5690 5691 0
-755 -5690 0
-755 5691 0
-756 -5691 0
-745 987 0
-746 987 0
-747 987 0
-748 987 0
-749 987 0
-750 987 0
-751 987 0
-752 987 0
-753 987 0
-754 987 0
-755 987 0
-756 987 0
-987 745 746 747 748 749 750 751 752 753 754 755 756 0
-757 73 0
-757 85 0
-73 -85 757 0
-758 74 0
-758 86 0
-74 -86 758 0
-759 75 0
-759 87 0
-75 -87 759 0
-760 76 0
-760 88 0
-76 -88 760 0
-761 77 0
-761 89 0
-77 -89 761 0
-762 78 0
-762 90 0
-78 -90 762 0
-763 79 0
-763 91 0
-79 -91 763 0
-764 80 0
-764 92 0
-80 -92 764 0
-765 81 0
-765 93 0
-81 -93 765 0
-766 82 0
-766 94 0
-82 -94 766 0
-767 83 0
-767 95 0
-83 -95 767 0
-768 84 0
-768 96 0
-84 -96 768 0
-757 5692 0
-5692 5693 0
-758 -5692 0
-758 5693 0
-5693 5694 0
-759 -5693 0
-759 5694 0
-5694 5695 0
-760 -5694 0
-760 5695 0
-5695 5696 0
-761 -5695 0
-761 5696 0
-5696 5697 0
-762 -5696 0
-762 5697 0
-5697 5698 0
-763 -5697 0
-763 5698 0
-5698 5699 0
-764 -5698 0
-764 5699 0
-5699 5700 0
-765 -5699 0
-765 5700 0
-5700 5701 0
-766 -5700 0
-766 5701 0
-5701 5702 0
-767 -5701 0
-767 5702 0
-768 -5702 0
-757 988 0
-758 988 0
-759 988 0
-760 988 0
-761 988 0
-762 988 0
-763 988 0
-764 988 0
-765 988 0
-766 988 0
-767 988 0
-768 988 0
-988 757 758 759 760 761 762 763 764 765 766 767 768 0
-769 73 0
-769 97 0
-73 -97 769 0
-770 74 0
-770 98 0
-74 -98 770 0
-771 75 0
-771 99 0
-75 -99 771 0
-772 76 0
-772 100 0
-76 -100 772 0
-773 77 0
-773 101 0
-77 -101 773 0
-774 78 0
-774 102 0
-78 -102 774 0
-775 79 0
-775 103 0
-79 -103 775 0
-776 80 0
-776 104 0
-80 -104 776 0
-777 81 0
-777 105 0
-81 -105 777 0
-778 82 0
-778 106 0
-82 -106 778 0
-779 83 0
-779 107 0
-83 -107 779 0
-780 84 0
-780 108 0
-84 -108 780 0
-769 5703 0
-5703 5704 0
-770 -5703 0
-770 5704 0
-5704 5705 0
-771 -5704 0
-771 5705 0
-5705 5706 0
-772 -5705 0
-772 5706 0
-5706 5707 0
-773 -5706 0
-773 5707 0
-5707 5708 0
-774 -5707 0
-774 5708 0
-5708 5709 0
-775 -5708 0
-775 5709 0
-5709 5710 0
-776 -5709 0
-776 5710 0
-5710 5711 0
-777 -5710 0
-777 5711 0
-5711 5712 0
-778 -5711 0
-778 5712 0
-5712 5713 0
-779 -5712 0
-779 5713 0
-780 -5713 0
-769 989 0
-770 989 0
-771 989 0
-772 989 0
-773 989 0
-774 989 0
-775 989 0
-776 989 0
-777 989 0
-778 989 0
-779 989 0
-780 989 0
-989 769 770 771 772 773 774 775 776 777 778 779 780 0
-781 73 0
-781 109 0
-73 -109 781 0
-782 74 0
-782 110 0
-74 -110 782 0
-783 75 0
-783 111 0
-75 -111 783 0
-784 76 0
-784 112 0
-76 -112 784 0
-785 77 0
-785 113 0
-77 -113 785 0
-786 78 0
-786 114 0
-78 -114 786 0
-787 79 0
-787 115 0
-79 -115 787 0
-788 80 0
-788 116 0
-80 -116 788 0
-789 81 0
-789 117 0
-81 -117 789 0
-790 82 0
-790 118 0
-82 -118 790 0
-791 83 0
-791 119 0
-83 -119 791 0
-792 84 0
-792 120 0
-84 -120 792 0
-781 5714 0
-5714 5715 0
-782 -5714 0
-782 5715 0
-5715 5716 0
-783 -5715 0
-783 5716 0
-5716 5717 0
-784 -5716 0
-784 5717 0
-5717 5718 0
-785 -5717 0
-785 5718 0
-5718 5719 0
-786 -5718 0
-786 5719 0
-5719 5720 0
-787 -5719 0
-787 5720 0
-5720 5721 0
-788 -5720 0
-788 5721 0
-5721 5722 0
-789 -5721 0
-789 5722 0
-5722 5723 0
-790 -5722 0
-790 5723 0
-5723 5724 0
-791 -5723 0
-791 5724 0
-792 -5724 0
-781 990 0
-782 990 0
-783 990 0
-784 990 0
-785 990 0
-786 990 0
-787 990 0
-788 990 0
-789 990 0
-790 990 0
-791 990 0
-792 990 0
-990 781 782 783 784 785 786 787 788 789 790 791 792 0
-793 73 0
-793 121 0
-73 -121 793 0
-794 74 0
-794 122 0
-74 -122 794 0
-795 75 0
-795 123 0
-75 -123 795 0
-796 76 0
-796 124 0
-76 -124 796 0
-797 77 0
-797 125 0
-77 -125 797 0
-798 78 0
-798 126 0
-78 -126 798 0
-799 79 0
-799 127 0
-79 -127 799 0
-800 80 0
-800 128 0
-80 -128 800 0
-801 81 0
-801 129 0
-81 -129 801 0
-802 82 0
-802 130 0
-82 -130 802 0
-803 83 0
-803 131 0
-83 -131 803 0
-804 84 0
-804 132 0
-84 -132 804 0
-793 5725 0
-5725 5726 0
-794 -5725 0
-794 5726 0
-5726 5727 0
-795 -5726 0
-795 5727 0
-5727 5728 0
-796 -5727 0
-796 5728 0
-5728 5729 0
-797 -5728 0
-797 5729 0
-5729 5730 0
-798 -5729 0
-798 5730 0
-5730 5731 0
-799 -5730 0
-799 5731 0
-5731 5732 0
-800 -5731 0
-800 5732 0
-5732 5733 0
-801 -5732 0
-801 5733 0
-5733 5734 0
-802 -5733 0
-802 5734 0
-5734 5735 0
-803 -5734 0
-803 5735 0
-804 -5735 0
-793 991 0
-794 991 0
-795 991 0
-796 991 0
-797 991 0
-798 991 0
-799 991 0
-800 991 0
-801 991 0
-802 991 0
-803 991 0
-804 991 0
-991 793 794 795 796 797 798 799 800 801 802 803 804 0
-805 73 0
-805 133 0
-73 -133 805 0
-806 74 0
-806 134 0
-74 -134 806 0
-807 75 0
-807 135 0
-75 -135 807 0
-808 76 0
-808 136 0
-76 -136 808 0
-809 77 0
-809 137 0
-77 -137 809 0
-810 78 0
-810 138 0
-78 -138 810 0
-811 79 0
-811 139 0
-79 -139 811 0
-812 80 0
-812 140 0
-80 -140 812 0
-813 81 0
-813 141 0
-81 -141 813 0
-814 82 0
-814 142 0
-82 -142 814 0
-815 83 0
-815 143 0
-83 -143 815 0
-816 84 0
-816 144 0
-84 -144 816 0
-805 5736 0
-5736 5737 0
-806 -5736 0
-806 5737 0
-5737 5738 0
-807 -5737 0
-807 5738 0
-5738 5739 0
-808 -5738 0
-808 5739 0
-5739 5740 0
-809 -5739 0
-809 5740 0
-5740 5741 0
-810 -5740 0
-810 5741 0
-5741 5742 0
-811 -5741 0
-811 5742 0
-5742 5743 0
-812 -5742 0
-812 5743 0
-5743 5744 0
-813 -5743 0
-813 5744 0
-5744 5745 0
-814 -5744 0
-814 5745 0
-5745 5746 0
-815 -5745 0
-815 5746 0
-816 -5746 0
-805 992 0
-806 992 0
-807 992 0
-808 992 0
-809 992 0
-810 992 0
-811 992 0
-812 992 0
-813 992 0
-814 992 0
-815 992 0
-816 992 0
-992 805 806 807 808 809 810 811 812 813 814 815 816 0
-817 85 0
-817 97 0
-85 -97 817 0
-818 86 0
-818 98 0
-86 -98 818 0
-819 87 0
-819 99 0
-87 -99 819 0
-820 88 0
-820 100 0
-88 -100 820 0
-821 89 0
-821 101 0
-89 -101 821 0
-822 90 0
-822 102 0
-90 -102 822 0
-823 91 0
-823 103 0
-91 -103 823 0
-824 92 0
-824 104 0
-92 -104 824 0
-825 93 0
-825 105 0
-93 -105 825 0
-826 94 0
-826 106 0
-94 -106 826 0
-827 95 0
-827 107 0
-95 -107 827 0
-828 96 0
-828 108 0
-96 -108 828 0
-817 5747 0
-5747 5748 0
-818 -5747 0
-818 5748 0
-5748 5749 0
-819 -5748 0
-819 5749 0
-5749 5750 0
-820 -5749 0
-820 5750 0
-5750 5751 0
-821 -5750 0
-821 5751 0
-5751 5752 0
-822 -5751 0
-822 5752 0
-5752 5753 0
-823 -5752 0
-823 5753 0
-5753 5754 0
-824 -5753 0
-824 5754 0
-5754 5755 0
-825 -5754 0
-825 5755 0
-5755 5756 0
-826 -5755 0
-826 5756 0
-5756 5757 0
-827 -5756 0
-827 5757 0
-828 -5757 0
-817 993 0
-818 993 0
-819 993 0
-820 993 0
-821 993 0
-822 993 0
-823 993 0
-824 993 0
-825 993 0
-826 993 0
-827 993 0
-828 993 0
-993 817 818 819 820 821 822 823 824 825 826 827 828 0
-829 85 0
-829 109 0
-85 -109 829 0
-830 86 0
-830 110 0
-86 -110 830 0
-831 87 0
-831 111 0
-87 -111 831 0
-832 88 0
-832 112 0
-88 -112 832 0
-833 89 0
-833 113 0
-89 -113 833 0
-834 90 0
-834 114 0
-90 -114 834 0
-835 91 0
-835 115 0
-91 -115 835 0
-836 92 0
-836 116 0
-92 -116 836 0
-837 93 0
-837 117 0
-93 -117 837 0
-838 94 0
-838 118 0
-94 -118 838 0
-839 95 0
-839 119 0
-95 -119 839 0
-840 96 0
-840 120 0
-96 -120 840 0
-829 5758 0
-5758 5759 0
-830 -5758 0
-830 5759 0
-5759 5760 0
-831 -5759 0
-831 5760 0
-5760 5761 0
-832 -5760 0
-832 5761 0
-5761 5762 0
-833 -5761 0
-833 5762 0
-5762 5763 0
-834 -5762 0
-834 5763 0
-5763 5764 0
-835 -5763 0
-835 5764 0
-5764 5765 0
-836 -5764 0
-836 5765 0
-5765 5766 0
-837 -5765 0
-837 5766 0
-5766 5767 0
-838 -5766 0
-838 5767 0
-5767 5768 0
-839 -5767 0
-839 5768 0
-840 -5768 0
-829 994 0
-830 994 0
-831 994 0
-832 994 0
-833 994 0
-834 994 0
-835 994 0
-836 994 0
-837 994 0
-838 994 0
-839 994 0
-840 994 0
-994 829 830 831 832 833 834 835 836 837 838 839 840 0
-841 85 0
-841 121 0
-85 -121 841 0
-842 86 0
-842 122 0
-86 -122 842 0
-843 87 0
-843 123 0
-87 -123 843 0
-844 88 0
-844 124 0
-88 -124 844 0
-845 89 0
-845 125 0
-89 -125 845 0
-846 90 0
-846 126 0
-90 -126 846 0
-847 91 0
-847 127 0
-91 -127 847 0
-848 92 0
-848 128 0
-92 -128 848 0
-849 93 0
-849 129 0
-93 -129 849 0
-850 94 0
-850 130 0
-94 -130 850 0
-851 95 0
-851 131 0
-95 -131 851 0
-852 96 0
-852 132 0
-96 -132 852 0
-841 5769 0
-5769 5770 0
-842 -5769 0
-842 5770 0
-5770 5771 0
-843 -5770 0
-843 5771 0
-5771 5772 0
-844 -5771 0
-844 5772 0
-5772 5773 0
-845 -5772 0
-845 5773 0
-5773 5774 0
-846 -5773 0
-846 5774 0
-5774 5775 0
-847 -5774 0
-847 5775 0
-5775 5776 0
-848 -5775 0
-848 5776 0
-5776 5777 0
-849 -5776 0
-849 5777 0
-5777 5778 0
-850 -5777 0
-850 5778 0
-5778 5779 0
-851 -5778 0
-851 5779 0
-852 -5779 0
-841 995 0
-842 995 0
-843 995 0
-844 995 0
-845 995 0
-846 995 0
-847 995 0
-848 995 0
-849 995 0
-850 995 0
-851 995 0
-852 995 0
-995 841 842 843 844 845 846 847 848 849 850 851 852 0
-853 85 0
-853 133 0
-85 -133 853 0
-854 86 0
-854 134 0
-86 -134 854 0
-855 87 0
-855 135 0
-87 -135 855 0
-856 88 0
-856 136 0
-88 -136 856 0
-857 89 0
-857 137 0
-89 -137 857 0
-858 90 0
-858 138 0
-90 -138 858 0
-859 91 0
-859 139 0
-91 -139 859 0
-860 92 0
-860 140 0
-92 -140 860 0
-861 93 0
-861 141 0
-93 -141 861 0
-862 94 0
-862 142 0
-94 -142 862 0
-863 95 0
-863 143 0
-95 -143 863 0
-864 96 0
-864 144 0
-96 -144 864 0
-853 5780 0
-5780 5781 0
-854 -5780 0
-854 5781 0
-5781 5782 0
-855 -5781 0
-855 5782 0
-5782 5783 0
-856 -5782 0
-856 5783 0
-5783 5784 0
-857 -5783 0
-857 5784 0
-5784 5785 0
-858 -5784 0
-858 5785 0
-5785 5786 0
-859 -5785 0
-859 5786 0
-5786 5787 0
-860 -5786 0
-860 5787 0
-5787 5788 0
-861 -5787 0
-861 5788 0
-5788 5789 0
-862 -5788 0
-862 5789 0
-5789 5790 0
-863 -5789 0
-863 5790 0
-864 -5790 0
-853 996 0
-854 996 0
-855 996 0
-856 996 0
-857 996 0
-858 996 0
-859 996 0
-860 996 0
-861 996 0
-862 996 0
-863 996 0
-864 996 0
-996 853 854 855 856 857 858 859 860 861 862 863 864 0
-865 97 0
-865 109 0
-97 -109 865 0
-866 98 0
-866 110 0
-98 -110 866 0
-867 99 0
-867 111 0
-99 -111 867 0
-868 100 0
-868 112 0
-100 -112 868 0
-869 101 0
-869 113 0
-101 -113 869 0
-870 102 0
-870 114 0
-102 -114 870 0
-871 103 0
-871 115 0
-103 -115 871 0
-872 104 0
-872 116 0
-104 -116 872 0
-873 105 0
-873 117 0
-105 -117 873 0
-874 106 0
-874 118 0
-106 -118 874 0
-875 107 0
-875 119 0
-107 -119 875 0
-876 108 0
-876 120 0
-108 -120 876 0
-865 5791 0
-5791 5792 0
-866 -5791 0
-866 5792 0
-5792 5793 0
-867 -5792 0
-867 5793 0
-5793 5794 0
-868 -5793 0
-868 5794 0
-5794 5795 0
-869 -5794 0
-869 5795 0
-5795 5796 0
-870 -5795 0
-870 5796 0
-5796 5797 0
-871 -5796 0
-871 5797 0
-5797 5798 0
-872 -5797 0
-872 5798 0
-5798 5799 0
-873 -5798 0
-873 5799 0
-5799 5800 0
-874 -5799 0
-874 5800 0
-5800 5801 0
-875 -5800 0
-875 5801 0
-876 -5801 0
-865 997 0
-866 997 0
-867 997 0
-868 997 0
-869 997 0
-870 997 0
-871 997 0
-872 997 0
-873 997 0
-874 997 0
-875 997 0
-876 997 0
-997 865 866 867 868 869 870 871 872 873 874 875 876 0
-877 97 0
-877 121 0
-97 -121 877 0
-878 98 0
-878 122 0
-98 -122 878 0
-879 99 0
-879 123 0
-99 -123 879 0
-880 100 0
-880 124 0
-100 -124 880 0
-881 101 0
-881 125 0
-101 -125 881 0
-882 102 0
-882 126 0
-102 -126 882 0
-883 103 0
-883 127 0
-103 -127 883 0
-884 104 0
-884 128 0
-104 -128 884 0
-885 105 0
-885 129 0
-105 -129 885 0
-886 106 0
-886 130 0
-106 -130 886 0
-887 107 0
-887 131 0
-107 -131 887 0
-888 108 0
-888 132 0
-108 -132 888 0
-877 5802 0
-5802 5803 0
-878 -5802 0
-878 5803 0
-5803 5804 0
-879 -5803 0
-879 5804 0
-5804 5805 0
-880 -5804 0
-880 5805 0
-5805 5806 0
-881 -5805 0
-881 5806 0
-5806 5807 0
-882 -5806 0
-882 5807 0
-5807 5808 0
-883 -5807 0
-883 5808 0
-5808 5809 0
-884 -5808 0
-884 5809 0
-5809 5810 0
-885 -5809 0
-885 5810 0
-5810 5811 0
-886 -5810 0
-886 5811 0
-5811 5812 0
-887 -5811 0
-887 5812 0
-888 -5812 0
-877 998 0
-878 998 0
-879 998 0
-880 998 0
-881 998 0
-882 998 0
-883 998 0
-884 998 0
-885 998 0
-886 998 0
-887 998 0
-888 998 0
-998 877 878 879 880 881 882 883 884 885 886 887 888 0
-889 97 0
-889 133 0
-97 -133 889 0
-890 98 0
-890 134 0
-98 -134 890 0
-891 99 0
-891 135 0
-99 -135 891 0
-892 100 0
-892 136 0
-100 -136 892 0
-893 101 0
-893 137 0
-101 -137 893 0
-894 102 0
-894 138 0
-102 -138 894 0
-895 103 0
-895 139 0
-103 -139 895 0
-896 104 0
-896 140 0
-104 -140 896 0
-897 105 0
-897 141 0
-105 -141 897 0
-898 106 0
-898 142 0
-106 -142 898 0
-899 107 0
-899 143 0
-107 -143 899 0
-900 108 0
-900 144 0
-108 -144 900 0
-889 5813 0
-5813 5814 0
-890 -5813 0
-890 5814 0
-5814 5815 0
-891 -5814 0
-891 5815 0
-5815 5816 0
-892 -5815 0
-892 5816 0
-5816 5817 0
-893 -5816 0
-893 5817 0
-5817 5818 0
-894 -5817 0
-894 5818 0
-5818 5819 0
-895 -5818 0
-895 5819 0
-5819 5820 0
-896 -5819 0
-896 5820 0
-5820 5821 0
-897 -5820 0
-897 5821 0
-5821 5822 0
-898 -5821 0
-898 5822 0
-5822 5823 0
-899 -5822 0
-899 5823 0
-900 -5823 0
-889 999 0
-890 999 0
-891 999 0
-892 999 0
-893 999 0
-894 999 0
-895 999 0
-896 999 0
-897 999 0
-898 999 0
-899 999 0
-900 999 0
-999 889 890 891 892 893 894 895 896 897 898 899 900 0
-901 109 0
-901 121 0
-109 -121 901 0
-902 110 0
-902 122 0
-110 -122 902 0
-903 111 0
-903 123 0
-111 -123 903 0
-904 112 0
-904 124 0
-112 -124 904 0
-905 113 0
-905 125 0
-113 -125 905 0
-906 114 0
-906 126 0
-114 -126 906 0
-907 115 0
-907 127 0
-115 -127 907 0
-908 116 0
-908 128 0
-116 -128 908 0
-909 117 0
-909 129 0
-117 -129 909 0
-910 118 0
-910 130 0
-118 -130 910 0
-911 119 0
-911 131 0
-119 -131 911 0
-912 120 0
-912 132 0
-120 -132 912 0
-901 5824 0
-5824 5825 0
-902 -5824 0
-902 5825 0
-5825 5826 0
-903 -5825 0
-903 5826 0
-5826 5827 0
-904 -5826 0
-904 5827 0
-5827 5828 0
-905 -5827 0
-905 5828 0
-5828 5829 0
-906 -5828 0
-906 5829 0
-5829 5830 0
-907 -5829 0
-907 5830 0
-5830 5831 0
-908 -5830 0
-908 5831 0
-5831 5832 0
-909 -5831 0
-909 5832 0
-5832 5833 0
-910 -5832 0
-910 5833 0
-5833 5834 0
-911 -5833 0
-911 5834 0
-912 -5834 0
-901 1000 0
-902 1000 0
-903 1000 0
-904 1000 0
-905 1000 0
-906 1000 0
-907 1000 0
-908 1000 0
-909 1000 0
-910 1000 0
-911 1000 0
-912 1000 0
-1000 901 902 903 904 905 906 907 908 909 910 911 912 0
-913 109 0
-913 133 0
-109 -133 913 0
-914 110 0
-914 134 0
-110 -134 914 0
-915 111 0
-915 135 0
-111 -135 915 0
-916 112 0
-916 136 0
-112 -136 916 0
-917 113 0
-917 137 0
-113 -137 917 0
-918 114 0
-918 138 0
-114 -138 918 0
-919 115 0
-919 139 0
-115 -139 919 0
-920 116 0
-920 140 0
-116 -140 920 0
-921 117 0
-921 141 0
-117 -141 921 0
-922 118 0
-922 142 0
-118 -142 922 0
-923 119 0
-923 143 0
-119 -143 923 0
-924 120 0
-924 144 0
-120 -144 924 0
-913 5835 0
-5835 5836 0
-914 -5835 0
-914 5836 0
-5836 5837 0
-915 -5836 0
-915 5837 0
-5837 5838 0
-916 -5837 0
-916 5838 0
-5838 5839 0
-917 -5838 0
-917 5839 0
-5839 5840 0
-918 -5839 0
-918 5840 0
-5840 5841 0
-919 -5840 0
-919 5841 0
-5841 5842 0
-920 -5841 0
-920 5842 0
-5842 5843 0
-921 -5842 0
-921 5843 0
-5843 5844 0
-922 -5843 0
-922 5844 0
-5844 5845 0
-923 -5844 0
-923 5845 0
-924 -5845 0
-913 1001 0
-914 1001 0
-915 1001 0
-916 1001 0
-917 1001 0
-918 1001 0
-919 1001 0
-920 1001 0
-921 1001 0
-922 1001 0
-923 1001 0
-924 1001 0
-1001 913 914 915 916 917 918 919 920 921 922 923 924 0
-925 121 0
-925 133 0
-121 -133 925 0
-926 122 0
-926 134 0
-122 -134 926 0
-927 123 0
-927 135 0
-123 -135 927 0
-928 124 0
-928 136 0
-124 -136 928 0
-929 125 0
-929 137 0
-125 -137 929 0
-930 126 0
-930 138 0
-126 -138 930 0
-931 127 0
-931 139 0
-127 -139 931 0
-932 128 0
-932 140 0
-128 -140 932 0
-933 129 0
-933 141 0
-129 -141 933 0
-934 130 0
-934 142 0
-130 -142 934 0
-935 131 0
-935 143 0
-131 -143 935 0
-936 132 0
-936 144 0
-132 -144 936 0
-925 5846 0
-5846 5847 0
-926 -5846 0
-926 5847 0
-5847 5848 0
-927 -5847 0
-927 5848 0
-5848 5849 0
-928 -5848 0
-928 5849 0
-5849 5850 0
-929 -5849 0
-929 5850 0
-5850 5851 0
-930 -5850 0
-930 5851 0
-5851 5852 0
-931 -5851 0
-931 5852 0
-5852 5853 0
-932 -5852 0
-932 5853 0
-5853 5854 0
-933 -5853 0
-933 5854 0
-5854 5855 0
-934 -5854 0
-934 5855 0
-5855 5856 0
-935 -5855 0
-935 5856 0
-936 -5856 0
-925 1002 0
-926 1002 0
-927 1002 0
-928 1002 0
-929 1002 0
-930 1002 0
-931 1002 0
-932 1002 0
-933 1002 0
-934 1002 0
-935 1002 0
-936 1002 0
-1002 925 926 927 928 929 930 931 932 933 934 935 936 0
-1003 1 0
-1003 13 0
-1003 25 0
-1 -13 -25 1003 0
-1004 2 0
-1004 14 0
-1004 26 0
-2 -14 -26 1004 0
-1005 3 0
-1005 15 0
-1005 27 0
-3 -15 -27 1005 0
-1006 4 0
-1006 16 0
-1006 28 0
-4 -16 -28 1006 0
-1007 5 0
-1007 17 0
-1007 29 0
-5 -17 -29 1007 0
-1008 6 0
-1008 18 0
-1008 30 0
-6 -18 -30 1008 0
-1009 7 0
-1009 19 0
-1009 31 0
-7 -19 -31 1009 0
-1010 8 0
-1010 20 0
-1010 32 0
-8 -20 -32 1010 0
-1011 9 0
-1011 21 0
-1011 33 0
-9 -21 -33 1011 0
-1012 10 0
-1012 22 0
-1012 34 0
-10 -22 -34 1012 0
-1013 11 0
-1013 23 0
-1013 35 0
-11 -23 -35 1013 0
-1014 12 0
-1014 24 0
-1014 36 0
-12 -24 -36 1014 0
-1003 3643 0
-1004 3643 0
-1005 3643 0
-1006 3643 0
-1007 3643 0
-1008 3643 0
-1009 3643 0
-1010 3643 0
-1011 3643 0
-1012 3643 0
-1013 3643 0
-1014 3643 0
-3643 1003 1004 1005 1006 1007 1008 1009 1010 1011 1012 1013 1014 0
-1015 1 0
-1015 13 0
-1015 37 0
-1 -13 -37 1015 0
-1016 2 0
-1016 14 0
-1016 38 0
-2 -14 -38 1016 0
-1017 3 0
-1017 15 0
-1017 39 0
-3 -15 -39 1017 0
-1018 4 0
-1018 16 0
-1018 40 0
-4 -16 -40 1018 0
-1019 5 0
-1019 17 0
-1019 41 0
-5 -17 -41 1019 0
-1020 6 0
-1020 18 0
-1020 42 0
-6 -18 -42 1020 0
-1021 7 0
-1021 19 0
-1021 43 0
-7 -19 -43 1021 0
-1022 8 0
-1022 20 0
-1022 44 0
-8 -20 -44 1022 0
-1023 9 0
-1023 21 0
-1023 45 0
-9 -21 -45 1023 0
-1024 10 0
-1024 22 0
-1024 46 0
-10 -22 -46 1024 0
-1025 11 0
-1025 23 0
-1025 47 0
-11 -23 -47 1025 0
-1026 12 0
-1026 24 0
-1026 48 0
-12 -24 -48 1026 0
-1015 3644 0
-1016 3644 0
-1017 3644 0
-1018 3644 0
-1019 3644 0
-1020 3644 0
-1021 3644 0
-1022 3644 0
-1023 3644 0
-1024 3644 0
-1025 3644 0
-1026 3644 0
-3644 1015 1016 1017 1018 1019 1020 1021 1022 1023 1024 1025 1026 0
-1027 1 0
-1027 13 0
-1027 49 0
-1 -13 -49 1027 0
-1028 2 0
-1028 14 0
-1028 50 0
-2 -14 -50 1028 0
-1029 3 0
-1029 15 0
-1029 51 0
-3 -15 -51 1029 0
-1030 4 0
-1030 16 0
-1030 52 0
-4 -16 -52 1030 0
-1031 5 0
-1031 17 0
-1031 53 0
-5 -17 -53 1031 0
-1032 6 0
-1032 18 0
-1032 54 0
-6 -18 -54 1032 0
-1033 7 0
-1033 19 0
-1033 55 0
-7 -19 -55 1033 0
-1034 8 0
-1034 20 0
-1034 56 0
-8 -20 -56 1034 0
-1035 9 0
-1035 21 0
-1035 57 0
-9 -21 -57 1035 0
-1036 10 0
-1036 22 0
-1036 58 0
-10 -22 -58 1036 0
-1037 11 0
-1037 23 0
-1037 59 0
-11 -23 -59 1037 0
-1038 12 0
-1038 24 0
-1038 60 0
-12 -24 -60 1038 0
-1027 3645 0
-1028 3645 0
-1029 3645 0
-1030 3645 0
-1031 3645 0
-1032 3645 0
-1033 3645 0
-1034 3645 0
-1035 3645 0
-1036 3645 0
-1037 3645 0
-1038 3645 0
-3645 1027 1028 1029 1030 1031 1032 1033 1034 1035 1036 1037 1038 0
-1039 1 0
-1039 13 0
-1039 61 0
-1 -13 -61 1039 0
-1040 2 0
-1040 14 0
-1040 62 0
-2 -14 -62 1040 0
-1041 3 0
-1041 15 0
-1041 63 0
-3 -15 -63 1041 0
-1042 4 0
-1042 16 0
-1042 64 0
-4 -16 -64 1042 0
-1043 5 0
-1043 17 0
-1043 65 0
-5 -17 -65 1043 0
-1044 6 0
-1044 18 0
-1044 66 0
-6 -18 -66 1044 0
-1045 7 0
-1045 19 0
-1045 67 0
-7 -19 -67 1045 0
-1046 8 0
-1046 20 0
-1046 68 0
-8 -20 -68 1046 0
-1047 9 0
-1047 21 0
-1047 69 0
-9 -21 -69 1047 0
-1048 10 0
-1048 22 0
-1048 70 0
-10 -22 -70 1048 0
-1049 11 0
-1049 23 0
-1049 71 0
-11 -23 -71 1049 0
-1050 12 0
-1050 24 0
-1050 72 0
-12 -24 -72 1050 0
-1039 3646 0
-1040 3646 0
-1041 3646 0
-1042 3646 0
-1043 3646 0
-1044 3646 0
-1045 3646 0
-1046 3646 0
-1047 3646 0
-1048 3646 0
-1049 3646 0
-1050 3646 0
-3646 1039 1040 1041 1042 1043 1044 1045 1046 1047 1048 1049 1050 0
-1051 1 0
-1051 13 0
-1051 73 0
-1 -13 -73 1051 0
-1052 2 0
-1052 14 0
-1052 74 0
-2 -14 -74 1052 0
-1053 3 0
-1053 15 0
-1053 75 0
-3 -15 -75 1053 0
-1054 4 0
-1054 16 0
-1054 76 0
-4 -16 -76 1054 0
-1055 5 0
-1055 17 0
-1055 77 0
-5 -17 -77 1055 0
-1056 6 0
-1056 18 0
-1056 78 0
-6 -18 -78 1056 0
-1057 7 0
-1057 19 0
-1057 79 0
-7 -19 -79 1057 0
-1058 8 0
-1058 20 0
-1058 80 0
-8 -20 -80 1058 0
-1059 9 0
-1059 21 0
-1059 81 0
-9 -21 -81 1059 0
-1060 10 0
-1060 22 0
-1060 82 0
-10 -22 -82 1060 0
-1061 11 0
-1061 23 0
-1061 83 0
-11 -23 -83 1061 0
-1062 12 0
-1062 24 0
-1062 84 0
-12 -24 -84 1062 0
-1051 3647 0
-1052 3647 0
-1053 3647 0
-1054 3647 0
-1055 3647 0
-1056 3647 0
-1057 3647 0
-1058 3647 0
-1059 3647 0
-1060 3647 0
-1061 3647 0
-1062 3647 0
-3647 1051 1052 1053 1054 1055 1056 1057 1058 1059 1060 1061 1062 0
-1063 1 0
-1063 13 0
-1063 85 0
-1 -13 -85 1063 0
-1064 2 0
-1064 14 0
-1064 86 0
-2 -14 -86 1064 0
-1065 3 0
-1065 15 0
-1065 87 0
-3 -15 -87 1065 0
-1066 4 0
-1066 16 0
-1066 88 0
-4 -16 -88 1066 0
-1067 5 0
-1067 17 0
-1067 89 0
-5 -17 -89 1067 0
-1068 6 0
-1068 18 0
-1068 90 0
-6 -18 -90 1068 0
-1069 7 0
-1069 19 0
-1069 91 0
-7 -19 -91 1069 0
-1070 8 0
-1070 20 0
-1070 92 0
-8 -20 -92 1070 0
-1071 9 0
-1071 21 0
-1071 93 0
-9 -21 -93 1071 0
-1072 10 0
-1072 22 0
-1072 94 0
-10 -22 -94 1072 0
-1073 11 0
-1073 23 0
-1073 95 0
-11 -23 -95 1073 0
-1074 12 0
-1074 24 0
-1074 96 0
-12 -24 -96 1074 0
-1063 3648 0
-1064 3648 0
-1065 3648 0
-1066 3648 0
-1067 3648 0
-1068 3648 0
-1069 3648 0
-1070 3648 0
-1071 3648 0
-1072 3648 0
-1073 3648 0
-1074 3648 0
-3648 1063 1064 1065 1066 1067 1068 1069 1070 1071 1072 1073 1074 0
-1075 1 0
-1075 13 0
-1075 97 0
-1 -13 -97 1075 0
-1076 2 0
-1076 14 0
-1076 98 0
-2 -14 -98 1076 0
-1077 3 0
-1077 15 0
-1077 99 0
-3 -15 -99 1077 0
-1078 4 0
-1078 16 0
-1078 100 0
-4 -16 -100 1078 0
-1079 5 0
-1079 17 0
-1079 101 0
-5 -17 -101 1079 0
-1080 6 0
-1080 18 0
-1080 102 0
-6 -18 -102 1080 0
-1081 7 0
-1081 19 0
-1081 103 0
-7 -19 -103 1081 0
-1082 8 0
-1082 20 0
-1082 104 0
-8 -20 -104 1082 0
-1083 9 0
-1083 21 0
-1083 105 0
-9 -21 -105 1083 0
-1084 10 0
-1084 22 0
-1084 106 0
-10 -22 -106 1084 0
-1085 11 0
-1085 23 0
-1085 107 0
-11 -23 -107 1085 0
-1086 12 0
-1086 24 0
-1086 108 0
-12 -24 -108 1086 0
-1075 3649 0
-1076 3649 0
-1077 3649 0
-1078 3649 0
-1079 3649 0
-1080 3649 0
-1081 3649 0
-1082 3649 0
-1083 3649 0
-1084 3649 0
-1085 3649 0
-1086 3649 0
-3649 1075 1076 1077 1078 1079 1080 1081 1082 1083 1084 1085 1086 0
-1087 1 0
-1087 13 0
-1087 109 0
-1 -13 -109 1087 0
-1088 2 0
-1088 14 0
-1088 110 0
-2 -14 -110 1088 0
-1089 3 0
-1089 15 0
-1089 111 0
-3 -15 -111 1089 0
-1090 4 0
-1090 16 0
-1090 112 0
-4 -16 -112 1090 0
-1091 5 0
-1091 17 0
-1091 113 0
-5 -17 -113 1091 0
-1092 6 0
-1092 18 0
-1092 114 0
-6 -18 -114 1092 0
-1093 7 0
-1093 19 0
-1093 115 0
-7 -19 -115 1093 0
-1094 8 0
-1094 20 0
-1094 116 0
-8 -20 -116 1094 0
-1095 9 0
-1095 21 0
-1095 117 0
-9 -21 -117 1095 0
-1096 10 0
-1096 22 0
-1096 118 0
-10 -22 -118 1096 0
-1097 11 0
-1097 23 0
-1097 119 0
-11 -23 -119 1097 0
-1098 12 0
-1098 24 0
-1098 120 0
-12 -24 -120 1098 0
-1087 3650 0
-1088 3650 0
-1089 3650 0
-1090 3650 0
-1091 3650 0
-1092 3650 0
-1093 3650 0
-1094 3650 0
-1095 3650 0
-1096 3650 0
-1097 3650 0
-1098 3650 0
-3650 1087 1088 1089 1090 1091 1092 1093 1094 1095 1096 1097 1098 0
-1099 1 0
-1099 13 0
-1099 121 0
-1 -13 -121 1099 0
-1100 2 0
-1100 14 0
-1100 122 0
-2 -14 -122 1100 0
-1101 3 0
-1101 15 0
-1101 123 0
-3 -15 -123 1101 0
-1102 4 0
-1102 16 0
-1102 124 0
-4 -16 -124 1102 0
-1103 5 0
-1103 17 0
-1103 125 0
-5 -17 -125 1103 0
-1104 6 0
-1104 18 0
-1104 126 0
-6 -18 -126 1104 0
-1105 7 0
-1105 19 0
-1105 127 0
-7 -19 -127 1105 0
-1106 8 0
-1106 20 0
-1106 128 0
-8 -20 -128 1106 0
-1107 9 0
-1107 21 0
-1107 129 0
-9 -21 -129 1107 0
-1108 10 0
-1108 22 0
-1108 130 0
-10 -22 -130 1108 0
-1109 11 0
-1109 23 0
-1109 131 0
-11 -23 -131 1109 0
-1110 12 0
-1110 24 0
-1110 132 0
-12 -24 -132 1110 0
-1099 3651 0
-1100 3651 0
-1101 3651 0
-1102 3651 0
-1103 3651 0
-1104 3651 0
-1105 3651 0
-1106 3651 0
-1107 3651 0
-1108 3651 0
-1109 3651 0
-1110 3651 0
-3651 1099 1100 1101 1102 1103 1104 1105 1106 1107 1108 1109 1110 0
-1111 1 0
-1111 13 0
-1111 133 0
-1 -13 -133 1111 0
-1112 2 0
-1112 14 0
-1112 134 0
-2 -14 -134 1112 0
-1113 3 0
-1113 15 0
-1113 135 0
-3 -15 -135 1113 0
-1114 4 0
-1114 16 0
-1114 136 0
-4 -16 -136 1114 0
-1115 5 0
-1115 17 0
-1115 137 0
-5 -17 -137 1115 0
-1116 6 0
-1116 18 0
-1116 138 0
-6 -18 -138 1116 0
-1117 7 0
-1117 19 0
-1117 139 0
-7 -19 -139 1117 0
-1118 8 0
-1118 20 0
-1118 140 0
-8 -20 -140 1118 0
-1119 9 0
-1119 21 0
-1119 141 0
-9 -21 -141 1119 0
-1120 10 0
-1120 22 0
-1120 142 0
-10 -22 -142 1120 0
-1121 11 0
-1121 23 0
-1121 143 0
-11 -23 -143 1121 0
-1122 12 0
-1122 24 0
-1122 144 0
-12 -24 -144 1122 0
-1111 3652 0
-1112 3652 0
-1113 3652 0
-1114 3652 0
-1115 3652 0
-1116 3652 0
-1117 3652 0
-1118 3652 0
-1119 3652 0
-1120 3652 0
-1121 3652 0
-1122 3652 0
-3652 1111 1112 1113 1114 1115 1116 1117 1118 1119 1120 1121 1122 0
-1123 1 0
-1123 25 0
-1123 37 0
-1 -25 -37 1123 0
-1124 2 0
-1124 26 0
-1124 38 0
-2 -26 -38 1124 0
-1125 3 0
-1125 27 0
-1125 39 0
-3 -27 -39 1125 0
-1126 4 0
-1126 28 0
-1126 40 0
-4 -28 -40 1126 0
-1127 5 0
-1127 29 0
-1127 41 0
-5 -29 -41 1127 0
-1128 6 0
-1128 30 0
-1128 42 0
-6 -30 -42 1128 0
-1129 7 0
-1129 31 0
-1129 43 0
-7 -31 -43 1129 0
-1130 8 0
-1130 32 0
-1130 44 0
-8 -32 -44 1130 0
-1131 9 0
-1131 33 0
-1131 45 0
-9 -33 -45 1131 0
-1132 10 0
-1132 34 0
-1132 46 0
-10 -34 -46 1132 0
-1133 11 0
-1133 35 0
-1133 47 0
-11 -35 -47 1133 0
-1134 12 0
-1134 36 0
-1134 48 0
-12 -36 -48 1134 0
-1123 3653 0
-1124 3653 0
-1125 3653 0
-1126 3653 0
-1127 3653 0
-1128 3653 0
-1129 3653 0
-1130 3653 0
-1131 3653 0
-1132 3653 0
-1133 3653 0
-1134 3653 0
-3653 1123 1124 1125 1126 1127 1128 1129 1130 1131 1132 1133 1134 0
-1135 1 0
-1135 25 0
-1135 49 0
-1 -25 -49 1135 0
-1136 2 0
-1136 26 0
-1136 50 0
-2 -26 -50 1136 0
-1137 3 0
-1137 27 0
-1137 51 0
-3 -27 -51 1137 0
-1138 4 0
-1138 28 0
-1138 52 0
-4 -28 -52 1138 0
-1139 5 0
-1139 29 0
-1139 53 0
-5 -29 -53 1139 0
-1140 6 0
-1140 30 0
-1140 54 0
-6 -30 -54 1140 0
-1141 7 0
-1141 31 0
-1141 55 0
-7 -31 -55 1141 0
-1142 8 0
-1142 32 0
-1142 56 0
-8 -32 -56 1142 0
-1143 9 0
-1143 33 0
-1143 57 0
-9 -33 -57 1143 0
-1144 10 0
-1144 34 0
-1144 58 0
-10 -34 -58 1144 0
-1145 11 0
-1145 35 0
-1145 59 0
-11 -35 -59 1145 0
-1146 12 0
-1146 36 0
-1146 60 0
-12 -36 -60 1146 0
-1135 3654 0
-1136 3654 0
-1137 3654 0
-1138 3654 0
-1139 3654 0
-1140 3654 0
-1141 3654 0
-1142 3654 0
-1143 3654 0
-1144 3654 0
-1145 3654 0
-1146 3654 0
-3654 1135 1136 1137 1138 1139 1140 1141 1142 1143 1144 1145 1146 0
-1147 1 0
-1147 25 0
-1147 61 0
-1 -25 -61 1147 0
-1148 2 0
-1148 26 0
-1148 62 0
-2 -26 -62 1148 0
-1149 3 0
-1149 27 0
-1149 63 0
-3 -27 -63 1149 0
-1150 4 0
-1150 28 0
-1150 64 0
-4 -28 -64 1150 0
-1151 5 0
-1151 29 0
-1151 65 0
-5 -29 -65 1151 0
-1152 6 0
-1152 30 0
-1152 66 0
-6 -30 -66 1152 0
-1153 7 0
-1153 31 0
-1153 67 0
-7 -31 -67 1153 0
-1154 8 0
-1154 32 0
-1154 68 0
-8 -32 -68 1154 0
-1155 9 0
-1155 33 0
-1155 69 0
-9 -33 -69 1155 0
-1156 10 0
-1156 34 0
-1156 70 0
-10 -34 -70 1156 0
-1157 11 0
-1157 35 0
-1157 71 0
-11 -35 -71 1157 0
-1158 12 0
-1158 36 0
-1158 72 0
-12 -36 -72 1158 0
-1147 3655 0
-1148 3655 0
-1149 3655 0
-1150 3655 0
-1151 3655 0
-1152 3655 0
-1153 3655 0
-1154 3655 0
-1155 3655 0
-1156 3655 0
-1157 3655 0
-1158 3655 0
-3655 1147 1148 1149 1150 1151 1152 1153 1154 1155 1156 1157 1158 0
-1159 1 0
-1159 25 0
-1159 73 0
-1 -25 -73 1159 0
-1160 2 0
-1160 26 0
-1160 74 0
-2 -26 -74 1160 0
-1161 3 0
-1161 27 0
-1161 75 0
-3 -27 -75 1161 0
-1162 4 0
-1162 28 0
-1162 76 0
-4 -28 -76 1162 0
-1163 5 0
-1163 29 0
-1163 77 0
-5 -29 -77 1163 0
-1164 6 0
-1164 30 0
-1164 78 0
-6 -30 -78 1164 0
-1165 7 0
-1165 31 0
-1165 79 0
-7 -31 -79 1165 0
-1166 8 0
-1166 32 0
-1166 80 0
-8 -32 -80 1166 0
-1167 9 0
-1167 33 0
-1167 81 0
-9 -33 -81 1167 0
-1168 10 0
-1168 34 0
-1168 82 0
-10 -34 -82 1168 0
-1169 11 0
-1169 35 0
-1169 83 0
-11 -35 -83 1169 0
-1170 12 0
-1170 36 0
-1170 84 0
-12 -36 -84 1170 0
-1159 3656 0
-1160 3656 0
-1161 3656 0
-1162 3656 0
-1163 3656 0
-1164 3656 0
-1165 3656 0
-1166 3656 0
-1167 3656 0
-1168 3656 0
-1169 3656 0
-1170 3656 0
-3656 1159 1160 1161 1162 1163 1164 1165 1166 1167 1168 1169 1170 0
-1171 1 0
-1171 25 0
-1171 85 0
-1 -25 -85 1171 0
-1172 2 0
-1172 26 0
-1172 86 0
-2 -26 -86 1172 0
-1173 3 0
-1173 27 0
-1173 87 0
-3 -27 -87 1173 0
-1174 4 0
-1174 28 0
-1174 88 0
-4 -28 -88 1174 0
-1175 5 0
-1175 29 0
-1175 89 0
-5 -29 -89 1175 0
-1176 6 0
-1176 30 0
-1176 90 0
-6 -30 -90 1176 0
-1177 7 0
-1177 31 0
-1177 91 0
-7 -31 -91 1177 0
-1178 8 0
-1178 32 0
-1178 92 0
-8 -32 -92 1178 0
-1179 9 0
-1179 33 0
-1179 93 0
-9 -33 -93 1179 0
-1180 10 0
-1180 34 0
-1180 94 0
-10 -34 -94 1180 0
-1181 11 0
-1181 35 0
-1181 95 0
-11 -35 -95 1181 0
-1182 12 0
-1182 36 0
-1182 96 0
-12 -36 -96 1182 0
-1171 3657 0
-1172 3657 0
-1173 3657 0
-1174 3657 0
-1175 3657 0
-1176 3657 0
-1177 3657 0
-1178 3657 0
-1179 3657 0
-1180 3657 0
-1181 3657 0
-1182 3657 0
-3657 1171 1172 1173 1174 1175 1176 1177 1178 1179 1180 1181 1182 0
-1183 1 0
-1183 25 0
-1183 97 0
-1 -25 -97 1183 0
-1184 2 0
-1184 26 0
-1184 98 0
-2 -26 -98 1184 0
-1185 3 0
-1185 27 0
-1185 99 0
-3 -27 -99 1185 0
-1186 4 0
-1186 28 0
-1186 100 0
-4 -28 -100 1186 0
-1187 5 0
-1187 29 0
-1187 101 0
-5 -29 -101 1187 0
-1188 6 0
-1188 30 0
-1188 102 0
-6 -30 -102 1188 0
-1189 7 0
-1189 31 0
-1189 103 0
-7 -31 -103 1189 0
-1190 8 0
-1190 32 0
-1190 104 0
-8 -32 -104 1190 0
-1191 9 0
-1191 33 0
-1191 105 0
-9 -33 -105 1191 0
-1192 10 0
-1192 34 0
-1192 106 0
-10 -34 -106 1192 0
-1193 11 0
-1193 35 0
-1193 107 0
-11 -35 -107 1193 0
-1194 12 0
-1194 36 0
-1194 108 0
-12 -36 -108 1194 0
-1183 3658 0
-1184 3658 0
-1185 3658 0
-1186 3658 0
-1187 3658 0
-1188 3658 0
-1189 3658 0
-1190 3658 0
-1191 3658 0
-1192 3658 0
-1193 3658 0
-1194 3658 0
-3658 1183 1184 1185 1186 1187 1188 1189 1190 1191 1192 1193 1194 0
-1195 1 0
-1195 25 0
-1195 109 0
-1 -25 -109 1195 0
-1196 2 0
-1196 26 0
-1196 110 0
-2 -26 -110 1196 0
-1197 3 0
-1197 27 0
-1197 111 0
-3 -27 -111 1197 0
-1198 4 0
-1198 28 0
-1198 112 0
-4 -28 -112 1198 0
-1199 5 0
-1199 29 0
-1199 113 0
-5 -29 -113 1199 0
-1200 6 0
-1200 30 0
-1200 114 0
-6 -30 -114 1200 0
-1201 7 0
-1201 31 0
-1201 115 0
-7 -31 -115 1201 0
-1202 8 0
-1202 32 0
-1202 116 0
-8 -32 -116 1202 0
-1203 9 0
-1203 33 0
-1203 117 0
-9 -33 -117 1203 0
-1204 10 0
-1204 34 0
-1204 118 0
-10 -34 -118 1204 0
-1205 11 0
-1205 35 0
-1205 119 0
-11 -35 -119 1205 0
-1206 12 0
-1206 36 0
-1206 120 0
-12 -36 -120 1206 0
-1195 3659 0
-1196 3659 0
-1197 3659 0
-1198 3659 0
-1199 3659 0
-1200 3659 0
-1201 3659 0
-1202 3659 0
-1203 3659 0
-1204 3659 0
-1205 3659 0
-1206 3659 0
-3659 1195 1196 1197 1198 1199 1200 1201 1202 1203 1204 1205 1206 0
-1207 1 0
-1207 25 0
-1207 121 0
-1 -25 -121 1207 0
-1208 2 0
-1208 26 0
-1208 122 0
-2 -26 -122 1208 0
-1209 3 0
-1209 27 0
-1209 123 0
-3 -27 -123 1209 0
-1210 4 0
-1210 28 0
-1210 124 0
-4 -28 -124 1210 0
-1211 5 0
-1211 29 0
-1211 125 0
-5 -29 -125 1211 0
-1212 6 0
-1212 30 0
-1212 126 0
-6 -30 -126 1212 0
-1213 7 0
-1213 31 0
-1213 127 0
-7 -31 -127 1213 0
-1214 8 0
-1214 32 0
-1214 128 0
-8 -32 -128 1214 0
-1215 9 0
-1215 33 0
-1215 129 0
-9 -33 -129 1215 0
-1216 10 0
-1216 34 0
-1216 130 0
-10 -34 -130 1216 0
-1217 11 0
-1217 35 0
-1217 131 0
-11 -35 -131 1217 0
-1218 12 0
-1218 36 0
-1218 132 0
-12 -36 -132 1218 0
-1207 3660 0
-1208 3660 0
-1209 3660 0
-1210 3660 0
-1211 3660 0
-1212 3660 0
-1213 3660 0
-1214 3660 0
-1215 3660 0
-1216 3660 0
-1217 3660 0
-1218 3660 0
-3660 1207 1208 1209 1210 1211 1212 1213 1214 1215 1216 1217 1218 0
-1219 1 0
-1219 25 0
-1219 133 0
-1 -25 -133 1219 0
-1220 2 0
-1220 26 0
-1220 134 0
-2 -26 -134 1220 0
-1221 3 0
-1221 27 0
-1221 135 0
-3 -27 -135 1221 0
-1222 4 0
-1222 28 0
-1222 136 0
-4 -28 -136 1222 0
-1223 5 0
-1223 29 0
-1223 137 0
-5 -29 -137 1223 0
-1224 6 0
-1224 30 0
-1224 138 0
-6 -30 -138 1224 0
-1225 7 0
-1225 31 0
-1225 139 0
-7 -31 -139 1225 0
-1226 8 0
-1226 32 0
-1226 140 0
-8 -32 -140 1226 0
-1227 9 0
-1227 33 0
-1227 141 0
-9 -33 -141 1227 0
-1228 10 0
-1228 34 0
-1228 142 0
-10 -34 -142 1228 0
-1229 11 0
-1229 35 0
-1229 143 0
-11 -35 -143 1229 0
-1230 12 0
-1230 36 0
-1230 144 0
-12 -36 -144 1230 0
-1219 3661 0
-1220 3661 0
-1221 3661 0
-1222 3661 0
-1223 3661 0
-1224 3661 0
-1225 3661 0
-1226 3661 0
-1227 3661 0
-1228 3661 0
-1229 3661 0
-1230 3661 0
-3661 1219 1220 1221 1222 1223 1224 1225 1226 1227 1228 1229 1230 0
-1231 1 0
-1231 37 0
-1231 49 0
-1 -37 -49 1231 0
-1232 2 0
-1232 38 0
-1232 50 0
-2 -38 -50 1232 0
-1233 3 0
-1233 39 0
-1233 51 0
-3 -39 -51 1233 0
-1234 4 0
-1234 40 0
-1234 52 0
-4 -40 -52 1234 0
-1235 5 0
-1235 41 0
-1235 53 0
-5 -41 -53 1235 0
-1236 6 0
-1236 42 0
-1236 54 0
-6 -42 -54 1236 0
-1237 7 0
-1237 43 0
-1237 55 0
-7 -43 -55 1237 0
-1238 8 0
-1238 44 0
-1238 56 0
-8 -44 -56 1238 0
-1239 9 0
-1239 45 0
-1239 57 0
-9 -45 -57 1239 0
-1240 10 0
-1240 46 0
-1240 58 0
-10 -46 -58 1240 0
-1241 11 0
-1241 47 0
-1241 59 0
-11 -47 -59 1241 0
-1242 12 0
-1242 48 0
-1242 60 0
-12 -48 -60 1242 0
-1231 3662 0
-1232 3662 0
-1233 3662 0
-1234 3662 0
-1235 3662 0
-1236 3662 0
-1237 3662 0
-1238 3662 0
-1239 3662 0
-1240 3662 0
-1241 3662 0
-1242 3662 0
-3662 1231 1232 1233 1234 1235 1236 1237 1238 1239 1240 1241 1242 0
-1243 1 0
-1243 37 0
-1243 61 0
-1 -37 -61 1243 0
-1244 2 0
-1244 38 0
-1244 62 0
-2 -38 -62 1244 0
-1245 3 0
-1245 39 0
-1245 63 0
-3 -39 -63 1245 0
-1246 4 0
-1246 40 0
-1246 64 0
-4 -40 -64 1246 0
-1247 5 0
-1247 41 0
-1247 65 0
-5 -41 -65 1247 0
-1248 6 0
-1248 42 0
-1248 66 0
-6 -42 -66 1248 0
-1249 7 0
-1249 43 0
-1249 67 0
-7 -43 -67 1249 0
-1250 8 0
-1250 44 0
-1250 68 0
-8 -44 -68 1250 0
-1251 9 0
-1251 45 0
-1251 69 0
-9 -45 -69 1251 0
-1252 10 0
-1252 46 0
-1252 70 0
-10 -46 -70 1252 0
-1253 11 0
-1253 47 0
-1253 71 0
-11 -47 -71 1253 0
-1254 12 0
-1254 48 0
-1254 72 0
-12 -48 -72 1254 0
-1243 3663 0
-1244 3663 0
-1245 3663 0
-1246 3663 0
-1247 3663 0
-1248 3663 0
-1249 3663 0
-1250 3663 0
-1251 3663 0
-1252 3663 0
-1253 3663 0
-1254 3663 0
-3663 1243 1244 1245 1246 1247 1248 1249 1250 1251 1252 1253 1254 0
-1255 1 0
-1255 37 0
-1255 73 0
-1 -37 -73 1255 0
-1256 2 0
-1256 38 0
-1256 74 0
-2 -38 -74 1256 0
-1257 3 0
-1257 39 0
-1257 75 0
-3 -39 -75 1257 0
-1258 4 0
-1258 40 0
-1258 76 0
-4 -40 -76 1258 0
-1259 5 0
-1259 41 0
-1259 77 0
-5 -41 -77 1259 0
-1260 6 0
-1260 42 0
-1260 78 0
-6 -42 -78 1260 0
-1261 7 0
-1261 43 0
-1261 79 0
-7 -43 -79 1261 0
-1262 8 0
-1262 44 0
-1262 80 0
-8 -44 -80 1262 0
-1263 9 0
-1263 45 0
-1263 81 0
-9 -45 -81 1263 0
-1264 10 0
-1264 46 0
-1264 82 0
-10 -46 -82 1264 0
-1265 11 0
-1265 47 0
-1265 83 0
-11 -47 -83 1265 0
-1266 12 0
-1266 48 0
-1266 84 0
-12 -48 -84 1266 0
-1255 3664 0
-1256 3664 0
-1257 3664 0
-1258 3664 0
-1259 3664 0
-1260 3664 0
-1261 3664 0
-1262 3664 0
-1263 3664 0
-1264 3664 0
-1265 3664 0
-1266 3664 0
-3664 1255 1256 1257 1258 1259 1260 1261 1262 1263 1264 1265 1266 0
-1267 1 0
-1267 37 0
-1267 85 0
-1 -37 -85 1267 0
-1268 2 0
-1268 38 0
-1268 86 0
-2 -38 -86 1268 0
-1269 3 0
-1269 39 0
-1269 87 0
-3 -39 -87 1269 0
-1270 4 0
-1270 40 0
-1270 88 0
-4 -40 -88 1270 0
-1271 5 0
-1271 41 0
-1271 89 0
-5 -41 -89 1271 0
-1272 6 0
-1272 42 0
-1272 90 0
-6 -42 -90 1272 0
-1273 7 0
-1273 43 0
-1273 91 0
-7 -43 -91 1273 0
-1274 8 0
-1274 44 0
-1274 92 0
-8 -44 -92 1274 0
-1275 9 0
-1275 45 0
-1275 93 0
-9 -45 -93 1275 0
-1276 10 0
-1276 46 0
-1276 94 0
-10 -46 -94 1276 0
-1277 11 0
-1277 47 0
-1277 95 0
-11 -47 -95 1277 0
-1278 12 0
-1278 48 0
-1278 96 0
-12 -48 -96 1278 0
-1267 3665 0
-1268 3665 0
-1269 3665 0
-1270 3665 0
-1271 3665 0
-1272 3665 0
-1273 3665 0
-1274 3665 0
-1275 3665 0
-1276 3665 0
-1277 3665 0
-1278 3665 0
-3665 1267 1268 1269 1270 1271 1272 1273 1274 1275 1276 1277 1278 0
-1279 1 0
-1279 37 0
-1279 97 0
-1 -37 -97 1279 0
-1280 2 0
-1280 38 0
-1280 98 0
-2 -38 -98 1280 0
-1281 3 0
-1281 39 0
-1281 99 0
-3 -39 -99 1281 0
-1282 4 0
-1282 40 0
-1282 100 0
-4 -40 -100 1282 0
-1283 5 0
-1283 41 0
-1283 101 0
-5 -41 -101 1283 0
-1284 6 0
-1284 42 0
-1284 102 0
-6 -42 -102 1284 0
-1285 7 0
-1285 43 0
-1285 103 0
-7 -43 -103 1285 0
-1286 8 0
-1286 44 0
-1286 104 0
-8 -44 -104 1286 0
-1287 9 0
-1287 45 0
-1287 105 0
-9 -45 -105 1287 0
-1288 10 0
-1288 46 0
-1288 106 0
-10 -46 -106 1288 0
-1289 11 0
-1289 47 0
-1289 107 0
-11 -47 -107 1289 0
-1290 12 0
-1290 48 0
-1290 108 0
-12 -48 -108 1290 0
-1279 3666 0
-1280 3666 0
-1281 3666 0
-1282 3666 0
-1283 3666 0
-1284 3666 0
-1285 3666 0
-1286 3666 0
-1287 3666 0
-1288 3666 0
-1289 3666 0
-1290 3666 0
-3666 1279 1280 1281 1282 1283 1284 1285 1286 1287 1288 1289 1290 0
-1291 1 0
-1291 37 0
-1291 109 0
-1 -37 -109 1291 0
-1292 2 0
-1292 38 0
-1292 110 0
-2 -38 -110 1292 0
-1293 3 0
-1293 39 0
-1293 111 0
-3 -39 -111 1293 0
-1294 4 0
-1294 40 0
-1294 112 0
-4 -40 -112 1294 0
-1295 5 0
-1295 41 0
-1295 113 0
-5 -41 -113 1295 0
-1296 6 0
-1296 42 0
-1296 114 0
-6 -42 -114 1296 0
-1297 7 0
-1297 43 0
-1297 115 0
-7 -43 -115 1297 0
-1298 8 0
-1298 44 0
-1298 116 0
-8 -44 -116 1298 0
-1299 9 0
-1299 45 0
-1299 117 0
-9 -45 -117 1299 0
-1300 10 0
-1300 46 0
-1300 118 0
-10 -46 -118 1300 0
-1301 11 0
-1301 47 0
-1301 119 0
-11 -47 -119 1301 0
-1302 12 0
-1302 48 0
-1302 120 0
-12 -48 -120 1302 0
-1291 3667 0
-1292 3667 0
-1293 3667 0
-1294 3667 0
-1295 3667 0
-1296 3667 0
-1297 3667 0
-1298 3667 0
-1299 3667 0
-1300 3667 0
-1301 3667 0
-1302 3667 0
-3667 1291 1292 1293 1294 1295 1296 1297 1298 1299 1300 1301 1302 0
-1303 1 0
-1303 37 0
-1303 121 0
-1 -37 -121 1303 0
-1304 2 0
-1304 38 0
-1304 122 0
-2 -38 -122 1304 0
-1305 3 0
-1305 39 0
-1305 123 0
-3 -39 -123 1305 0
-1306 4 0
-1306 40 0
-1306 124 0
-4 -40 -124 1306 0
-1307 5 0
-1307 41 0
-1307 125 0
-5 -41 -125 1307 0
-1308 6 0
-1308 42 0
-1308 126 0
-6 -42 -126 1308 0
-1309 7 0
-1309 43 0
-1309 127 0
-7 -43 -127 1309 0
-1310 8 0
-1310 44 0
-1310 128 0
-8 -44 -128 1310 0
-1311 9 0
-1311 45 0
-1311 129 0
-9 -45 -129 1311 0
-1312 10 0
-1312 46 0
-1312 130 0
-10 -46 -130 1312 0
-1313 11 0
-1313 47 0
-1313 131 0
-11 -47 -131 1313 0
-1314 12 0
-1314 48 0
-1314 132 0
-12 -48 -132 1314 0
-1303 3668 0
-1304 3668 0
-1305 3668 0
-1306 3668 0
-1307 3668 0
-1308 3668 0
-1309 3668 0
-1310 3668 0
-1311 3668 0
-1312 3668 0
-1313 3668 0
-1314 3668 0
-3668 1303 1304 1305 1306 1307 1308 1309 1310 1311 1312 1313 1314 0
-1315 1 0
-1315 37 0
-1315 133 0
-1 -37 -133 1315 0
-1316 2 0
-1316 38 0
-1316 134 0
-2 -38 -134 1316 0
-1317 3 0
-1317 39 0
-1317 135 0
-3 -39 -135 1317 0
-1318 4 0
-1318 40 0
-1318 136 0
-4 -40 -136 1318 0
-1319 5 0
-1319 41 0
-1319 137 0
-5 -41 -137 1319 0
-1320 6 0
-1320 42 0
-1320 138 0
-6 -42 -138 1320 0
-1321 7 0
-1321 43 0
-1321 139 0
-7 -43 -139 1321 0
-1322 8 0
-1322 44 0
-1322 140 0
-8 -44 -140 1322 0
-1323 9 0
-1323 45 0
-1323 141 0
-9 -45 -141 1323 0
-1324 10 0
-1324 46 0
-1324 142 0
-10 -46 -142 1324 0
-1325 11 0
-1325 47 0
-1325 143 0
-11 -47 -143 1325 0
-1326 12 0
-1326 48 0
-1326 144 0
-12 -48 -144 1326 0
-1315 3669 0
-1316 3669 0
-1317 3669 0
-1318 3669 0
-1319 3669 0
-1320 3669 0
-1321 3669 0
-1322 3669 0
-1323 3669 0
-1324 3669 0
-1325 3669 0
-1326 3669 0
-3669 1315 1316 1317 1318 1319 1320 1321 1322 1323 1324 1325 1326 0
-1327 1 0
-1327 49 0
-1327 61 0
-1 -49 -61 1327 0
-1328 2 0
-1328 50 0
-1328 62 0
-2 -50 -62 1328 0
-1329 3 0
-1329 51 0
-1329 63 0
-3 -51 -63 1329 0
-1330 4 0
-1330 52 0
-1330 64 0
-4 -52 -64 1330 0
-1331 5 0
-1331 53 0
-1331 65 0
-5 -53 -65 1331 0
-1332 6 0
-1332 54 0
-1332 66 0
-6 -54 -66 1332 0
-1333 7 0
-1333 55 0
-1333 67 0
-7 -55 -67 1333 0
-1334 8 0
-1334 56 0
-1334 68 0
-8 -56 -68 1334 0
-1335 9 0
-1335 57 0
-1335 69 0
-9 -57 -69 1335 0
-1336 10 0
-1336 58 0
-1336 70 0
-10 -58 -70 1336 0
-1337 11 0
-1337 59 0
-1337 71 0
-11 -59 -71 1337 0
-1338 12 0
-1338 60 0
-1338 72 0
-12 -60 -72 1338 0
-1327 3670 0
-1328 3670 0
-1329 3670 0
-1330 3670 0
-1331 3670 0
-1332 3670 0
-1333 3670 0
-1334 3670 0
-1335 3670 0
-1336 3670 0
-1337 3670 0
-1338 3670 0
-3670 1327 1328 1329 1330 1331 1332 1333 1334 1335 1336 1337 1338 0
-1339 1 0
-1339 49 0
-1339 73 0
-1 -49 -73 1339 0
-1340 2 0
-1340 50 0
-1340 74 0
-2 -50 -74 1340 0
-1341 3 0
-1341 51 0
-1341 75 0
-3 -51 -75 1341 0
-1342 4 0
-1342 52 0
-1342 76 0
-4 -52 -76 1342 0
-1343 5 0
-1343 53 0
-1343 77 0
-5 -53 -77 1343 0
-1344 6 0
-1344 54 0
-1344 78 0
-6 -54 -78 1344 0
-1345 7 0
-1345 55 0
-1345 79 0
-7 -55 -79 1345 0
-1346 8 0
-1346 56 0
-1346 80 0
-8 -56 -80 1346 0
-1347 9 0
-1347 57 0
-1347 81 0
-9 -57 -81 1347 0
-1348 10 0
-1348 58 0
-1348 82 0
-10 -58 -82 1348 0
-1349 11 0
-1349 59 0
-1349 83 0
-11 -59 -83 1349 0
-1350 12 0
-1350 60 0
-1350 84 0
-12 -60 -84 1350 0
-1339 3671 0
-1340 3671 0
-1341 3671 0
-1342 3671 0
-1343 3671 0
-1344 3671 0
-1345 3671 0
-1346 3671 0
-1347 3671 0
-1348 3671 0
-1349 3671 0
-1350 3671 0
-3671 1339 1340 1341 1342 1343 1344 1345 1346 1347 1348 1349 1350 0
-1351 1 0
-1351 49 0
-1351 85 0
-1 -49 -85 1351 0
-1352 2 0
-1352 50 0
-1352 86 0
-2 -50 -86 1352 0
-1353 3 0
-1353 51 0
-1353 87 0
-3 -51 -87 1353 0
-1354 4 0
-1354 52 0
-1354 88 0
-4 -52 -88 1354 0
-1355 5 0
-1355 53 0
-1355 89 0
-5 -53 -89 1355 0
-1356 6 0
-1356 54 0
-1356 90 0
-6 -54 -90 1356 0
-1357 7 0
-1357 55 0
-1357 91 0
-7 -55 -91 1357 0
-1358 8 0
-1358 56 0
-1358 92 0
-8 -56 -92 1358 0
-1359 9 0
-1359 57 0
-1359 93 0
-9 -57 -93 1359 0
-1360 10 0
-1360 58 0
-1360 94 0
-10 -58 -94 1360 0
-1361 11 0
-1361 59 0
-1361 95 0
-11 -59 -95 1361 0
-1362 12 0
-1362 60 0
-1362 96 0
-12 -60 -96 1362 0
-1351 3672 0
-1352 3672 0
-1353 3672 0
-1354 3672 0
-1355 3672 0
-1356 3672 0
-1357 3672 0
-1358 3672 0
-1359 3672 0
-1360 3672 0
-1361 3672 0
-1362 3672 0
-3672 1351 1352 1353 1354 1355 1356 1357 1358 1359 1360 1361 1362 0
-1363 1 0
-1363 49 0
-1363 97 0
-1 -49 -97 1363 0
-1364 2 0
-1364 50 0
-1364 98 0
-2 -50 -98 1364 0
-1365 3 0
-1365 51 0
-1365 99 0
-3 -51 -99 1365 0
-1366 4 0
-1366 52 0
-1366 100 0
-4 -52 -100 1366 0
-1367 5 0
-1367 53 0
-1367 101 0
-5 -53 -101 1367 0
-1368 6 0
-1368 54 0
-1368 102 0
-6 -54 -102 1368 0
-1369 7 0
-1369 55 0
-1369 103 0
-7 -55 -103 1369 0
-1370 8 0
-1370 56 0
-1370 104 0
-8 -56 -104 1370 0
-1371 9 0
-1371 57 0
-1371 105 0
-9 -57 -105 1371 0
-1372 10 0
-1372 58 0
-1372 106 0
-10 -58 -106 1372 0
-1373 11 0
-1373 59 0
-1373 107 0
-11 -59 -107 1373 0
-1374 12 0
-1374 60 0
-1374 108 0
-12 -60 -108 1374 0
-1363 3673 0
-1364 3673 0
-1365 3673 0
-1366 3673 0
-1367 3673 0
-1368 3673 0
-1369 3673 0
-1370 3673 0
-1371 3673 0
-1372 3673 0
-1373 3673 0
-1374 3673 0
-3673 1363 1364 1365 1366 1367 1368 1369 1370 1371 1372 1373 1374 0
-1375 1 0
-1375 49 0
-1375 109 0
-1 -49 -109 1375 0
-1376 2 0
-1376 50 0
-1376 110 0
-2 -50 -110 1376 0
-1377 3 0
-1377 51 0
-1377 111 0
-3 -51 -111 1377 0
-1378 4 0
-1378 52 0
-1378 112 0
-4 -52 -112 1378 0
-1379 5 0
-1379 53 0
-1379 113 0
-5 -53 -113 1379 0
-1380 6 0
-1380 54 0
-1380 114 0
-6 -54 -114 1380 0
-1381 7 0
-1381 55 0
-1381 115 0
-7 -55 -115 1381 0
-1382 8 0
-1382 56 0
-1382 116 0
-8 -56 -116 1382 0
-1383 9 0
-1383 57 0
-1383 117 0
-9 -57 -117 1383 0
-1384 10 0
-1384 58 0
-1384 118 0
-10 -58 -118 1384 0
-1385 11 0
-1385 59 0
-1385 119 0
-11 -59 -119 1385 0
-1386 12 0
-1386 60 0
-1386 120 0
-12 -60 -120 1386 0
-1375 3674 0
-1376 3674 0
-1377 3674 0
-1378 3674 0
-1379 3674 0
-1380 3674 0
-1381 3674 0
-1382 3674 0
-1383 3674 0
-1384 3674 0
-1385 3674 0
-1386 3674 0
-3674 1375 1376 1377 1378 1379 1380 1381 1382 1383 1384 1385 1386 0
-1387 1 0
-1387 49 0
-1387 121 0
-1 -49 -121 1387 0
-1388 2 0
-1388 50 0
-1388 122 0
-2 -50 -122 1388 0
-1389 3 0
-1389 51 0
-1389 123 0
-3 -51 -123 1389 0
-1390 4 0
-1390 52 0
-1390 124 0
-4 -52 -124 1390 0
-1391 5 0
-1391 53 0
-1391 125 0
-5 -53 -125 1391 0
-1392 6 0
-1392 54 0
-1392 126 0
-6 -54 -126 1392 0
-1393 7 0
-1393 55 0
-1393 127 0
-7 -55 -127 1393 0
-1394 8 0
-1394 56 0
-1394 128 0
-8 -56 -128 1394 0
-1395 9 0
-1395 57 0
-1395 129 0
-9 -57 -129 1395 0
-1396 10 0
-1396 58 0
-1396 130 0
-10 -58 -130 1396 0
-1397 11 0
-1397 59 0
-1397 131 0
-11 -59 -131 1397 0
-1398 12 0
-1398 60 0
-1398 132 0
-12 -60 -132 1398 0
-1387 3675 0
-1388 3675 0
-1389 3675 0
-1390 3675 0
-1391 3675 0
-1392 3675 0
-1393 3675 0
-1394 3675 0
-1395 3675 0
-1396 3675 0
-1397 3675 0
-1398 3675 0
-3675 1387 1388 1389 1390 1391 1392 1393 1394 1395 1396 1397 1398 0
-1399 1 0
-1399 49 0
-1399 133 0
-1 -49 -133 1399 0
-1400 2 0
-1400 50 0
-1400 134 0
-2 -50 -134 1400 0
-1401 3 0
-1401 51 0
-1401 135 0
-3 -51 -135 1401 0
-1402 4 0
-1402 52 0
-1402 136 0
-4 -52 -136 1402 0
-1403 5 0
-1403 53 0
-1403 137 0
-5 -53 -137 1403 0
-1404 6 0
-1404 54 0
-1404 138 0
-6 -54 -138 1404 0
-1405 7 0
-1405 55 0
-1405 139 0
-7 -55 -139 1405 0
-1406 8 0
-1406 56 0
-1406 140 0
-8 -56 -140 1406 0
-1407 9 0
-1407 57 0
-1407 141 0
-9 -57 -141 1407 0
-1408 10 0
-1408 58 0
-1408 142 0
-10 -58 -142 1408 0
-1409 11 0
-1409 59 0
-1409 143 0
-11 -59 -143 1409 0
-1410 12 0
-1410 60 0
-1410 144 0
-12 -60 -144 1410 0
-1399 3676 0
-1400 3676 0
-1401 3676 0
-1402 3676 0
-1403 3676 0
-1404 3676 0
-1405 3676 0
-1406 3676 0
-1407 3676 0
-1408 3676 0
-1409 3676 0
-1410 3676 0
-3676 1399 1400 1401 1402 1403 1404 1405 1406 1407 1408 1409 1410 0
-1411 1 0
-1411 61 0
-1411 73 0
-1 -61 -73 1411 0
-1412 2 0
-1412 62 0
-1412 74 0
-2 -62 -74 1412 0
-1413 3 0
-1413 63 0
-1413 75 0
-3 -63 -75 1413 0
-1414 4 0
-1414 64 0
-1414 76 0
-4 -64 -76 1414 0
-1415 5 0
-1415 65 0
-1415 77 0
-5 -65 -77 1415 0
-1416 6 0
-1416 66 0
-1416 78 0
-6 -66 -78 1416 0
-1417 7 0
-1417 67 0
-1417 79 0
-7 -67 -79 1417 0
-1418 8 0
-1418 68 0
-1418 80 0
-8 -68 -80 1418 0
-1419 9 0
-1419 69 0
-1419 81 0
-9 -69 -81 1419 0
-1420 10 0
-1420 70 0
-1420 82 0
-10 -70 -82 1420 0
-1421 11 0
-1421 71 0
-1421 83 0
-11 -71 -83 1421 0
-1422 12 0
-1422 72 0
-1422 84 0
-12 -72 -84 1422 0
-1411 3677 0
-1412 3677 0
-1413 3677 0
-1414 3677 0
-1415 3677 0
-1416 3677 0
-1417 3677 0
-1418 3677 0
-1419 3677 0
-1420 3677 0
-1421 3677 0
-1422 3677 0
-3677 1411 1412 1413 1414 1415 1416 1417 1418 1419 1420 1421 1422 0
-1423 1 0
-1423 61 0
-1423 85 0
-1 -61 -85 1423 0
-1424 2 0
-1424 62 0
-1424 86 0
-2 -62 -86 1424 0
-1425 3 0
-1425 63 0
-1425 87 0
-3 -63 -87 1425 0
-1426 4 0
-1426 64 0
-1426 88 0
-4 -64 -88 1426 0
-1427 5 0
-1427 65 0
-1427 89 0
-5 -65 -89 1427 0
-1428 6 0
-1428 66 0
-1428 90 0
-6 -66 -90 1428 0
-1429 7 0
-1429 67 0
-1429 91 0
-7 -67 -91 1429 0
-1430 8 0
-1430 68 0
-1430 92 0
-8 -68 -92 1430 0
-1431 9 0
-1431 69 0
-1431 93 0
-9 -69 -93 1431 0
-1432 10 0
-1432 70 0
-1432 94 0
-10 -70 -94 1432 0
-1433 11 0
-1433 71 0
-1433 95 0
-11 -71 -95 1433 0
-1434 12 0
-1434 72 0
-1434 96 0
-12 -72 -96 1434 0
-1423 3678 0
-1424 3678 0
-1425 3678 0
-1426 3678 0
-1427 3678 0
-1428 3678 0
-1429 3678 0
-1430 3678 0
-1431 3678 0
-1432 3678 0
-1433 3678 0
-1434 3678 0
-3678 1423 1424 1425 1426 1427 1428 1429 1430 1431 1432 1433 1434 0
-1435 1 0
-1435 61 0
-1435 97 0
-1 -61 -97 1435 0
-1436 2 0
-1436 62 0
-1436 98 0
-2 -62 -98 1436 0
-1437 3 0
-1437 63 0
-1437 99 0
-3 -63 -99 1437 0
-1438 4 0
-1438 64 0
-1438 100 0
-4 -64 -100 1438 0
-1439 5 0
-1439 65 0
-1439 101 0
-5 -65 -101 1439 0
-1440 6 0
-1440 66 0
-1440 102 0
-6 -66 -102 1440 0
-1441 7 0
-1441 67 0
-1441 103 0
-7 -67 -103 1441 0
-1442 8 0
-1442 68 0
-1442 104 0
-8 -68 -104 1442 0
-1443 9 0
-1443 69 0
-1443 105 0
-9 -69 -105 1443 0
-1444 10 0
-1444 70 0
-1444 106 0
-10 -70 -106 1444 0
-1445 11 0
-1445 71 0
-1445 107 0
-11 -71 -107 1445 0
-1446 12 0
-1446 72 0
-1446 108 0
-12 -72 -108 1446 0
-1435 3679 0
-1436 3679 0
-1437 3679 0
-1438 3679 0
-1439 3679 0
-1440 3679 0
-1441 3679 0
-1442 3679 0
-1443 3679 0
-1444 3679 0
-1445 3679 0
-1446 3679 0
-3679 1435 1436 1437 1438 1439 1440 1441 1442 1443 1444 1445 1446 0
-1447 1 0
-1447 61 0
-1447 109 0
-1 -61 -109 1447 0
-1448 2 0
-1448 62 0
-1448 110 0
-2 -62 -110 1448 0
-1449 3 0
-1449 63 0
-1449 111 0
-3 -63 -111 1449 0
-1450 4 0
-1450 64 0
-1450 112 0
-4 -64 -112 1450 0
-1451 5 0
-1451 65 0
-1451 113 0
-5 -65 -113 1451 0
-1452 6 0
-1452 66 0
-1452 114 0
-6 -66 -114 1452 0
-1453 7 0
-1453 67 0
-1453 115 0
-7 -67 -115 1453 0
-1454 8 0
-1454 68 0
-1454 116 0
-8 -68 -116 1454 0
-1455 9 0
-1455 69 0
-1455 117 0
-9 -69 -117 1455 0
-1456 10 0
-1456 70 0
-1456 118 0
-10 -70 -118 1456 0
-1457 11 0
-1457 71 0
-1457 119 0
-11 -71 -119 1457 0
-1458 12 0
-1458 72 0
-1458 120 0
-12 -72 -120 1458 0
-1447 3680 0
-1448 3680 0
-1449 3680 0
-1450 3680 0
-1451 3680 0
-1452 3680 0
-1453 3680 0
-1454 3680 0
-1455 3680 0
-1456 3680 0
-1457 3680 0
-1458 3680 0
-3680 1447 1448 1449 1450 1451 1452 1453 1454 1455 1456 1457 1458 0
-1459 1 0
-1459 61 0
-1459 121 0
-1 -61 -121 1459 0
-1460 2 0
-1460 62 0
-1460 122 0
-2 -62 -122 1460 0
-1461 3 0
-1461 63 0
-1461 123 0
-3 -63 -123 1461 0
-1462 4 0
-1462 64 0
-1462 124 0
-4 -64 -124 1462 0
-1463 5 0
-1463 65 0
-1463 125 0
-5 -65 -125 1463 0
-1464 6 0
-1464 66 0
-1464 126 0
-6 -66 -126 1464 0
-1465 7 0
-1465 67 0
-1465 127 0
-7 -67 -127 1465 0
-1466 8 0
-1466 68 0
-1466 128 0
-8 -68 -128 1466 0
-1467 9 0
-1467 69 0
-1467 129 0
-9 -69 -129 1467 0
-1468 10 0
-1468 70 0
-1468 130 0
-10 -70 -130 1468 0
-1469 11 0
-1469 71 0
-1469 131 0
-11 -71 -131 1469 0
-1470 12 0
-1470 72 0
-1470 132 0
-12 -72 -132 1470 0
-1459 3681 0
-1460 3681 0
-1461 3681 0
-1462 3681 0
-1463 3681 0
-1464 3681 0
-1465 3681 0
-1466 3681 0
-1467 3681 0
-1468 3681 0
-1469 3681 0
-1470 3681 0
-3681 1459 1460 1461 1462 1463 1464 1465 1466 1467 1468 1469 1470 0
-1471 1 0
-1471 61 0
-1471 133 0
-1 -61 -133 1471 0
-1472 2 0
-1472 62 0
-1472 134 0
-2 -62 -134 1472 0
-1473 3 0
-1473 63 0
-1473 135 0
-3 -63 -135 1473 0
-1474 4 0
-1474 64 0
-1474 136 0
-4 -64 -136 1474 0
-1475 5 0
-1475 65 0
-1475 137 0
-5 -65 -137 1475 0
-1476 6 0
-1476 66 0
-1476 138 0
-6 -66 -138 1476 0
-1477 7 0
-1477 67 0
-1477 139 0
-7 -67 -139 1477 0
-1478 8 0
-1478 68 0
-1478 140 0
-8 -68 -140 1478 0
-1479 9 0
-1479 69 0
-1479 141 0
-9 -69 -141 1479 0
-1480 10 0
-1480 70 0
-1480 142 0
-10 -70 -142 1480 0
-1481 11 0
-1481 71 0
-1481 143 0
-11 -71 -143 1481 0
-1482 12 0
-1482 72 0
-1482 144 0
-12 -72 -144 1482 0
-1471 3682 0
-1472 3682 0
-1473 3682 0
-1474 3682 0
-1475 3682 0
-1476 3682 0
-1477 3682 0
-1478 3682 0
-1479 3682 0
-1480 3682 0
-1481 3682 0
-1482 3682 0
-3682 1471 1472 1473 1474 1475 1476 1477 1478 1479 1480 1481 1482 0
-1483 1 0
-1483 73 0
-1483 85 0
-1 -73 -85 1483 0
-1484 2 0
-1484 74 0
-1484 86 0
-2 -74 -86 1484 0
-1485 3 0
-1485 75 0
-1485 87 0
-3 -75 -87 1485 0
-1486 4 0
-1486 76 0
-1486 88 0
-4 -76 -88 1486 0
-1487 5 0
-1487 77 0
-1487 89 0
-5 -77 -89 1487 0
-1488 6 0
-1488 78 0
-1488 90 0
-6 -78 -90 1488 0
-1489 7 0
-1489 79 0
-1489 91 0
-7 -79 -91 1489 0
-1490 8 0
-1490 80 0
-1490 92 0
-8 -80 -92 1490 0
-1491 9 0
-1491 81 0
-1491 93 0
-9 -81 -93 1491 0
-1492 10 0
-1492 82 0
-1492 94 0
-10 -82 -94 1492 0
-1493 11 0
-1493 83 0
-1493 95 0
-11 -83 -95 1493 0
-1494 12 0
-1494 84 0
-1494 96 0
-12 -84 -96 1494 0
-1483 3683 0
-1484 3683 0
-1485 3683 0
-1486 3683 0
-1487 3683 0
-1488 3683 0
-1489 3683 0
-1490 3683 0
-1491 3683 0
-1492 3683 0
-1493 3683 0
-1494 3683 0
-3683 1483 1484 1485 1486 1487 1488 1489 1490 1491 1492 1493 1494 0
-1495 1 0
-1495 73 0
-1495 97 0
-1 -73 -97 1495 0
-1496 2 0
-1496 74 0
-1496 98 0
-2 -74 -98 1496 0
-1497 3 0
-1497 75 0
-1497 99 0
-3 -75 -99 1497 0
-1498 4 0
-1498 76 0
-1498 100 0
-4 -76 -100 1498 0
-1499 5 0
-1499 77 0
-1499 101 0
-5 -77 -101 1499 0
-1500 6 0
-1500 78 0
-1500 102 0
-6 -78 -102 1500 0
-1501 7 0
-1501 79 0
-1501 103 0
-7 -79 -103 1501 0
-1502 8 0
-1502 80 0
-1502 104 0
-8 -80 -104 1502 0
-1503 9 0
-1503 81 0
-1503 105 0
-9 -81 -105 1503 0
-1504 10 0
-1504 82 0
-1504 106 0
-10 -82 -106 1504 0
-1505 11 0
-1505 83 0
-1505 107 0
-11 -83 -107 1505 0
-1506 12 0
-1506 84 0
-1506 108 0
-12 -84 -108 1506 0
-1495 3684 0
-1496 3684 0
-1497 3684 0
-1498 3684 0
-1499 3684 0
-1500 3684 0
-1501 3684 0
-1502 3684 0
-1503 3684 0
-1504 3684 0
-1505 3684 0
-1506 3684 0
-3684 1495 1496 1497 1498 1499 1500 1501 1502 1503 1504 1505 1506 0
-1507 1 0
-1507 73 0
-1507 109 0
-1 -73 -109 1507 0
-1508 2 0
-1508 74 0
-1508 110 0
-2 -74 -110 1508 0
-1509 3 0
-1509 75 0
-1509 111 0
-3 -75 -111 1509 0
-1510 4 0
-1510 76 0
-1510 112 0
-4 -76 -112 1510 0
-1511 5 0
-1511 77 0
-1511 113 0
-5 -77 -113 1511 0
-1512 6 0
-1512 78 0
-1512 114 0
-6 -78 -114 1512 0
-1513 7 0
-1513 79 0
-1513 115 0
-7 -79 -115 1513 0
-1514 8 0
-1514 80 0
-1514 116 0
-8 -80 -116 1514 0
-1515 9 0
-1515 81 0
-1515 117 0
-9 -81 -117 1515 0
-1516 10 0
-1516 82 0
-1516 118 0
-10 -82 -118 1516 0
-1517 11 0
-1517 83 0
-1517 119 0
-11 -83 -119 1517 0
-1518 12 0
-1518 84 0
-1518 120 0
-12 -84 -120 1518 0
-1507 3685 0
-1508 3685 0
-1509 3685 0
-1510 3685 0
-1511 3685 0
-1512 3685 0
-1513 3685 0
-1514 3685 0
-1515 3685 0
-1516 3685 0
-1517 3685 0
-1518 3685 0
-3685 1507 1508 1509 1510 1511 1512 1513 1514 1515 1516 1517 1518 0
-1519 1 0
-1519 73 0
-1519 121 0
-1 -73 -121 1519 0
-1520 2 0
-1520 74 0
-1520 122 0
-2 -74 -122 1520 0
-1521 3 0
-1521 75 0
-1521 123 0
-3 -75 -123 1521 0
-1522 4 0
-1522 76 0
-1522 124 0
-4 -76 -124 1522 0
-1523 5 0
-1523 77 0
-1523 125 0
-5 -77 -125 1523 0
-1524 6 0
-1524 78 0
-1524 126 0
-6 -78 -126 1524 0
-1525 7 0
-1525 79 0
-1525 127 0
-7 -79 -127 1525 0
-1526 8 0
-1526 80 0
-1526 128 0
-8 -80 -128 1526 0
-1527 9 0
-1527 81 0
-1527 129 0
-9 -81 -129 1527 0
-1528 10 0
-1528 82 0
-1528 130 0
-10 -82 -130 1528 0
-1529 11 0
-1529 83 0
-1529 131 0
-11 -83 -131 1529 0
-1530 12 0
-1530 84 0
-1530 132 0
-12 -84 -132 1530 0
-1519 3686 0
-1520 3686 0
-1521 3686 0
-1522 3686 0
-1523 3686 0
-1524 3686 0
-1525 3686 0
-1526 3686 0
-1527 3686 0
-1528 3686 0
-1529 3686 0
-1530 3686 0
-3686 1519 1520 1521 1522 1523 1524 1525 1526 1527 1528 1529 1530 0
-1531 1 0
-1531 73 0
-1531 133 0
-1 -73 -133 1531 0
-1532 2 0
-1532 74 0
-1532 134 0
-2 -74 -134 1532 0
-1533 3 0
-1533 75 0
-1533 135 0
-3 -75 -135 1533 0
-1534 4 0
-1534 76 0
-1534 136 0
-4 -76 -136 1534 0
-1535 5 0
-1535 77 0
-1535 137 0
-5 -77 -137 1535 0
-1536 6 0
-1536 78 0
-1536 138 0
-6 -78 -138 1536 0
-1537 7 0
-1537 79 0
-1537 139 0
-7 -79 -139 1537 0
-1538 8 0
-1538 80 0
-1538 140 0
-8 -80 -140 1538 0
-1539 9 0
-1539 81 0
-1539 141 0
-9 -81 -141 1539 0
-1540 10 0
-1540 82 0
-1540 142 0
-10 -82 -142 1540 0
-1541 11 0
-1541 83 0
-1541 143 0
-11 -83 -143 1541 0
-1542 12 0
-1542 84 0
-1542 144 0
-12 -84 -144 1542 0
-1531 3687 0
-1532 3687 0
-1533 3687 0
-1534 3687 0
-1535 3687 0
-1536 3687 0
-1537 3687 0
-1538 3687 0
-1539 3687 0
-1540 3687 0
-1541 3687 0
-1542 3687 0
-3687 1531 1532 1533 1534 1535 1536 1537 1538 1539 1540 1541 1542 0
-1543 1 0
-1543 85 0
-1543 97 0
-1 -85 -97 1543 0
-1544 2 0
-1544 86 0
-1544 98 0
-2 -86 -98 1544 0
-1545 3 0
-1545 87 0
-1545 99 0
-3 -87 -99 1545 0
-1546 4 0
-1546 88 0
-1546 100 0
-4 -88 -100 1546 0
-1547 5 0
-1547 89 0
-1547 101 0
-5 -89 -101 1547 0
-1548 6 0
-1548 90 0
-1548 102 0
-6 -90 -102 1548 0
-1549 7 0
-1549 91 0
-1549 103 0
-7 -91 -103 1549 0
-1550 8 0
-1550 92 0
-1550 104 0
-8 -92 -104 1550 0
-1551 9 0
-1551 93 0
-1551 105 0
-9 -93 -105 1551 0
-1552 10 0
-1552 94 0
-1552 106 0
-10 -94 -106 1552 0
-1553 11 0
-1553 95 0
-1553 107 0
-11 -95 -107 1553 0
-1554 12 0
-1554 96 0
-1554 108 0
-12 -96 -108 1554 0
-1543 3688 0
-1544 3688 0
-1545 3688 0
-1546 3688 0
-1547 3688 0
-1548 3688 0
-1549 3688 0
-1550 3688 0
-1551 3688 0
-1552 3688 0
-1553 3688 0
-1554 3688 0
-3688 1543 1544 1545 1546 1547 1548 1549 1550 1551 1552 1553 1554 0
-1555 1 0
-1555 85 0
-1555 109 0
-1 -85 -109 1555 0
-1556 2 0
-1556 86 0
-1556 110 0
-2 -86 -110 1556 0
-1557 3 0
-1557 87 0
-1557 111 0
-3 -87 -111 1557 0
-1558 4 0
-1558 88 0
-1558 112 0
-4 -88 -112 1558 0
-1559 5 0
-1559 89 0
-1559 113 0
-5 -89 -113 1559 0
-1560 6 0
-1560 90 0
-1560 114 0
-6 -90 -114 1560 0
-1561 7 0
-1561 91 0
-1561 115 0
-7 -91 -115 1561 0
-1562 8 0
-1562 92 0
-1562 116 0
-8 -92 -116 1562 0
-1563 9 0
-1563 93 0
-1563 117 0
-9 -93 -117 1563 0
-1564 10 0
-1564 94 0
-1564 118 0
-10 -94 -118 1564 0
-1565 11 0
-1565 95 0
-1565 119 0
-11 -95 -119 1565 0
-1566 12 0
-1566 96 0
-1566 120 0
-12 -96 -120 1566 0
-1555 3689 0
-1556 3689 0
-1557 3689 0
-1558 3689 0
-1559 3689 0
-1560 3689 0
-1561 3689 0
-1562 3689 0
-1563 3689 0
-1564 3689 0
-1565 3689 0
-1566 3689 0
-3689 1555 1556 1557 1558 1559 1560 1561 1562 1563 1564 1565 1566 0
-1567 1 0
-1567 85 0
-1567 121 0
-1 -85 -121 1567 0
-1568 2 0
-1568 86 0
-1568 122 0
-2 -86 -122 1568 0
-1569 3 0
-1569 87 0
-1569 123 0
-3 -87 -123 1569 0
-1570 4 0
-1570 88 0
-1570 124 0
-4 -88 -124 1570 0
-1571 5 0
-1571 89 0
-1571 125 0
-5 -89 -125 1571 0
-1572 6 0
-1572 90 0
-1572 126 0
-6 -90 -126 1572 0
-1573 7 0
-1573 91 0
-1573 127 0
-7 -91 -127 1573 0
-1574 8 0
-1574 92 0
-1574 128 0
-8 -92 -128 1574 0
-1575 9 0
-1575 93 0
-1575 129 0
-9 -93 -129 1575 0
-1576 10 0
-1576 94 0
-1576 130 0
-10 -94 -130 1576 0
-1577 11 0
-1577 95 0
-1577 131 0
-11 -95 -131 1577 0
-1578 12 0
-1578 96 0
-1578 132 0
-12 -96 -132 1578 0
-1567 3690 0
-1568 3690 0
-1569 3690 0
-1570 3690 0
-1571 3690 0
-1572 3690 0
-1573 3690 0
-1574 3690 0
-1575 3690 0
-1576 3690 0
-1577 3690 0
-1578 3690 0
-3690 1567 1568 1569 1570 1571 1572 1573 1574 1575 1576 1577 1578 0
-1579 1 0
-1579 85 0
-1579 133 0
-1 -85 -133 1579 0
-1580 2 0
-1580 86 0
-1580 134 0
-2 -86 -134 1580 0
-1581 3 0
-1581 87 0
-1581 135 0
-3 -87 -135 1581 0
-1582 4 0
-1582 88 0
-1582 136 0
-4 -88 -136 1582 0
-1583 5 0
-1583 89 0
-1583 137 0
-5 -89 -137 1583 0
-1584 6 0
-1584 90 0
-1584 138 0
-6 -90 -138 1584 0
-1585 7 0
-1585 91 0
-1585 139 0
-7 -91 -139 1585 0
-1586 8 0
-1586 92 0
-1586 140 0
-8 -92 -140 1586 0
-1587 9 0
-1587 93 0
-1587 141 0
-9 -93 -141 1587 0
-1588 10 0
-1588 94 0
-1588 142 0
-10 -94 -142 1588 0
-1589 11 0
-1589 95 0
-1589 143 0
-11 -95 -143 1589 0
-1590 12 0
-1590 96 0
-1590 144 0
-12 -96 -144 1590 0
-1579 3691 0
-1580 3691 0
-1581 3691 0
-1582 3691 0
-1583 3691 0
-1584 3691 0
-1585 3691 0
-1586 3691 0
-1587 3691 0
-1588 3691 0
-1589 3691 0
-1590 3691 0
-3691 1579 1580 1581 1582 1583 1584 1585 1586 1587 1588 1589 1590 0
-1591 1 0
-1591 97 0
-1591 109 0
-1 -97 -109 1591 0
-1592 2 0
-1592 98 0
-1592 110 0
-2 -98 -110 1592 0
-1593 3 0
-1593 99 0
-1593 111 0
-3 -99 -111 1593 0
-1594 4 0
-1594 100 0
-1594 112 0
-4 -100 -112 1594 0
-1595 5 0
-1595 101 0
-1595 113 0
-5 -101 -113 1595 0
-1596 6 0
-1596 102 0
-1596 114 0
-6 -102 -114 1596 0
-1597 7 0
-1597 103 0
-1597 115 0
-7 -103 -115 1597 0
-1598 8 0
-1598 104 0
-1598 116 0
-8 -104 -116 1598 0
-1599 9 0
-1599 105 0
-1599 117 0
-9 -105 -117 1599 0
-1600 10 0
-1600 106 0
-1600 118 0
-10 -106 -118 1600 0
-1601 11 0
-1601 107 0
-1601 119 0
-11 -107 -119 1601 0
-1602 12 0
-1602 108 0
-1602 120 0
-12 -108 -120 1602 0
-1591 3692 0
-1592 3692 0
-1593 3692 0
-1594 3692 0
-1595 3692 0
-1596 3692 0
-1597 3692 0
-1598 3692 0
-1599 3692 0
-1600 3692 0
-1601 3692 0
-1602 3692 0
-3692 1591 1592 1593 1594 1595 1596 1597 1598 1599 1600 1601 1602 0
-1603 1 0
-1603 97 0
-1603 121 0
-1 -97 -121 1603 0
-1604 2 0
-1604 98 0
-1604 122 0
-2 -98 -122 1604 0
-1605 3 0
-1605 99 0
-1605 123 0
-3 -99 -123 1605 0
-1606 4 0
-1606 100 0
-1606 124 0
-4 -100 -124 1606 0
-1607 5 0
-1607 101 0
-1607 125 0
-5 -101 -125 1607 0
-1608 6 0
-1608 102 0
-1608 126 0
-6 -102 -126 1608 0
-1609 7 0
-1609 103 0
-1609 127 0
-7 -103 -127 1609 0
-1610 8 0
-1610 104 0
-1610 128 0
-8 -104 -128 1610 0
-1611 9 0
-1611 105 0
-1611 129 0
-9 -105 -129 1611 0
-1612 10 0
-1612 106 0
-1612 130 0
-10 -106 -130 1612 0
-1613 11 0
-1613 107 0
-1613 131 0
-11 -107 -131 1613 0
-1614 12 0
-1614 108 0
-1614 132 0
-12 -108 -132 1614 0
-1603 3693 0
-1604 3693 0
-1605 3693 0
-1606 3693 0
-1607 3693 0
-1608 3693 0
-1609 3693 0
-1610 3693 0
-1611 3693 0
-1612 3693 0
-1613 3693 0
-1614 3693 0
-3693 1603 1604 1605 1606 1607 1608 1609 1610 1611 1612 1613 1614 0
-1615 1 0
-1615 97 0
-1615 133 0
-1 -97 -133 1615 0
-1616 2 0
-1616 98 0
-1616 134 0
-2 -98 -134 1616 0
-1617 3 0
-1617 99 0
-1617 135 0
-3 -99 -135 1617 0
-1618 4 0
-1618 100 0
-1618 136 0
-4 -100 -136 1618 0
-1619 5 0
-1619 101 0
-1619 137 0
-5 -101 -137 1619 0
-1620 6 0
-1620 102 0
-1620 138 0
-6 -102 -138 1620 0
-1621 7 0
-1621 103 0
-1621 139 0
-7 -103 -139 1621 0
-1622 8 0
-1622 104 0
-1622 140 0
-8 -104 -140 1622 0
-1623 9 0
-1623 105 0
-1623 141 0
-9 -105 -141 1623 0
-1624 10 0
-1624 106 0
-1624 142 0
-10 -106 -142 1624 0
-1625 11 0
-1625 107 0
-1625 143 0
-11 -107 -143 1625 0
-1626 12 0
-1626 108 0
-1626 144 0
-12 -108 -144 1626 0
-1615 3694 0
-1616 3694 0
-1617 3694 0
-1618 3694 0
-1619 3694 0
-1620 3694 0
-1621 3694 0
-1622 3694 0
-1623 3694 0
-1624 3694 0
-1625 3694 0
-1626 3694 0
-3694 1615 1616 1617 1618 1619 1620 1621 1622 1623 1624 1625 1626 0
-1627 1 0
-1627 109 0
-1627 121 0
-1 -109 -121 1627 0
-1628 2 0
-1628 110 0
-1628 122 0
-2 -110 -122 1628 0
-1629 3 0
-1629 111 0
-1629 123 0
-3 -111 -123 1629 0
-1630 4 0
-1630 112 0
-1630 124 0
-4 -112 -124 1630 0
-1631 5 0
-1631 113 0
-1631 125 0
-5 -113 -125 1631 0
-1632 6 0
-1632 114 0
-1632 126 0
-6 -114 -126 1632 0
-1633 7 0
-1633 115 0
-1633 127 0
-7 -115 -127 1633 0
-1634 8 0
-1634 116 0
-1634 128 0
-8 -116 -128 1634 0
-1635 9 0
-1635 117 0
-1635 129 0
-9 -117 -129 1635 0
-1636 10 0
-1636 118 0
-1636 130 0
-10 -118 -130 1636 0
-1637 11 0
-1637 119 0
-1637 131 0
-11 -119 -131 1637 0
-1638 12 0
-1638 120 0
-1638 132 0
-12 -120 -132 1638 0
-1627 3695 0
-1628 3695 0
-1629 3695 0
-1630 3695 0
-1631 3695 0
-1632 3695 0
-1633 3695 0
-1634 3695 0
-1635 3695 0
-1636 3695 0
-1637 3695 0
-1638 3695 0
-3695 1627 1628 1629 1630 1631 1632 1633 1634 1635 1636 1637 1638 0
-1639 1 0
-1639 109 0
-1639 133 0
-1 -109 -133 1639 0
-1640 2 0
-1640 110 0
-1640 134 0
-2 -110 -134 1640 0
-1641 3 0
-1641 111 0
-1641 135 0
-3 -111 -135 1641 0
-1642 4 0
-1642 112 0
-1642 136 0
-4 -112 -136 1642 0
-1643 5 0
-1643 113 0
-1643 137 0
-5 -113 -137 1643 0
-1644 6 0
-1644 114 0
-1644 138 0
-6 -114 -138 1644 0
-1645 7 0
-1645 115 0
-1645 139 0
-7 -115 -139 1645 0
-1646 8 0
-1646 116 0
-1646 140 0
-8 -116 -140 1646 0
-1647 9 0
-1647 117 0
-1647 141 0
-9 -117 -141 1647 0
-1648 10 0
-1648 118 0
-1648 142 0
-10 -118 -142 1648 0
-1649 11 0
-1649 119 0
-1649 143 0
-11 -119 -143 1649 0
-1650 12 0
-1650 120 0
-1650 144 0
-12 -120 -144 1650 0
-1639 3696 0
-1640 3696 0
-1641 3696 0
-1642 3696 0
-1643 3696 0
-1644 3696 0
-1645 3696 0
-1646 3696 0
-1647 3696 0
-1648 3696 0
-1649 3696 0
-1650 3696 0
-3696 1639 1640 1641 1642 1643 1644 1645 1646 1647 1648 1649 1650 0
-1651 1 0
-1651 121 0
-1651 133 0
-1 -121 -133 1651 0
-1652 2 0
-1652 122 0
-1652 134 0
-2 -122 -134 1652 0
-1653 3 0
-1653 123 0
-1653 135 0
-3 -123 -135 1653 0
-1654 4 0
-1654 124 0
-1654 136 0
-4 -124 -136 1654 0
-1655 5 0
-1655 125 0
-1655 137 0
-5 -125 -137 1655 0
-1656 6 0
-1656 126 0
-1656 138 0
-6 -126 -138 1656 0
-1657 7 0
-1657 127 0
-1657 139 0
-7 -127 -139 1657 0
-1658 8 0
-1658 128 0
-1658 140 0
-8 -128 -140 1658 0
-1659 9 0
-1659 129 0
-1659 141 0
-9 -129 -141 1659 0
-1660 10 0
-1660 130 0
-1660 142 0
-10 -130 -142 1660 0
-1661 11 0
-1661 131 0
-1661 143 0
-11 -131 -143 1661 0
-1662 12 0
-1662 132 0
-1662 144 0
-12 -132 -144 1662 0
-1651 3697 0
-1652 3697 0
-1653 3697 0
-1654 3697 0
-1655 3697 0
-1656 3697 0
-1657 3697 0
-1658 3697 0
-1659 3697 0
-1660 3697 0
-1661 3697 0
-1662 3697 0
-3697 1651 1652 1653 1654 1655 1656 1657 1658 1659 1660 1661 1662 0
-1663 13 0
-1663 25 0
-1663 37 0
-13 -25 -37 1663 0
-1664 14 0
-1664 26 0
-1664 38 0
-14 -26 -38 1664 0
-1665 15 0
-1665 27 0
-1665 39 0
-15 -27 -39 1665 0
-1666 16 0
-1666 28 0
-1666 40 0
-16 -28 -40 1666 0
-1667 17 0
-1667 29 0
-1667 41 0
-17 -29 -41 1667 0
-1668 18 0
-1668 30 0
-1668 42 0
-18 -30 -42 1668 0
-1669 19 0
-1669 31 0
-1669 43 0
-19 -31 -43 1669 0
-1670 20 0
-1670 32 0
-1670 44 0
-20 -32 -44 1670 0
-1671 21 0
-1671 33 0
-1671 45 0
-21 -33 -45 1671 0
-1672 22 0
-1672 34 0
-1672 46 0
-22 -34 -46 1672 0
-1673 23 0
-1673 35 0
-1673 47 0
-23 -35 -47 1673 0
-1674 24 0
-1674 36 0
-1674 48 0
-24 -36 -48 1674 0
-1663 3698 0
-1664 3698 0
-1665 3698 0
-1666 3698 0
-1667 3698 0
-1668 3698 0
-1669 3698 0
-1670 3698 0
-1671 3698 0
-1672 3698 0
-1673 3698 0
-1674 3698 0
-3698 1663 1664 1665 1666 1667 1668 1669 1670 1671 1672 1673 1674 0
-1675 13 0
-1675 25 0
-1675 49 0
-13 -25 -49 1675 0
-1676 14 0
-1676 26 0
-1676 50 0
-14 -26 -50 1676 0
-1677 15 0
-1677 27 0
-1677 51 0
-15 -27 -51 1677 0
-1678 16 0
-1678 28 0
-1678 52 0
-16 -28 -52 1678 0
-1679 17 0
-1679 29 0
-1679 53 0
-17 -29 -53 1679 0
-1680 18 0
-1680 30 0
-1680 54 0
-18 -30 -54 1680 0
-1681 19 0
-1681 31 0
-1681 55 0
-19 -31 -55 1681 0
-1682 20 0
-1682 32 0
-1682 56 0
-20 -32 -56 1682 0
-1683 21 0
-1683 33 0
-1683 57 0
-21 -33 -57 1683 0
-1684 22 0
-1684 34 0
-1684 58 0
-22 -34 -58 1684 0
-1685 23 0
-1685 35 0
-1685 59 0
-23 -35 -59 1685 0
-1686 24 0
-1686 36 0
-1686 60 0
-24 -36 -60 1686 0
-1675 3699 0
-1676 3699 0
-1677 3699 0
-1678 3699 0
-1679 3699 0
-1680 3699 0
-1681 3699 0
-1682 3699 0
-1683 3699 0
-1684 3699 0
-1685 3699 0
-1686 3699 0
-3699 1675 1676 1677 1678 1679 1680 1681 1682 1683 1684 1685 1686 0
-1687 13 0
-1687 25 0
-1687 61 0
-13 -25 -61 1687 0
-1688 14 0
-1688 26 0
-1688 62 0
-14 -26 -62 1688 0
-1689 15 0
-1689 27 0
-1689 63 0
-15 -27 -63 1689 0
-1690 16 0
-1690 28 0
-1690 64 0
-16 -28 -64 1690 0
-1691 17 0
-1691 29 0
-1691 65 0
-17 -29 -65 1691 0
-1692 18 0
-1692 30 0
-1692 66 0
-18 -30 -66 1692 0
-1693 19 0
-1693 31 0
-1693 67 0
-19 -31 -67 1693 0
-1694 20 0
-1694 32 0
-1694 68 0
-20 -32 -68 1694 0
-1695 21 0
-1695 33 0
-1695 69 0
-21 -33 -69 1695 0
-1696 22 0
-1696 34 0
-1696 70 0
-22 -34 -70 1696 0
-1697 23 0
-1697 35 0
-1697 71 0
-23 -35 -71 1697 0
-1698 24 0
-1698 36 0
-1698 72 0
-24 -36 -72 1698 0
-1687 3700 0
-1688 3700 0
-1689 3700 0
-1690 3700 0
-1691 3700 0
-1692 3700 0
-1693 3700 0
-1694 3700 0
-1695 3700 0
-1696 3700 0
-1697 3700 0
-1698 3700 0
-3700 1687 1688 1689 1690 1691 1692 1693 1694 1695 1696 1697 1698 0
-1699 13 0
-1699 25 0
-1699 73 0
-13 -25 -73 1699 0
-1700 14 0
-1700 26 0
-1700 74 0
-14 -26 -74 1700 0
-1701 15 0
-1701 27 0
-1701 75 0
-15 -27 -75 1701 0
-1702 16 0
-1702 28 0
-1702 76 0
-16 -28 -76 1702 0
-1703 17 0
-1703 29 0
-1703 77 0
-17 -29 -77 1703 0
-1704 18 0
-1704 30 0
-1704 78 0
-18 -30 -78 1704 0
-1705 19 0
-1705 31 0
-1705 79 0
-19 -31 -79 1705 0
-1706 20 0
-1706 32 0
-1706 80 0
-20 -32 -80 1706 0
-1707 21 0
-1707 33 0
-1707 81 0
-21 -33 -81 1707 0
-1708 22 0
-1708 34 0
-1708 82 0
-22 -34 -82 1708 0
-1709 23 0
-1709 35 0
-1709 83 0
-23 -35 -83 1709 0
-1710 24 0
-1710 36 0
-1710 84 0
-24 -36 -84 1710 0
-1699 3701 0
-1700 3701 0
-1701 3701 0
-1702 3701 0
-1703 3701 0
-1704 3701 0
-1705 3701 0
-1706 3701 0
-1707 3701 0
-1708 3701 0
-1709 3701 0
-1710 3701 0
-3701 1699 1700 1701 1702 1703 1704 1705 1706 1707 1708 1709 1710 0
-1711 13 0
-1711 25 0
-1711 85 0
-13 -25 -85 1711 0
-1712 14 0
-1712 26 0
-1712 86 0
-14 -26 -86 1712 0
-1713 15 0
-1713 27 0
-1713 87 0
-15 -27 -87 1713 0
-1714 16 0
-1714 28 0
-1714 88 0
-16 -28 -88 1714 0
-1715 17 0
-1715 29 0
-1715 89 0
-17 -29 -89 1715 0
-1716 18 0
-1716 30 0
-1716 90 0
-18 -30 -90 1716 0
-1717 19 0
-1717 31 0
-1717 91 0
-19 -31 -91 1717 0
-1718 20 0
-1718 32 0
-1718 92 0
-20 -32 -92 1718 0
-1719 21 0
-1719 33 0
-1719 93 0
-21 -33 -93 1719 0
-1720 22 0
-1720 34 0
-1720 94 0
-22 -34 -94 1720 0
-1721 23 0
-1721 35 0
-1721 95 0
-23 -35 -95 1721 0
-1722 24 0
-1722 36 0
-1722 96 0
-24 -36 -96 1722 0
-1711 3702 0
-1712 3702 0
-1713 3702 0
-1714 3702 0
-1715 3702 0
-1716 3702 0
-1717 3702 0
-1718 3702 0
-1719 3702 0
-1720 3702 0
-1721 3702 0
-1722 3702 0
-3702 1711 1712 1713 1714 1715 1716 1717 1718 1719 1720 1721 1722 0
-1723 13 0
-1723 25 0
-1723 97 0
-13 -25 -97 1723 0
-1724 14 0
-1724 26 0
-1724 98 0
-14 -26 -98 1724 0
-1725 15 0
-1725 27 0
-1725 99 0
-15 -27 -99 1725 0
-1726 16 0
-1726 28 0
-1726 100 0
-16 -28 -100 1726 0
-1727 17 0
-1727 29 0
-1727 101 0
-17 -29 -101 1727 0
-1728 18 0
-1728 30 0
-1728 102 0
-18 -30 -102 1728 0
-1729 19 0
-1729 31 0
-1729 103 0
-19 -31 -103 1729 0
-1730 20 0
-1730 32 0
-1730 104 0
-20 -32 -104 1730 0
-1731 21 0
-1731 33 0
-1731 105 0
-21 -33 -105 1731 0
-1732 22 0
-1732 34 0
-1732 106 0
-22 -34 -106 1732 0
-1733 23 0
-1733 35 0
-1733 107 0
-23 -35 -107 1733 0
-1734 24 0
-1734 36 0
-1734 108 0
-24 -36 -108 1734 0
-1723 3703 0
-1724 3703 0
-1725 3703 0
-1726 3703 0
-1727 3703 0
-1728 3703 0
-1729 3703 0
-1730 3703 0
-1731 3703 0
-1732 3703 0
-1733 3703 0
-1734 3703 0
-3703 1723 1724 1725 1726 1727 1728 1729 1730 1731 1732 1733 1734 0
-1735 13 0
-1735 25 0
-1735 109 0
-13 -25 -109 1735 0
-1736 14 0
-1736 26 0
-1736 110 0
-14 -26 -110 1736 0
-1737 15 0
-1737 27 0
-1737 111 0
-15 -27 -111 1737 0
-1738 16 0
-1738 28 0
-1738 112 0
-16 -28 -112 1738 0
-1739 17 0
-1739 29 0
-1739 113 0
-17 -29 -113 1739 0
-1740 18 0
-1740 30 0
-1740 114 0
-18 -30 -114 1740 0
-1741 19 0
-1741 31 0
-1741 115 0
-19 -31 -115 1741 0
-1742 20 0
-1742 32 0
-1742 116 0
-20 -32 -116 1742 0
-1743 21 0
-1743 33 0
-1743 117 0
-21 -33 -117 1743 0
-1744 22 0
-1744 34 0
-1744 118 0
-22 -34 -118 1744 0
-1745 23 0
-1745 35 0
-1745 119 0
-23 -35 -119 1745 0
-1746 24 0
-1746 36 0
-1746 120 0
-24 -36 -120 1746 0
-1735 3704 0
-1736 3704 0
-1737 3704 0
-1738 3704 0
-1739 3704 0
-1740 3704 0
-1741 3704 0
-1742 3704 0
-1743 3704 0
-1744 3704 0
-1745 3704 0
-1746 3704 0
-3704 1735 1736 1737 1738 1739 1740 1741 1742 1743 1744 1745 1746 0
-1747 13 0
-1747 25 0
-1747 121 0
-13 -25 -121 1747 0
-1748 14 0
-1748 26 0
-1748 122 0
-14 -26 -122 1748 0
-1749 15 0
-1749 27 0
-1749 123 0
-15 -27 -123 1749 0
-1750 16 0
-1750 28 0
-1750 124 0
-16 -28 -124 1750 0
-1751 17 0
-1751 29 0
-1751 125 0
-17 -29 -125 1751 0
-1752 18 0
-1752 30 0
-1752 126 0
-18 -30 -126 1752 0
-1753 19 0
-1753 31 0
-1753 127 0
-19 -31 -127 1753 0
-1754 20 0
-1754 32 0
-1754 128 0
-20 -32 -128 1754 0
-1755 21 0
-1755 33 0
-1755 129 0
-21 -33 -129 1755 0
-1756 22 0
-1756 34 0
-1756 130 0
-22 -34 -130 1756 0
-1757 23 0
-1757 35 0
-1757 131 0
-23 -35 -131 1757 0
-1758 24 0
-1758 36 0
-1758 132 0
-24 -36 -132 1758 0
-1747 3705 0
-1748 3705 0
-1749 3705 0
-1750 3705 0
-1751 3705 0
-1752 3705 0
-1753 3705 0
-1754 3705 0
-1755 3705 0
-1756 3705 0
-1757 3705 0
-1758 3705 0
-3705 1747 1748 1749 1750 1751 1752 1753 1754 1755 1756 1757 1758 0
-1759 13 0
-1759 25 0
-1759 133 0
-13 -25 -133 1759 0
-1760 14 0
-1760 26 0
-1760 134 0
-14 -26 -134 1760 0
-1761 15 0
-1761 27 0
-1761 135 0
-15 -27 -135 1761 0
-1762 16 0
-1762 28 0
-1762 136 0
-16 -28 -136 1762 0
-1763 17 0
-1763 29 0
-1763 137 0
-17 -29 -137 1763 0
-1764 18 0
-1764 30 0
-1764 138 0
-18 -30 -138 1764 0
-1765 19 0
-1765 31 0
-1765 139 0
-19 -31 -139 1765 0
-1766 20 0
-1766 32 0
-1766 140 0
-20 -32 -140 1766 0
-1767 21 0
-1767 33 0
-1767 141 0
-21 -33 -141 1767 0
-1768 22 0
-1768 34 0
-1768 142 0
-22 -34 -142 1768 0
-1769 23 0
-1769 35 0
-1769 143 0
-23 -35 -143 1769 0
-1770 24 0
-1770 36 0
-1770 144 0
-24 -36 -144 1770 0
-1759 3706 0
-1760 3706 0
-1761 3706 0
-1762 3706 0
-1763 3706 0
-1764 3706 0
-1765 3706 0
-1766 3706 0
-1767 3706 0
-1768 3706 0
-1769 3706 0
-1770 3706 0
-3706 1759 1760 1761 1762 1763 1764 1765 1766 1767 1768 1769 1770 0
-1771 13 0
-1771 37 0
-1771 49 0
-13 -37 -49 1771 0
-1772 14 0
-1772 38 0
-1772 50 0
-14 -38 -50 1772 0
-1773 15 0
-1773 39 0
-1773 51 0
-15 -39 -51 1773 0
-1774 16 0
-1774 40 0
-1774 52 0
-16 -40 -52 1774 0
-1775 17 0
-1775 41 0
-1775 53 0
-17 -41 -53 1775 0
-1776 18 0
-1776 42 0
-1776 54 0
-18 -42 -54 1776 0
-1777 19 0
-1777 43 0
-1777 55 0
-19 -43 -55 1777 0
-1778 20 0
-1778 44 0
-1778 56 0
-20 -44 -56 1778 0
-1779 21 0
-1779 45 0
-1779 57 0
-21 -45 -57 1779 0
-1780 22 0
-1780 46 0
-1780 58 0
-22 -46 -58 1780 0
-1781 23 0
-1781 47 0
-1781 59 0
-23 -47 -59 1781 0
-1782 24 0
-1782 48 0
-1782 60 0
-24 -48 -60 1782 0
-1771 3707 0
-1772 3707 0
-1773 3707 0
-1774 3707 0
-1775 3707 0
-1776 3707 0
-1777 3707 0
-1778 3707 0
-1779 3707 0
-1780 3707 0
-1781 3707 0
-1782 3707 0
-3707 1771 1772 1773 1774 1775 1776 1777 1778 1779 1780 1781 1782 0
-1783 13 0
-1783 37 0
-1783 61 0
-13 -37 -61 1783 0
-1784 14 0
-1784 38 0
-1784 62 0
-14 -38 -62 1784 0
-1785 15 0
-1785 39 0
-1785 63 0
-15 -39 -63 1785 0
-1786 16 0
-1786 40 0
-1786 64 0
-16 -40 -64 1786 0
-1787 17 0
-1787 41 0
-1787 65 0
-17 -41 -65 1787 0
-1788 18 0
-1788 42 0
-1788 66 0
-18 -42 -66 1788 0
-1789 19 0
-1789 43 0
-1789 67 0
-19 -43 -67 1789 0
-1790 20 0
-1790 44 0
-1790 68 0
-20 -44 -68 1790 0
-1791 21 0
-1791 45 0
-1791 69 0
-21 -45 -69 1791 0
-1792 22 0
-1792 46 0
-1792 70 0
-22 -46 -70 1792 0
-1793 23 0
-1793 47 0
-1793 71 0
-23 -47 -71 1793 0
-1794 24 0
-1794 48 0
-1794 72 0
-24 -48 -72 1794 0
-1783 3708 0
-1784 3708 0
-1785 3708 0
-1786 3708 0
-1787 3708 0
-1788 3708 0
-1789 3708 0
-1790 3708 0
-1791 3708 0
-1792 3708 0
-1793 3708 0
-1794 3708 0
-3708 1783 1784 1785 1786 1787 1788 1789 1790 1791 1792 1793 1794 0
-1795 13 0
-1795 37 0
-1795 73 0
-13 -37 -73 1795 0
-1796 14 0
-1796 38 0
-1796 74 0
-14 -38 -74 1796 0
-1797 15 0
-1797 39 0
-1797 75 0
-15 -39 -75 1797 0
-1798 16 0
-1798 40 0
-1798 76 0
-16 -40 -76 1798 0
-1799 17 0
-1799 41 0
-1799 77 0
-17 -41 -77 1799 0
-1800 18 0
-1800 42 0
-1800 78 0
-18 -42 -78 1800 0
-1801 19 0
-1801 43 0
-1801 79 0
-19 -43 -79 1801 0
-1802 20 0
-1802 44 0
-1802 80 0
-20 -44 -80 1802 0
-1803 21 0
-1803 45 0
-1803 81 0
-21 -45 -81 1803 0
-1804 22 0
-1804 46 0
-1804 82 0
-22 -46 -82 1804 0
-1805 23 0
-1805 47 0
-1805 83 0
-23 -47 -83 1805 0
-1806 24 0
-1806 48 0
-1806 84 0
-24 -48 -84 1806 0
-1795 3709 0
-1796 3709 0
-1797 3709 0
-1798 3709 0
-1799 3709 0
-1800 3709 0
-1801 3709 0
-1802 3709 0
-1803 3709 0
-1804 3709 0
-1805 3709 0
-1806 3709 0
-3709 1795 1796 1797 1798 1799 1800 1801 1802 1803 1804 1805 1806 0
-1807 13 0
-1807 37 0
-1807 85 0
-13 -37 -85 1807 0
-1808 14 0
-1808 38 0
-1808 86 0
-14 -38 -86 1808 0
-1809 15 0
-1809 39 0
-1809 87 0
-15 -39 -87 1809 0
-1810 16 0
-1810 40 0
-1810 88 0
-16 -40 -88 1810 0
-1811 17 0
-1811 41 0
-1811 89 0
-17 -41 -89 1811 0
-1812 18 0
-1812 42 0
-1812 90 0
-18 -42 -90 1812 0
-1813 19 0
-1813 43 0
-1813 91 0
-19 -43 -91 1813 0
-1814 20 0
-1814 44 0
-1814 92 0
-20 -44 -92 1814 0
-1815 21 0
-1815 45 0
-1815 93 0
-21 -45 -93 1815 0
-1816 22 0
-1816 46 0
-1816 94 0
-22 -46 -94 1816 0
-1817 23 0
-1817 47 0
-1817 95 0
-23 -47 -95 1817 0
-1818 24 0
-1818 48 0
-1818 96 0
-24 -48 -96 1818 0
-1807 3710 0
-1808 3710 0
-1809 3710 0
-1810 3710 0
-1811 3710 0
-1812 3710 0
-1813 3710 0
-1814 3710 0
-1815 3710 0
-1816 3710 0
-1817 3710 0
-1818 3710 0
-3710 1807 1808 1809 1810 1811 1812 1813 1814 1815 1816 1817 1818 0
-1819 13 0
-1819 37 0
-1819 97 0
-13 -37 -97 1819 0
-1820 14 0
-1820 38 0
-1820 98 0
-14 -38 -98 1820 0
-1821 15 0
-1821 39 0
-1821 99 0
-15 -39 -99 1821 0
-1822 16 0
-1822 40 0
-1822 100 0
-16 -40 -100 1822 0
-1823 17 0
-1823 41 0
-1823 101 0
-17 -41 -101 1823 0
-1824 18 0
-1824 42 0
-1824 102 0
-18 -42 -102 1824 0
-1825 19 0
-1825 43 0
-1825 103 0
-19 -43 -103 1825 0
-1826 20 0
-1826 44 0
-1826 104 0
-20 -44 -104 1826 0
-1827 21 0
-1827 45 0
-1827 105 0
-21 -45 -105 1827 0
-1828 22 0
-1828 46 0
-1828 106 0
-22 -46 -106 1828 0
-1829 23 0
-1829 47 0
-1829 107 0
-23 -47 -107 1829 0
-1830 24 0
-1830 48 0
-1830 108 0
-24 -48 -108 1830 0
-1819 3711 0
-1820 3711 0
-1821 3711 0
-1822 3711 0
-1823 3711 0
-1824 3711 0
-1825 3711 0
-1826 3711 0
-1827 3711 0
-1828 3711 0
-1829 3711 0
-1830 3711 0
-3711 1819 1820 1821 1822 1823 1824 1825 1826 1827 1828 1829 1830 0
-1831 13 0
-1831 37 0
-1831 109 0
-13 -37 -109 1831 0
-1832 14 0
-1832 38 0
-1832 110 0
-14 -38 -110 1832 0
-1833 15 0
-1833 39 0
-1833 111 0
-15 -39 -111 1833 0
-1834 16 0
-1834 40 0
-1834 112 0
-16 -40 -112 1834 0
-1835 17 0
-1835 41 0
-1835 113 0
-17 -41 -113 1835 0
-1836 18 0
-1836 42 0
-1836 114 0
-18 -42 -114 1836 0
-1837 19 0
-1837 43 0
-1837 115 0
-19 -43 -115 1837 0
-1838 20 0
-1838 44 0
-1838 116 0
-20 -44 -116 1838 0
-1839 21 0
-1839 45 0
-1839 117 0
-21 -45 -117 1839 0
-1840 22 0
-1840 46 0
-1840 118 0
-22 -46 -118 1840 0
-1841 23 0
-1841 47 0
-1841 119 0
-23 -47 -119 1841 0
-1842 24 0
-1842 48 0
-1842 120 0
-24 -48 -120 1842 0
-1831 3712 0
-1832 3712 0
-1833 3712 0
-1834 3712 0
-1835 3712 0
-1836 3712 0
-1837 3712 0
-1838 3712 0
-1839 3712 0
-1840 3712 0
-1841 3712 0
-1842 3712 0
-3712 1831 1832 1833 1834 1835 1836 1837 1838 1839 1840 1841 1842 0
-1843 13 0
-1843 37 0
-1843 121 0
-13 -37 -121 1843 0
-1844 14 0
-1844 38 0
-1844 122 0
-14 -38 -122 1844 0
-1845 15 0
-1845 39 0
-1845 123 0
-15 -39 -123 1845 0
-1846 16 0
-1846 40 0
-1846 124 0
-16 -40 -124 1846 0
-1847 17 0
-1847 41 0
-1847 125 0
-17 -41 -125 1847 0
-1848 18 0
-1848 42 0
-1848 126 0
-18 -42 -126 1848 0
-1849 19 0
-1849 43 0
-1849 127 0
-19 -43 -127 1849 0
-1850 20 0
-1850 44 0
-1850 128 0
-20 -44 -128 1850 0
-1851 21 0
-1851 45 0
-1851 129 0
-21 -45 -129 1851 0
-1852 22 0
-1852 46 0
-1852 130 0
-22 -46 -130 1852 0
-1853 23 0
-1853 47 0
-1853 131 0
-23 -47 -131 1853 0
-1854 24 0
-1854 48 0
-1854 132 0
-24 -48 -132 1854 0
-1843 3713 0
-1844 3713 0
-1845 3713 0
-1846 3713 0
-1847 3713 0
-1848 3713 0
-1849 3713 0
-1850 3713 0
-1851 3713 0
-1852 3713 0
-1853 3713 0
-1854 3713 0
-3713 1843 1844 1845 1846 1847 1848 1849 1850 1851 1852 1853 1854 0
-1855 13 0
-1855 37 0
-1855 133 0
-13 -37 -133 1855 0
-1856 14 0
-1856 38 0
-1856 134 0
-14 -38 -134 1856 0
-1857 15 0
-1857 39 0
-1857 135 0
-15 -39 -135 1857 0
-1858 16 0
-1858 40 0
-1858 136 0
-16 -40 -136 1858 0
-1859 17 0
-1859 41 0
-1859 137 0
-17 -41 -137 1859 0
-1860 18 0
-1860 42 0
-1860 138 0
-18 -42 -138 1860 0
-1861 19 0
-1861 43 0
-1861 139 0
-19 -43 -139 1861 0
-1862 20 0
-1862 44 0
-1862 140 0
-20 -44 -140 1862 0
-1863 21 0
-1863 45 0
-1863 141 0
-21 -45 -141 1863 0
-1864 22 0
-1864 46 0
-1864 142 0
-22 -46 -142 1864 0
-1865 23 0
-1865 47 0
-1865 143 0
-23 -47 -143 1865 0
-1866 24 0
-1866 48 0
-1866 144 0
-24 -48 -144 1866 0
-1855 3714 0
-1856 3714 0
-1857 3714 0
-1858 3714 0
-1859 3714 0
-1860 3714 0
-1861 3714 0
-1862 3714 0
-1863 3714 0
-1864 3714 0
-1865 3714 0
-1866 3714 0
-3714 1855 1856 1857 1858 1859 1860 1861 1862 1863 1864 1865 1866 0
-1867 13 0
-1867 49 0
-1867 61 0
-13 -49 -61 1867 0
-1868 14 0
-1868 50 0
-1868 62 0
-14 -50 -62 1868 0
-1869 15 0
-1869 51 0
-1869 63 0
-15 -51 -63 1869 0
-1870 16 0
-1870 52 0
-1870 64 0
-16 -52 -64 1870 0
-1871 17 0
-1871 53 0
-1871 65 0
-17 -53 -65 1871 0
-1872 18 0
-1872 54 0
-1872 66 0
-18 -54 -66 1872 0
-1873 19 0
-1873 55 0
-1873 67 0
-19 -55 -67 1873 0
-1874 20 0
-1874 56 0
-1874 68 0
-20 -56 -68 1874 0
-1875 21 0
-1875 57 0
-1875 69 0
-21 -57 -69 1875 0
-1876 22 0
-1876 58 0
-1876 70 0
-22 -58 -70 1876 0
-1877 23 0
-1877 59 0
-1877 71 0
-23 -59 -71 1877 0
-1878 24 0
-1878 60 0
-1878 72 0
-24 -60 -72 1878 0
-1867 3715 0
-1868 3715 0
-1869 3715 0
-1870 3715 0
-1871 3715 0
-1872 3715 0
-1873 3715 0
-1874 3715 0
-1875 3715 0
-1876 3715 0
-1877 3715 0
-1878 3715 0
-3715 1867 1868 1869 1870 1871 1872 1873 1874 1875 1876 1877 1878 0
-1879 13 0
-1879 49 0
-1879 73 0
-13 -49 -73 1879 0
-1880 14 0
-1880 50 0
-1880 74 0
-14 -50 -74 1880 0
-1881 15 0
-1881 51 0
-1881 75 0
-15 -51 -75 1881 0
-1882 16 0
-1882 52 0
-1882 76 0
-16 -52 -76 1882 0
-1883 17 0
-1883 53 0
-1883 77 0
-17 -53 -77 1883 0
-1884 18 0
-1884 54 0
-1884 78 0
-18 -54 -78 1884 0
-1885 19 0
-1885 55 0
-1885 79 0
-19 -55 -79 1885 0
-1886 20 0
-1886 56 0
-1886 80 0
-20 -56 -80 1886 0
-1887 21 0
-1887 57 0
-1887 81 0
-21 -57 -81 1887 0
-1888 22 0
-1888 58 0
-1888 82 0
-22 -58 -82 1888 0
-1889 23 0
-1889 59 0
-1889 83 0
-23 -59 -83 1889 0
-1890 24 0
-1890 60 0
-1890 84 0
-24 -60 -84 1890 0
-1879 3716 0
-1880 3716 0
-1881 3716 0
-1882 3716 0
-1883 3716 0
-1884 3716 0
-1885 3716 0
-1886 3716 0
-1887 3716 0
-1888 3716 0
-1889 3716 0
-1890 3716 0
-3716 1879 1880 1881 1882 1883 1884 1885 1886 1887 1888 1889 1890 0
-1891 13 0
-1891 49 0
-1891 85 0
-13 -49 -85 1891 0
-1892 14 0
-1892 50 0
-1892 86 0
-14 -50 -86 1892 0
-1893 15 0
-1893 51 0
-1893 87 0
-15 -51 -87 1893 0
-1894 16 0
-1894 52 0
-1894 88 0
-16 -52 -88 1894 0
-1895 17 0
-1895 53 0
-1895 89 0
-17 -53 -89 1895 0
-1896 18 0
-1896 54 0
-1896 90 0
-18 -54 -90 1896 0
-1897 19 0
-1897 55 0
-1897 91 0
-19 -55 -91 1897 0
-1898 20 0
-1898 56 0
-1898 92 0
-20 -56 -92 1898 0
-1899 21 0
-1899 57 0
-1899 93 0
-21 -57 -93 1899 0
-1900 22 0
-1900 58 0
-1900 94 0
-22 -58 -94 1900 0
-1901 23 0
-1901 59 0
-1901 95 0
-23 -59 -95 1901 0
-1902 24 0
-1902 60 0
-1902 96 0
-24 -60 -96 1902 0
-1891 3717 0
-1892 3717 0
-1893 3717 0
-1894 3717 0
-1895 3717 0
-1896 3717 0
-1897 3717 0
-1898 3717 0
-1899 3717 0
-1900 3717 0
-1901 3717 0
-1902 3717 0
-3717 1891 1892 1893 1894 1895 1896 1897 1898 1899 1900 1901 1902 0
-1903 13 0
-1903 49 0
-1903 97 0
-13 -49 -97 1903 0
-1904 14 0
-1904 50 0
-1904 98 0
-14 -50 -98 1904 0
-1905 15 0
-1905 51 0
-1905 99 0
-15 -51 -99 1905 0
-1906 16 0
-1906 52 0
-1906 100 0
-16 -52 -100 1906 0
-1907 17 0
-1907 53 0
-1907 101 0
-17 -53 -101 1907 0
-1908 18 0
-1908 54 0
-1908 102 0
-18 -54 -102 1908 0
-1909 19 0
-1909 55 0
-1909 103 0
-19 -55 -103 1909 0
-1910 20 0
-1910 56 0
-1910 104 0
-20 -56 -104 1910 0
-1911 21 0
-1911 57 0
-1911 105 0
-21 -57 -105 1911 0
-1912 22 0
-1912 58 0
-1912 106 0
-22 -58 -106 1912 0
-1913 23 0
-1913 59 0
-1913 107 0
-23 -59 -107 1913 0
-1914 24 0
-1914 60 0
-1914 108 0
-24 -60 -108 1914 0
-1903 3718 0
-1904 3718 0
-1905 3718 0
-1906 3718 0
-1907 3718 0
-1908 3718 0
-1909 3718 0
-1910 3718 0
-1911 3718 0
-1912 3718 0
-1913 3718 0
-1914 3718 0
-3718 1903 1904 1905 1906 1907 1908 1909 1910 1911 1912 1913 1914 0
-1915 13 0
-1915 49 0
-1915 109 0
-13 -49 -109 1915 0
-1916 14 0
-1916 50 0
-1916 110 0
-14 -50 -110 1916 0
-1917 15 0
-1917 51 0
-1917 111 0
-15 -51 -111 1917 0
-1918 16 0
-1918 52 0
-1918 112 0
-16 -52 -112 1918 0
-1919 17 0
-1919 53 0
-1919 113 0
-17 -53 -113 1919 0
-1920 18 0
-1920 54 0
-1920 114 0
-18 -54 -114 1920 0
-1921 19 0
-1921 55 0
-1921 115 0
-19 -55 -115 1921 0
-1922 20 0
-1922 56 0
-1922 116 0
-20 -56 -116 1922 0
-1923 21 0
-1923 57 0
-1923 117 0
-21 -57 -117 1923 0
-1924 22 0
-1924 58 0
-1924 118 0
-22 -58 -118 1924 0
-1925 23 0
-1925 59 0
-1925 119 0
-23 -59 -119 1925 0
-1926 24 0
-1926 60 0
-1926 120 0
-24 -60 -120 1926 0
-1915 3719 0
-1916 3719 0
-1917 3719 0
-1918 3719 0
-1919 3719 0
-1920 3719 0
-1921 3719 0
-1922 3719 0
-1923 3719 0
-1924 3719 0
-1925 3719 0
-1926 3719 0
-3719 1915 1916 1917 1918 1919 1920 1921 1922 1923 1924 1925 1926 0
-1927 13 0
-1927 49 0
-1927 121 0
-13 -49 -121 1927 0
-1928 14 0
-1928 50 0
-1928 122 0
-14 -50 -122 1928 0
-1929 15 0
-1929 51 0
-1929 123 0
-15 -51 -123 1929 0
-1930 16 0
-1930 52 0
-1930 124 0
-16 -52 -124 1930 0
-1931 17 0
-1931 53 0
-1931 125 0
-17 -53 -125 1931 0
-1932 18 0
-1932 54 0
-1932 126 0
-18 -54 -126 1932 0
-1933 19 0
-1933 55 0
-1933 127 0
-19 -55 -127 1933 0
-1934 20 0
-1934 56 0
-1934 128 0
-20 -56 -128 1934 0
-1935 21 0
-1935 57 0
-1935 129 0
-21 -57 -129 1935 0
-1936 22 0
-1936 58 0
-1936 130 0
-22 -58 -130 1936 0
-1937 23 0
-1937 59 0
-1937 131 0
-23 -59 -131 1937 0
-1938 24 0
-1938 60 0
-1938 132 0
-24 -60 -132 1938 0
-1927 3720 0
-1928 3720 0
-1929 3720 0
-1930 3720 0
-1931 3720 0
-1932 3720 0
-1933 3720 0
-1934 3720 0
-1935 3720 0
-1936 3720 0
-1937 3720 0
-1938 3720 0
-3720 1927 1928 1929 1930 1931 1932 1933 1934 1935 1936 1937 1938 0
-1939 13 0
-1939 49 0
-1939 133 0
-13 -49 -133 1939 0
-1940 14 0
-1940 50 0
-1940 134 0
-14 -50 -134 1940 0
-1941 15 0
-1941 51 0
-1941 135 0
-15 -51 -135 1941 0
-1942 16 0
-1942 52 0
-1942 136 0
-16 -52 -136 1942 0
-1943 17 0
-1943 53 0
-1943 137 0
-17 -53 -137 1943 0
-1944 18 0
-1944 54 0
-1944 138 0
-18 -54 -138 1944 0
-1945 19 0
-1945 55 0
-1945 139 0
-19 -55 -139 1945 0
-1946 20 0
-1946 56 0
-1946 140 0
-20 -56 -140 1946 0
-1947 21 0
-1947 57 0
-1947 141 0
-21 -57 -141 1947 0
-1948 22 0
-1948 58 0
-1948 142 0
-22 -58 -142 1948 0
-1949 23 0
-1949 59 0
-1949 143 0
-23 -59 -143 1949 0
-1950 24 0
-1950 60 0
-1950 144 0
-24 -60 -144 1950 0
-1939 3721 0
-1940 3721 0
-1941 3721 0
-1942 3721 0
-1943 3721 0
-1944 3721 0
-1945 3721 0
-1946 3721 0
-1947 3721 0
-1948 3721 0
-1949 3721 0
-1950 3721 0
-3721 1939 1940 1941 1942 1943 1944 1945 1946 1947 1948 1949 1950 0
-1951 13 0
-1951 61 0
-1951 73 0
-13 -61 -73 1951 0
-1952 14 0
-1952 62 0
-1952 74 0
-14 -62 -74 1952 0
-1953 15 0
-1953 63 0
-1953 75 0
-15 -63 -75 1953 0
-1954 16 0
-1954 64 0
-1954 76 0
-16 -64 -76 1954 0
-1955 17 0
-1955 65 0
-1955 77 0
-17 -65 -77 1955 0
-1956 18 0
-1956 66 0
-1956 78 0
-18 -66 -78 1956 0
-1957 19 0
-1957 67 0
-1957 79 0
-19 -67 -79 1957 0
-1958 20 0
-1958 68 0
-1958 80 0
-20 -68 -80 1958 0
-1959 21 0
-1959 69 0
-1959 81 0
-21 -69 -81 1959 0
-1960 22 0
-1960 70 0
-1960 82 0
-22 -70 -82 1960 0
-1961 23 0
-1961 71 0
-1961 83 0
-23 -71 -83 1961 0
-1962 24 0
-1962 72 0
-1962 84 0
-24 -72 -84 1962 0
-1951 3722 0
-1952 3722 0
-1953 3722 0
-1954 3722 0
-1955 3722 0
-1956 3722 0
-1957 3722 0
-1958 3722 0
-1959 3722 0
-1960 3722 0
-1961 3722 0
-1962 3722 0
-3722 1951 1952 1953 1954 1955 1956 1957 1958 1959 1960 1961 1962 0
-1963 13 0
-1963 61 0
-1963 85 0
-13 -61 -85 1963 0
-1964 14 0
-1964 62 0
-1964 86 0
-14 -62 -86 1964 0
-1965 15 0
-1965 63 0
-1965 87 0
-15 -63 -87 1965 0
-1966 16 0
-1966 64 0
-1966 88 0
-16 -64 -88 1966 0
-1967 17 0
-1967 65 0
-1967 89 0
-17 -65 -89 1967 0
-1968 18 0
-1968 66 0
-1968 90 0
-18 -66 -90 1968 0
-1969 19 0
-1969 67 0
-1969 91 0
-19 -67 -91 1969 0
-1970 20 0
-1970 68 0
-1970 92 0
-20 -68 -92 1970 0
-1971 21 0
-1971 69 0
-1971 93 0
-21 -69 -93 1971 0
-1972 22 0
-1972 70 0
-1972 94 0
-22 -70 -94 1972 0
-1973 23 0
-1973 71 0
-1973 95 0
-23 -71 -95 1973 0
-1974 24 0
-1974 72 0
-1974 96 0
-24 -72 -96 1974 0
-1963 3723 0
-1964 3723 0
-1965 3723 0
-1966 3723 0
-1967 3723 0
-1968 3723 0
-1969 3723 0
-1970 3723 0
-1971 3723 0
-1972 3723 0
-1973 3723 0
-1974 3723 0
-3723 1963 1964 1965 1966 1967 1968 1969 1970 1971 1972 1973 1974 0
-1975 13 0
-1975 61 0
-1975 97 0
-13 -61 -97 1975 0
-1976 14 0
-1976 62 0
-1976 98 0
-14 -62 -98 1976 0
-1977 15 0
-1977 63 0
-1977 99 0
-15 -63 -99 1977 0
-1978 16 0
-1978 64 0
-1978 100 0
-16 -64 -100 1978 0
-1979 17 0
-1979 65 0
-1979 101 0
-17 -65 -101 1979 0
-1980 18 0
-1980 66 0
-1980 102 0
-18 -66 -102 1980 0
-1981 19 0
-1981 67 0
-1981 103 0
-19 -67 -103 1981 0
-1982 20 0
-1982 68 0
-1982 104 0
-20 -68 -104 1982 0
-1983 21 0
-1983 69 0
-1983 105 0
-21 -69 -105 1983 0
-1984 22 0
-1984 70 0
-1984 106 0
-22 -70 -106 1984 0
-1985 23 0
-1985 71 0
-1985 107 0
-23 -71 -107 1985 0
-1986 24 0
-1986 72 0
-1986 108 0
-24 -72 -108 1986 0
-1975 3724 0
-1976 3724 0
-1977 3724 0
-1978 3724 0
-1979 3724 0
-1980 3724 0
-1981 3724 0
-1982 3724 0
-1983 3724 0
-1984 3724 0
-1985 3724 0
-1986 3724 0
-3724 1975 1976 1977 1978 1979 1980 1981 1982 1983 1984 1985 1986 0
-1987 13 0
-1987 61 0
-1987 109 0
-13 -61 -109 1987 0
-1988 14 0
-1988 62 0
-1988 110 0
-14 -62 -110 1988 0
-1989 15 0
-1989 63 0
-1989 111 0
-15 -63 -111 1989 0
-1990 16 0
-1990 64 0
-1990 112 0
-16 -64 -112 1990 0
-1991 17 0
-1991 65 0
-1991 113 0
-17 -65 -113 1991 0
-1992 18 0
-1992 66 0
-1992 114 0
-18 -66 -114 1992 0
-1993 19 0
-1993 67 0
-1993 115 0
-19 -67 -115 1993 0
-1994 20 0
-1994 68 0
-1994 116 0
-20 -68 -116 1994 0
-1995 21 0
-1995 69 0
-1995 117 0
-21 -69 -117 1995 0
-1996 22 0
-1996 70 0
-1996 118 0
-22 -70 -118 1996 0
-1997 23 0
-1997 71 0
-1997 119 0
-23 -71 -119 1997 0
-1998 24 0
-1998 72 0
-1998 120 0
-24 -72 -120 1998 0
-1987 3725 0
-1988 3725 0
-1989 3725 0
-1990 3725 0
-1991 3725 0
-1992 3725 0
-1993 3725 0
-1994 3725 0
-1995 3725 0
-1996 3725 0
-1997 3725 0
-1998 3725 0
-3725 1987 1988 1989 1990 1991 1992 1993 1994 1995 1996 1997 1998 0
-1999 13 0
-1999 61 0
-1999 121 0
-13 -61 -121 1999 0
-2000 14 0
-2000 62 0
-2000 122 0
-14 -62 -122 2000 0
-2001 15 0
-2001 63 0
-2001 123 0
-15 -63 -123 2001 0
-2002 16 0
-2002 64 0
-2002 124 0
-16 -64 -124 2002 0
-2003 17 0
-2003 65 0
-2003 125 0
-17 -65 -125 2003 0
-2004 18 0
-2004 66 0
-2004 126 0
-18 -66 -126 2004 0
-2005 19 0
-2005 67 0
-2005 127 0
-19 -67 -127 2005 0
-2006 20 0
-2006 68 0
-2006 128 0
-20 -68 -128 2006 0
-2007 21 0
-2007 69 0
-2007 129 0
-21 -69 -129 2007 0
-2008 22 0
-2008 70 0
-2008 130 0
-22 -70 -130 2008 0
-2009 23 0
-2009 71 0
-2009 131 0
-23 -71 -131 2009 0
-2010 24 0
-2010 72 0
-2010 132 0
-24 -72 -132 2010 0
-1999 3726 0
-2000 3726 0
-2001 3726 0
-2002 3726 0
-2003 3726 0
-2004 3726 0
-2005 3726 0
-2006 3726 0
-2007 3726 0
-2008 3726 0
-2009 3726 0
-2010 3726 0
-3726 1999 2000 2001 2002 2003 2004 2005 2006 2007 2008 2009 2010 0
-2011 13 0
-2011 61 0
-2011 133 0
-13 -61 -133 2011 0
-2012 14 0
-2012 62 0
-2012 134 0
-14 -62 -134 2012 0
-2013 15 0
-2013 63 0
-2013 135 0
-15 -63 -135 2013 0
-2014 16 0
-2014 64 0
-2014 136 0
-16 -64 -136 2014 0
-2015 17 0
-2015 65 0
-2015 137 0
-17 -65 -137 2015 0
-2016 18 0
-2016 66 0
-2016 138 0
-18 -66 -138 2016 0
-2017 19 0
-2017 67 0
-2017 139 0
-19 -67 -139 2017 0
-2018 20 0
-2018 68 0
-2018 140 0
-20 -68 -140 2018 0
-2019 21 0
-2019 69 0
-2019 141 0
-21 -69 -141 2019 0
-2020 22 0
-2020 70 0
-2020 142 0
-22 -70 -142 2020 0
-2021 23 0
-2021 71 0
-2021 143 0
-23 -71 -143 2021 0
-2022 24 0
-2022 72 0
-2022 144 0
-24 -72 -144 2022 0
-2011 3727 0
-2012 3727 0
-2013 3727 0
-2014 3727 0
-2015 3727 0
-2016 3727 0
-2017 3727 0
-2018 3727 0
-2019 3727 0
-2020 3727 0
-2021 3727 0
-2022 3727 0
-3727 2011 2012 2013 2014 2015 2016 2017 2018 2019 2020 2021 2022 0
-2023 13 0
-2023 73 0
-2023 85 0
-13 -73 -85 2023 0
-2024 14 0
-2024 74 0
-2024 86 0
-14 -74 -86 2024 0
-2025 15 0
-2025 75 0
-2025 87 0
-15 -75 -87 2025 0
-2026 16 0
-2026 76 0
-2026 88 0
-16 -76 -88 2026 0
-2027 17 0
-2027 77 0
-2027 89 0
-17 -77 -89 2027 0
-2028 18 0
-2028 78 0
-2028 90 0
-18 -78 -90 2028 0
-2029 19 0
-2029 79 0
-2029 91 0
-19 -79 -91 2029 0
-2030 20 0
-2030 80 0
-2030 92 0
-20 -80 -92 2030 0
-2031 21 0
-2031 81 0
-2031 93 0
-21 -81 -93 2031 0
-2032 22 0
-2032 82 0
-2032 94 0
-22 -82 -94 2032 0
-2033 23 0
-2033 83 0
-2033 95 0
-23 -83 -95 2033 0
-2034 24 0
-2034 84 0
-2034 96 0
-24 -84 -96 2034 0
-2023 3728 0
-2024 3728 0
-2025 3728 0
-2026 3728 0
-2027 3728 0
-2028 3728 0
-2029 3728 0
-2030 3728 0
-2031 3728 0
-2032 3728 0
-2033 3728 0
-2034 3728 0
-3728 2023 2024 2025 2026 2027 2028 2029 2030 2031 2032 2033 2034 0
-2035 13 0
-2035 73 0
-2035 97 0
-13 -73 -97 2035 0
-2036 14 0
-2036 74 0
-2036 98 0
-14 -74 -98 2036 0
-2037 15 0
-2037 75 0
-2037 99 0
-15 -75 -99 2037 0
-2038 16 0
-2038 76 0
-2038 100 0
-16 -76 -100 2038 0
-2039 17 0
-2039 77 0
-2039 101 0
-17 -77 -101 2039 0
-2040 18 0
-2040 78 0
-2040 102 0
-18 -78 -102 2040 0
-2041 19 0
-2041 79 0
-2041 103 0
-19 -79 -103 2041 0
-2042 20 0
-2042 80 0
-2042 104 0
-20 -80 -104 2042 0
-2043 21 0
-2043 81 0
-2043 105 0
-21 -81 -105 2043 0
-2044 22 0
-2044 82 0
-2044 106 0
-22 -82 -106 2044 0
-2045 23 0
-2045 83 0
-2045 107 0
-23 -83 -107 2045 0
-2046 24 0
-2046 84 0
-2046 108 0
-24 -84 -108 2046 0
-2035 3729 0
-2036 3729 0
-2037 3729 0
-2038 3729 0
-2039 3729 0
-2040 3729 0
-2041 3729 0
-2042 3729 0
-2043 3729 0
-2044 3729 0
-2045 3729 0
-2046 3729 0
-3729 2035 2036 2037 2038 2039 2040 2041 2042 2043 2044 2045 2046 0
-2047 13 0
-2047 73 0
-2047 109 0
-13 -73 -109 2047 0
-2048 14 0
-2048 74 0
-2048 110 0
-14 -74 -110 2048 0
-2049 15 0
-2049 75 0
-2049 111 0
-15 -75 -111 2049 0
-2050 16 0
-2050 76 0
-2050 112 0
-16 -76 -112 2050 0
-2051 17 0
-2051 77 0
-2051 113 0
-17 -77 -113 2051 0
-2052 18 0
-2052 78 0
-2052 114 0
-18 -78 -114 2052 0
-2053 19 0
-2053 79 0
-2053 115 0
-19 -79 -115 2053 0
-2054 20 0
-2054 80 0
-2054 116 0
-20 -80 -116 2054 0
-2055 21 0
-2055 81 0
-2055 117 0
-21 -81 -117 2055 0
-2056 22 0
-2056 82 0
-2056 118 0
-22 -82 -118 2056 0
-2057 23 0
-2057 83 0
-2057 119 0
-23 -83 -119 2057 0
-2058 24 0
-2058 84 0
-2058 120 0
-24 -84 -120 2058 0
-2047 3730 0
-2048 3730 0
-2049 3730 0
-2050 3730 0
-2051 3730 0
-2052 3730 0
-2053 3730 0
-2054 3730 0
-2055 3730 0
-2056 3730 0
-2057 3730 0
-2058 3730 0
-3730 2047 2048 2049 2050 2051 2052 2053 2054 2055 2056 2057 2058 0
-2059 13 0
-2059 73 0
-2059 121 0
-13 -73 -121 2059 0
-2060 14 0
-2060 74 0
-2060 122 0
-14 -74 -122 2060 0
-2061 15 0
-2061 75 0
-2061 123 0
-15 -75 -123 2061 0
-2062 16 0
-2062 76 0
-2062 124 0
-16 -76 -124 2062 0
-2063 17 0
-2063 77 0
-2063 125 0
-17 -77 -125 2063 0
-2064 18 0
-2064 78 0
-2064 126 0
-18 -78 -126 2064 0
-2065 19 0
-2065 79 0
-2065 127 0
-19 -79 -127 2065 0
-2066 20 0
-2066 80 0
-2066 128 0
-20 -80 -128 2066 0
-2067 21 0
-2067 81 0
-2067 129 0
-21 -81 -129 2067 0
-2068 22 0
-2068 82 0
-2068 130 0
-22 -82 -130 2068 0
-2069 23 0
-2069 83 0
-2069 131 0
-23 -83 -131 2069 0
-2070 24 0
-2070 84 0
-2070 132 0
-24 -84 -132 2070 0
-2059 3731 0
-2060 3731 0
-2061 3731 0
-2062 3731 0
-2063 3731 0
-2064 3731 0
-2065 3731 0
-2066 3731 0
-2067 3731 0
-2068 3731 0
-2069 3731 0
-2070 3731 0
-3731 2059 2060 2061 2062 2063 2064 2065 2066 2067 2068 2069 2070 0
-2071 13 0
-2071 73 0
-2071 133 0
-13 -73 -133 2071 0
-2072 14 0
-2072 74 0
-2072 134 0
-14 -74 -134 2072 0
-2073 15 0
-2073 75 0
-2073 135 0
-15 -75 -135 2073 0
-2074 16 0
-2074 76 0
-2074 136 0
-16 -76 -136 2074 0
-2075 17 0
-2075 77 0
-2075 137 0
-17 -77 -137 2075 0
-2076 18 0
-2076 78 0
-2076 138 0
-18 -78 -138 2076 0
-2077 19 0
-2077 79 0
-2077 139 0
-19 -79 -139 2077 0
-2078 20 0
-2078 80 0
-2078 140 0
-20 -80 -140 2078 0
-2079 21 0
-2079 81 0
-2079 141 0
-21 -81 -141 2079 0
-2080 22 0
-2080 82 0
-2080 142 0
-22 -82 -142 2080 0
-2081 23 0
-2081 83 0
-2081 143 0
-23 -83 -143 2081 0
-2082 24 0
-2082 84 0
-2082 144 0
-24 -84 -144 2082 0
-2071 3732 0
-2072 3732 0
-2073 3732 0
-2074 3732 0
-2075 3732 0
-2076 3732 0
-2077 3732 0
-2078 3732 0
-2079 3732 0
-2080 3732 0
-2081 3732 0
-2082 3732 0
-3732 2071 2072 2073 2074 2075 2076 2077 2078 2079 2080 2081 2082 0
-2083 13 0
-2083 85 0
-2083 97 0
-13 -85 -97 2083 0
-2084 14 0
-2084 86 0
-2084 98 0
-14 -86 -98 2084 0
-2085 15 0
-2085 87 0
-2085 99 0
-15 -87 -99 2085 0
-2086 16 0
-2086 88 0
-2086 100 0
-16 -88 -100 2086 0
-2087 17 0
-2087 89 0
-2087 101 0
-17 -89 -101 2087 0
-2088 18 0
-2088 90 0
-2088 102 0
-18 -90 -102 2088 0
-2089 19 0
-2089 91 0
-2089 103 0
-19 -91 -103 2089 0
-2090 20 0
-2090 92 0
-2090 104 0
-20 -92 -104 2090 0
-2091 21 0
-2091 93 0
-2091 105 0
-21 -93 -105 2091 0
-2092 22 0
-2092 94 0
-2092 106 0
-22 -94 -106 2092 0
-2093 23 0
-2093 95 0
-2093 107 0
-23 -95 -107 2093 0
-2094 24 0
-2094 96 0
-2094 108 0
-24 -96 -108 2094 0
-2083 3733 0
-2084 3733 0
-2085 3733 0
-2086 3733 0
-2087 3733 0
-2088 3733 0
-2089 3733 0
-2090 3733 0
-2091 3733 0
-2092 3733 0
-2093 3733 0
-2094 3733 0
-3733 2083 2084 2085 2086 2087 2088 2089 2090 2091 2092 2093 2094 0
-2095 13 0
-2095 85 0
-2095 109 0
-13 -85 -109 2095 0
-2096 14 0
-2096 86 0
-2096 110 0
-14 -86 -110 2096 0
-2097 15 0
-2097 87 0
-2097 111 0
-15 -87 -111 2097 0
-2098 16 0
-2098 88 0
-2098 112 0
-16 -88 -112 2098 0
-2099 17 0
-2099 89 0
-2099 113 0
-17 -89 -113 2099 0
-2100 18 0
-2100 90 0
-2100 114 0
-18 -90 -114 2100 0
-2101 19 0
-2101 91 0
-2101 115 0
-19 -91 -115 2101 0
-2102 20 0
-2102 92 0
-2102 116 0
-20 -92 -116 2102 0
-2103 21 0
-2103 93 0
-2103 117 0
-21 -93 -117 2103 0
-2104 22 0
-2104 94 0
-2104 118 0
-22 -94 -118 2104 0
-2105 23 0
-2105 95 0
-2105 119 0
-23 -95 -119 2105 0
-2106 24 0
-2106 96 0
-2106 120 0
-24 -96 -120 2106 0
-2095 3734 0
-2096 3734 0
-2097 3734 0
-2098 3734 0
-2099 3734 0
-2100 3734 0
-2101 3734 0
-2102 3734 0
-2103 3734 0
-2104 3734 0
-2105 3734 0
-2106 3734 0
-3734 2095 2096 2097 2098 2099 2100 2101 2102 2103 2104 2105 2106 0
-2107 13 0
-2107 85 0
-2107 121 0
-13 -85 -121 2107 0
-2108 14 0
-2108 86 0
-2108 122 0
-14 -86 -122 2108 0
-2109 15 0
-2109 87 0
-2109 123 0
-15 -87 -123 2109 0
-2110 16 0
-2110 88 0
-2110 124 0
-16 -88 -124 2110 0
-2111 17 0
-2111 89 0
-2111 125 0
-17 -89 -125 2111 0
-2112 18 0
-2112 90 0
-2112 126 0
-18 -90 -126 2112 0
-2113 19 0
-2113 91 0
-2113 127 0
-19 -91 -127 2113 0
-2114 20 0
-2114 92 0
-2114 128 0
-20 -92 -128 2114 0
-2115 21 0
-2115 93 0
-2115 129 0
-21 -93 -129 2115 0
-2116 22 0
-2116 94 0
-2116 130 0
-22 -94 -130 2116 0
-2117 23 0
-2117 95 0
-2117 131 0
-23 -95 -131 2117 0
-2118 24 0
-2118 96 0
-2118 132 0
-24 -96 -132 2118 0
-2107 3735 0
-2108 3735 0
-2109 3735 0
-2110 3735 0
-2111 3735 0
-2112 3735 0
-2113 3735 0
-2114 3735 0
-2115 3735 0
-2116 3735 0
-2117 3735 0
-2118 3735 0
-3735 2107 2108 2109 2110 2111 2112 2113 2114 2115 2116 2117 2118 0
-2119 13 0
-2119 85 0
-2119 133 0
-13 -85 -133 2119 0
-2120 14 0
-2120 86 0
-2120 134 0
-14 -86 -134 2120 0
-2121 15 0
-2121 87 0
-2121 135 0
-15 -87 -135 2121 0
-2122 16 0
-2122 88 0
-2122 136 0
-16 -88 -136 2122 0
-2123 17 0
-2123 89 0
-2123 137 0
-17 -89 -137 2123 0
-2124 18 0
-2124 90 0
-2124 138 0
-18 -90 -138 2124 0
-2125 19 0
-2125 91 0
-2125 139 0
-19 -91 -139 2125 0
-2126 20 0
-2126 92 0
-2126 140 0
-20 -92 -140 2126 0
-2127 21 0
-2127 93 0
-2127 141 0
-21 -93 -141 2127 0
-2128 22 0
-2128 94 0
-2128 142 0
-22 -94 -142 2128 0
-2129 23 0
-2129 95 0
-2129 143 0
-23 -95 -143 2129 0
-2130 24 0
-2130 96 0
-2130 144 0
-24 -96 -144 2130 0
-2119 3736 0
-2120 3736 0
-2121 3736 0
-2122 3736 0
-2123 3736 0
-2124 3736 0
-2125 3736 0
-2126 3736 0
-2127 3736 0
-2128 3736 0
-2129 3736 0
-2130 3736 0
-3736 2119 2120 2121 2122 2123 2124 2125 2126 2127 2128 2129 2130 0
-2131 13 0
-2131 97 0
-2131 109 0
-13 -97 -109 2131 0
-2132 14 0
-2132 98 0
-2132 110 0
-14 -98 -110 2132 0
-2133 15 0
-2133 99 0
-2133 111 0
-15 -99 -111 2133 0
-2134 16 0
-2134 100 0
-2134 112 0
-16 -100 -112 2134 0
-2135 17 0
-2135 101 0
-2135 113 0
-17 -101 -113 2135 0
-2136 18 0
-2136 102 0
-2136 114 0
-18 -102 -114 2136 0
-2137 19 0
-2137 103 0
-2137 115 0
-19 -103 -115 2137 0
-2138 20 0
-2138 104 0
-2138 116 0
-20 -104 -116 2138 0
-2139 21 0
-2139 105 0
-2139 117 0
-21 -105 -117 2139 0
-2140 22 0
-2140 106 0
-2140 118 0
-22 -106 -118 2140 0
-2141 23 0
-2141 107 0
-2141 119 0
-23 -107 -119 2141 0
-2142 24 0
-2142 108 0
-2142 120 0
-24 -108 -120 2142 0
-2131 3737 0
-2132 3737 0
-2133 3737 0
-2134 3737 0
-2135 3737 0
-2136 3737 0
-2137 3737 0
-2138 3737 0
-2139 3737 0
-2140 3737 0
-2141 3737 0
-2142 3737 0
-3737 2131 2132 2133 2134 2135 2136 2137 2138 2139 2140 2141 2142 0
-2143 13 0
-2143 97 0
-2143 121 0
-13 -97 -121 2143 0
-2144 14 0
-2144 98 0
-2144 122 0
-14 -98 -122 2144 0
-2145 15 0
-2145 99 0
-2145 123 0
-15 -99 -123 2145 0
-2146 16 0
-2146 100 0
-2146 124 0
-16 -100 -124 2146 0
-2147 17 0
-2147 101 0
-2147 125 0
-17 -101 -125 2147 0
-2148 18 0
-2148 102 0
-2148 126 0
-18 -102 -126 2148 0
-2149 19 0
-2149 103 0
-2149 127 0
-19 -103 -127 2149 0
-2150 20 0
-2150 104 0
-2150 128 0
-20 -104 -128 2150 0
-2151 21 0
-2151 105 0
-2151 129 0
-21 -105 -129 2151 0
-2152 22 0
-2152 106 0
-2152 130 0
-22 -106 -130 2152 0
-2153 23 0
-2153 107 0
-2153 131 0
-23 -107 -131 2153 0
-2154 24 0
-2154 108 0
-2154 132 0
-24 -108 -132 2154 0
-2143 3738 0
-2144 3738 0
-2145 3738 0
-2146 3738 0
-2147 3738 0
-2148 3738 0
-2149 3738 0
-2150 3738 0
-2151 3738 0
-2152 3738 0
-2153 3738 0
-2154 3738 0
-3738 2143 2144 2145 2146 2147 2148 2149 2150 2151 2152 2153 2154 0
-2155 13 0
-2155 97 0
-2155 133 0
-13 -97 -133 2155 0
-2156 14 0
-2156 98 0
-2156 134 0
-14 -98 -134 2156 0
-2157 15 0
-2157 99 0
-2157 135 0
-15 -99 -135 2157 0
-2158 16 0
-2158 100 0
-2158 136 0
-16 -100 -136 2158 0
-2159 17 0
-2159 101 0
-2159 137 0
-17 -101 -137 2159 0
-2160 18 0
-2160 102 0
-2160 138 0
-18 -102 -138 2160 0
-2161 19 0
-2161 103 0
-2161 139 0
-19 -103 -139 2161 0
-2162 20 0
-2162 104 0
-2162 140 0
-20 -104 -140 2162 0
-2163 21 0
-2163 105 0
-2163 141 0
-21 -105 -141 2163 0
-2164 22 0
-2164 106 0
-2164 142 0
-22 -106 -142 2164 0
-2165 23 0
-2165 107 0
-2165 143 0
-23 -107 -143 2165 0
-2166 24 0
-2166 108 0
-2166 144 0
-24 -108 -144 2166 0
-2155 3739 0
-2156 3739 0
-2157 3739 0
-2158 3739 0
-2159 3739 0
-2160 3739 0
-2161 3739 0
-2162 3739 0
-2163 3739 0
-2164 3739 0
-2165 3739 0
-2166 3739 0
-3739 2155 2156 2157 2158 2159 2160 2161 2162 2163 2164 2165 2166 0
-2167 13 0
-2167 109 0
-2167 121 0
-13 -109 -121 2167 0
-2168 14 0
-2168 110 0
-2168 122 0
-14 -110 -122 2168 0
-2169 15 0
-2169 111 0
-2169 123 0
-15 -111 -123 2169 0
-2170 16 0
-2170 112 0
-2170 124 0
-16 -112 -124 2170 0
-2171 17 0
-2171 113 0
-2171 125 0
-17 -113 -125 2171 0
-2172 18 0
-2172 114 0
-2172 126 0
-18 -114 -126 2172 0
-2173 19 0
-2173 115 0
-2173 127 0
-19 -115 -127 2173 0
-2174 20 0
-2174 116 0
-2174 128 0
-20 -116 -128 2174 0
-2175 21 0
-2175 117 0
-2175 129 0
-21 -117 -129 2175 0
-2176 22 0
-2176 118 0
-2176 130 0
-22 -118 -130 2176 0
-2177 23 0
-2177 119 0
-2177 131 0
-23 -119 -131 2177 0
-2178 24 0
-2178 120 0
-2178 132 0
-24 -120 -132 2178 0
-2167 3740 0
-2168 3740 0
-2169 3740 0
-2170 3740 0
-2171 3740 0
-2172 3740 0
-2173 3740 0
-2174 3740 0
-2175 3740 0
-2176 3740 0
-2177 3740 0
-2178 3740 0
-3740 2167 2168 2169 2170 2171 2172 2173 2174 2175 2176 2177 2178 0
-2179 13 0
-2179 109 0
-2179 133 0
-13 -109 -133 2179 0
-2180 14 0
-2180 110 0
-2180 134 0
-14 -110 -134 2180 0
-2181 15 0
-2181 111 0
-2181 135 0
-15 -111 -135 2181 0
-2182 16 0
-2182 112 0
-2182 136 0
-16 -112 -136 2182 0
-2183 17 0
-2183 113 0
-2183 137 0
-17 -113 -137 2183 0
-2184 18 0
-2184 114 0
-2184 138 0
-18 -114 -138 2184 0
-2185 19 0
-2185 115 0
-2185 139 0
-19 -115 -139 2185 0
-2186 20 0
-2186 116 0
-2186 140 0
-20 -116 -140 2186 0
-2187 21 0
-2187 117 0
-2187 141 0
-21 -117 -141 2187 0
-2188 22 0
-2188 118 0
-2188 142 0
-22 -118 -142 2188 0
-2189 23 0
-2189 119 0
-2189 143 0
-23 -119 -143 2189 0
-2190 24 0
-2190 120 0
-2190 144 0
-24 -120 -144 2190 0
-2179 3741 0
-2180 3741 0
-2181 3741 0
-2182 3741 0
-2183 3741 0
-2184 3741 0
-2185 3741 0
-2186 3741 0
-2187 3741 0
-2188 3741 0
-2189 3741 0
-2190 3741 0
-3741 2179 2180 2181 2182 2183 2184 2185 2186 2187 2188 2189 2190 0
-2191 13 0
-2191 121 0
-2191 133 0
-13 -121 -133 2191 0
-2192 14 0
-2192 122 0
-2192 134 0
-14 -122 -134 2192 0
-2193 15 0
-2193 123 0
-2193 135 0
-15 -123 -135 2193 0
-2194 16 0
-2194 124 0
-2194 136 0
-16 -124 -136 2194 0
-2195 17 0
-2195 125 0
-2195 137 0
-17 -125 -137 2195 0
-2196 18 0
-2196 126 0
-2196 138 0
-18 -126 -138 2196 0
-2197 19 0
-2197 127 0
-2197 139 0
-19 -127 -139 2197 0
-2198 20 0
-2198 128 0
-2198 140 0
-20 -128 -140 2198 0
-2199 21 0
-2199 129 0
-2199 141 0
-21 -129 -141 2199 0
-2200 22 0
-2200 130 0
-2200 142 0
-22 -130 -142 2200 0
-2201 23 0
-2201 131 0
-2201 143 0
-23 -131 -143 2201 0
-2202 24 0
-2202 132 0
-2202 144 0
-24 -132 -144 2202 0
-2191 3742 0
-2192 3742 0
-2193 3742 0
-2194 3742 0
-2195 3742 0
-2196 3742 0
-2197 3742 0
-2198 3742 0
-2199 3742 0
-2200 3742 0
-2201 3742 0
-2202 3742 0
-3742 2191 2192 2193 2194 2195 2196 2197 2198 2199 2200 2201 2202 0
-2203 25 0
-2203 37 0
-2203 49 0
-25 -37 -49 2203 0
-2204 26 0
-2204 38 0
-2204 50 0
-26 -38 -50 2204 0
-2205 27 0
-2205 39 0
-2205 51 0
-27 -39 -51 2205 0
-2206 28 0
-2206 40 0
-2206 52 0
-28 -40 -52 2206 0
-2207 29 0
-2207 41 0
-2207 53 0
-29 -41 -53 2207 0
-2208 30 0
-2208 42 0
-2208 54 0
-30 -42 -54 2208 0
-2209 31 0
-2209 43 0
-2209 55 0
-31 -43 -55 2209 0
-2210 32 0
-2210 44 0
-2210 56 0
-32 -44 -56 2210 0
-2211 33 0
-2211 45 0
-2211 57 0
-33 -45 -57 2211 0
-2212 34 0
-2212 46 0
-2212 58 0
-34 -46 -58 2212 0
-2213 35 0
-2213 47 0
-2213 59 0
-35 -47 -59 2213 0
-2214 36 0
-2214 48 0
-2214 60 0
-36 -48 -60 2214 0
-2203 3743 0
-2204 3743 0
-2205 3743 0
-2206 3743 0
-2207 3743 0
-2208 3743 0
-2209 3743 0
-2210 3743 0
-2211 3743 0
-2212 3743 0
-2213 3743 0
-2214 3743 0
-3743 2203 2204 2205 2206 2207 2208 2209 2210 2211 2212 2213 2214 0
-2215 25 0
-2215 37 0
-2215 61 0
-25 -37 -61 2215 0
-2216 26 0
-2216 38 0
-2216 62 0
-26 -38 -62 2216 0
-2217 27 0
-2217 39 0
-2217 63 0
-27 -39 -63 2217 0
-2218 28 0
-2218 40 0
-2218 64 0
-28 -40 -64 2218 0
-2219 29 0
-2219 41 0
-2219 65 0
-29 -41 -65 2219 0
-2220 30 0
-2220 42 0
-2220 66 0
-30 -42 -66 2220 0
-2221 31 0
-2221 43 0
-2221 67 0
-31 -43 -67 2221 0
-2222 32 0
-2222 44 0
-2222 68 0
-32 -44 -68 2222 0
-2223 33 0
-2223 45 0
-2223 69 0
-33 -45 -69 2223 0
-2224 34 0
-2224 46 0
-2224 70 0
-34 -46 -70 2224 0
-2225 35 0
-2225 47 0
-2225 71 0
-35 -47 -71 2225 0
-2226 36 0
-2226 48 0
-2226 72 0
-36 -48 -72 2226 0
-2215 3744 0
-2216 3744 0
-2217 3744 0
-2218 3744 0
-2219 3744 0
-2220 3744 0
-2221 3744 0
-2222 3744 0
-2223 3744 0
-2224 3744 0
-2225 3744 0
-2226 3744 0
-3744 2215 2216 2217 2218 2219 2220 2221 2222 2223 2224 2225 2226 0
-2227 25 0
-2227 37 0
-2227 73 0
-25 -37 -73 2227 0
-2228 26 0
-2228 38 0
-2228 74 0
-26 -38 -74 2228 0
-2229 27 0
-2229 39 0
-2229 75 0
-27 -39 -75 2229 0
-2230 28 0
-2230 40 0
-2230 76 0
-28 -40 -76 2230 0
-2231 29 0
-2231 41 0
-2231 77 0
-29 -41 -77 2231 0
-2232 30 0
-2232 42 0
-2232 78 0
-30 -42 -78 2232 0
-2233 31 0
-2233 43 0
-2233 79 0
-31 -43 -79 2233 0
-2234 32 0
-2234 44 0
-2234 80 0
-32 -44 -80 2234 0
-2235 33 0
-2235 45 0
-2235 81 0
-33 -45 -81 2235 0
-2236 34 0
-2236 46 0
-2236 82 0
-34 -46 -82 2236 0
-2237 35 0
-2237 47 0
-2237 83 0
-35 -47 -83 2237 0
-2238 36 0
-2238 48 0
-2238 84 0
-36 -48 -84 2238 0
-2227 3745 0
-2228 3745 0
-2229 3745 0
-2230 3745 0
-2231 3745 0
-2232 3745 0
-2233 3745 0
-2234 3745 0
-2235 3745 0
-2236 3745 0
-2237 3745 0
-2238 3745 0
-3745 2227 2228 2229 2230 2231 2232 2233 2234 2235 2236 2237 2238 0
-2239 25 0
-2239 37 0
-2239 85 0
-25 -37 -85 2239 0
-2240 26 0
-2240 38 0
-2240 86 0
-26 -38 -86 2240 0
-2241 27 0
-2241 39 0
-2241 87 0
-27 -39 -87 2241 0
-2242 28 0
-2242 40 0
-2242 88 0
-28 -40 -88 2242 0
-2243 29 0
-2243 41 0
-2243 89 0
-29 -41 -89 2243 0
-2244 30 0
-2244 42 0
-2244 90 0
-30 -42 -90 2244 0
-2245 31 0
-2245 43 0
-2245 91 0
-31 -43 -91 2245 0
-2246 32 0
-2246 44 0
-2246 92 0
-32 -44 -92 2246 0
-2247 33 0
-2247 45 0
-2247 93 0
-33 -45 -93 2247 0
-2248 34 0
-2248 46 0
-2248 94 0
-34 -46 -94 2248 0
-2249 35 0
-2249 47 0
-2249 95 0
-35 -47 -95 2249 0
-2250 36 0
-2250 48 0
-2250 96 0
-36 -48 -96 2250 0
-2239 3746 0
-2240 3746 0
-2241 3746 0
-2242 3746 0
-2243 3746 0
-2244 3746 0
-2245 3746 0
-2246 3746 0
-2247 3746 0
-2248 3746 0
-2249 3746 0
-2250 3746 0
-3746 2239 2240 2241 2242 2243 2244 2245 2246 2247 2248 2249 2250 0
-2251 25 0
-2251 37 0
-2251 97 0
-25 -37 -97 2251 0
-2252 26 0
-2252 38 0
-2252 98 0
-26 -38 -98 2252 0
-2253 27 0
-2253 39 0
-2253 99 0
-27 -39 -99 2253 0
-2254 28 0
-2254 40 0
-2254 100 0
-28 -40 -100 2254 0
-2255 29 0
-2255 41 0
-2255 101 0
-29 -41 -101 2255 0
-2256 30 0
-2256 42 0
-2256 102 0
-30 -42 -102 2256 0
-2257 31 0
-2257 43 0
-2257 103 0
-31 -43 -103 2257 0
-2258 32 0
-2258 44 0
-2258 104 0
-32 -44 -104 2258 0
-2259 33 0
-2259 45 0
-2259 105 0
-33 -45 -105 2259 0
-2260 34 0
-2260 46 0
-2260 106 0
-34 -46 -106 2260 0
-2261 35 0
-2261 47 0
-2261 107 0
-35 -47 -107 2261 0
-2262 36 0
-2262 48 0
-2262 108 0
-36 -48 -108 2262 0
-2251 3747 0
-2252 3747 0
-2253 3747 0
-2254 3747 0
-2255 3747 0
-2256 3747 0
-2257 3747 0
-2258 3747 0
-2259 3747 0
-2260 3747 0
-2261 3747 0
-2262 3747 0
-3747 2251 2252 2253 2254 2255 2256 2257 2258 2259 2260 2261 2262 0
-2263 25 0
-2263 37 0
-2263 109 0
-25 -37 -109 2263 0
-2264 26 0
-2264 38 0
-2264 110 0
-26 -38 -110 2264 0
-2265 27 0
-2265 39 0
-2265 111 0
-27 -39 -111 2265 0
-2266 28 0
-2266 40 0
-2266 112 0
-28 -40 -112 2266 0
-2267 29 0
-2267 41 0
-2267 113 0
-29 -41 -113 2267 0
-2268 30 0
-2268 42 0
-2268 114 0
-30 -42 -114 2268 0
-2269 31 0
-2269 43 0
-2269 115 0
-31 -43 -115 2269 0
-2270 32 0
-2270 44 0
-2270 116 0
-32 -44 -116 2270 0
-2271 33 0
-2271 45 0
-2271 117 0
-33 -45 -117 2271 0
-2272 34 0
-2272 46 0
-2272 118 0
-34 -46 -118 2272 0
-2273 35 0
-2273 47 0
-2273 119 0
-35 -47 -119 2273 0
-2274 36 0
-2274 48 0
-2274 120 0
-36 -48 -120 2274 0
-2263 3748 0
-2264 3748 0
-2265 3748 0
-2266 3748 0
-2267 3748 0
-2268 3748 0
-2269 3748 0
-2270 3748 0
-2271 3748 0
-2272 3748 0
-2273 3748 0
-2274 3748 0
-3748 2263 2264 2265 2266 2267 2268 2269 2270 2271 2272 2273 2274 0
-2275 25 0
-2275 37 0
-2275 121 0
-25 -37 -121 2275 0
-2276 26 0
-2276 38 0
-2276 122 0
-26 -38 -122 2276 0
-2277 27 0
-2277 39 0
-2277 123 0
-27 -39 -123 2277 0
-2278 28 0
-2278 40 0
-2278 124 0
-28 -40 -124 2278 0
-2279 29 0
-2279 41 0
-2279 125 0
-29 -41 -125 2279 0
-2280 30 0
-2280 42 0
-2280 126 0
-30 -42 -126 2280 0
-2281 31 0
-2281 43 0
-2281 127 0
-31 -43 -127 2281 0
-2282 32 0
-2282 44 0
-2282 128 0
-32 -44 -128 2282 0
-2283 33 0
-2283 45 0
-2283 129 0
-33 -45 -129 2283 0
-2284 34 0
-2284 46 0
-2284 130 0
-34 -46 -130 2284 0
-2285 35 0
-2285 47 0
-2285 131 0
-35 -47 -131 2285 0
-2286 36 0
-2286 48 0
-2286 132 0
-36 -48 -132 2286 0
-2275 3749 0
-2276 3749 0
-2277 3749 0
-2278 3749 0
-2279 3749 0
-2280 3749 0
-2281 3749 0
-2282 3749 0
-2283 3749 0
-2284 3749 0
-2285 3749 0
-2286 3749 0
-3749 2275 2276 2277 2278 2279 2280 2281 2282 2283 2284 2285 2286 0
-2287 25 0
-2287 37 0
-2287 133 0
-25 -37 -133 2287 0
-2288 26 0
-2288 38 0
-2288 134 0
-26 -38 -134 2288 0
-2289 27 0
-2289 39 0
-2289 135 0
-27 -39 -135 2289 0
-2290 28 0
-2290 40 0
-2290 136 0
-28 -40 -136 2290 0
-2291 29 0
-2291 41 0
-2291 137 0
-29 -41 -137 2291 0
-2292 30 0
-2292 42 0
-2292 138 0
-30 -42 -138 2292 0
-2293 31 0
-2293 43 0
-2293 139 0
-31 -43 -139 2293 0
-2294 32 0
-2294 44 0
-2294 140 0
-32 -44 -140 2294 0
-2295 33 0
-2295 45 0
-2295 141 0
-33 -45 -141 2295 0
-2296 34 0
-2296 46 0
-2296 142 0
-34 -46 -142 2296 0
-2297 35 0
-2297 47 0
-2297 143 0
-35 -47 -143 2297 0
-2298 36 0
-2298 48 0
-2298 144 0
-36 -48 -144 2298 0
-2287 3750 0
-2288 3750 0
-2289 3750 0
-2290 3750 0
-2291 3750 0
-2292 3750 0
-2293 3750 0
-2294 3750 0
-2295 3750 0
-2296 3750 0
-2297 3750 0
-2298 3750 0
-3750 2287 2288 2289 2290 2291 2292 2293 2294 2295 2296 2297 2298 0
-2299 25 0
-2299 49 0
-2299 61 0
-25 -49 -61 2299 0
-2300 26 0
-2300 50 0
-2300 62 0
-26 -50 -62 2300 0
-2301 27 0
-2301 51 0
-2301 63 0
-27 -51 -63 2301 0
-2302 28 0
-2302 52 0
-2302 64 0
-28 -52 -64 2302 0
-2303 29 0
-2303 53 0
-2303 65 0
-29 -53 -65 2303 0
-2304 30 0
-2304 54 0
-2304 66 0
-30 -54 -66 2304 0
-2305 31 0
-2305 55 0
-2305 67 0
-31 -55 -67 2305 0
-2306 32 0
-2306 56 0
-2306 68 0
-32 -56 -68 2306 0
-2307 33 0
-2307 57 0
-2307 69 0
-33 -57 -69 2307 0
-2308 34 0
-2308 58 0
-2308 70 0
-34 -58 -70 2308 0
-2309 35 0
-2309 59 0
-2309 71 0
-35 -59 -71 2309 0
-2310 36 0
-2310 60 0
-2310 72 0
-36 -60 -72 2310 0
-2299 3751 0
-2300 3751 0
-2301 3751 0
-2302 3751 0
-2303 3751 0
-2304 3751 0
-2305 3751 0
-2306 3751 0
-2307 3751 0
-2308 3751 0
-2309 3751 0
-2310 3751 0
-3751 2299 2300 2301 2302 2303 2304 2305 2306 2307 2308 2309 2310 0
-2311 25 0
-2311 49 0
-2311 73 0
-25 -49 -73 2311 0
-2312 26 0
-2312 50 0
-2312 74 0
-26 -50 -74 2312 0
-2313 27 0
-2313 51 0
-2313 75 0
-27 -51 -75 2313 0
-2314 28 0
-2314 52 0
-2314 76 0
-28 -52 -76 2314 0
-2315 29 0
-2315 53 0
-2315 77 0
-29 -53 -77 2315 0
-2316 30 0
-2316 54 0
-2316 78 0
-30 -54 -78 2316 0
-2317 31 0
-2317 55 0
-2317 79 0
-31 -55 -79 2317 0
-2318 32 0
-2318 56 0
-2318 80 0
-32 -56 -80 2318 0
-2319 33 0
-2319 57 0
-2319 81 0
-33 -57 -81 2319 0
-2320 34 0
-2320 58 0
-2320 82 0
-34 -58 -82 2320 0
-2321 35 0
-2321 59 0
-2321 83 0
-35 -59 -83 2321 0
-2322 36 0
-2322 60 0
-2322 84 0
-36 -60 -84 2322 0
-2311 3752 0
-2312 3752 0
-2313 3752 0
-2314 3752 0
-2315 3752 0
-2316 3752 0
-2317 3752 0
-2318 3752 0
-2319 3752 0
-2320 3752 0
-2321 3752 0
-2322 3752 0
-3752 2311 2312 2313 2314 2315 2316 2317 2318 2319 2320 2321 2322 0
-2323 25 0
-2323 49 0
-2323 85 0
-25 -49 -85 2323 0
-2324 26 0
-2324 50 0
-2324 86 0
-26 -50 -86 2324 0
-2325 27 0
-2325 51 0
-2325 87 0
-27 -51 -87 2325 0
-2326 28 0
-2326 52 0
-2326 88 0
-28 -52 -88 2326 0
-2327 29 0
-2327 53 0
-2327 89 0
-29 -53 -89 2327 0
-2328 30 0
-2328 54 0
-2328 90 0
-30 -54 -90 2328 0
-2329 31 0
-2329 55 0
-2329 91 0
-31 -55 -91 2329 0
-2330 32 0
-2330 56 0
-2330 92 0
-32 -56 -92 2330 0
-2331 33 0
-2331 57 0
-2331 93 0
-33 -57 -93 2331 0
-2332 34 0
-2332 58 0
-2332 94 0
-34 -58 -94 2332 0
-2333 35 0
-2333 59 0
-2333 95 0
-35 -59 -95 2333 0
-2334 36 0
-2334 60 0
-2334 96 0
-36 -60 -96 2334 0
-2323 3753 0
-2324 3753 0
-2325 3753 0
-2326 3753 0
-2327 3753 0
-2328 3753 0
-2329 3753 0
-2330 3753 0
-2331 3753 0
-2332 3753 0
-2333 3753 0
-2334 3753 0
-3753 2323 2324 2325 2326 2327 2328 2329 2330 2331 2332 2333 2334 0
-2335 25 0
-2335 49 0
-2335 97 0
-25 -49 -97 2335 0
-2336 26 0
-2336 50 0
-2336 98 0
-26 -50 -98 2336 0
-2337 27 0
-2337 51 0
-2337 99 0
-27 -51 -99 2337 0
-2338 28 0
-2338 52 0
-2338 100 0
-28 -52 -100 2338 0
-2339 29 0
-2339 53 0
-2339 101 0
-29 -53 -101 2339 0
-2340 30 0
-2340 54 0
-2340 102 0
-30 -54 -102 2340 0
-2341 31 0
-2341 55 0
-2341 103 0
-31 -55 -103 2341 0
-2342 32 0
-2342 56 0
-2342 104 0
-32 -56 -104 2342 0
-2343 33 0
-2343 57 0
-2343 105 0
-33 -57 -105 2343 0
-2344 34 0
-2344 58 0
-2344 106 0
-34 -58 -106 2344 0
-2345 35 0
-2345 59 0
-2345 107 0
-35 -59 -107 2345 0
-2346 36 0
-2346 60 0
-2346 108 0
-36 -60 -108 2346 0
-2335 3754 0
-2336 3754 0
-2337 3754 0
-2338 3754 0
-2339 3754 0
-2340 3754 0
-2341 3754 0
-2342 3754 0
-2343 3754 0
-2344 3754 0
-2345 3754 0
-2346 3754 0
-3754 2335 2336 2337 2338 2339 2340 2341 2342 2343 2344 2345 2346 0
-2347 25 0
-2347 49 0
-2347 109 0
-25 -49 -109 2347 0
-2348 26 0
-2348 50 0
-2348 110 0
-26 -50 -110 2348 0
-2349 27 0
-2349 51 0
-2349 111 0
-27 -51 -111 2349 0
-2350 28 0
-2350 52 0
-2350 112 0
-28 -52 -112 2350 0
-2351 29 0
-2351 53 0
-2351 113 0
-29 -53 -113 2351 0
-2352 30 0
-2352 54 0
-2352 114 0
-30 -54 -114 2352 0
-2353 31 0
-2353 55 0
-2353 115 0
-31 -55 -115 2353 0
-2354 32 0
-2354 56 0
-2354 116 0
-32 -56 -116 2354 0
-2355 33 0
-2355 57 0
-2355 117 0
-33 -57 -117 2355 0
-2356 34 0
-2356 58 0
-2356 118 0
-34 -58 -118 2356 0
-2357 35 0
-2357 59 0
-2357 119 0
-35 -59 -119 2357 0
-2358 36 0
-2358 60 0
-2358 120 0
-36 -60 -120 2358 0
-2347 3755 0
-2348 3755 0
-2349 3755 0
-2350 3755 0
-2351 3755 0
-2352 3755 0
-2353 3755 0
-2354 3755 0
-2355 3755 0
-2356 3755 0
-2357 3755 0
-2358 3755 0
-3755 2347 2348 2349 2350 2351 2352 2353 2354 2355 2356 2357 2358 0
-2359 25 0
-2359 49 0
-2359 121 0
-25 -49 -121 2359 0
-2360 26 0
-2360 50 0
-2360 122 0
-26 -50 -122 2360 0
-2361 27 0
-2361 51 0
-2361 123 0
-27 -51 -123 2361 0
-2362 28 0
-2362 52 0
-2362 124 0
-28 -52 -124 2362 0
-2363 29 0
-2363 53 0
-2363 125 0
-29 -53 -125 2363 0
-2364 30 0
-2364 54 0
-2364 126 0
-30 -54 -126 2364 0
-2365 31 0
-2365 55 0
-2365 127 0
-31 -55 -127 2365 0
-2366 32 0
-2366 56 0
-2366 128 0
-32 -56 -128 2366 0
-2367 33 0
-2367 57 0
-2367 129 0
-33 -57 -129 2367 0
-2368 34 0
-2368 58 0
-2368 130 0
-34 -58 -130 2368 0
-2369 35 0
-2369 59 0
-2369 131 0
-35 -59 -131 2369 0
-2370 36 0
-2370 60 0
-2370 132 0
-36 -60 -132 2370 0
-2359 3756 0
-2360 3756 0
-2361 3756 0
-2362 3756 0
-2363 3756 0
-2364 3756 0
-2365 3756 0
-2366 3756 0
-2367 3756 0
-2368 3756 0
-2369 3756 0
-2370 3756 0
-3756 2359 2360 2361 2362 2363 2364 2365 2366 2367 2368 2369 2370 0
-2371 25 0
-2371 49 0
-2371 133 0
-25 -49 -133 2371 0
-2372 26 0
-2372 50 0
-2372 134 0
-26 -50 -134 2372 0
-2373 27 0
-2373 51 0
-2373 135 0
-27 -51 -135 2373 0
-2374 28 0
-2374 52 0
-2374 136 0
-28 -52 -136 2374 0
-2375 29 0
-2375 53 0
-2375 137 0
-29 -53 -137 2375 0
-2376 30 0
-2376 54 0
-2376 138 0
-30 -54 -138 2376 0
-2377 31 0
-2377 55 0
-2377 139 0
-31 -55 -139 2377 0
-2378 32 0
-2378 56 0
-2378 140 0
-32 -56 -140 2378 0
-2379 33 0
-2379 57 0
-2379 141 0
-33 -57 -141 2379 0
-2380 34 0
-2380 58 0
-2380 142 0
-34 -58 -142 2380 0
-2381 35 0
-2381 59 0
-2381 143 0
-35 -59 -143 2381 0
-2382 36 0
-2382 60 0
-2382 144 0
-36 -60 -144 2382 0
-2371 3757 0
-2372 3757 0
-2373 3757 0
-2374 3757 0
-2375 3757 0
-2376 3757 0
-2377 3757 0
-2378 3757 0
-2379 3757 0
-2380 3757 0
-2381 3757 0
-2382 3757 0
-3757 2371 2372 2373 2374 2375 2376 2377 2378 2379 2380 2381 2382 0
-2383 25 0
-2383 61 0
-2383 73 0
-25 -61 -73 2383 0
-2384 26 0
-2384 62 0
-2384 74 0
-26 -62 -74 2384 0
-2385 27 0
-2385 63 0
-2385 75 0
-27 -63 -75 2385 0
-2386 28 0
-2386 64 0
-2386 76 0
-28 -64 -76 2386 0
-2387 29 0
-2387 65 0
-2387 77 0
-29 -65 -77 2387 0
-2388 30 0
-2388 66 0
-2388 78 0
-30 -66 -78 2388 0
-2389 31 0
-2389 67 0
-2389 79 0
-31 -67 -79 2389 0
-2390 32 0
-2390 68 0
-2390 80 0
-32 -68 -80 2390 0
-2391 33 0
-2391 69 0
-2391 81 0
-33 -69 -81 2391 0
-2392 34 0
-2392 70 0
-2392 82 0
-34 -70 -82 2392 0
-2393 35 0
-2393 71 0
-2393 83 0
-35 -71 -83 2393 0
-2394 36 0
-2394 72 0
-2394 84 0
-36 -72 -84 2394 0
-2383 3758 0
-2384 3758 0
-2385 3758 0
-2386 3758 0
-2387 3758 0
-2388 3758 0
-2389 3758 0
-2390 3758 0
-2391 3758 0
-2392 3758 0
-2393 3758 0
-2394 3758 0
-3758 2383 2384 2385 2386 2387 2388 2389 2390 2391 2392 2393 2394 0
-2395 25 0
-2395 61 0
-2395 85 0
-25 -61 -85 2395 0
-2396 26 0
-2396 62 0
-2396 86 0
-26 -62 -86 2396 0
-2397 27 0
-2397 63 0
-2397 87 0
-27 -63 -87 2397 0
-2398 28 0
-2398 64 0
-2398 88 0
-28 -64 -88 2398 0
-2399 29 0
-2399 65 0
-2399 89 0
-29 -65 -89 2399 0
-2400 30 0
-2400 66 0
-2400 90 0
-30 -66 -90 2400 0
-2401 31 0
-2401 67 0
-2401 91 0
-31 -67 -91 2401 0
-2402 32 0
-2402 68 0
-2402 92 0
-32 -68 -92 2402 0
-2403 33 0
-2403 69 0
-2403 93 0
-33 -69 -93 2403 0
-2404 34 0
-2404 70 0
-2404 94 0
-34 -70 -94 2404 0
-2405 35 0
-2405 71 0
-2405 95 0
-35 -71 -95 2405 0
-2406 36 0
-2406 72 0
-2406 96 0
-36 -72 -96 2406 0
-2395 3759 0
-2396 3759 0
-2397 3759 0
-2398 3759 0
-2399 3759 0
-2400 3759 0
-2401 3759 0
-2402 3759 0
-2403 3759 0
-2404 3759 0
-2405 3759 0
-2406 3759 0
-3759 2395 2396 2397 2398 2399 2400 2401 2402 2403 2404 2405 2406 0
-2407 25 0
-2407 61 0
-2407 97 0
-25 -61 -97 2407 0
-2408 26 0
-2408 62 0
-2408 98 0
-26 -62 -98 2408 0
-2409 27 0
-2409 63 0
-2409 99 0
-27 -63 -99 2409 0
-2410 28 0
-2410 64 0
-2410 100 0
-28 -64 -100 2410 0
-2411 29 0
-2411 65 0
-2411 101 0
-29 -65 -101 2411 0
-2412 30 0
-2412 66 0
-2412 102 0
-30 -66 -102 2412 0
-2413 31 0
-2413 67 0
-2413 103 0
-31 -67 -103 2413 0
-2414 32 0
-2414 68 0
-2414 104 0
-32 -68 -104 2414 0
-2415 33 0
-2415 69 0
-2415 105 0
-33 -69 -105 2415 0
-2416 34 0
-2416 70 0
-2416 106 0
-34 -70 -106 2416 0
-2417 35 0
-2417 71 0
-2417 107 0
-35 -71 -107 2417 0
-2418 36 0
-2418 72 0
-2418 108 0
-36 -72 -108 2418 0
-2407 3760 0
-2408 3760 0
-2409 3760 0
-2410 3760 0
-2411 3760 0
-2412 3760 0
-2413 3760 0
-2414 3760 0
-2415 3760 0
-2416 3760 0
-2417 3760 0
-2418 3760 0
-3760 2407 2408 2409 2410 2411 2412 2413 2414 2415 2416 2417 2418 0
-2419 25 0
-2419 61 0
-2419 109 0
-25 -61 -109 2419 0
-2420 26 0
-2420 62 0
-2420 110 0
-26 -62 -110 2420 0
-2421 27 0
-2421 63 0
-2421 111 0
-27 -63 -111 2421 0
-2422 28 0
-2422 64 0
-2422 112 0
-28 -64 -112 2422 0
-2423 29 0
-2423 65 0
-2423 113 0
-29 -65 -113 2423 0
-2424 30 0
-2424 66 0
-2424 114 0
-30 -66 -114 2424 0
-2425 31 0
-2425 67 0
-2425 115 0
-31 -67 -115 2425 0
-2426 32 0
-2426 68 0
-2426 116 0
-32 -68 -116 2426 0
-2427 33 0
-2427 69 0
-2427 117 0
-33 -69 -117 2427 0
-2428 34 0
-2428 70 0
-2428 118 0
-34 -70 -118 2428 0
-2429 35 0
-2429 71 0
-2429 119 0
-35 -71 -119 2429 0
-2430 36 0
-2430 72 0
-2430 120 0
-36 -72 -120 2430 0
-2419 3761 0
-2420 3761 0
-2421 3761 0
-2422 3761 0
-2423 3761 0
-2424 3761 0
-2425 3761 0
-2426 3761 0
-2427 3761 0
-2428 3761 0
-2429 3761 0
-2430 3761 0
-3761 2419 2420 2421 2422 2423 2424 2425 2426 2427 2428 2429 2430 0
-2431 25 0
-2431 61 0
-2431 121 0
-25 -61 -121 2431 0
-2432 26 0
-2432 62 0
-2432 122 0
-26 -62 -122 2432 0
-2433 27 0
-2433 63 0
-2433 123 0
-27 -63 -123 2433 0
-2434 28 0
-2434 64 0
-2434 124 0
-28 -64 -124 2434 0
-2435 29 0
-2435 65 0
-2435 125 0
-29 -65 -125 2435 0
-2436 30 0
-2436 66 0
-2436 126 0
-30 -66 -126 2436 0
-2437 31 0
-2437 67 0
-2437 127 0
-31 -67 -127 2437 0
-2438 32 0
-2438 68 0
-2438 128 0
-32 -68 -128 2438 0
-2439 33 0
-2439 69 0
-2439 129 0
-33 -69 -129 2439 0
-2440 34 0
-2440 70 0
-2440 130 0
-34 -70 -130 2440 0
-2441 35 0
-2441 71 0
-2441 131 0
-35 -71 -131 2441 0
-2442 36 0
-2442 72 0
-2442 132 0
-36 -72 -132 2442 0
-2431 3762 0
-2432 3762 0
-2433 3762 0
-2434 3762 0
-2435 3762 0
-2436 3762 0
-2437 3762 0
-2438 3762 0
-2439 3762 0
-2440 3762 0
-2441 3762 0
-2442 3762 0
-3762 2431 2432 2433 2434 2435 2436 2437 2438 2439 2440 2441 2442 0
-2443 25 0
-2443 61 0
-2443 133 0
-25 -61 -133 2443 0
-2444 26 0
-2444 62 0
-2444 134 0
-26 -62 -134 2444 0
-2445 27 0
-2445 63 0
-2445 135 0
-27 -63 -135 2445 0
-2446 28 0
-2446 64 0
-2446 136 0
-28 -64 -136 2446 0
-2447 29 0
-2447 65 0
-2447 137 0
-29 -65 -137 2447 0
-2448 30 0
-2448 66 0
-2448 138 0
-30 -66 -138 2448 0
-2449 31 0
-2449 67 0
-2449 139 0
-31 -67 -139 2449 0
-2450 32 0
-2450 68 0
-2450 140 0
-32 -68 -140 2450 0
-2451 33 0
-2451 69 0
-2451 141 0
-33 -69 -141 2451 0
-2452 34 0
-2452 70 0
-2452 142 0
-34 -70 -142 2452 0
-2453 35 0
-2453 71 0
-2453 143 0
-35 -71 -143 2453 0
-2454 36 0
-2454 72 0
-2454 144 0
-36 -72 -144 2454 0
-2443 3763 0
-2444 3763 0
-2445 3763 0
-2446 3763 0
-2447 3763 0
-2448 3763 0
-2449 3763 0
-2450 3763 0
-2451 3763 0
-2452 3763 0
-2453 3763 0
-2454 3763 0
-3763 2443 2444 2445 2446 2447 2448 2449 2450 2451 2452 2453 2454 0
-2455 25 0
-2455 73 0
-2455 85 0
-25 -73 -85 2455 0
-2456 26 0
-2456 74 0
-2456 86 0
-26 -74 -86 2456 0
-2457 27 0
-2457 75 0
-2457 87 0
-27 -75 -87 2457 0
-2458 28 0
-2458 76 0
-2458 88 0
-28 -76 -88 2458 0
-2459 29 0
-2459 77 0
-2459 89 0
-29 -77 -89 2459 0
-2460 30 0
-2460 78 0
-2460 90 0
-30 -78 -90 2460 0
-2461 31 0
-2461 79 0
-2461 91 0
-31 -79 -91 2461 0
-2462 32 0
-2462 80 0
-2462 92 0
-32 -80 -92 2462 0
-2463 33 0
-2463 81 0
-2463 93 0
-33 -81 -93 2463 0
-2464 34 0
-2464 82 0
-2464 94 0
-34 -82 -94 2464 0
-2465 35 0
-2465 83 0
-2465 95 0
-35 -83 -95 2465 0
-2466 36 0
-2466 84 0
-2466 96 0
-36 -84 -96 2466 0
-2455 3764 0
-2456 3764 0
-2457 3764 0
-2458 3764 0
-2459 3764 0
-2460 3764 0
-2461 3764 0
-2462 3764 0
-2463 3764 0
-2464 3764 0
-2465 3764 0
-2466 3764 0
-3764 2455 2456 2457 2458 2459 2460 2461 2462 2463 2464 2465 2466 0
-2467 25 0
-2467 73 0
-2467 97 0
-25 -73 -97 2467 0
-2468 26 0
-2468 74 0
-2468 98 0
-26 -74 -98 2468 0
-2469 27 0
-2469 75 0
-2469 99 0
-27 -75 -99 2469 0
-2470 28 0
-2470 76 0
-2470 100 0
-28 -76 -100 2470 0
-2471 29 0
-2471 77 0
-2471 101 0
-29 -77 -101 2471 0
-2472 30 0
-2472 78 0
-2472 102 0
-30 -78 -102 2472 0
-2473 31 0
-2473 79 0
-2473 103 0
-31 -79 -103 2473 0
-2474 32 0
-2474 80 0
-2474 104 0
-32 -80 -104 2474 0
-2475 33 0
-2475 81 0
-2475 105 0
-33 -81 -105 2475 0
-2476 34 0
-2476 82 0
-2476 106 0
-34 -82 -106 2476 0
-2477 35 0
-2477 83 0
-2477 107 0
-35 -83 -107 2477 0
-2478 36 0
-2478 84 0
-2478 108 0
-36 -84 -108 2478 0
-2467 3765 0
-2468 3765 0
-2469 3765 0
-2470 3765 0
-2471 3765 0
-2472 3765 0
-2473 3765 0
-2474 3765 0
-2475 3765 0
-2476 3765 0
-2477 3765 0
-2478 3765 0
-3765 2467 2468 2469 2470 2471 2472 2473 2474 2475 2476 2477 2478 0
-2479 25 0
-2479 73 0
-2479 109 0
-25 -73 -109 2479 0
-2480 26 0
-2480 74 0
-2480 110 0
-26 -74 -110 2480 0
-2481 27 0
-2481 75 0
-2481 111 0
-27 -75 -111 2481 0
-2482 28 0
-2482 76 0
-2482 112 0
-28 -76 -112 2482 0
-2483 29 0
-2483 77 0
-2483 113 0
-29 -77 -113 2483 0
-2484 30 0
-2484 78 0
-2484 114 0
-30 -78 -114 2484 0
-2485 31 0
-2485 79 0
-2485 115 0
-31 -79 -115 2485 0
-2486 32 0
-2486 80 0
-2486 116 0
-32 -80 -116 2486 0
-2487 33 0
-2487 81 0
-2487 117 0
-33 -81 -117 2487 0
-2488 34 0
-2488 82 0
-2488 118 0
-34 -82 -118 2488 0
-2489 35 0
-2489 83 0
-2489 119 0
-35 -83 -119 2489 0
-2490 36 0
-2490 84 0
-2490 120 0
-36 -84 -120 2490 0
-2479 3766 0
-2480 3766 0
-2481 3766 0
-2482 3766 0
-2483 3766 0
-2484 3766 0
-2485 3766 0
-2486 3766 0
-2487 3766 0
-2488 3766 0
-2489 3766 0
-2490 3766 0
-3766 2479 2480 2481 2482 2483 2484 2485 2486 2487 2488 2489 2490 0
-2491 25 0
-2491 73 0
-2491 121 0
-25 -73 -121 2491 0
-2492 26 0
-2492 74 0
-2492 122 0
-26 -74 -122 2492 0
-2493 27 0
-2493 75 0
-2493 123 0
-27 -75 -123 2493 0
-2494 28 0
-2494 76 0
-2494 124 0
-28 -76 -124 2494 0
-2495 29 0
-2495 77 0
-2495 125 0
-29 -77 -125 2495 0
-2496 30 0
-2496 78 0
-2496 126 0
-30 -78 -126 2496 0
-2497 31 0
-2497 79 0
-2497 127 0
-31 -79 -127 2497 0
-2498 32 0
-2498 80 0
-2498 128 0
-32 -80 -128 2498 0
-2499 33 0
-2499 81 0
-2499 129 0
-33 -81 -129 2499 0
-2500 34 0
-2500 82 0
-2500 130 0
-34 -82 -130 2500 0
-2501 35 0
-2501 83 0
-2501 131 0
-35 -83 -131 2501 0
-2502 36 0
-2502 84 0
-2502 132 0
-36 -84 -132 2502 0
-2491 3767 0
-2492 3767 0
-2493 3767 0
-2494 3767 0
-2495 3767 0
-2496 3767 0
-2497 3767 0
-2498 3767 0
-2499 3767 0
-2500 3767 0
-2501 3767 0
-2502 3767 0
-3767 2491 2492 2493 2494 2495 2496 2497 2498 2499 2500 2501 2502 0
-2503 25 0
-2503 73 0
-2503 133 0
-25 -73 -133 2503 0
-2504 26 0
-2504 74 0
-2504 134 0
-26 -74 -134 2504 0
-2505 27 0
-2505 75 0
-2505 135 0
-27 -75 -135 2505 0
-2506 28 0
-2506 76 0
-2506 136 0
-28 -76 -136 2506 0
-2507 29 0
-2507 77 0
-2507 137 0
-29 -77 -137 2507 0
-2508 30 0
-2508 78 0
-2508 138 0
-30 -78 -138 2508 0
-2509 31 0
-2509 79 0
-2509 139 0
-31 -79 -139 2509 0
-2510 32 0
-2510 80 0
-2510 140 0
-32 -80 -140 2510 0
-2511 33 0
-2511 81 0
-2511 141 0
-33 -81 -141 2511 0
-2512 34 0
-2512 82 0
-2512 142 0
-34 -82 -142 2512 0
-2513 35 0
-2513 83 0
-2513 143 0
-35 -83 -143 2513 0
-2514 36 0
-2514 84 0
-2514 144 0
-36 -84 -144 2514 0
-2503 3768 0
-2504 3768 0
-2505 3768 0
-2506 3768 0
-2507 3768 0
-2508 3768 0
-2509 3768 0
-2510 3768 0
-2511 3768 0
-2512 3768 0
-2513 3768 0
-2514 3768 0
-3768 2503 2504 2505 2506 2507 2508 2509 2510 2511 2512 2513 2514 0
-2515 25 0
-2515 85 0
-2515 97 0
-25 -85 -97 2515 0
-2516 26 0
-2516 86 0
-2516 98 0
-26 -86 -98 2516 0
-2517 27 0
-2517 87 0
-2517 99 0
-27 -87 -99 2517 0
-2518 28 0
-2518 88 0
-2518 100 0
-28 -88 -100 2518 0
-2519 29 0
-2519 89 0
-2519 101 0
-29 -89 -101 2519 0
-2520 30 0
-2520 90 0
-2520 102 0
-30 -90 -102 2520 0
-2521 31 0
-2521 91 0
-2521 103 0
-31 -91 -103 2521 0
-2522 32 0
-2522 92 0
-2522 104 0
-32 -92 -104 2522 0
-2523 33 0
-2523 93 0
-2523 105 0
-33 -93 -105 2523 0
-2524 34 0
-2524 94 0
-2524 106 0
-34 -94 -106 2524 0
-2525 35 0
-2525 95 0
-2525 107 0
-35 -95 -107 2525 0
-2526 36 0
-2526 96 0
-2526 108 0
-36 -96 -108 2526 0
-2515 3769 0
-2516 3769 0
-2517 3769 0
-2518 3769 0
-2519 3769 0
-2520 3769 0
-2521 3769 0
-2522 3769 0
-2523 3769 0
-2524 3769 0
-2525 3769 0
-2526 3769 0
-3769 2515 2516 2517 2518 2519 2520 2521 2522 2523 2524 2525 2526 0
-2527 25 0
-2527 85 0
-2527 109 0
-25 -85 -109 2527 0
-2528 26 0
-2528 86 0
-2528 110 0
-26 -86 -110 2528 0
-2529 27 0
-2529 87 0
-2529 111 0
-27 -87 -111 2529 0
-2530 28 0
-2530 88 0
-2530 112 0
-28 -88 -112 2530 0
-2531 29 0
-2531 89 0
-2531 113 0
-29 -89 -113 2531 0
-2532 30 0
-2532 90 0
-2532 114 0
-30 -90 -114 2532 0
-2533 31 0
-2533 91 0
-2533 115 0
-31 -91 -115 2533 0
-2534 32 0
-2534 92 0
-2534 116 0
-32 -92 -116 2534 0
-2535 33 0
-2535 93 0
-2535 117 0
-33 -93 -117 2535 0
-2536 34 0
-2536 94 0
-2536 118 0
-34 -94 -118 2536 0
-2537 35 0
-2537 95 0
-2537 119 0
-35 -95 -119 2537 0
-2538 36 0
-2538 96 0
-2538 120 0
-36 -96 -120 2538 0
-2527 3770 0
-2528 3770 0
-2529 3770 0
-2530 3770 0
-2531 3770 0
-2532 3770 0
-2533 3770 0
-2534 3770 0
-2535 3770 0
-2536 3770 0
-2537 3770 0
-2538 3770 0
-3770 2527 2528 2529 2530 2531 2532 2533 2534 2535 2536 2537 2538 0
-2539 25 0
-2539 85 0
-2539 121 0
-25 -85 -121 2539 0
-2540 26 0
-2540 86 0
-2540 122 0
-26 -86 -122 2540 0
-2541 27 0
-2541 87 0
-2541 123 0
-27 -87 -123 2541 0
-2542 28 0
-2542 88 0
-2542 124 0
-28 -88 -124 2542 0
-2543 29 0
-2543 89 0
-2543 125 0
-29 -89 -125 2543 0
-2544 30 0
-2544 90 0
-2544 126 0
-30 -90 -126 2544 0
-2545 31 0
-2545 91 0
-2545 127 0
-31 -91 -127 2545 0
-2546 32 0
-2546 92 0
-2546 128 0
-32 -92 -128 2546 0
-2547 33 0
-2547 93 0
-2547 129 0
-33 -93 -129 2547 0
-2548 34 0
-2548 94 0
-2548 130 0
-34 -94 -130 2548 0
-2549 35 0
-2549 95 0
-2549 131 0
-35 -95 -131 2549 0
-2550 36 0
-2550 96 0
-2550 132 0
-36 -96 -132 2550 0
-2539 3771 0
-2540 3771 0
-2541 3771 0
-2542 3771 0
-2543 3771 0
-2544 3771 0
-2545 3771 0
-2546 3771 0
-2547 3771 0
-2548 3771 0
-2549 3771 0
-2550 3771 0
-3771 2539 2540 2541 2542 2543 2544 2545 2546 2547 2548 2549 2550 0
-2551 25 0
-2551 85 0
-2551 133 0
-25 -85 -133 2551 0
-2552 26 0
-2552 86 0
-2552 134 0
-26 -86 -134 2552 0
-2553 27 0
-2553 87 0
-2553 135 0
-27 -87 -135 2553 0
-2554 28 0
-2554 88 0
-2554 136 0
-28 -88 -136 2554 0
-2555 29 0
-2555 89 0
-2555 137 0
-29 -89 -137 2555 0
-2556 30 0
-2556 90 0
-2556 138 0
-30 -90 -138 2556 0
-2557 31 0
-2557 91 0
-2557 139 0
-31 -91 -139 2557 0
-2558 32 0
-2558 92 0
-2558 140 0
-32 -92 -140 2558 0
-2559 33 0
-2559 93 0
-2559 141 0
-33 -93 -141 2559 0
-2560 34 0
-2560 94 0
-2560 142 0
-34 -94 -142 2560 0
-2561 35 0
-2561 95 0
-2561 143 0
-35 -95 -143 2561 0
-2562 36 0
-2562 96 0
-2562 144 0
-36 -96 -144 2562 0
-2551 3772 0
-2552 3772 0
-2553 3772 0
-2554 3772 0
-2555 3772 0
-2556 3772 0
-2557 3772 0
-2558 3772 0
-2559 3772 0
-2560 3772 0
-2561 3772 0
-2562 3772 0
-3772 2551 2552 2553 2554 2555 2556 2557 2558 2559 2560 2561 2562 0
-2563 25 0
-2563 97 0
-2563 109 0
-25 -97 -109 2563 0
-2564 26 0
-2564 98 0
-2564 110 0
-26 -98 -110 2564 0
-2565 27 0
-2565 99 0
-2565 111 0
-27 -99 -111 2565 0
-2566 28 0
-2566 100 0
-2566 112 0
-28 -100 -112 2566 0
-2567 29 0
-2567 101 0
-2567 113 0
-29 -101 -113 2567 0
-2568 30 0
-2568 102 0
-2568 114 0
-30 -102 -114 2568 0
-2569 31 0
-2569 103 0
-2569 115 0
-31 -103 -115 2569 0
-2570 32 0
-2570 104 0
-2570 116 0
-32 -104 -116 2570 0
-2571 33 0
-2571 105 0
-2571 117 0
-33 -105 -117 2571 0
-2572 34 0
-2572 106 0
-2572 118 0
-34 -106 -118 2572 0
-2573 35 0
-2573 107 0
-2573 119 0
-35 -107 -119 2573 0
-2574 36 0
-2574 108 0
-2574 120 0
-36 -108 -120 2574 0
-2563 3773 0
-2564 3773 0
-2565 3773 0
-2566 3773 0
-2567 3773 0
-2568 3773 0
-2569 3773 0
-2570 3773 0
-2571 3773 0
-2572 3773 0
-2573 3773 0
-2574 3773 0
-3773 2563 2564 2565 2566 2567 2568 2569 2570 2571 2572 2573 2574 0
-2575 25 0
-2575 97 0
-2575 121 0
-25 -97 -121 2575 0
-2576 26 0
-2576 98 0
-2576 122 0
-26 -98 -122 2576 0
-2577 27 0
-2577 99 0
-2577 123 0
-27 -99 -123 2577 0
-2578 28 0
-2578 100 0
-2578 124 0
-28 -100 -124 2578 0
-2579 29 0
-2579 101 0
-2579 125 0
-29 -101 -125 2579 0
-2580 30 0
-2580 102 0
-2580 126 0
-30 -102 -126 2580 0
-2581 31 0
-2581 103 0
-2581 127 0
-31 -103 -127 2581 0
-2582 32 0
-2582 104 0
-2582 128 0
-32 -104 -128 2582 0
-2583 33 0
-2583 105 0
-2583 129 0
-33 -105 -129 2583 0
-2584 34 0
-2584 106 0
-2584 130 0
-34 -106 -130 2584 0
-2585 35 0
-2585 107 0
-2585 131 0
-35 -107 -131 2585 0
-2586 36 0
-2586 108 0
-2586 132 0
-36 -108 -132 2586 0
-2575 3774 0
-2576 3774 0
-2577 3774 0
-2578 3774 0
-2579 3774 0
-2580 3774 0
-2581 3774 0
-2582 3774 0
-2583 3774 0
-2584 3774 0
-2585 3774 0
-2586 3774 0
-3774 2575 2576 2577 2578 2579 2580 2581 2582 2583 2584 2585 2586 0
-2587 25 0
-2587 97 0
-2587 133 0
-25 -97 -133 2587 0
-2588 26 0
-2588 98 0
-2588 134 0
-26 -98 -134 2588 0
-2589 27 0
-2589 99 0
-2589 135 0
-27 -99 -135 2589 0
-2590 28 0
-2590 100 0
-2590 136 0
-28 -100 -136 2590 0
-2591 29 0
-2591 101 0
-2591 137 0
-29 -101 -137 2591 0
-2592 30 0
-2592 102 0
-2592 138 0
-30 -102 -138 2592 0
-2593 31 0
-2593 103 0
-2593 139 0
-31 -103 -139 2593 0
-2594 32 0
-2594 104 0
-2594 140 0
-32 -104 -140 2594 0
-2595 33 0
-2595 105 0
-2595 141 0
-33 -105 -141 2595 0
-2596 34 0
-2596 106 0
-2596 142 0
-34 -106 -142 2596 0
-2597 35 0
-2597 107 0
-2597 143 0
-35 -107 -143 2597 0
-2598 36 0
-2598 108 0
-2598 144 0
-36 -108 -144 2598 0
-2587 3775 0
-2588 3775 0
-2589 3775 0
-2590 3775 0
-2591 3775 0
-2592 3775 0
-2593 3775 0
-2594 3775 0
-2595 3775 0
-2596 3775 0
-2597 3775 0
-2598 3775 0
-3775 2587 2588 2589 2590 2591 2592 2593 2594 2595 2596 2597 2598 0
-2599 25 0
-2599 109 0
-2599 121 0
-25 -109 -121 2599 0
-2600 26 0
-2600 110 0
-2600 122 0
-26 -110 -122 2600 0
-2601 27 0
-2601 111 0
-2601 123 0
-27 -111 -123 2601 0
-2602 28 0
-2602 112 0
-2602 124 0
-28 -112 -124 2602 0
-2603 29 0
-2603 113 0
-2603 125 0
-29 -113 -125 2603 0
-2604 30 0
-2604 114 0
-2604 126 0
-30 -114 -126 2604 0
-2605 31 0
-2605 115 0
-2605 127 0
-31 -115 -127 2605 0
-2606 32 0
-2606 116 0
-2606 128 0
-32 -116 -128 2606 0
-2607 33 0
-2607 117 0
-2607 129 0
-33 -117 -129 2607 0
-2608 34 0
-2608 118 0
-2608 130 0
-34 -118 -130 2608 0
-2609 35 0
-2609 119 0
-2609 131 0
-35 -119 -131 2609 0
-2610 36 0
-2610 120 0
-2610 132 0
-36 -120 -132 2610 0
-2599 3776 0
-2600 3776 0
-2601 3776 0
-2602 3776 0
-2603 3776 0
-2604 3776 0
-2605 3776 0
-2606 3776 0
-2607 3776 0
-2608 3776 0
-2609 3776 0
-2610 3776 0
-3776 2599 2600 2601 2602 2603 2604 2605 2606 2607 2608 2609 2610 0
-2611 25 0
-2611 109 0
-2611 133 0
-25 -109 -133 2611 0
-2612 26 0
-2612 110 0
-2612 134 0
-26 -110 -134 2612 0
-2613 27 0
-2613 111 0
-2613 135 0
-27 -111 -135 2613 0
-2614 28 0
-2614 112 0
-2614 136 0
-28 -112 -136 2614 0
-2615 29 0
-2615 113 0
-2615 137 0
-29 -113 -137 2615 0
-2616 30 0
-2616 114 0
-2616 138 0
-30 -114 -138 2616 0
-2617 31 0
-2617 115 0
-2617 139 0
-31 -115 -139 2617 0
-2618 32 0
-2618 116 0
-2618 140 0
-32 -116 -140 2618 0
-2619 33 0
-2619 117 0
-2619 141 0
-33 -117 -141 2619 0
-2620 34 0
-2620 118 0
-2620 142 0
-34 -118 -142 2620 0
-2621 35 0
-2621 119 0
-2621 143 0
-35 -119 -143 2621 0
-2622 36 0
-2622 120 0
-2622 144 0
-36 -120 -144 2622 0
-2611 3777 0
-2612 3777 0
-2613 3777 0
-2614 3777 0
-2615 3777 0
-2616 3777 0
-2617 3777 0
-2618 3777 0
-2619 3777 0
-2620 3777 0
-2621 3777 0
-2622 3777 0
-3777 2611 2612 2613 2614 2615 2616 2617 2618 2619 2620 2621 2622 0
-2623 25 0
-2623 121 0
-2623 133 0
-25 -121 -133 2623 0
-2624 26 0
-2624 122 0
-2624 134 0
-26 -122 -134 2624 0
-2625 27 0
-2625 123 0
-2625 135 0
-27 -123 -135 2625 0
-2626 28 0
-2626 124 0
-2626 136 0
-28 -124 -136 2626 0
-2627 29 0
-2627 125 0
-2627 137 0
-29 -125 -137 2627 0
-2628 30 0
-2628 126 0
-2628 138 0
-30 -126 -138 2628 0
-2629 31 0
-2629 127 0
-2629 139 0
-31 -127 -139 2629 0
-2630 32 0
-2630 128 0
-2630 140 0
-32 -128 -140 2630 0
-2631 33 0
-2631 129 0
-2631 141 0
-33 -129 -141 2631 0
-2632 34 0
-2632 130 0
-2632 142 0
-34 -130 -142 2632 0
-2633 35 0
-2633 131 0
-2633 143 0
-35 -131 -143 2633 0
-2634 36 0
-2634 132 0
-2634 144 0
-36 -132 -144 2634 0
-2623 3778 0
-2624 3778 0
-2625 3778 0
-2626 3778 0
-2627 3778 0
-2628 3778 0
-2629 3778 0
-2630 3778 0
-2631 3778 0
-2632 3778 0
-2633 3778 0
-2634 3778 0
-3778 2623 2624 2625 2626 2627 2628 2629 2630 2631 2632 2633 2634 0
-2635 37 0
-2635 49 0
-2635 61 0
-37 -49 -61 2635 0
-2636 38 0
-2636 50 0
-2636 62 0
-38 -50 -62 2636 0
-2637 39 0
-2637 51 0
-2637 63 0
-39 -51 -63 2637 0
-2638 40 0
-2638 52 0
-2638 64 0
-40 -52 -64 2638 0
-2639 41 0
-2639 53 0
-2639 65 0
-41 -53 -65 2639 0
-2640 42 0
-2640 54 0
-2640 66 0
-42 -54 -66 2640 0
-2641 43 0
-2641 55 0
-2641 67 0
-43 -55 -67 2641 0
-2642 44 0
-2642 56 0
-2642 68 0
-44 -56 -68 2642 0
-2643 45 0
-2643 57 0
-2643 69 0
-45 -57 -69 2643 0
-2644 46 0
-2644 58 0
-2644 70 0
-46 -58 -70 2644 0
-2645 47 0
-2645 59 0
-2645 71 0
-47 -59 -71 2645 0
-2646 48 0
-2646 60 0
-2646 72 0
-48 -60 -72 2646 0
-2635 3779 0
-2636 3779 0
-2637 3779 0
-2638 3779 0
-2639 3779 0
-2640 3779 0
-2641 3779 0
-2642 3779 0
-2643 3779 0
-2644 3779 0
-2645 3779 0
-2646 3779 0
-3779 2635 2636 2637 2638 2639 2640 2641 2642 2643 2644 2645 2646 0
-2647 37 0
-2647 49 0
-2647 73 0
-37 -49 -73 2647 0
-2648 38 0
-2648 50 0
-2648 74 0
-38 -50 -74 2648 0
-2649 39 0
-2649 51 0
-2649 75 0
-39 -51 -75 2649 0
-2650 40 0
-2650 52 0
-2650 76 0
-40 -52 -76 2650 0
-2651 41 0
-2651 53 0
-2651 77 0
-41 -53 -77 2651 0
-2652 42 0
-2652 54 0
-2652 78 0
-42 -54 -78 2652 0
-2653 43 0
-2653 55 0
-2653 79 0
-43 -55 -79 2653 0
-2654 44 0
-2654 56 0
-2654 80 0
-44 -56 -80 2654 0
-2655 45 0
-2655 57 0
-2655 81 0
-45 -57 -81 2655 0
-2656 46 0
-2656 58 0
-2656 82 0
-46 -58 -82 2656 0
-2657 47 0
-2657 59 0
-2657 83 0
-47 -59 -83 2657 0
-2658 48 0
-2658 60 0
-2658 84 0
-48 -60 -84 2658 0
-2647 3780 0
-2648 3780 0
-2649 3780 0
-2650 3780 0
-2651 3780 0
-2652 3780 0
-2653 3780 0
-2654 3780 0
-2655 3780 0
-2656 3780 0
-2657 3780 0
-2658 3780 0
-3780 2647 2648 2649 2650 2651 2652 2653 2654 2655 2656 2657 2658 0
-2659 37 0
-2659 49 0
-2659 85 0
-37 -49 -85 2659 0
-2660 38 0
-2660 50 0
-2660 86 0
-38 -50 -86 2660 0
-2661 39 0
-2661 51 0
-2661 87 0
-39 -51 -87 2661 0
-2662 40 0
-2662 52 0
-2662 88 0
-40 -52 -88 2662 0
-2663 41 0
-2663 53 0
-2663 89 0
-41 -53 -89 2663 0
-2664 42 0
-2664 54 0
-2664 90 0
-42 -54 -90 2664 0
-2665 43 0
-2665 55 0
-2665 91 0
-43 -55 -91 2665 0
-2666 44 0
-2666 56 0
-2666 92 0
-44 -56 -92 2666 0
-2667 45 0
-2667 57 0
-2667 93 0
-45 -57 -93 2667 0
-2668 46 0
-2668 58 0
-2668 94 0
-46 -58 -94 2668 0
-2669 47 0
-2669 59 0
-2669 95 0
-47 -59 -95 2669 0
-2670 48 0
-2670 60 0
-2670 96 0
-48 -60 -96 2670 0
-2659 3781 0
-2660 3781 0
-2661 3781 0
-2662 3781 0
-2663 3781 0
-2664 3781 0
-2665 3781 0
-2666 3781 0
-2667 3781 0
-2668 3781 0
-2669 3781 0
-2670 3781 0
-3781 2659 2660 2661 2662 2663 2664 2665 2666 2667 2668 2669 2670 0
-2671 37 0
-2671 49 0
-2671 97 0
-37 -49 -97 2671 0
-2672 38 0
-2672 50 0
-2672 98 0
-38 -50 -98 2672 0
-2673 39 0
-2673 51 0
-2673 99 0
-39 -51 -99 2673 0
-2674 40 0
-2674 52 0
-2674 100 0
-40 -52 -100 2674 0
-2675 41 0
-2675 53 0
-2675 101 0
-41 -53 -101 2675 0
-2676 42 0
-2676 54 0
-2676 102 0
-42 -54 -102 2676 0
-2677 43 0
-2677 55 0
-2677 103 0
-43 -55 -103 2677 0
-2678 44 0
-2678 56 0
-2678 104 0
-44 -56 -104 2678 0
-2679 45 0
-2679 57 0
-2679 105 0
-45 -57 -105 2679 0
-2680 46 0
-2680 58 0
-2680 106 0
-46 -58 -106 2680 0
-2681 47 0
-2681 59 0
-2681 107 0
-47 -59 -107 2681 0
-2682 48 0
-2682 60 0
-2682 108 0
-48 -60 -108 2682 0
-2671 3782 0
-2672 3782 0
-2673 3782 0
-2674 3782 0
-2675 3782 0
-2676 3782 0
-2677 3782 0
-2678 3782 0
-2679 3782 0
-2680 3782 0
-2681 3782 0
-2682 3782 0
-3782 2671 2672 2673 2674 2675 2676 2677 2678 2679 2680 2681 2682 0
-2683 37 0
-2683 49 0
-2683 109 0
-37 -49 -109 2683 0
-2684 38 0
-2684 50 0
-2684 110 0
-38 -50 -110 2684 0
-2685 39 0
-2685 51 0
-2685 111 0
-39 -51 -111 2685 0
-2686 40 0
-2686 52 0
-2686 112 0
-40 -52 -112 2686 0
-2687 41 0
-2687 53 0
-2687 113 0
-41 -53 -113 2687 0
-2688 42 0
-2688 54 0
-2688 114 0
-42 -54 -114 2688 0
-2689 43 0
-2689 55 0
-2689 115 0
-43 -55 -115 2689 0
-2690 44 0
-2690 56 0
-2690 116 0
-44 -56 -116 2690 0
-2691 45 0
-2691 57 0
-2691 117 0
-45 -57 -117 2691 0
-2692 46 0
-2692 58 0
-2692 118 0
-46 -58 -118 2692 0
-2693 47 0
-2693 59 0
-2693 119 0
-47 -59 -119 2693 0
-2694 48 0
-2694 60 0
-2694 120 0
-48 -60 -120 2694 0
-2683 3783 0
-2684 3783 0
-2685 3783 0
-2686 3783 0
-2687 3783 0
-2688 3783 0
-2689 3783 0
-2690 3783 0
-2691 3783 0
-2692 3783 0
-2693 3783 0
-2694 3783 0
-3783 2683 2684 2685 2686 2687 2688 2689 2690 2691 2692 2693 2694 0
-2695 37 0
-2695 49 0
-2695 121 0
-37 -49 -121 2695 0
-2696 38 0
-2696 50 0
-2696 122 0
-38 -50 -122 2696 0
-2697 39 0
-2697 51 0
-2697 123 0
-39 -51 -123 2697 0
-2698 40 0
-2698 52 0
-2698 124 0
-40 -52 -124 2698 0
-2699 41 0
-2699 53 0
-2699 125 0
-41 -53 -125 2699 0
-2700 42 0
-2700 54 0
-2700 126 0
-42 -54 -126 2700 0
-2701 43 0
-2701 55 0
-2701 127 0
-43 -55 -127 2701 0
-2702 44 0
-2702 56 0
-2702 128 0
-44 -56 -128 2702 0
-2703 45 0
-2703 57 0
-2703 129 0
-45 -57 -129 2703 0
-2704 46 0
-2704 58 0
-2704 130 0
-46 -58 -130 2704 0
-2705 47 0
-2705 59 0
-2705 131 0
-47 -59 -131 2705 0
-2706 48 0
-2706 60 0
-2706 132 0
-48 -60 -132 2706 0
-2695 3784 0
-2696 3784 0
-2697 3784 0
-2698 3784 0
-2699 3784 0
-2700 3784 0
-2701 3784 0
-2702 3784 0
-2703 3784 0
-2704 3784 0
-2705 3784 0
-2706 3784 0
-3784 2695 2696 2697 2698 2699 2700 2701 2702 2703 2704 2705 2706 0
-2707 37 0
-2707 49 0
-2707 133 0
-37 -49 -133 2707 0
-2708 38 0
-2708 50 0
-2708 134 0
-38 -50 -134 2708 0
-2709 39 0
-2709 51 0
-2709 135 0
-39 -51 -135 2709 0
-2710 40 0
-2710 52 0
-2710 136 0
-40 -52 -136 2710 0
-2711 41 0
-2711 53 0
-2711 137 0
-41 -53 -137 2711 0
-2712 42 0
-2712 54 0
-2712 138 0
-42 -54 -138 2712 0
-2713 43 0
-2713 55 0
-2713 139 0
-43 -55 -139 2713 0
-2714 44 0
-2714 56 0
-2714 140 0
-44 -56 -140 2714 0
-2715 45 0
-2715 57 0
-2715 141 0
-45 -57 -141 2715 0
-2716 46 0
-2716 58 0
-2716 142 0
-46 -58 -142 2716 0
-2717 47 0
-2717 59 0
-2717 143 0
-47 -59 -143 2717 0
-2718 48 0
-2718 60 0
-2718 144 0
-48 -60 -144 2718 0
-2707 3785 0
-2708 3785 0
-2709 3785 0
-2710 3785 0
-2711 3785 0
-2712 3785 0
-2713 3785 0
-2714 3785 0
-2715 3785 0
-2716 3785 0
-2717 3785 0
-2718 3785 0
-3785 2707 2708 2709 2710 2711 2712 2713 2714 2715 2716 2717 2718 0
-2719 37 0
-2719 61 0
-2719 73 0
-37 -61 -73 2719 0
-2720 38 0
-2720 62 0
-2720 74 0
-38 -62 -74 2720 0
-2721 39 0
-2721 63 0
-2721 75 0
-39 -63 -75 2721 0
-2722 40 0
-2722 64 0
-2722 76 0
-40 -64 -76 2722 0
-2723 41 0
-2723 65 0
-2723 77 0
-41 -65 -77 2723 0
-2724 42 0
-2724 66 0
-2724 78 0
-42 -66 -78 2724 0
-2725 43 0
-2725 67 0
-2725 79 0
-43 -67 -79 2725 0
-2726 44 0
-2726 68 0
-2726 80 0
-44 -68 -80 2726 0
-2727 45 0
-2727 69 0
-2727 81 0
-45 -69 -81 2727 0
-2728 46 0
-2728 70 0
-2728 82 0
-46 -70 -82 2728 0
-2729 47 0
-2729 71 0
-2729 83 0
-47 -71 -83 2729 0
-2730 48 0
-2730 72 0
-2730 84 0
-48 -72 -84 2730 0
-2719 3786 0
-2720 3786 0
-2721 3786 0
-2722 3786 0
-2723 3786 0
-2724 3786 0
-2725 3786 0
-2726 3786 0
-2727 3786 0
-2728 3786 0
-2729 3786 0
-2730 3786 0
-3786 2719 2720 2721 2722 2723 2724 2725 2726 2727 2728 2729 2730 0
-2731 37 0
-2731 61 0
-2731 85 0
-37 -61 -85 2731 0
-2732 38 0
-2732 62 0
-2732 86 0
-38 -62 -86 2732 0
-2733 39 0
-2733 63 0
-2733 87 0
-39 -63 -87 2733 0
-2734 40 0
-2734 64 0
-2734 88 0
-40 -64 -88 2734 0
-2735 41 0
-2735 65 0
-2735 89 0
-41 -65 -89 2735 0
-2736 42 0
-2736 66 0
-2736 90 0
-42 -66 -90 2736 0
-2737 43 0
-2737 67 0
-2737 91 0
-43 -67 -91 2737 0
-2738 44 0
-2738 68 0
-2738 92 0
-44 -68 -92 2738 0
-2739 45 0
-2739 69 0
-2739 93 0
-45 -69 -93 2739 0
-2740 46 0
-2740 70 0
-2740 94 0
-46 -70 -94 2740 0
-2741 47 0
-2741 71 0
-2741 95 0
-47 -71 -95 2741 0
-2742 48 0
-2742 72 0
-2742 96 0
-48 -72 -96 2742 0
-2731 3787 0
-2732 3787 0
-2733 3787 0
-2734 3787 0
-2735 3787 0
-2736 3787 0
-2737 3787 0
-2738 3787 0
-2739 3787 0
-2740 3787 0
-2741 3787 0
-2742 3787 0
-3787 2731 2732 2733 2734 2735 2736 2737 2738 2739 2740 2741 2742 0
-2743 37 0
-2743 61 0
-2743 97 0
-37 -61 -97 2743 0
-2744 38 0
-2744 62 0
-2744 98 0
-38 -62 -98 2744 0
-2745 39 0
-2745 63 0
-2745 99 0
-39 -63 -99 2745 0
-2746 40 0
-2746 64 0
-2746 100 0
-40 -64 -100 2746 0
-2747 41 0
-2747 65 0
-2747 101 0
-41 -65 -101 2747 0
-2748 42 0
-2748 66 0
-2748 102 0
-42 -66 -102 2748 0
-2749 43 0
-2749 67 0
-2749 103 0
-43 -67 -103 2749 0
-2750 44 0
-2750 68 0
-2750 104 0
-44 -68 -104 2750 0
-2751 45 0
-2751 69 0
-2751 105 0
-45 -69 -105 2751 0
-2752 46 0
-2752 70 0
-2752 106 0
-46 -70 -106 2752 0
-2753 47 0
-2753 71 0
-2753 107 0
-47 -71 -107 2753 0
-2754 48 0
-2754 72 0
-2754 108 0
-48 -72 -108 2754 0
-2743 3788 0
-2744 3788 0
-2745 3788 0
-2746 3788 0
-2747 3788 0
-2748 3788 0
-2749 3788 0
-2750 3788 0
-2751 3788 0
-2752 3788 0
-2753 3788 0
-2754 3788 0
-3788 2743 2744 2745 2746 2747 2748 2749 2750 2751 2752 2753 2754 0
-2755 37 0
-2755 61 0
-2755 109 0
-37 -61 -109 2755 0
-2756 38 0
-2756 62 0
-2756 110 0
-38 -62 -110 2756 0
-2757 39 0
-2757 63 0
-2757 111 0
-39 -63 -111 2757 0
-2758 40 0
-2758 64 0
-2758 112 0
-40 -64 -112 2758 0
-2759 41 0
-2759 65 0
-2759 113 0
-41 -65 -113 2759 0
-2760 42 0
-2760 66 0
-2760 114 0
-42 -66 -114 2760 0
-2761 43 0
-2761 67 0
-2761 115 0
-43 -67 -115 2761 0
-2762 44 0
-2762 68 0
-2762 116 0
-44 -68 -116 2762 0
-2763 45 0
-2763 69 0
-2763 117 0
-45 -69 -117 2763 0
-2764 46 0
-2764 70 0
-2764 118 0
-46 -70 -118 2764 0
-2765 47 0
-2765 71 0
-2765 119 0
-47 -71 -119 2765 0
-2766 48 0
-2766 72 0
-2766 120 0
-48 -72 -120 2766 0
-2755 3789 0
-2756 3789 0
-2757 3789 0
-2758 3789 0
-2759 3789 0
-2760 3789 0
-2761 3789 0
-2762 3789 0
-2763 3789 0
-2764 3789 0
-2765 3789 0
-2766 3789 0
-3789 2755 2756 2757 2758 2759 2760 2761 2762 2763 2764 2765 2766 0
-2767 37 0
-2767 61 0
-2767 121 0
-37 -61 -121 2767 0
-2768 38 0
-2768 62 0
-2768 122 0
-38 -62 -122 2768 0
-2769 39 0
-2769 63 0
-2769 123 0
-39 -63 -123 2769 0
-2770 40 0
-2770 64 0
-2770 124 0
-40 -64 -124 2770 0
-2771 41 0
-2771 65 0
-2771 125 0
-41 -65 -125 2771 0
-2772 42 0
-2772 66 0
-2772 126 0
-42 -66 -126 2772 0
-2773 43 0
-2773 67 0
-2773 127 0
-43 -67 -127 2773 0
-2774 44 0
-2774 68 0
-2774 128 0
-44 -68 -128 2774 0
-2775 45 0
-2775 69 0
-2775 129 0
-45 -69 -129 2775 0
-2776 46 0
-2776 70 0
-2776 130 0
-46 -70 -130 2776 0
-2777 47 0
-2777 71 0
-2777 131 0
-47 -71 -131 2777 0
-2778 48 0
-2778 72 0
-2778 132 0
-48 -72 -132 2778 0
-2767 3790 0
-2768 3790 0
-2769 3790 0
-2770 3790 0
-2771 3790 0
-2772 3790 0
-2773 3790 0
-2774 3790 0
-2775 3790 0
-2776 3790 0
-2777 3790 0
-2778 3790 0
-3790 2767 2768 2769 2770 2771 2772 2773 2774 2775 2776 2777 2778 0
-2779 37 0
-2779 61 0
-2779 133 0
-37 -61 -133 2779 0
-2780 38 0
-2780 62 0
-2780 134 0
-38 -62 -134 2780 0
-2781 39 0
-2781 63 0
-2781 135 0
-39 -63 -135 2781 0
-2782 40 0
-2782 64 0
-2782 136 0
-40 -64 -136 2782 0
-2783 41 0
-2783 65 0
-2783 137 0
-41 -65 -137 2783 0
-2784 42 0
-2784 66 0
-2784 138 0
-42 -66 -138 2784 0
-2785 43 0
-2785 67 0
-2785 139 0
-43 -67 -139 2785 0
-2786 44 0
-2786 68 0
-2786 140 0
-44 -68 -140 2786 0
-2787 45 0
-2787 69 0
-2787 141 0
-45 -69 -141 2787 0
-2788 46 0
-2788 70 0
-2788 142 0
-46 -70 -142 2788 0
-2789 47 0
-2789 71 0
-2789 143 0
-47 -71 -143 2789 0
-2790 48 0
-2790 72 0
-2790 144 0
-48 -72 -144 2790 0
-2779 3791 0
-2780 3791 0
-2781 3791 0
-2782 3791 0
-2783 3791 0
-2784 3791 0
-2785 3791 0
-2786 3791 0
-2787 3791 0
-2788 3791 0
-2789 3791 0
-2790 3791 0
-3791 2779 2780 2781 2782 2783 2784 2785 2786 2787 2788 2789 2790 0
-2791 37 0
-2791 73 0
-2791 85 0
-37 -73 -85 2791 0
-2792 38 0
-2792 74 0
-2792 86 0
-38 -74 -86 2792 0
-2793 39 0
-2793 75 0
-2793 87 0
-39 -75 -87 2793 0
-2794 40 0
-2794 76 0
-2794 88 0
-40 -76 -88 2794 0
-2795 41 0
-2795 77 0
-2795 89 0
-41 -77 -89 2795 0
-2796 42 0
-2796 78 0
-2796 90 0
-42 -78 -90 2796 0
-2797 43 0
-2797 79 0
-2797 91 0
-43 -79 -91 2797 0
-2798 44 0
-2798 80 0
-2798 92 0
-44 -80 -92 2798 0
-2799 45 0
-2799 81 0
-2799 93 0
-45 -81 -93 2799 0
-2800 46 0
-2800 82 0
-2800 94 0
-46 -82 -94 2800 0
-2801 47 0
-2801 83 0
-2801 95 0
-47 -83 -95 2801 0
-2802 48 0
-2802 84 0
-2802 96 0
-48 -84 -96 2802 0
-2791 3792 0
-2792 3792 0
-2793 3792 0
-2794 3792 0
-2795 3792 0
-2796 3792 0
-2797 3792 0
-2798 3792 0
-2799 3792 0
-2800 3792 0
-2801 3792 0
-2802 3792 0
-3792 2791 2792 2793 2794 2795 2796 2797 2798 2799 2800 2801 2802 0
-2803 37 0
-2803 73 0
-2803 97 0
-37 -73 -97 2803 0
-2804 38 0
-2804 74 0
-2804 98 0
-38 -74 -98 2804 0
-2805 39 0
-2805 75 0
-2805 99 0
-39 -75 -99 2805 0
-2806 40 0
-2806 76 0
-2806 100 0
-40 -76 -100 2806 0
-2807 41 0
-2807 77 0
-2807 101 0
-41 -77 -101 2807 0
-2808 42 0
-2808 78 0
-2808 102 0
-42 -78 -102 2808 0
-2809 43 0
-2809 79 0
-2809 103 0
-43 -79 -103 2809 0
-2810 44 0
-2810 80 0
-2810 104 0
-44 -80 -104 2810 0
-2811 45 0
-2811 81 0
-2811 105 0
-45 -81 -105 2811 0
-2812 46 0
-2812 82 0
-2812 106 0
-46 -82 -106 2812 0
-2813 47 0
-2813 83 0
-2813 107 0
-47 -83 -107 2813 0
-2814 48 0
-2814 84 0
-2814 108 0
-48 -84 -108 2814 0
-2803 3793 0
-2804 3793 0
-2805 3793 0
-2806 3793 0
-2807 3793 0
-2808 3793 0
-2809 3793 0
-2810 3793 0
-2811 3793 0
-2812 3793 0
-2813 3793 0
-2814 3793 0
-3793 2803 2804 2805 2806 2807 2808 2809 2810 2811 2812 2813 2814 0
-2815 37 0
-2815 73 0
-2815 109 0
-37 -73 -109 2815 0
-2816 38 0
-2816 74 0
-2816 110 0
-38 -74 -110 2816 0
-2817 39 0
-2817 75 0
-2817 111 0
-39 -75 -111 2817 0
-2818 40 0
-2818 76 0
-2818 112 0
-40 -76 -112 2818 0
-2819 41 0
-2819 77 0
-2819 113 0
-41 -77 -113 2819 0
-2820 42 0
-2820 78 0
-2820 114 0
-42 -78 -114 2820 0
-2821 43 0
-2821 79 0
-2821 115 0
-43 -79 -115 2821 0
-2822 44 0
-2822 80 0
-2822 116 0
-44 -80 -116 2822 0
-2823 45 0
-2823 81 0
-2823 117 0
-45 -81 -117 2823 0
-2824 46 0
-2824 82 0
-2824 118 0
-46 -82 -118 2824 0
-2825 47 0
-2825 83 0
-2825 119 0
-47 -83 -119 2825 0
-2826 48 0
-2826 84 0
-2826 120 0
-48 -84 -120 2826 0
-2815 3794 0
-2816 3794 0
-2817 3794 0
-2818 3794 0
-2819 3794 0
-2820 3794 0
-2821 3794 0
-2822 3794 0
-2823 3794 0
-2824 3794 0
-2825 3794 0
-2826 3794 0
-3794 2815 2816 2817 2818 2819 2820 2821 2822 2823 2824 2825 2826 0
-2827 37 0
-2827 73 0
-2827 121 0
-37 -73 -121 2827 0
-2828 38 0
-2828 74 0
-2828 122 0
-38 -74 -122 2828 0
-2829 39 0
-2829 75 0
-2829 123 0
-39 -75 -123 2829 0
-2830 40 0
-2830 76 0
-2830 124 0
-40 -76 -124 2830 0
-2831 41 0
-2831 77 0
-2831 125 0
-41 -77 -125 2831 0
-2832 42 0
-2832 78 0
-2832 126 0
-42 -78 -126 2832 0
-2833 43 0
-2833 79 0
-2833 127 0
-43 -79 -127 2833 0
-2834 44 0
-2834 80 0
-2834 128 0
-44 -80 -128 2834 0
-2835 45 0
-2835 81 0
-2835 129 0
-45 -81 -129 2835 0
-2836 46 0
-2836 82 0
-2836 130 0
-46 -82 -130 2836 0
-2837 47 0
-2837 83 0
-2837 131 0
-47 -83 -131 2837 0
-2838 48 0
-2838 84 0
-2838 132 0
-48 -84 -132 2838 0
-2827 3795 0
-2828 3795 0
-2829 3795 0
-2830 3795 0
-2831 3795 0
-2832 3795 0
-2833 3795 0
-2834 3795 0
-2835 3795 0
-2836 3795 0
-2837 3795 0
-2838 3795 0
-3795 2827 2828 2829 2830 2831 2832 2833 2834 2835 2836 2837 2838 0
-2839 37 0
-2839 73 0
-2839 133 0
-37 -73 -133 2839 0
-2840 38 0
-2840 74 0
-2840 134 0
-38 -74 -134 2840 0
-2841 39 0
-2841 75 0
-2841 135 0
-39 -75 -135 2841 0
-2842 40 0
-2842 76 0
-2842 136 0
-40 -76 -136 2842 0
-2843 41 0
-2843 77 0
-2843 137 0
-41 -77 -137 2843 0
-2844 42 0
-2844 78 0
-2844 138 0
-42 -78 -138 2844 0
-2845 43 0
-2845 79 0
-2845 139 0
-43 -79 -139 2845 0
-2846 44 0
-2846 80 0
-2846 140 0
-44 -80 -140 2846 0
-2847 45 0
-2847 81 0
-2847 141 0
-45 -81 -141 2847 0
-2848 46 0
-2848 82 0
-2848 142 0
-46 -82 -142 2848 0
-2849 47 0
-2849 83 0
-2849 143 0
-47 -83 -143 2849 0
-2850 48 0
-2850 84 0
-2850 144 0
-48 -84 -144 2850 0
-2839 3796 0
-2840 3796 0
-2841 3796 0
-2842 3796 0
-2843 3796 0
-2844 3796 0
-2845 3796 0
-2846 3796 0
-2847 3796 0
-2848 3796 0
-2849 3796 0
-2850 3796 0
-3796 2839 2840 2841 2842 2843 2844 2845 2846 2847 2848 2849 2850 0
-2851 37 0
-2851 85 0
-2851 97 0
-37 -85 -97 2851 0
-2852 38 0
-2852 86 0
-2852 98 0
-38 -86 -98 2852 0
-2853 39 0
-2853 87 0
-2853 99 0
-39 -87 -99 2853 0
-2854 40 0
-2854 88 0
-2854 100 0
-40 -88 -100 2854 0
-2855 41 0
-2855 89 0
-2855 101 0
-41 -89 -101 2855 0
-2856 42 0
-2856 90 0
-2856 102 0
-42 -90 -102 2856 0
-2857 43 0
-2857 91 0
-2857 103 0
-43 -91 -103 2857 0
-2858 44 0
-2858 92 0
-2858 104 0
-44 -92 -104 2858 0
-2859 45 0
-2859 93 0
-2859 105 0
-45 -93 -105 2859 0
-2860 46 0
-2860 94 0
-2860 106 0
-46 -94 -106 2860 0
-2861 47 0
-2861 95 0
-2861 107 0
-47 -95 -107 2861 0
-2862 48 0
-2862 96 0
-2862 108 0
-48 -96 -108 2862 0
-2851 3797 0
-2852 3797 0
-2853 3797 0
-2854 3797 0
-2855 3797 0
-2856 3797 0
-2857 3797 0
-2858 3797 0
-2859 3797 0
-2860 3797 0
-2861 3797 0
-2862 3797 0
-3797 2851 2852 2853 2854 2855 2856 2857 2858 2859 2860 2861 2862 0
-2863 37 0
-2863 85 0
-2863 109 0
-37 -85 -109 2863 0
-2864 38 0
-2864 86 0
-2864 110 0
-38 -86 -110 2864 0
-2865 39 0
-2865 87 0
-2865 111 0
-39 -87 -111 2865 0
-2866 40 0
-2866 88 0
-2866 112 0
-40 -88 -112 2866 0
-2867 41 0
-2867 89 0
-2867 113 0
-41 -89 -113 2867 0
-2868 42 0
-2868 90 0
-2868 114 0
-42 -90 -114 2868 0
-2869 43 0
-2869 91 0
-2869 115 0
-43 -91 -115 2869 0
-2870 44 0
-2870 92 0
-2870 116 0
-44 -92 -116 2870 0
-2871 45 0
-2871 93 0
-2871 117 0
-45 -93 -117 2871 0
-2872 46 0
-2872 94 0
-2872 118 0
-46 -94 -118 2872 0
-2873 47 0
-2873 95 0
-2873 119 0
-47 -95 -119 2873 0
-2874 48 0
-2874 96 0
-2874 120 0
-48 -96 -120 2874 0
-2863 3798 0
-2864 3798 0
-2865 3798 0
-2866 3798 0
-2867 3798 0
-2868 3798 0
-2869 3798 0
-2870 3798 0
-2871 3798 0
-2872 3798 0
-2873 3798 0
-2874 3798 0
-3798 2863 2864 2865 2866 2867 2868 2869 2870 2871 2872 2873 2874 0
-2875 37 0
-2875 85 0
-2875 121 0
-37 -85 -121 2875 0
-2876 38 0
-2876 86 0
-2876 122 0
-38 -86 -122 2876 0
-2877 39 0
-2877 87 0
-2877 123 0
-39 -87 -123 2877 0
-2878 40 0
-2878 88 0
-2878 124 0
-40 -88 -124 2878 0
-2879 41 0
-2879 89 0
-2879 125 0
-41 -89 -125 2879 0
-2880 42 0
-2880 90 0
-2880 126 0
-42 -90 -126 2880 0
-2881 43 0
-2881 91 0
-2881 127 0
-43 -91 -127 2881 0
-2882 44 0
-2882 92 0
-2882 128 0
-44 -92 -128 2882 0
-2883 45 0
-2883 93 0
-2883 129 0
-45 -93 -129 2883 0
-2884 46 0
-2884 94 0
-2884 130 0
-46 -94 -130 2884 0
-2885 47 0
-2885 95 0
-2885 131 0
-47 -95 -131 2885 0
-2886 48 0
-2886 96 0
-2886 132 0
-48 -96 -132 2886 0
-2875 3799 0
-2876 3799 0
-2877 3799 0
-2878 3799 0
-2879 3799 0
-2880 3799 0
-2881 3799 0
-2882 3799 0
-2883 3799 0
-2884 3799 0
-2885 3799 0
-2886 3799 0
-3799 2875 2876 2877 2878 2879 2880 2881 2882 2883 2884 2885 2886 0
-2887 37 0
-2887 85 0
-2887 133 0
-37 -85 -133 2887 0
-2888 38 0
-2888 86 0
-2888 134 0
-38 -86 -134 2888 0
-2889 39 0
-2889 87 0
-2889 135 0
-39 -87 -135 2889 0
-2890 40 0
-2890 88 0
-2890 136 0
-40 -88 -136 2890 0
-2891 41 0
-2891 89 0
-2891 137 0
-41 -89 -137 2891 0
-2892 42 0
-2892 90 0
-2892 138 0
-42 -90 -138 2892 0
-2893 43 0
-2893 91 0
-2893 139 0
-43 -91 -139 2893 0
-2894 44 0
-2894 92 0
-2894 140 0
-44 -92 -140 2894 0
-2895 45 0
-2895 93 0
-2895 141 0
-45 -93 -141 2895 0
-2896 46 0
-2896 94 0
-2896 142 0
-46 -94 -142 2896 0
-2897 47 0
-2897 95 0
-2897 143 0
-47 -95 -143 2897 0
-2898 48 0
-2898 96 0
-2898 144 0
-48 -96 -144 2898 0
-2887 3800 0
-2888 3800 0
-2889 3800 0
-2890 3800 0
-2891 3800 0
-2892 3800 0
-2893 3800 0
-2894 3800 0
-2895 3800 0
-2896 3800 0
-2897 3800 0
-2898 3800 0
-3800 2887 2888 2889 2890 2891 2892 2893 2894 2895 2896 2897 2898 0
-2899 37 0
-2899 97 0
-2899 109 0
-37 -97 -109 2899 0
-2900 38 0
-2900 98 0
-2900 110 0
-38 -98 -110 2900 0
-2901 39 0
-2901 99 0
-2901 111 0
-39 -99 -111 2901 0
-2902 40 0
-2902 100 0
-2902 112 0
-40 -100 -112 2902 0
-2903 41 0
-2903 101 0
-2903 113 0
-41 -101 -113 2903 0
-2904 42 0
-2904 102 0
-2904 114 0
-42 -102 -114 2904 0
-2905 43 0
-2905 103 0
-2905 115 0
-43 -103 -115 2905 0
-2906 44 0
-2906 104 0
-2906 116 0
-44 -104 -116 2906 0
-2907 45 0
-2907 105 0
-2907 117 0
-45 -105 -117 2907 0
-2908 46 0
-2908 106 0
-2908 118 0
-46 -106 -118 2908 0
-2909 47 0
-2909 107 0
-2909 119 0
-47 -107 -119 2909 0
-2910 48 0
-2910 108 0
-2910 120 0
-48 -108 -120 2910 0
-2899 3801 0
-2900 3801 0
-2901 3801 0
-2902 3801 0
-2903 3801 0
-2904 3801 0
-2905 3801 0
-2906 3801 0
-2907 3801 0
-2908 3801 0
-2909 3801 0
-2910 3801 0
-3801 2899 2900 2901 2902 2903 2904 2905 2906 2907 2908 2909 2910 0
-2911 37 0
-2911 97 0
-2911 121 0
-37 -97 -121 2911 0
-2912 38 0
-2912 98 0
-2912 122 0
-38 -98 -122 2912 0
-2913 39 0
-2913 99 0
-2913 123 0
-39 -99 -123 2913 0
-2914 40 0
-2914 100 0
-2914 124 0
-40 -100 -124 2914 0
-2915 41 0
-2915 101 0
-2915 125 0
-41 -101 -125 2915 0
-2916 42 0
-2916 102 0
-2916 126 0
-42 -102 -126 2916 0
-2917 43 0
-2917 103 0
-2917 127 0
-43 -103 -127 2917 0
-2918 44 0
-2918 104 0
-2918 128 0
-44 -104 -128 2918 0
-2919 45 0
-2919 105 0
-2919 129 0
-45 -105 -129 2919 0
-2920 46 0
-2920 106 0
-2920 130 0
-46 -106 -130 2920 0
-2921 47 0
-2921 107 0
-2921 131 0
-47 -107 -131 2921 0
-2922 48 0
-2922 108 0
-2922 132 0
-48 -108 -132 2922 0
-2911 3802 0
-2912 3802 0
-2913 3802 0
-2914 3802 0
-2915 3802 0
-2916 3802 0
-2917 3802 0
-2918 3802 0
-2919 3802 0
-2920 3802 0
-2921 3802 0
-2922 3802 0
-3802 2911 2912 2913 2914 2915 2916 2917 2918 2919 2920 2921 2922 0
-2923 37 0
-2923 97 0
-2923 133 0
-37 -97 -133 2923 0
-2924 38 0
-2924 98 0
-2924 134 0
-38 -98 -134 2924 0
-2925 39 0
-2925 99 0
-2925 135 0
-39 -99 -135 2925 0
-2926 40 0
-2926 100 0
-2926 136 0
-40 -100 -136 2926 0
-2927 41 0
-2927 101 0
-2927 137 0
-41 -101 -137 2927 0
-2928 42 0
-2928 102 0
-2928 138 0
-42 -102 -138 2928 0
-2929 43 0
-2929 103 0
-2929 139 0
-43 -103 -139 2929 0
-2930 44 0
-2930 104 0
-2930 140 0
-44 -104 -140 2930 0
-2931 45 0
-2931 105 0
-2931 141 0
-45 -105 -141 2931 0
-2932 46 0
-2932 106 0
-2932 142 0
-46 -106 -142 2932 0
-2933 47 0
-2933 107 0
-2933 143 0
-47 -107 -143 2933 0
-2934 48 0
-2934 108 0
-2934 144 0
-48 -108 -144 2934 0
-2923 3803 0
-2924 3803 0
-2925 3803 0
-2926 3803 0
-2927 3803 0
-2928 3803 0
-2929 3803 0
-2930 3803 0
-2931 3803 0
-2932 3803 0
-2933 3803 0
-2934 3803 0
-3803 2923 2924 2925 2926 2927 2928 2929 2930 2931 2932 2933 2934 0
-2935 37 0
-2935 109 0
-2935 121 0
-37 -109 -121 2935 0
-2936 38 0
-2936 110 0
-2936 122 0
-38 -110 -122 2936 0
-2937 39 0
-2937 111 0
-2937 123 0
-39 -111 -123 2937 0
-2938 40 0
-2938 112 0
-2938 124 0
-40 -112 -124 2938 0
-2939 41 0
-2939 113 0
-2939 125 0
-41 -113 -125 2939 0
-2940 42 0
-2940 114 0
-2940 126 0
-42 -114 -126 2940 0
-2941 43 0
-2941 115 0
-2941 127 0
-43 -115 -127 2941 0
-2942 44 0
-2942 116 0
-2942 128 0
-44 -116 -128 2942 0
-2943 45 0
-2943 117 0
-2943 129 0
-45 -117 -129 2943 0
-2944 46 0
-2944 118 0
-2944 130 0
-46 -118 -130 2944 0
-2945 47 0
-2945 119 0
-2945 131 0
-47 -119 -131 2945 0
-2946 48 0
-2946 120 0
-2946 132 0
-48 -120 -132 2946 0
-2935 3804 0
-2936 3804 0
-2937 3804 0
-2938 3804 0
-2939 3804 0
-2940 3804 0
-2941 3804 0
-2942 3804 0
-2943 3804 0
-2944 3804 0
-2945 3804 0
-2946 3804 0
-3804 2935 2936 2937 2938 2939 2940 2941 2942 2943 2944 2945 2946 0
-2947 37 0
-2947 109 0
-2947 133 0
-37 -109 -133 2947 0
-2948 38 0
-2948 110 0
-2948 134 0
-38 -110 -134 2948 0
-2949 39 0
-2949 111 0
-2949 135 0
-39 -111 -135 2949 0
-2950 40 0
-2950 112 0
-2950 136 0
-40 -112 -136 2950 0
-2951 41 0
-2951 113 0
-2951 137 0
-41 -113 -137 2951 0
-2952 42 0
-2952 114 0
-2952 138 0
-42 -114 -138 2952 0
-2953 43 0
-2953 115 0
-2953 139 0
-43 -115 -139 2953 0
-2954 44 0
-2954 116 0
-2954 140 0
-44 -116 -140 2954 0
-2955 45 0
-2955 117 0
-2955 141 0
-45 -117 -141 2955 0
-2956 46 0
-2956 118 0
-2956 142 0
-46 -118 -142 2956 0
-2957 47 0
-2957 119 0
-2957 143 0
-47 -119 -143 2957 0
-2958 48 0
-2958 120 0
-2958 144 0
-48 -120 -144 2958 0
-2947 3805 0
-2948 3805 0
-2949 3805 0
-2950 3805 0
-2951 3805 0
-2952 3805 0
-2953 3805 0
-2954 3805 0
-2955 3805 0
-2956 3805 0
-2957 3805 0
-2958 3805 0
-3805 2947 2948 2949 2950 2951 2952 2953 2954 2955 2956 2957 2958 0
-2959 37 0
-2959 121 0
-2959 133 0
-37 -121 -133 2959 0
-2960 38 0
-2960 122 0
-2960 134 0
-38 -122 -134 2960 0
-2961 39 0
-2961 123 0
-2961 135 0
-39 -123 -135 2961 0
-2962 40 0
-2962 124 0
-2962 136 0
-40 -124 -136 2962 0
-2963 41 0
-2963 125 0
-2963 137 0
-41 -125 -137 2963 0
-2964 42 0
-2964 126 0
-2964 138 0
-42 -126 -138 2964 0
-2965 43 0
-2965 127 0
-2965 139 0
-43 -127 -139 2965 0
-2966 44 0
-2966 128 0
-2966 140 0
-44 -128 -140 2966 0
-2967 45 0
-2967 129 0
-2967 141 0
-45 -129 -141 2967 0
-2968 46 0
-2968 130 0
-2968 142 0
-46 -130 -142 2968 0
-2969 47 0
-2969 131 0
-2969 143 0
-47 -131 -143 2969 0
-2970 48 0
-2970 132 0
-2970 144 0
-48 -132 -144 2970 0
-2959 3806 0
-2960 3806 0
-2961 3806 0
-2962 3806 0
-2963 3806 0
-2964 3806 0
-2965 3806 0
-2966 3806 0
-2967 3806 0
-2968 3806 0
-2969 3806 0
-2970 3806 0
-3806 2959 2960 2961 2962 2963 2964 2965 2966 2967 2968 2969 2970 0
-2971 49 0
-2971 61 0
-2971 73 0
-49 -61 -73 2971 0
-2972 50 0
-2972 62 0
-2972 74 0
-50 -62 -74 2972 0
-2973 51 0
-2973 63 0
-2973 75 0
-51 -63 -75 2973 0
-2974 52 0
-2974 64 0
-2974 76 0
-52 -64 -76 2974 0
-2975 53 0
-2975 65 0
-2975 77 0
-53 -65 -77 2975 0
-2976 54 0
-2976 66 0
-2976 78 0
-54 -66 -78 2976 0
-2977 55 0
-2977 67 0
-2977 79 0
-55 -67 -79 2977 0
-2978 56 0
-2978 68 0
-2978 80 0
-56 -68 -80 2978 0
-2979 57 0
-2979 69 0
-2979 81 0
-57 -69 -81 2979 0
-2980 58 0
-2980 70 0
-2980 82 0
-58 -70 -82 2980 0
-2981 59 0
-2981 71 0
-2981 83 0
-59 -71 -83 2981 0
-2982 60 0
-2982 72 0
-2982 84 0
-60 -72 -84 2982 0
-2971 3807 0
-2972 3807 0
-2973 3807 0
-2974 3807 0
-2975 3807 0
-2976 3807 0
-2977 3807 0
-2978 3807 0
-2979 3807 0
-2980 3807 0
-2981 3807 0
-2982 3807 0
-3807 2971 2972 2973 2974 2975 2976 2977 2978 2979 2980 2981 2982 0
-2983 49 0
-2983 61 0
-2983 85 0
-49 -61 -85 2983 0
-2984 50 0
-2984 62 0
-2984 86 0
-50 -62 -86 2984 0
-2985 51 0
-2985 63 0
-2985 87 0
-51 -63 -87 2985 0
-2986 52 0
-2986 64 0
-2986 88 0
-52 -64 -88 2986 0
-2987 53 0
-2987 65 0
-2987 89 0
-53 -65 -89 2987 0
-2988 54 0
-2988 66 0
-2988 90 0
-54 -66 -90 2988 0
-2989 55 0
-2989 67 0
-2989 91 0
-55 -67 -91 2989 0
-2990 56 0
-2990 68 0
-2990 92 0
-56 -68 -92 2990 0
-2991 57 0
-2991 69 0
-2991 93 0
-57 -69 -93 2991 0
-2992 58 0
-2992 70 0
-2992 94 0
-58 -70 -94 2992 0
-2993 59 0
-2993 71 0
-2993 95 0
-59 -71 -95 2993 0
-2994 60 0
-2994 72 0
-2994 96 0
-60 -72 -96 2994 0
-2983 3808 0
-2984 3808 0
-2985 3808 0
-2986 3808 0
-2987 3808 0
-2988 3808 0
-2989 3808 0
-2990 3808 0
-2991 3808 0
-2992 3808 0
-2993 3808 0
-2994 3808 0
-3808 2983 2984 2985 2986 2987 2988 2989 2990 2991 2992 2993 2994 0
-2995 49 0
-2995 61 0
-2995 97 0
-49 -61 -97 2995 0
-2996 50 0
-2996 62 0
-2996 98 0
-50 -62 -98 2996 0
-2997 51 0
-2997 63 0
-2997 99 0
-51 -63 -99 2997 0
-2998 52 0
-2998 64 0
-2998 100 0
-52 -64 -100 2998 0
-2999 53 0
-2999 65 0
-2999 101 0
-53 -65 -101 2999 0
-3000 54 0
-3000 66 0
-3000 102 0
-54 -66 -102 3000 0
-3001 55 0
-3001 67 0
-3001 103 0
-55 -67 -103 3001 0
-3002 56 0
-3002 68 0
-3002 104 0
-56 -68 -104 3002 0
-3003 57 0
-3003 69 0
-3003 105 0
-57 -69 -105 3003 0
-3004 58 0
-3004 70 0
-3004 106 0
-58 -70 -106 3004 0
-3005 59 0
-3005 71 0
-3005 107 0
-59 -71 -107 3005 0
-3006 60 0
-3006 72 0
-3006 108 0
-60 -72 -108 3006 0
-2995 3809 0
-2996 3809 0
-2997 3809 0
-2998 3809 0
-2999 3809 0
-3000 3809 0
-3001 3809 0
-3002 3809 0
-3003 3809 0
-3004 3809 0
-3005 3809 0
-3006 3809 0
-3809 2995 2996 2997 2998 2999 3000 3001 3002 3003 3004 3005 3006 0
-3007 49 0
-3007 61 0
-3007 109 0
-49 -61 -109 3007 0
-3008 50 0
-3008 62 0
-3008 110 0
-50 -62 -110 3008 0
-3009 51 0
-3009 63 0
-3009 111 0
-51 -63 -111 3009 0
-3010 52 0
-3010 64 0
-3010 112 0
-52 -64 -112 3010 0
-3011 53 0
-3011 65 0
-3011 113 0
-53 -65 -113 3011 0
-3012 54 0
-3012 66 0
-3012 114 0
-54 -66 -114 3012 0
-3013 55 0
-3013 67 0
-3013 115 0
-55 -67 -115 3013 0
-3014 56 0
-3014 68 0
-3014 116 0
-56 -68 -116 3014 0
-3015 57 0
-3015 69 0
-3015 117 0
-57 -69 -117 3015 0
-3016 58 0
-3016 70 0
-3016 118 0
-58 -70 -118 3016 0
-3017 59 0
-3017 71 0
-3017 119 0
-59 -71 -119 3017 0
-3018 60 0
-3018 72 0
-3018 120 0
-60 -72 -120 3018 0
-3007 3810 0
-3008 3810 0
-3009 3810 0
-3010 3810 0
-3011 3810 0
-3012 3810 0
-3013 3810 0
-3014 3810 0
-3015 3810 0
-3016 3810 0
-3017 3810 0
-3018 3810 0
-3810 3007 3008 3009 3010 3011 3012 3013 3014 3015 3016 3017 3018 0
-3019 49 0
-3019 61 0
-3019 121 0
-49 -61 -121 3019 0
-3020 50 0
-3020 62 0
-3020 122 0
-50 -62 -122 3020 0
-3021 51 0
-3021 63 0
-3021 123 0
-51 -63 -123 3021 0
-3022 52 0
-3022 64 0
-3022 124 0
-52 -64 -124 3022 0
-3023 53 0
-3023 65 0
-3023 125 0
-53 -65 -125 3023 0
-3024 54 0
-3024 66 0
-3024 126 0
-54 -66 -126 3024 0
-3025 55 0
-3025 67 0
-3025 127 0
-55 -67 -127 3025 0
-3026 56 0
-3026 68 0
-3026 128 0
-56 -68 -128 3026 0
-3027 57 0
-3027 69 0
-3027 129 0
-57 -69 -129 3027 0
-3028 58 0
-3028 70 0
-3028 130 0
-58 -70 -130 3028 0
-3029 59 0
-3029 71 0
-3029 131 0
-59 -71 -131 3029 0
-3030 60 0
-3030 72 0
-3030 132 0
-60 -72 -132 3030 0
-3019 3811 0
-3020 3811 0
-3021 3811 0
-3022 3811 0
-3023 3811 0
-3024 3811 0
-3025 3811 0
-3026 3811 0
-3027 3811 0
-3028 3811 0
-3029 3811 0
-3030 3811 0
-3811 3019 3020 3021 3022 3023 3024 3025 3026 3027 3028 3029 3030 0
-3031 49 0
-3031 61 0
-3031 133 0
-49 -61 -133 3031 0
-3032 50 0
-3032 62 0
-3032 134 0
-50 -62 -134 3032 0
-3033 51 0
-3033 63 0
-3033 135 0
-51 -63 -135 3033 0
-3034 52 0
-3034 64 0
-3034 136 0
-52 -64 -136 3034 0
-3035 53 0
-3035 65 0
-3035 137 0
-53 -65 -137 3035 0
-3036 54 0
-3036 66 0
-3036 138 0
-54 -66 -138 3036 0
-3037 55 0
-3037 67 0
-3037 139 0
-55 -67 -139 3037 0
-3038 56 0
-3038 68 0
-3038 140 0
-56 -68 -140 3038 0
-3039 57 0
-3039 69 0
-3039 141 0
-57 -69 -141 3039 0
-3040 58 0
-3040 70 0
-3040 142 0
-58 -70 -142 3040 0
-3041 59 0
-3041 71 0
-3041 143 0
-59 -71 -143 3041 0
-3042 60 0
-3042 72 0
-3042 144 0
-60 -72 -144 3042 0
-3031 3812 0
-3032 3812 0
-3033 3812 0
-3034 3812 0
-3035 3812 0
-3036 3812 0
-3037 3812 0
-3038 3812 0
-3039 3812 0
-3040 3812 0
-3041 3812 0
-3042 3812 0
-3812 3031 3032 3033 3034 3035 3036 3037 3038 3039 3040 3041 3042 0
-3043 49 0
-3043 73 0
-3043 85 0
-49 -73 -85 3043 0
-3044 50 0
-3044 74 0
-3044 86 0
-50 -74 -86 3044 0
-3045 51 0
-3045 75 0
-3045 87 0
-51 -75 -87 3045 0
-3046 52 0
-3046 76 0
-3046 88 0
-52 -76 -88 3046 0
-3047 53 0
-3047 77 0
-3047 89 0
-53 -77 -89 3047 0
-3048 54 0
-3048 78 0
-3048 90 0
-54 -78 -90 3048 0
-3049 55 0
-3049 79 0
-3049 91 0
-55 -79 -91 3049 0
-3050 56 0
-3050 80 0
-3050 92 0
-56 -80 -92 3050 0
-3051 57 0
-3051 81 0
-3051 93 0
-57 -81 -93 3051 0
-3052 58 0
-3052 82 0
-3052 94 0
-58 -82 -94 3052 0
-3053 59 0
-3053 83 0
-3053 95 0
-59 -83 -95 3053 0
-3054 60 0
-3054 84 0
-3054 96 0
-60 -84 -96 3054 0
-3043 3813 0
-3044 3813 0
-3045 3813 0
-3046 3813 0
-3047 3813 0
-3048 3813 0
-3049 3813 0
-3050 3813 0
-3051 3813 0
-3052 3813 0
-3053 3813 0
-3054 3813 0
-3813 3043 3044 3045 3046 3047 3048 3049 3050 3051 3052 3053 3054 0
-3055 49 0
-3055 73 0
-3055 97 0
-49 -73 -97 3055 0
-3056 50 0
-3056 74 0
-3056 98 0
-50 -74 -98 3056 0
-3057 51 0
-3057 75 0
-3057 99 0
-51 -75 -99 3057 0
-3058 52 0
-3058 76 0
-3058 100 0
-52 -76 -100 3058 0
-3059 53 0
-3059 77 0
-3059 101 0
-53 -77 -101 3059 0
-3060 54 0
-3060 78 0
-3060 102 0
-54 -78 -102 3060 0
-3061 55 0
-3061 79 0
-3061 103 0
-55 -79 -103 3061 0
-3062 56 0
-3062 80 0
-3062 104 0
-56 -80 -104 3062 0
-3063 57 0
-3063 81 0
-3063 105 0
-57 -81 -105 3063 0
-3064 58 0
-3064 82 0
-3064 106 0
-58 -82 -106 3064 0
-3065 59 0
-3065 83 0
-3065 107 0
-59 -83 -107 3065 0
-3066 60 0
-3066 84 0
-3066 108 0
-60 -84 -108 3066 0
-3055 3814 0
-3056 3814 0
-3057 3814 0
-3058 3814 0
-3059 3814 0
-3060 3814 0
-3061 3814 0
-3062 3814 0
-3063 3814 0
-3064 3814 0
-3065 3814 0
-3066 3814 0
-3814 3055 3056 3057 3058 3059 3060 3061 3062 3063 3064 3065 3066 0
-3067 49 0
-3067 73 0
-3067 109 0
-49 -73 -109 3067 0
-3068 50 0
-3068 74 0
-3068 110 0
-50 -74 -110 3068 0
-3069 51 0
-3069 75 0
-3069 111 0
-51 -75 -111 3069 0
-3070 52 0
-3070 76 0
-3070 112 0
-52 -76 -112 3070 0
-3071 53 0
-3071 77 0
-3071 113 0
-53 -77 -113 3071 0
-3072 54 0
-3072 78 0
-3072 114 0
-54 -78 -114 3072 0
-3073 55 0
-3073 79 0
-3073 115 0
-55 -79 -115 3073 0
-3074 56 0
-3074 80 0
-3074 116 0
-56 -80 -116 3074 0
-3075 57 0
-3075 81 0
-3075 117 0
-57 -81 -117 3075 0
-3076 58 0
-3076 82 0
-3076 118 0
-58 -82 -118 3076 0
-3077 59 0
-3077 83 0
-3077 119 0
-59 -83 -119 3077 0
-3078 60 0
-3078 84 0
-3078 120 0
-60 -84 -120 3078 0
-3067 3815 0
-3068 3815 0
-3069 3815 0
-3070 3815 0
-3071 3815 0
-3072 3815 0
-3073 3815 0
-3074 3815 0
-3075 3815 0
-3076 3815 0
-3077 3815 0
-3078 3815 0
-3815 3067 3068 3069 3070 3071 3072 3073 3074 3075 3076 3077 3078 0
-3079 49 0
-3079 73 0
-3079 121 0
-49 -73 -121 3079 0
-3080 50 0
-3080 74 0
-3080 122 0
-50 -74 -122 3080 0
-3081 51 0
-3081 75 0
-3081 123 0
-51 -75 -123 3081 0
-3082 52 0
-3082 76 0
-3082 124 0
-52 -76 -124 3082 0
-3083 53 0
-3083 77 0
-3083 125 0
-53 -77 -125 3083 0
-3084 54 0
-3084 78 0
-3084 126 0
-54 -78 -126 3084 0
-3085 55 0
-3085 79 0
-3085 127 0
-55 -79 -127 3085 0
-3086 56 0
-3086 80 0
-3086 128 0
-56 -80 -128 3086 0
-3087 57 0
-3087 81 0
-3087 129 0
-57 -81 -129 3087 0
-3088 58 0
-3088 82 0
-3088 130 0
-58 -82 -130 3088 0
-3089 59 0
-3089 83 0
-3089 131 0
-59 -83 -131 3089 0
-3090 60 0
-3090 84 0
-3090 132 0
-60 -84 -132 3090 0
-3079 3816 0
-3080 3816 0
-3081 3816 0
-3082 3816 0
-3083 3816 0
-3084 3816 0
-3085 3816 0
-3086 3816 0
-3087 3816 0
-3088 3816 0
-3089 3816 0
-3090 3816 0
-3816 3079 3080 3081 3082 3083 3084 3085 3086 3087 3088 3089 3090 0
-3091 49 0
-3091 73 0
-3091 133 0
-49 -73 -133 3091 0
-3092 50 0
-3092 74 0
-3092 134 0
-50 -74 -134 3092 0
-3093 51 0
-3093 75 0
-3093 135 0
-51 -75 -135 3093 0
-3094 52 0
-3094 76 0
-3094 136 0
-52 -76 -136 3094 0
-3095 53 0
-3095 77 0
-3095 137 0
-53 -77 -137 3095 0
-3096 54 0
-3096 78 0
-3096 138 0
-54 -78 -138 3096 0
-3097 55 0
-3097 79 0
-3097 139 0
-55 -79 -139 3097 0
-3098 56 0
-3098 80 0
-3098 140 0
-56 -80 -140 3098 0
-3099 57 0
-3099 81 0
-3099 141 0
-57 -81 -141 3099 0
-3100 58 0
-3100 82 0
-3100 142 0
-58 -82 -142 3100 0
-3101 59 0
-3101 83 0
-3101 143 0
-59 -83 -143 3101 0
-3102 60 0
-3102 84 0
-3102 144 0
-60 -84 -144 3102 0
-3091 3817 0
-3092 3817 0
-3093 3817 0
-3094 3817 0
-3095 3817 0
-3096 3817 0
-3097 3817 0
-3098 3817 0
-3099 3817 0
-3100 3817 0
-3101 3817 0
-3102 3817 0
-3817 3091 3092 3093 3094 3095 3096 3097 3098 3099 3100 3101 3102 0
-3103 49 0
-3103 85 0
-3103 97 0
-49 -85 -97 3103 0
-3104 50 0
-3104 86 0
-3104 98 0
-50 -86 -98 3104 0
-3105 51 0
-3105 87 0
-3105 99 0
-51 -87 -99 3105 0
-3106 52 0
-3106 88 0
-3106 100 0
-52 -88 -100 3106 0
-3107 53 0
-3107 89 0
-3107 101 0
-53 -89 -101 3107 0
-3108 54 0
-3108 90 0
-3108 102 0
-54 -90 -102 3108 0
-3109 55 0
-3109 91 0
-3109 103 0
-55 -91 -103 3109 0
-3110 56 0
-3110 92 0
-3110 104 0
-56 -92 -104 3110 0
-3111 57 0
-3111 93 0
-3111 105 0
-57 -93 -105 3111 0
-3112 58 0
-3112 94 0
-3112 106 0
-58 -94 -106 3112 0
-3113 59 0
-3113 95 0
-3113 107 0
-59 -95 -107 3113 0
-3114 60 0
-3114 96 0
-3114 108 0
-60 -96 -108 3114 0
-3103 3818 0
-3104 3818 0
-3105 3818 0
-3106 3818 0
-3107 3818 0
-3108 3818 0
-3109 3818 0
-3110 3818 0
-3111 3818 0
-3112 3818 0
-3113 3818 0
-3114 3818 0
-3818 3103 3104 3105 3106 3107 3108 3109 3110 3111 3112 3113 3114 0
-3115 49 0
-3115 85 0
-3115 109 0
-49 -85 -109 3115 0
-3116 50 0
-3116 86 0
-3116 110 0
-50 -86 -110 3116 0
-3117 51 0
-3117 87 0
-3117 111 0
-51 -87 -111 3117 0
-3118 52 0
-3118 88 0
-3118 112 0
-52 -88 -112 3118 0
-3119 53 0
-3119 89 0
-3119 113 0
-53 -89 -113 3119 0
-3120 54 0
-3120 90 0
-3120 114 0
-54 -90 -114 3120 0
-3121 55 0
-3121 91 0
-3121 115 0
-55 -91 -115 3121 0
-3122 56 0
-3122 92 0
-3122 116 0
-56 -92 -116 3122 0
-3123 57 0
-3123 93 0
-3123 117 0
-57 -93 -117 3123 0
-3124 58 0
-3124 94 0
-3124 118 0
-58 -94 -118 3124 0
-3125 59 0
-3125 95 0
-3125 119 0
-59 -95 -119 3125 0
-3126 60 0
-3126 96 0
-3126 120 0
-60 -96 -120 3126 0
-3115 3819 0
-3116 3819 0
-3117 3819 0
-3118 3819 0
-3119 3819 0
-3120 3819 0
-3121 3819 0
-3122 3819 0
-3123 3819 0
-3124 3819 0
-3125 3819 0
-3126 3819 0
-3819 3115 3116 3117 3118 3119 3120 3121 3122 3123 3124 3125 3126 0
-3127 49 0
-3127 85 0
-3127 121 0
-49 -85 -121 3127 0
-3128 50 0
-3128 86 0
-3128 122 0
-50 -86 -122 3128 0
-3129 51 0
-3129 87 0
-3129 123 0
-51 -87 -123 3129 0
-3130 52 0
-3130 88 0
-3130 124 0
-52 -88 -124 3130 0
-3131 53 0
-3131 89 0
-3131 125 0
-53 -89 -125 3131 0
-3132 54 0
-3132 90 0
-3132 126 0
-54 -90 -126 3132 0
-3133 55 0
-3133 91 0
-3133 127 0
-55 -91 -127 3133 0
-3134 56 0
-3134 92 0
-3134 128 0
-56 -92 -128 3134 0
-3135 57 0
-3135 93 0
-3135 129 0
-57 -93 -129 3135 0
-3136 58 0
-3136 94 0
-3136 130 0
-58 -94 -130 3136 0
-3137 59 0
-3137 95 0
-3137 131 0
-59 -95 -131 3137 0
-3138 60 0
-3138 96 0
-3138 132 0
-60 -96 -132 3138 0
-3127 3820 0
-3128 3820 0
-3129 3820 0
-3130 3820 0
-3131 3820 0
-3132 3820 0
-3133 3820 0
-3134 3820 0
-3135 3820 0
-3136 3820 0
-3137 3820 0
-3138 3820 0
-3820 3127 3128 3129 3130 3131 3132 3133 3134 3135 3136 3137 3138 0
-3139 49 0
-3139 85 0
-3139 133 0
-49 -85 -133 3139 0
-3140 50 0
-3140 86 0
-3140 134 0
-50 -86 -134 3140 0
-3141 51 0
-3141 87 0
-3141 135 0
-51 -87 -135 3141 0
-3142 52 0
-3142 88 0
-3142 136 0
-52 -88 -136 3142 0
-3143 53 0
-3143 89 0
-3143 137 0
-53 -89 -137 3143 0
-3144 54 0
-3144 90 0
-3144 138 0
-54 -90 -138 3144 0
-3145 55 0
-3145 91 0
-3145 139 0
-55 -91 -139 3145 0
-3146 56 0
-3146 92 0
-3146 140 0
-56 -92 -140 3146 0
-3147 57 0
-3147 93 0
-3147 141 0
-57 -93 -141 3147 0
-3148 58 0
-3148 94 0
-3148 142 0
-58 -94 -142 3148 0
-3149 59 0
-3149 95 0
-3149 143 0
-59 -95 -143 3149 0
-3150 60 0
-3150 96 0
-3150 144 0
-60 -96 -144 3150 0
-3139 3821 0
-3140 3821 0
-3141 3821 0
-3142 3821 0
-3143 3821 0
-3144 3821 0
-3145 3821 0
-3146 3821 0
-3147 3821 0
-3148 3821 0
-3149 3821 0
-3150 3821 0
-3821 3139 3140 3141 3142 3143 3144 3145 3146 3147 3148 3149 3150 0
-3151 49 0
-3151 97 0
-3151 109 0
-49 -97 -109 3151 0
-3152 50 0
-3152 98 0
-3152 110 0
-50 -98 -110 3152 0
-3153 51 0
-3153 99 0
-3153 111 0
-51 -99 -111 3153 0
-3154 52 0
-3154 100 0
-3154 112 0
-52 -100 -112 3154 0
-3155 53 0
-3155 101 0
-3155 113 0
-53 -101 -113 3155 0
-3156 54 0
-3156 102 0
-3156 114 0
-54 -102 -114 3156 0
-3157 55 0
-3157 103 0
-3157 115 0
-55 -103 -115 3157 0
-3158 56 0
-3158 104 0
-3158 116 0
-56 -104 -116 3158 0
-3159 57 0
-3159 105 0
-3159 117 0
-57 -105 -117 3159 0
-3160 58 0
-3160 106 0
-3160 118 0
-58 -106 -118 3160 0
-3161 59 0
-3161 107 0
-3161 119 0
-59 -107 -119 3161 0
-3162 60 0
-3162 108 0
-3162 120 0
-60 -108 -120 3162 0
-3151 3822 0
-3152 3822 0
-3153 3822 0
-3154 3822 0
-3155 3822 0
-3156 3822 0
-3157 3822 0
-3158 3822 0
-3159 3822 0
-3160 3822 0
-3161 3822 0
-3162 3822 0
-3822 3151 3152 3153 3154 3155 3156 3157 3158 3159 3160 3161 3162 0
-3163 49 0
-3163 97 0
-3163 121 0
-49 -97 -121 3163 0
-3164 50 0
-3164 98 0
-3164 122 0
-50 -98 -122 3164 0
-3165 51 0
-3165 99 0
-3165 123 0
-51 -99 -123 3165 0
-3166 52 0
-3166 100 0
-3166 124 0
-52 -100 -124 3166 0
-3167 53 0
-3167 101 0
-3167 125 0
-53 -101 -125 3167 0
-3168 54 0
-3168 102 0
-3168 126 0
-54 -102 -126 3168 0
-3169 55 0
-3169 103 0
-3169 127 0
-55 -103 -127 3169 0
-3170 56 0
-3170 104 0
-3170 128 0
-56 -104 -128 3170 0
-3171 57 0
-3171 105 0
-3171 129 0
-57 -105 -129 3171 0
-3172 58 0
-3172 106 0
-3172 130 0
-58 -106 -130 3172 0
-3173 59 0
-3173 107 0
-3173 131 0
-59 -107 -131 3173 0
-3174 60 0
-3174 108 0
-3174 132 0
-60 -108 -132 3174 0
-3163 3823 0
-3164 3823 0
-3165 3823 0
-3166 3823 0
-3167 3823 0
-3168 3823 0
-3169 3823 0
-3170 3823 0
-3171 3823 0
-3172 3823 0
-3173 3823 0
-3174 3823 0
-3823 3163 3164 3165 3166 3167 3168 3169 3170 3171 3172 3173 3174 0
-3175 49 0
-3175 97 0
-3175 133 0
-49 -97 -133 3175 0
-3176 50 0
-3176 98 0
-3176 134 0
-50 -98 -134 3176 0
-3177 51 0
-3177 99 0
-3177 135 0
-51 -99 -135 3177 0
-3178 52 0
-3178 100 0
-3178 136 0
-52 -100 -136 3178 0
-3179 53 0
-3179 101 0
-3179 137 0
-53 -101 -137 3179 0
-3180 54 0
-3180 102 0
-3180 138 0
-54 -102 -138 3180 0
-3181 55 0
-3181 103 0
-3181 139 0
-55 -103 -139 3181 0
-3182 56 0
-3182 104 0
-3182 140 0
-56 -104 -140 3182 0
-3183 57 0
-3183 105 0
-3183 141 0
-57 -105 -141 3183 0
-3184 58 0
-3184 106 0
-3184 142 0
-58 -106 -142 3184 0
-3185 59 0
-3185 107 0
-3185 143 0
-59 -107 -143 3185 0
-3186 60 0
-3186 108 0
-3186 144 0
-60 -108 -144 3186 0
-3175 3824 0
-3176 3824 0
-3177 3824 0
-3178 3824 0
-3179 3824 0
-3180 3824 0
-3181 3824 0
-3182 3824 0
-3183 3824 0
-3184 3824 0
-3185 3824 0
-3186 3824 0
-3824 3175 3176 3177 3178 3179 3180 3181 3182 3183 3184 3185 3186 0
-3187 49 0
-3187 109 0
-3187 121 0
-49 -109 -121 3187 0
-3188 50 0
-3188 110 0
-3188 122 0
-50 -110 -122 3188 0
-3189 51 0
-3189 111 0
-3189 123 0
-51 -111 -123 3189 0
-3190 52 0
-3190 112 0
-3190 124 0
-52 -112 -124 3190 0
-3191 53 0
-3191 113 0
-3191 125 0
-53 -113 -125 3191 0
-3192 54 0
-3192 114 0
-3192 126 0
-54 -114 -126 3192 0
-3193 55 0
-3193 115 0
-3193 127 0
-55 -115 -127 3193 0
-3194 56 0
-3194 116 0
-3194 128 0
-56 -116 -128 3194 0
-3195 57 0
-3195 117 0
-3195 129 0
-57 -117 -129 3195 0
-3196 58 0
-3196 118 0
-3196 130 0
-58 -118 -130 3196 0
-3197 59 0
-3197 119 0
-3197 131 0
-59 -119 -131 3197 0
-3198 60 0
-3198 120 0
-3198 132 0
-60 -120 -132 3198 0
-3187 3825 0
-3188 3825 0
-3189 3825 0
-3190 3825 0
-3191 3825 0
-3192 3825 0
-3193 3825 0
-3194 3825 0
-3195 3825 0
-3196 3825 0
-3197 3825 0
-3198 3825 0
-3825 3187 3188 3189 3190 3191 3192 3193 3194 3195 3196 3197 3198 0
-3199 49 0
-3199 109 0
-3199 133 0
-49 -109 -133 3199 0
-3200 50 0
-3200 110 0
-3200 134 0
-50 -110 -134 3200 0
-3201 51 0
-3201 111 0
-3201 135 0
-51 -111 -135 3201 0
-3202 52 0
-3202 112 0
-3202 136 0
-52 -112 -136 3202 0
-3203 53 0
-3203 113 0
-3203 137 0
-53 -113 -137 3203 0
-3204 54 0
-3204 114 0
-3204 138 0
-54 -114 -138 3204 0
-3205 55 0
-3205 115 0
-3205 139 0
-55 -115 -139 3205 0
-3206 56 0
-3206 116 0
-3206 140 0
-56 -116 -140 3206 0
-3207 57 0
-3207 117 0
-3207 141 0
-57 -117 -141 3207 0
-3208 58 0
-3208 118 0
-3208 142 0
-58 -118 -142 3208 0
-3209 59 0
-3209 119 0
-3209 143 0
-59 -119 -143 3209 0
-3210 60 0
-3210 120 0
-3210 144 0
-60 -120 -144 3210 0
-3199 3826 0
-3200 3826 0
-3201 3826 0
-3202 3826 0
-3203 3826 0
-3204 3826 0
-3205 3826 0
-3206 3826 0
-3207 3826 0
-3208 3826 0
-3209 3826 0
-3210 3826 0
-3826 3199 3200 3201 3202 3203 3204 3205 3206 3207 3208 3209 3210 0
-3211 49 0
-3211 121 0
-3211 133 0
-49 -121 -133 3211 0
-3212 50 0
-3212 122 0
-3212 134 0
-50 -122 -134 3212 0
-3213 51 0
-3213 123 0
-3213 135 0
-51 -123 -135 3213 0
-3214 52 0
-3214 124 0
-3214 136 0
-52 -124 -136 3214 0
-3215 53 0
-3215 125 0
-3215 137 0
-53 -125 -137 3215 0
-3216 54 0
-3216 126 0
-3216 138 0
-54 -126 -138 3216 0
-3217 55 0
-3217 127 0
-3217 139 0
-55 -127 -139 3217 0
-3218 56 0
-3218 128 0
-3218 140 0
-56 -128 -140 3218 0
-3219 57 0
-3219 129 0
-3219 141 0
-57 -129 -141 3219 0
-3220 58 0
-3220 130 0
-3220 142 0
-58 -130 -142 3220 0
-3221 59 0
-3221 131 0
-3221 143 0
-59 -131 -143 3221 0
-3222 60 0
-3222 132 0
-3222 144 0
-60 -132 -144 3222 0
-3211 3827 0
-3212 3827 0
-3213 3827 0
-3214 3827 0
-3215 3827 0
-3216 3827 0
-3217 3827 0
-3218 3827 0
-3219 3827 0
-3220 3827 0
-3221 3827 0
-3222 3827 0
-3827 3211 3212 3213 3214 3215 3216 3217 3218 3219 3220 3221 3222 0
-3223 61 0
-3223 73 0
-3223 85 0
-61 -73 -85 3223 0
-3224 62 0
-3224 74 0
-3224 86 0
-62 -74 -86 3224 0
-3225 63 0
-3225 75 0
-3225 87 0
-63 -75 -87 3225 0
-3226 64 0
-3226 76 0
-3226 88 0
-64 -76 -88 3226 0
-3227 65 0
-3227 77 0
-3227 89 0
-65 -77 -89 3227 0
-3228 66 0
-3228 78 0
-3228 90 0
-66 -78 -90 3228 0
-3229 67 0
-3229 79 0
-3229 91 0
-67 -79 -91 3229 0
-3230 68 0
-3230 80 0
-3230 92 0
-68 -80 -92 3230 0
-3231 69 0
-3231 81 0
-3231 93 0
-69 -81 -93 3231 0
-3232 70 0
-3232 82 0
-3232 94 0
-70 -82 -94 3232 0
-3233 71 0
-3233 83 0
-3233 95 0
-71 -83 -95 3233 0
-3234 72 0
-3234 84 0
-3234 96 0
-72 -84 -96 3234 0
-3223 3828 0
-3224 3828 0
-3225 3828 0
-3226 3828 0
-3227 3828 0
-3228 3828 0
-3229 3828 0
-3230 3828 0
-3231 3828 0
-3232 3828 0
-3233 3828 0
-3234 3828 0
-3828 3223 3224 3225 3226 3227 3228 3229 3230 3231 3232 3233 3234 0
-3235 61 0
-3235 73 0
-3235 97 0
-61 -73 -97 3235 0
-3236 62 0
-3236 74 0
-3236 98 0
-62 -74 -98 3236 0
-3237 63 0
-3237 75 0
-3237 99 0
-63 -75 -99 3237 0
-3238 64 0
-3238 76 0
-3238 100 0
-64 -76 -100 3238 0
-3239 65 0
-3239 77 0
-3239 101 0
-65 -77 -101 3239 0
-3240 66 0
-3240 78 0
-3240 102 0
-66 -78 -102 3240 0
-3241 67 0
-3241 79 0
-3241 103 0
-67 -79 -103 3241 0
-3242 68 0
-3242 80 0
-3242 104 0
-68 -80 -104 3242 0
-3243 69 0
-3243 81 0
-3243 105 0
-69 -81 -105 3243 0
-3244 70 0
-3244 82 0
-3244 106 0
-70 -82 -106 3244 0
-3245 71 0
-3245 83 0
-3245 107 0
-71 -83 -107 3245 0
-3246 72 0
-3246 84 0
-3246 108 0
-72 -84 -108 3246 0
-3235 3829 0
-3236 3829 0
-3237 3829 0
-3238 3829 0
-3239 3829 0
-3240 3829 0
-3241 3829 0
-3242 3829 0
-3243 3829 0
-3244 3829 0
-3245 3829 0
-3246 3829 0
-3829 3235 3236 3237 3238 3239 3240 3241 3242 3243 3244 3245 3246 0
-3247 61 0
-3247 73 0
-3247 109 0
-61 -73 -109 3247 0
-3248 62 0
-3248 74 0
-3248 110 0
-62 -74 -110 3248 0
-3249 63 0
-3249 75 0
-3249 111 0
-63 -75 -111 3249 0
-3250 64 0
-3250 76 0
-3250 112 0
-64 -76 -112 3250 0
-3251 65 0
-3251 77 0
-3251 113 0
-65 -77 -113 3251 0
-3252 66 0
-3252 78 0
-3252 114 0
-66 -78 -114 3252 0
-3253 67 0
-3253 79 0
-3253 115 0
-67 -79 -115 3253 0
-3254 68 0
-3254 80 0
-3254 116 0
-68 -80 -116 3254 0
-3255 69 0
-3255 81 0
-3255 117 0
-69 -81 -117 3255 0
-3256 70 0
-3256 82 0
-3256 118 0
-70 -82 -118 3256 0
-3257 71 0
-3257 83 0
-3257 119 0
-71 -83 -119 3257 0
-3258 72 0
-3258 84 0
-3258 120 0
-72 -84 -120 3258 0
-3247 3830 0
-3248 3830 0
-3249 3830 0
-3250 3830 0
-3251 3830 0
-3252 3830 0
-3253 3830 0
-3254 3830 0
-3255 3830 0
-3256 3830 0
-3257 3830 0
-3258 3830 0
-3830 3247 3248 3249 3250 3251 3252 3253 3254 3255 3256 3257 3258 0
-3259 61 0
-3259 73 0
-3259 121 0
-61 -73 -121 3259 0
-3260 62 0
-3260 74 0
-3260 122 0
-62 -74 -122 3260 0
-3261 63 0
-3261 75 0
-3261 123 0
-63 -75 -123 3261 0
-3262 64 0
-3262 76 0
-3262 124 0
-64 -76 -124 3262 0
-3263 65 0
-3263 77 0
-3263 125 0
-65 -77 -125 3263 0
-3264 66 0
-3264 78 0
-3264 126 0
-66 -78 -126 3264 0
-3265 67 0
-3265 79 0
-3265 127 0
-67 -79 -127 3265 0
-3266 68 0
-3266 80 0
-3266 128 0
-68 -80 -128 3266 0
-3267 69 0
-3267 81 0
-3267 129 0
-69 -81 -129 3267 0
-3268 70 0
-3268 82 0
-3268 130 0
-70 -82 -130 3268 0
-3269 71 0
-3269 83 0
-3269 131 0
-71 -83 -131 3269 0
-3270 72 0
-3270 84 0
-3270 132 0
-72 -84 -132 3270 0
-3259 3831 0
-3260 3831 0
-3261 3831 0
-3262 3831 0
-3263 3831 0
-3264 3831 0
-3265 3831 0
-3266 3831 0
-3267 3831 0
-3268 3831 0
-3269 3831 0
-3270 3831 0
-3831 3259 3260 3261 3262 3263 3264 3265 3266 3267 3268 3269 3270 0
-3271 61 0
-3271 73 0
-3271 133 0
-61 -73 -133 3271 0
-3272 62 0
-3272 74 0
-3272 134 0
-62 -74 -134 3272 0
-3273 63 0
-3273 75 0
-3273 135 0
-63 -75 -135 3273 0
-3274 64 0
-3274 76 0
-3274 136 0
-64 -76 -136 3274 0
-3275 65 0
-3275 77 0
-3275 137 0
-65 -77 -137 3275 0
-3276 66 0
-3276 78 0
-3276 138 0
-66 -78 -138 3276 0
-3277 67 0
-3277 79 0
-3277 139 0
-67 -79 -139 3277 0
-3278 68 0
-3278 80 0
-3278 140 0
-68 -80 -140 3278 0
-3279 69 0
-3279 81 0
-3279 141 0
-69 -81 -141 3279 0
-3280 70 0
-3280 82 0
-3280 142 0
-70 -82 -142 3280 0
-3281 71 0
-3281 83 0
-3281 143 0
-71 -83 -143 3281 0
-3282 72 0
-3282 84 0
-3282 144 0
-72 -84 -144 3282 0
-3271 3832 0
-3272 3832 0
-3273 3832 0
-3274 3832 0
-3275 3832 0
-3276 3832 0
-3277 3832 0
-3278 3832 0
-3279 3832 0
-3280 3832 0
-3281 3832 0
-3282 3832 0
-3832 3271 3272 3273 3274 3275 3276 3277 3278 3279 3280 3281 3282 0
-3283 61 0
-3283 85 0
-3283 97 0
-61 -85 -97 3283 0
-3284 62 0
-3284 86 0
-3284 98 0
-62 -86 -98 3284 0
-3285 63 0
-3285 87 0
-3285 99 0
-63 -87 -99 3285 0
-3286 64 0
-3286 88 0
-3286 100 0
-64 -88 -100 3286 0
-3287 65 0
-3287 89 0
-3287 101 0
-65 -89 -101 3287 0
-3288 66 0
-3288 90 0
-3288 102 0
-66 -90 -102 3288 0
-3289 67 0
-3289 91 0
-3289 103 0
-67 -91 -103 3289 0
-3290 68 0
-3290 92 0
-3290 104 0
-68 -92 -104 3290 0
-3291 69 0
-3291 93 0
-3291 105 0
-69 -93 -105 3291 0
-3292 70 0
-3292 94 0
-3292 106 0
-70 -94 -106 3292 0
-3293 71 0
-3293 95 0
-3293 107 0
-71 -95 -107 3293 0
-3294 72 0
-3294 96 0
-3294 108 0
-72 -96 -108 3294 0
-3283 3833 0
-3284 3833 0
-3285 3833 0
-3286 3833 0
-3287 3833 0
-3288 3833 0
-3289 3833 0
-3290 3833 0
-3291 3833 0
-3292 3833 0
-3293 3833 0
-3294 3833 0
-3833 3283 3284 3285 3286 3287 3288 3289 3290 3291 3292 3293 3294 0
-3295 61 0
-3295 85 0
-3295 109 0
-61 -85 -109 3295 0
-3296 62 0
-3296 86 0
-3296 110 0
-62 -86 -110 3296 0
-3297 63 0
-3297 87 0
-3297 111 0
-63 -87 -111 3297 0
-3298 64 0
-3298 88 0
-3298 112 0
-64 -88 -112 3298 0
-3299 65 0
-3299 89 0
-3299 113 0
-65 -89 -113 3299 0
-3300 66 0
-3300 90 0
-3300 114 0
-66 -90 -114 3300 0
-3301 67 0
-3301 91 0
-3301 115 0
-67 -91 -115 3301 0
-3302 68 0
-3302 92 0
-3302 116 0
-68 -92 -116 3302 0
-3303 69 0
-3303 93 0
-3303 117 0
-69 -93 -117 3303 0
-3304 70 0
-3304 94 0
-3304 118 0
-70 -94 -118 3304 0
-3305 71 0
-3305 95 0
-3305 119 0
-71 -95 -119 3305 0
-3306 72 0
-3306 96 0
-3306 120 0
-72 -96 -120 3306 0
-3295 3834 0
-3296 3834 0
-3297 3834 0
-3298 3834 0
-3299 3834 0
-3300 3834 0
-3301 3834 0
-3302 3834 0
-3303 3834 0
-3304 3834 0
-3305 3834 0
-3306 3834 0
-3834 3295 3296 3297 3298 3299 3300 3301 3302 3303 3304 3305 3306 0
-3307 61 0
-3307 85 0
-3307 121 0
-61 -85 -121 3307 0
-3308 62 0
-3308 86 0
-3308 122 0
-62 -86 -122 3308 0
-3309 63 0
-3309 87 0
-3309 123 0
-63 -87 -123 3309 0
-3310 64 0
-3310 88 0
-3310 124 0
-64 -88 -124 3310 0
-3311 65 0
-3311 89 0
-3311 125 0
-65 -89 -125 3311 0
-3312 66 0
-3312 90 0
-3312 126 0
-66 -90 -126 3312 0
-3313 67 0
-3313 91 0
-3313 127 0
-67 -91 -127 3313 0
-3314 68 0
-3314 92 0
-3314 128 0
-68 -92 -128 3314 0
-3315 69 0
-3315 93 0
-3315 129 0
-69 -93 -129 3315 0
-3316 70 0
-3316 94 0
-3316 130 0
-70 -94 -130 3316 0
-3317 71 0
-3317 95 0
-3317 131 0
-71 -95 -131 3317 0
-3318 72 0
-3318 96 0
-3318 132 0
-72 -96 -132 3318 0
-3307 3835 0
-3308 3835 0
-3309 3835 0
-3310 3835 0
-3311 3835 0
-3312 3835 0
-3313 3835 0
-3314 3835 0
-3315 3835 0
-3316 3835 0
-3317 3835 0
-3318 3835 0
-3835 3307 3308 3309 3310 3311 3312 3313 3314 3315 3316 3317 3318 0
-3319 61 0
-3319 85 0
-3319 133 0
-61 -85 -133 3319 0
-3320 62 0
-3320 86 0
-3320 134 0
-62 -86 -134 3320 0
-3321 63 0
-3321 87 0
-3321 135 0
-63 -87 -135 3321 0
-3322 64 0
-3322 88 0
-3322 136 0
-64 -88 -136 3322 0
-3323 65 0
-3323 89 0
-3323 137 0
-65 -89 -137 3323 0
-3324 66 0
-3324 90 0
-3324 138 0
-66 -90 -138 3324 0
-3325 67 0
-3325 91 0
-3325 139 0
-67 -91 -139 3325 0
-3326 68 0
-3326 92 0
-3326 140 0
-68 -92 -140 3326 0
-3327 69 0
-3327 93 0
-3327 141 0
-69 -93 -141 3327 0
-3328 70 0
-3328 94 0
-3328 142 0
-70 -94 -142 3328 0
-3329 71 0
-3329 95 0
-3329 143 0
-71 -95 -143 3329 0
-3330 72 0
-3330 96 0
-3330 144 0
-72 -96 -144 3330 0
-3319 3836 0
-3320 3836 0
-3321 3836 0
-3322 3836 0
-3323 3836 0
-3324 3836 0
-3325 3836 0
-3326 3836 0
-3327 3836 0
-3328 3836 0
-3329 3836 0
-3330 3836 0
-3836 3319 3320 3321 3322 3323 3324 3325 3326 3327 3328 3329 3330 0
-3331 61 0
-3331 97 0
-3331 109 0
-61 -97 -109 3331 0
-3332 62 0
-3332 98 0
-3332 110 0
-62 -98 -110 3332 0
-3333 63 0
-3333 99 0
-3333 111 0
-63 -99 -111 3333 0
-3334 64 0
-3334 100 0
-3334 112 0
-64 -100 -112 3334 0
-3335 65 0
-3335 101 0
-3335 113 0
-65 -101 -113 3335 0
-3336 66 0
-3336 102 0
-3336 114 0
-66 -102 -114 3336 0
-3337 67 0
-3337 103 0
-3337 115 0
-67 -103 -115 3337 0
-3338 68 0
-3338 104 0
-3338 116 0
-68 -104 -116 3338 0
-3339 69 0
-3339 105 0
-3339 117 0
-69 -105 -117 3339 0
-3340 70 0
-3340 106 0
-3340 118 0
-70 -106 -118 3340 0
-3341 71 0
-3341 107 0
-3341 119 0
-71 -107 -119 3341 0
-3342 72 0
-3342 108 0
-3342 120 0
-72 -108 -120 3342 0
-3331 3837 0
-3332 3837 0
-3333 3837 0
-3334 3837 0
-3335 3837 0
-3336 3837 0
-3337 3837 0
-3338 3837 0
-3339 3837 0
-3340 3837 0
-3341 3837 0
-3342 3837 0
-3837 3331 3332 3333 3334 3335 3336 3337 3338 3339 3340 3341 3342 0
-3343 61 0
-3343 97 0
-3343 121 0
-61 -97 -121 3343 0
-3344 62 0
-3344 98 0
-3344 122 0
-62 -98 -122 3344 0
-3345 63 0
-3345 99 0
-3345 123 0
-63 -99 -123 3345 0
-3346 64 0
-3346 100 0
-3346 124 0
-64 -100 -124 3346 0
-3347 65 0
-3347 101 0
-3347 125 0
-65 -101 -125 3347 0
-3348 66 0
-3348 102 0
-3348 126 0
-66 -102 -126 3348 0
-3349 67 0
-3349 103 0
-3349 127 0
-67 -103 -127 3349 0
-3350 68 0
-3350 104 0
-3350 128 0
-68 -104 -128 3350 0
-3351 69 0
-3351 105 0
-3351 129 0
-69 -105 -129 3351 0
-3352 70 0
-3352 106 0
-3352 130 0
-70 -106 -130 3352 0
-3353 71 0
-3353 107 0
-3353 131 0
-71 -107 -131 3353 0
-3354 72 0
-3354 108 0
-3354 132 0
-72 -108 -132 3354 0
-3343 3838 0
-3344 3838 0
-3345 3838 0
-3346 3838 0
-3347 3838 0
-3348 3838 0
-3349 3838 0
-3350 3838 0
-3351 3838 0
-3352 3838 0
-3353 3838 0
-3354 3838 0
-3838 3343 3344 3345 3346 3347 3348 3349 3350 3351 3352 3353 3354 0
-3355 61 0
-3355 97 0
-3355 133 0
-61 -97 -133 3355 0
-3356 62 0
-3356 98 0
-3356 134 0
-62 -98 -134 3356 0
-3357 63 0
-3357 99 0
-3357 135 0
-63 -99 -135 3357 0
-3358 64 0
-3358 100 0
-3358 136 0
-64 -100 -136 3358 0
-3359 65 0
-3359 101 0
-3359 137 0
-65 -101 -137 3359 0
-3360 66 0
-3360 102 0
-3360 138 0
-66 -102 -138 3360 0
-3361 67 0
-3361 103 0
-3361 139 0
-67 -103 -139 3361 0
-3362 68 0
-3362 104 0
-3362 140 0
-68 -104 -140 3362 0
-3363 69 0
-3363 105 0
-3363 141 0
-69 -105 -141 3363 0
-3364 70 0
-3364 106 0
-3364 142 0
-70 -106 -142 3364 0
-3365 71 0
-3365 107 0
-3365 143 0
-71 -107 -143 3365 0
-3366 72 0
-3366 108 0
-3366 144 0
-72 -108 -144 3366 0
-3355 3839 0
-3356 3839 0
-3357 3839 0
-3358 3839 0
-3359 3839 0
-3360 3839 0
-3361 3839 0
-3362 3839 0
-3363 3839 0
-3364 3839 0
-3365 3839 0
-3366 3839 0
-3839 3355 3356 3357 3358 3359 3360 3361 3362 3363 3364 3365 3366 0
-3367 61 0
-3367 109 0
-3367 121 0
-61 -109 -121 3367 0
-3368 62 0
-3368 110 0
-3368 122 0
-62 -110 -122 3368 0
-3369 63 0
-3369 111 0
-3369 123 0
-63 -111 -123 3369 0
-3370 64 0
-3370 112 0
-3370 124 0
-64 -112 -124 3370 0
-3371 65 0
-3371 113 0
-3371 125 0
-65 -113 -125 3371 0
-3372 66 0
-3372 114 0
-3372 126 0
-66 -114 -126 3372 0
-3373 67 0
-3373 115 0
-3373 127 0
-67 -115 -127 3373 0
-3374 68 0
-3374 116 0
-3374 128 0
-68 -116 -128 3374 0
-3375 69 0
-3375 117 0
-3375 129 0
-69 -117 -129 3375 0
-3376 70 0
-3376 118 0
-3376 130 0
-70 -118 -130 3376 0
-3377 71 0
-3377 119 0
-3377 131 0
-71 -119 -131 3377 0
-3378 72 0
-3378 120 0
-3378 132 0
-72 -120 -132 3378 0
-3367 3840 0
-3368 3840 0
-3369 3840 0
-3370 3840 0
-3371 3840 0
-3372 3840 0
-3373 3840 0
-3374 3840 0
-3375 3840 0
-3376 3840 0
-3377 3840 0
-3378 3840 0
-3840 3367 3368 3369 3370 3371 3372 3373 3374 3375 3376 3377 3378 0
-3379 61 0
-3379 109 0
-3379 133 0
-61 -109 -133 3379 0
-3380 62 0
-3380 110 0
-3380 134 0
-62 -110 -134 3380 0
-3381 63 0
-3381 111 0
-3381 135 0
-63 -111 -135 3381 0
-3382 64 0
-3382 112 0
-3382 136 0
-64 -112 -136 3382 0
-3383 65 0
-3383 113 0
-3383 137 0
-65 -113 -137 3383 0
-3384 66 0
-3384 114 0
-3384 138 0
-66 -114 -138 3384 0
-3385 67 0
-3385 115 0
-3385 139 0
-67 -115 -139 3385 0
-3386 68 0
-3386 116 0
-3386 140 0
-68 -116 -140 3386 0
-3387 69 0
-3387 117 0
-3387 141 0
-69 -117 -141 3387 0
-3388 70 0
-3388 118 0
-3388 142 0
-70 -118 -142 3388 0
-3389 71 0
-3389 119 0
-3389 143 0
-71 -119 -143 3389 0
-3390 72 0
-3390 120 0
-3390 144 0
-72 -120 -144 3390 0
-3379 3841 0
-3380 3841 0
-3381 3841 0
-3382 3841 0
-3383 3841 0
-3384 3841 0
-3385 3841 0
-3386 3841 0
-3387 3841 0
-3388 3841 0
-3389 3841 0
-3390 3841 0
-3841 3379 3380 3381 3382 3383 3384 3385 3386 3387 3388 3389 3390 0
-3391 61 0
-3391 121 0
-3391 133 0
-61 -121 -133 3391 0
-3392 62 0
-3392 122 0
-3392 134 0
-62 -122 -134 3392 0
-3393 63 0
-3393 123 0
-3393 135 0
-63 -123 -135 3393 0
-3394 64 0
-3394 124 0
-3394 136 0
-64 -124 -136 3394 0
-3395 65 0
-3395 125 0
-3395 137 0
-65 -125 -137 3395 0
-3396 66 0
-3396 126 0
-3396 138 0
-66 -126 -138 3396 0
-3397 67 0
-3397 127 0
-3397 139 0
-67 -127 -139 3397 0
-3398 68 0
-3398 128 0
-3398 140 0
-68 -128 -140 3398 0
-3399 69 0
-3399 129 0
-3399 141 0
-69 -129 -141 3399 0
-3400 70 0
-3400 130 0
-3400 142 0
-70 -130 -142 3400 0
-3401 71 0
-3401 131 0
-3401 143 0
-71 -131 -143 3401 0
-3402 72 0
-3402 132 0
-3402 144 0
-72 -132 -144 3402 0
-3391 3842 0
-3392 3842 0
-3393 3842 0
-3394 3842 0
-3395 3842 0
-3396 3842 0
-3397 3842 0
-3398 3842 0
-3399 3842 0
-3400 3842 0
-3401 3842 0
-3402 3842 0
-3842 3391 3392 3393 3394 3395 3396 3397 3398 3399 3400 3401 3402 0
-3403 73 0
-3403 85 0
-3403 97 0
-73 -85 -97 3403 0
-3404 74 0
-3404 86 0
-3404 98 0
-74 -86 -98 3404 0
-3405 75 0
-3405 87 0
-3405 99 0
-75 -87 -99 3405 0
-3406 76 0
-3406 88 0
-3406 100 0
-76 -88 -100 3406 0
-3407 77 0
-3407 89 0
-3407 101 0
-77 -89 -101 3407 0
-3408 78 0
-3408 90 0
-3408 102 0
-78 -90 -102 3408 0
-3409 79 0
-3409 91 0
-3409 103 0
-79 -91 -103 3409 0
-3410 80 0
-3410 92 0
-3410 104 0
-80 -92 -104 3410 0
-3411 81 0
-3411 93 0
-3411 105 0
-81 -93 -105 3411 0
-3412 82 0
-3412 94 0
-3412 106 0
-82 -94 -106 3412 0
-3413 83 0
-3413 95 0
-3413 107 0
-83 -95 -107 3413 0
-3414 84 0
-3414 96 0
-3414 108 0
-84 -96 -108 3414 0
-3403 3843 0
-3404 3843 0
-3405 3843 0
-3406 3843 0
-3407 3843 0
-3408 3843 0
-3409 3843 0
-3410 3843 0
-3411 3843 0
-3412 3843 0
-3413 3843 0
-3414 3843 0
-3843 3403 3404 3405 3406 3407 3408 3409 3410 3411 3412 3413 3414 0
-3415 73 0
-3415 85 0
-3415 109 0
-73 -85 -109 3415 0
-3416 74 0
-3416 86 0
-3416 110 0
-74 -86 -110 3416 0
-3417 75 0
-3417 87 0
-3417 111 0
-75 -87 -111 3417 0
-3418 76 0
-3418 88 0
-3418 112 0
-76 -88 -112 3418 0
-3419 77 0
-3419 89 0
-3419 113 0
-77 -89 -113 3419 0
-3420 78 0
-3420 90 0
-3420 114 0
-78 -90 -114 3420 0
-3421 79 0
-3421 91 0
-3421 115 0
-79 -91 -115 3421 0
-3422 80 0
-3422 92 0
-3422 116 0
-80 -92 -116 3422 0
-3423 81 0
-3423 93 0
-3423 117 0
-81 -93 -117 3423 0
-3424 82 0
-3424 94 0
-3424 118 0
-82 -94 -118 3424 0
-3425 83 0
-3425 95 0
-3425 119 0
-83 -95 -119 3425 0
-3426 84 0
-3426 96 0
-3426 120 0
-84 -96 -120 3426 0
-3415 3844 0
-3416 3844 0
-3417 3844 0
-3418 3844 0
-3419 3844 0
-3420 3844 0
-3421 3844 0
-3422 3844 0
-3423 3844 0
-3424 3844 0
-3425 3844 0
-3426 3844 0
-3844 3415 3416 3417 3418 3419 3420 3421 3422 3423 3424 3425 3426 0
-3427 73 0
-3427 85 0
-3427 121 0
-73 -85 -121 3427 0
-3428 74 0
-3428 86 0
-3428 122 0
-74 -86 -122 3428 0
-3429 75 0
-3429 87 0
-3429 123 0
-75 -87 -123 3429 0
-3430 76 0
-3430 88 0
-3430 124 0
-76 -88 -124 3430 0
-3431 77 0
-3431 89 0
-3431 125 0
-77 -89 -125 3431 0
-3432 78 0
-3432 90 0
-3432 126 0
-78 -90 -126 3432 0
-3433 79 0
-3433 91 0
-3433 127 0
-79 -91 -127 3433 0
-3434 80 0
-3434 92 0
-3434 128 0
-80 -92 -128 3434 0
-3435 81 0
-3435 93 0
-3435 129 0
-81 -93 -129 3435 0
-3436 82 0
-3436 94 0
-3436 130 0
-82 -94 -130 3436 0
-3437 83 0
-3437 95 0
-3437 131 0
-83 -95 -131 3437 0
-3438 84 0
-3438 96 0
-3438 132 0
-84 -96 -132 3438 0
-3427 3845 0
-3428 3845 0
-3429 3845 0
-3430 3845 0
-3431 3845 0
-3432 3845 0
-3433 3845 0
-3434 3845 0
-3435 3845 0
-3436 3845 0
-3437 3845 0
-3438 3845 0
-3845 3427 3428 3429 3430 3431 3432 3433 3434 3435 3436 3437 3438 0
-3439 73 0
-3439 85 0
-3439 133 0
-73 -85 -133 3439 0
-3440 74 0
-3440 86 0
-3440 134 0
-74 -86 -134 3440 0
-3441 75 0
-3441 87 0
-3441 135 0
-75 -87 -135 3441 0
-3442 76 0
-3442 88 0
-3442 136 0
-76 -88 -136 3442 0
-3443 77 0
-3443 89 0
-3443 137 0
-77 -89 -137 3443 0
-3444 78 0
-3444 90 0
-3444 138 0
-78 -90 -138 3444 0
-3445 79 0
-3445 91 0
-3445 139 0
-79 -91 -139 3445 0
-3446 80 0
-3446 92 0
-3446 140 0
-80 -92 -140 3446 0
-3447 81 0
-3447 93 0
-3447 141 0
-81 -93 -141 3447 0
-3448 82 0
-3448 94 0
-3448 142 0
-82 -94 -142 3448 0
-3449 83 0
-3449 95 0
-3449 143 0
-83 -95 -143 3449 0
-3450 84 0
-3450 96 0
-3450 144 0
-84 -96 -144 3450 0
-3439 3846 0
-3440 3846 0
-3441 3846 0
-3442 3846 0
-3443 3846 0
-3444 3846 0
-3445 3846 0
-3446 3846 0
-3447 3846 0
-3448 3846 0
-3449 3846 0
-3450 3846 0
-3846 3439 3440 3441 3442 3443 3444 3445 3446 3447 3448 3449 3450 0
-3451 73 0
-3451 97 0
-3451 109 0
-73 -97 -109 3451 0
-3452 74 0
-3452 98 0
-3452 110 0
-74 -98 -110 3452 0
-3453 75 0
-3453 99 0
-3453 111 0
-75 -99 -111 3453 0
-3454 76 0
-3454 100 0
-3454 112 0
-76 -100 -112 3454 0
-3455 77 0
-3455 101 0
-3455 113 0
-77 -101 -113 3455 0
-3456 78 0
-3456 102 0
-3456 114 0
-78 -102 -114 3456 0
-3457 79 0
-3457 103 0
-3457 115 0
-79 -103 -115 3457 0
-3458 80 0
-3458 104 0
-3458 116 0
-80 -104 -116 3458 0
-3459 81 0
-3459 105 0
-3459 117 0
-81 -105 -117 3459 0
-3460 82 0
-3460 106 0
-3460 118 0
-82 -106 -118 3460 0
-3461 83 0
-3461 107 0
-3461 119 0
-83 -107 -119 3461 0
-3462 84 0
-3462 108 0
-3462 120 0
-84 -108 -120 3462 0
-3451 3847 0
-3452 3847 0
-3453 3847 0
-3454 3847 0
-3455 3847 0
-3456 3847 0
-3457 3847 0
-3458 3847 0
-3459 3847 0
-3460 3847 0
-3461 3847 0
-3462 3847 0
-3847 3451 3452 3453 3454 3455 3456 3457 3458 3459 3460 3461 3462 0
-3463 73 0
-3463 97 0
-3463 121 0
-73 -97 -121 3463 0
-3464 74 0
-3464 98 0
-3464 122 0
-74 -98 -122 3464 0
-3465 75 0
-3465 99 0
-3465 123 0
-75 -99 -123 3465 0
-3466 76 0
-3466 100 0
-3466 124 0
-76 -100 -124 3466 0
-3467 77 0
-3467 101 0
-3467 125 0
-77 -101 -125 3467 0
-3468 78 0
-3468 102 0
-3468 126 0
-78 -102 -126 3468 0
-3469 79 0
-3469 103 0
-3469 127 0
-79 -103 -127 3469 0
-3470 80 0
-3470 104 0
-3470 128 0
-80 -104 -128 3470 0
-3471 81 0
-3471 105 0
-3471 129 0
-81 -105 -129 3471 0
-3472 82 0
-3472 106 0
-3472 130 0
-82 -106 -130 3472 0
-3473 83 0
-3473 107 0
-3473 131 0
-83 -107 -131 3473 0
-3474 84 0
-3474 108 0
-3474 132 0
-84 -108 -132 3474 0
-3463 3848 0
-3464 3848 0
-3465 3848 0
-3466 3848 0
-3467 3848 0
-3468 3848 0
-3469 3848 0
-3470 3848 0
-3471 3848 0
-3472 3848 0
-3473 3848 0
-3474 3848 0
-3848 3463 3464 3465 3466 3467 3468 3469 3470 3471 3472 3473 3474 0
-3475 73 0
-3475 97 0
-3475 133 0
-73 -97 -133 3475 0
-3476 74 0
-3476 98 0
-3476 134 0
-74 -98 -134 3476 0
-3477 75 0
-3477 99 0
-3477 135 0
-75 -99 -135 3477 0
-3478 76 0
-3478 100 0
-3478 136 0
-76 -100 -136 3478 0
-3479 77 0
-3479 101 0
-3479 137 0
-77 -101 -137 3479 0
-3480 78 0
-3480 102 0
-3480 138 0
-78 -102 -138 3480 0
-3481 79 0
-3481 103 0
-3481 139 0
-79 -103 -139 3481 0
-3482 80 0
-3482 104 0
-3482 140 0
-80 -104 -140 3482 0
-3483 81 0
-3483 105 0
-3483 141 0
-81 -105 -141 3483 0
-3484 82 0
-3484 106 0
-3484 142 0
-82 -106 -142 3484 0
-3485 83 0
-3485 107 0
-3485 143 0
-83 -107 -143 3485 0
-3486 84 0
-3486 108 0
-3486 144 0
-84 -108 -144 3486 0
-3475 3849 0
-3476 3849 0
-3477 3849 0
-3478 3849 0
-3479 3849 0
-3480 3849 0
-3481 3849 0
-3482 3849 0
-3483 3849 0
-3484 3849 0
-3485 3849 0
-3486 3849 0
-3849 3475 3476 3477 3478 3479 3480 3481 3482 3483 3484 3485 3486 0
-3487 73 0
-3487 109 0
-3487 121 0
-73 -109 -121 3487 0
-3488 74 0
-3488 110 0
-3488 122 0
-74 -110 -122 3488 0
-3489 75 0
-3489 111 0
-3489 123 0
-75 -111 -123 3489 0
-3490 76 0
-3490 112 0
-3490 124 0
-76 -112 -124 3490 0
-3491 77 0
-3491 113 0
-3491 125 0
-77 -113 -125 3491 0
-3492 78 0
-3492 114 0
-3492 126 0
-78 -114 -126 3492 0
-3493 79 0
-3493 115 0
-3493 127 0
-79 -115 -127 3493 0
-3494 80 0
-3494 116 0
-3494 128 0
-80 -116 -128 3494 0
-3495 81 0
-3495 117 0
-3495 129 0
-81 -117 -129 3495 0
-3496 82 0
-3496 118 0
-3496 130 0
-82 -118 -130 3496 0
-3497 83 0
-3497 119 0
-3497 131 0
-83 -119 -131 3497 0
-3498 84 0
-3498 120 0
-3498 132 0
-84 -120 -132 3498 0
-3487 3850 0
-3488 3850 0
-3489 3850 0
-3490 3850 0
-3491 3850 0
-3492 3850 0
-3493 3850 0
-3494 3850 0
-3495 3850 0
-3496 3850 0
-3497 3850 0
-3498 3850 0
-3850 3487 3488 3489 3490 3491 3492 3493 3494 3495 3496 3497 3498 0
-3499 73 0
-3499 109 0
-3499 133 0
-73 -109 -133 3499 0
-3500 74 0
-3500 110 0
-3500 134 0
-74 -110 -134 3500 0
-3501 75 0
-3501 111 0
-3501 135 0
-75 -111 -135 3501 0
-3502 76 0
-3502 112 0
-3502 136 0
-76 -112 -136 3502 0
-3503 77 0
-3503 113 0
-3503 137 0
-77 -113 -137 3503 0
-3504 78 0
-3504 114 0
-3504 138 0
-78 -114 -138 3504 0
-3505 79 0
-3505 115 0
-3505 139 0
-79 -115 -139 3505 0
-3506 80 0
-3506 116 0
-3506 140 0
-80 -116 -140 3506 0
-3507 81 0
-3507 117 0
-3507 141 0
-81 -117 -141 3507 0
-3508 82 0
-3508 118 0
-3508 142 0
-82 -118 -142 3508 0
-3509 83 0
-3509 119 0
-3509 143 0
-83 -119 -143 3509 0
-3510 84 0
-3510 120 0
-3510 144 0
-84 -120 -144 3510 0
-3499 3851 0
-3500 3851 0
-3501 3851 0
-3502 3851 0
-3503 3851 0
-3504 3851 0
-3505 3851 0
-3506 3851 0
-3507 3851 0
-3508 3851 0
-3509 3851 0
-3510 3851 0
-3851 3499 3500 3501 3502 3503 3504 3505 3506 3507 3508 3509 3510 0
-3511 73 0
-3511 121 0
-3511 133 0
-73 -121 -133 3511 0
-3512 74 0
-3512 122 0
-3512 134 0
-74 -122 -134 3512 0
-3513 75 0
-3513 123 0
-3513 135 0
-75 -123 -135 3513 0
-3514 76 0
-3514 124 0
-3514 136 0
-76 -124 -136 3514 0
-3515 77 0
-3515 125 0
-3515 137 0
-77 -125 -137 3515 0
-3516 78 0
-3516 126 0
-3516 138 0
-78 -126 -138 3516 0
-3517 79 0
-3517 127 0
-3517 139 0
-79 -127 -139 3517 0
-3518 80 0
-3518 128 0
-3518 140 0
-80 -128 -140 3518 0
-3519 81 0
-3519 129 0
-3519 141 0
-81 -129 -141 3519 0
-3520 82 0
-3520 130 0
-3520 142 0
-82 -130 -142 3520 0
-3521 83 0
-3521 131 0
-3521 143 0
-83 -131 -143 3521 0
-3522 84 0
-3522 132 0
-3522 144 0
-84 -132 -144 3522 0
-3511 3852 0
-3512 3852 0
-3513 3852 0
-3514 3852 0
-3515 3852 0
-3516 3852 0
-3517 3852 0
-3518 3852 0
-3519 3852 0
-3520 3852 0
-3521 3852 0
-3522 3852 0
-3852 3511 3512 3513 3514 3515 3516 3517 3518 3519 3520 3521 3522 0
-3523 85 0
-3523 97 0
-3523 109 0
-85 -97 -109 3523 0
-3524 86 0
-3524 98 0
-3524 110 0
-86 -98 -110 3524 0
-3525 87 0
-3525 99 0
-3525 111 0
-87 -99 -111 3525 0
-3526 88 0
-3526 100 0
-3526 112 0
-88 -100 -112 3526 0
-3527 89 0
-3527 101 0
-3527 113 0
-89 -101 -113 3527 0
-3528 90 0
-3528 102 0
-3528 114 0
-90 -102 -114 3528 0
-3529 91 0
-3529 103 0
-3529 115 0
-91 -103 -115 3529 0
-3530 92 0
-3530 104 0
-3530 116 0
-92 -104 -116 3530 0
-3531 93 0
-3531 105 0
-3531 117 0
-93 -105 -117 3531 0
-3532 94 0
-3532 106 0
-3532 118 0
-94 -106 -118 3532 0
-3533 95 0
-3533 107 0
-3533 119 0
-95 -107 -119 3533 0
-3534 96 0
-3534 108 0
-3534 120 0
-96 -108 -120 3534 0
-3523 3853 0
-3524 3853 0
-3525 3853 0
-3526 3853 0
-3527 3853 0
-3528 3853 0
-3529 3853 0
-3530 3853 0
-3531 3853 0
-3532 3853 0
-3533 3853 0
-3534 3853 0
-3853 3523 3524 3525 3526 3527 3528 3529 3530 3531 3532 3533 3534 0
-3535 85 0
-3535 97 0
-3535 121 0
-85 -97 -121 3535 0
-3536 86 0
-3536 98 0
-3536 122 0
-86 -98 -122 3536 0
-3537 87 0
-3537 99 0
-3537 123 0
-87 -99 -123 3537 0
-3538 88 0
-3538 100 0
-3538 124 0
-88 -100 -124 3538 0
-3539 89 0
-3539 101 0
-3539 125 0
-89 -101 -125 3539 0
-3540 90 0
-3540 102 0
-3540 126 0
-90 -102 -126 3540 0
-3541 91 0
-3541 103 0
-3541 127 0
-91 -103 -127 3541 0
-3542 92 0
-3542 104 0
-3542 128 0
-92 -104 -128 3542 0
-3543 93 0
-3543 105 0
-3543 129 0
-93 -105 -129 3543 0
-3544 94 0
-3544 106 0
-3544 130 0
-94 -106 -130 3544 0
-3545 95 0
-3545 107 0
-3545 131 0
-95 -107 -131 3545 0
-3546 96 0
-3546 108 0
-3546 132 0
-96 -108 -132 3546 0
-3535 3854 0
-3536 3854 0
-3537 3854 0
-3538 3854 0
-3539 3854 0
-3540 3854 0
-3541 3854 0
-3542 3854 0
-3543 3854 0
-3544 3854 0
-3545 3854 0
-3546 3854 0
-3854 3535 3536 3537 3538 3539 3540 3541 3542 3543 3544 3545 3546 0
-3547 85 0
-3547 97 0
-3547 133 0
-85 -97 -133 3547 0
-3548 86 0
-3548 98 0
-3548 134 0
-86 -98 -134 3548 0
-3549 87 0
-3549 99 0
-3549 135 0
-87 -99 -135 3549 0
-3550 88 0
-3550 100 0
-3550 136 0
-88 -100 -136 3550 0
-3551 89 0
-3551 101 0
-3551 137 0
-89 -101 -137 3551 0
-3552 90 0
-3552 102 0
-3552 138 0
-90 -102 -138 3552 0
-3553 91 0
-3553 103 0
-3553 139 0
-91 -103 -139 3553 0
-3554 92 0
-3554 104 0
-3554 140 0
-92 -104 -140 3554 0
-3555 93 0
-3555 105 0
-3555 141 0
-93 -105 -141 3555 0
-3556 94 0
-3556 106 0
-3556 142 0
-94 -106 -142 3556 0
-3557 95 0
-3557 107 0
-3557 143 0
-95 -107 -143 3557 0
-3558 96 0
-3558 108 0
-3558 144 0
-96 -108 -144 3558 0
-3547 3855 0
-3548 3855 0
-3549 3855 0
-3550 3855 0
-3551 3855 0
-3552 3855 0
-3553 3855 0
-3554 3855 0
-3555 3855 0
-3556 3855 0
-3557 3855 0
-3558 3855 0
-3855 3547 3548 3549 3550 3551 3552 3553 3554 3555 3556 3557 3558 0
-3559 85 0
-3559 109 0
-3559 121 0
-85 -109 -121 3559 0
-3560 86 0
-3560 110 0
-3560 122 0
-86 -110 -122 3560 0
-3561 87 0
-3561 111 0
-3561 123 0
-87 -111 -123 3561 0
-3562 88 0
-3562 112 0
-3562 124 0
-88 -112 -124 3562 0
-3563 89 0
-3563 113 0
-3563 125 0
-89 -113 -125 3563 0
-3564 90 0
-3564 114 0
-3564 126 0
-90 -114 -126 3564 0
-3565 91 0
-3565 115 0
-3565 127 0
-91 -115 -127 3565 0
-3566 92 0
-3566 116 0
-3566 128 0
-92 -116 -128 3566 0
-3567 93 0
-3567 117 0
-3567 129 0
-93 -117 -129 3567 0
-3568 94 0
-3568 118 0
-3568 130 0
-94 -118 -130 3568 0
-3569 95 0
-3569 119 0
-3569 131 0
-95 -119 -131 3569 0
-3570 96 0
-3570 120 0
-3570 132 0
-96 -120 -132 3570 0
-3559 3856 0
-3560 3856 0
-3561 3856 0
-3562 3856 0
-3563 3856 0
-3564 3856 0
-3565 3856 0
-3566 3856 0
-3567 3856 0
-3568 3856 0
-3569 3856 0
-3570 3856 0
-3856 3559 3560 3561 3562 3563 3564 3565 3566 3567 3568 3569 3570 0
-3571 85 0
-3571 109 0
-3571 133 0
-85 -109 -133 3571 0
-3572 86 0
-3572 110 0
-3572 134 0
-86 -110 -134 3572 0
-3573 87 0
-3573 111 0
-3573 135 0
-87 -111 -135 3573 0
-3574 88 0
-3574 112 0
-3574 136 0
-88 -112 -136 3574 0
-3575 89 0
-3575 113 0
-3575 137 0
-89 -113 -137 3575 0
-3576 90 0
-3576 114 0
-3576 138 0
-90 -114 -138 3576 0
-3577 91 0
-3577 115 0
-3577 139 0
-91 -115 -139 3577 0
-3578 92 0
-3578 116 0
-3578 140 0
-92 -116 -140 3578 0
-3579 93 0
-3579 117 0
-3579 141 0
-93 -117 -141 3579 0
-3580 94 0
-3580 118 0
-3580 142 0
-94 -118 -142 3580 0
-3581 95 0
-3581 119 0
-3581 143 0
-95 -119 -143 3581 0
-3582 96 0
-3582 120 0
-3582 144 0
-96 -120 -144 3582 0
-3571 3857 0
-3572 3857 0
-3573 3857 0
-3574 3857 0
-3575 3857 0
-3576 3857 0
-3577 3857 0
-3578 3857 0
-3579 3857 0
-3580 3857 0
-3581 3857 0
-3582 3857 0
-3857 3571 3572 3573 3574 3575 3576 3577 3578 3579 3580 3581 3582 0
-3583 85 0
-3583 121 0
-3583 133 0
-85 -121 -133 3583 0
-3584 86 0
-3584 122 0
-3584 134 0
-86 -122 -134 3584 0
-3585 87 0
-3585 123 0
-3585 135 0
-87 -123 -135 3585 0
-3586 88 0
-3586 124 0
-3586 136 0
-88 -124 -136 3586 0
-3587 89 0
-3587 125 0
-3587 137 0
-89 -125 -137 3587 0
-3588 90 0
-3588 126 0
-3588 138 0
-90 -126 -138 3588 0
-3589 91 0
-3589 127 0
-3589 139 0
-91 -127 -139 3589 0
-3590 92 0
-3590 128 0
-3590 140 0
-92 -128 -140 3590 0
-3591 93 0
-3591 129 0
-3591 141 0
-93 -129 -141 3591 0
-3592 94 0
-3592 130 0
-3592 142 0
-94 -130 -142 3592 0
-3593 95 0
-3593 131 0
-3593 143 0
-95 -131 -143 3593 0
-3594 96 0
-3594 132 0
-3594 144 0
-96 -132 -144 3594 0
-3583 3858 0
-3584 3858 0
-3585 3858 0
-3586 3858 0
-3587 3858 0
-3588 3858 0
-3589 3858 0
-3590 3858 0
-3591 3858 0
-3592 3858 0
-3593 3858 0
-3594 3858 0
-3858 3583 3584 3585 3586 3587 3588 3589 3590 3591 3592 3593 3594 0
-3595 97 0
-3595 109 0
-3595 121 0
-97 -109 -121 3595 0
-3596 98 0
-3596 110 0
-3596 122 0
-98 -110 -122 3596 0
-3597 99 0
-3597 111 0
-3597 123 0
-99 -111 -123 3597 0
-3598 100 0
-3598 112 0
-3598 124 0
-100 -112 -124 3598 0
-3599 101 0
-3599 113 0
-3599 125 0
-101 -113 -125 3599 0
-3600 102 0
-3600 114 0
-3600 126 0
-102 -114 -126 3600 0
-3601 103 0
-3601 115 0
-3601 127 0
-103 -115 -127 3601 0
-3602 104 0
-3602 116 0
-3602 128 0
-104 -116 -128 3602 0
-3603 105 0
-3603 117 0
-3603 129 0
-105 -117 -129 3603 0
-3604 106 0
-3604 118 0
-3604 130 0
-106 -118 -130 3604 0
-3605 107 0
-3605 119 0
-3605 131 0
-107 -119 -131 3605 0
-3606 108 0
-3606 120 0
-3606 132 0
-108 -120 -132 3606 0
-3595 3859 0
-3596 3859 0
-3597 3859 0
-3598 3859 0
-3599 3859 0
-3600 3859 0
-3601 3859 0
-3602 3859 0
-3603 3859 0
-3604 3859 0
-3605 3859 0
-3606 3859 0
-3859 3595 3596 3597 3598 3599 3600 3601 3602 3603 3604 3605 3606 0
-3607 97 0
-3607 109 0
-3607 133 0
-97 -109 -133 3607 0
-3608 98 0
-3608 110 0
-3608 134 0
-98 -110 -134 3608 0
-3609 99 0
-3609 111 0
-3609 135 0
-99 -111 -135 3609 0
-3610 100 0
-3610 112 0
-3610 136 0
-100 -112 -136 3610 0
-3611 101 0
-3611 113 0
-3611 137 0
-101 -113 -137 3611 0
-3612 102 0
-3612 114 0
-3612 138 0
-102 -114 -138 3612 0
-3613 103 0
-3613 115 0
-3613 139 0
-103 -115 -139 3613 0
-3614 104 0
-3614 116 0
-3614 140 0
-104 -116 -140 3614 0
-3615 105 0
-3615 117 0
-3615 141 0
-105 -117 -141 3615 0
-3616 106 0
-3616 118 0
-3616 142 0
-106 -118 -142 3616 0
-3617 107 0
-3617 119 0
-3617 143 0
-107 -119 -143 3617 0
-3618 108 0
-3618 120 0
-3618 144 0
-108 -120 -144 3618 0
-3607 3860 0
-3608 3860 0
-3609 3860 0
-3610 3860 0
-3611 3860 0
-3612 3860 0
-3613 3860 0
-3614 3860 0
-3615 3860 0
-3616 3860 0
-3617 3860 0
-3618 3860 0
-3860 3607 3608 3609 3610 3611 3612 3613 3614 3615 3616 3617 3618 0
-3619 97 0
-3619 121 0
-3619 133 0
-97 -121 -133 3619 0
-3620 98 0
-3620 122 0
-3620 134 0
-98 -122 -134 3620 0
-3621 99 0
-3621 123 0
-3621 135 0
-99 -123 -135 3621 0
-3622 100 0
-3622 124 0
-3622 136 0
-100 -124 -136 3622 0
-3623 101 0
-3623 125 0
-3623 137 0
-101 -125 -137 3623 0
-3624 102 0
-3624 126 0
-3624 138 0
-102 -126 -138 3624 0
-3625 103 0
-3625 127 0
-3625 139 0
-103 -127 -139 3625 0
-3626 104 0
-3626 128 0
-3626 140 0
-104 -128 -140 3626 0
-3627 105 0
-3627 129 0
-3627 141 0
-105 -129 -141 3627 0
-3628 106 0
-3628 130 0
-3628 142 0
-106 -130 -142 3628 0
-3629 107 0
-3629 131 0
-3629 143 0
-107 -131 -143 3629 0
-3630 108 0
-3630 132 0
-3630 144 0
-108 -132 -144 3630 0
-3619 3861 0
-3620 3861 0
-3621 3861 0
-3622 3861 0
-3623 3861 0
-3624 3861 0
-3625 3861 0
-3626 3861 0
-3627 3861 0
-3628 3861 0
-3629 3861 0
-3630 3861 0
-3861 3619 3620 3621 3622 3623 3624 3625 3626 3627 3628 3629 3630 0
-3631 109 0
-3631 121 0
-3631 133 0
-109 -121 -133 3631 0
-3632 110 0
-3632 122 0
-3632 134 0
-110 -122 -134 3632 0
-3633 111 0
-3633 123 0
-3633 135 0
-111 -123 -135 3633 0
-3634 112 0
-3634 124 0
-3634 136 0
-112 -124 -136 3634 0
-3635 113 0
-3635 125 0
-3635 137 0
-113 -125 -137 3635 0
-3636 114 0
-3636 126 0
-3636 138 0
-114 -126 -138 3636 0
-3637 115 0
-3637 127 0
-3637 139 0
-115 -127 -139 3637 0
-3638 116 0
-3638 128 0
-3638 140 0
-116 -128 -140 3638 0
-3639 117 0
-3639 129 0
-3639 141 0
-117 -129 -141 3639 0
-3640 118 0
-3640 130 0
-3640 142 0
-118 -130 -142 3640 0
-3641 119 0
-3641 131 0
-3641 143 0
-119 -131 -143 3641 0
-3642 120 0
-3642 132 0
-3642 144 0
-120 -132 -144 3642 0
-3631 3862 0
-3632 3862 0
-3633 3862 0
-3634 3862 0
-3635 3862 0
-3636 3862 0
-3637 3862 0
-3638 3862 0
-3639 3862 0
-3640 3862 0
-3641 3862 0
-3642 3862 0
-3862 3631 3632 3633 3634 3635 3636 3637 3638 3639 3640 3641 3642 0
-937 -948 -958 -939 3643 3698 3653 3644 0
-937 -949 -958 -938 3644 3698 3653 3643 0
-938 -948 -949 -939 3643 3698 3644 3653 0
-937 -948 -959 -940 3643 3699 3654 3645 0
-937 -950 -959 -938 3645 3699 3654 3643 0
-938 -948 -950 -940 3643 3699 3645 3654 0
-937 -948 -960 -941 3643 3700 3655 3646 0
-937 -951 -960 -938 3646 3700 3655 3643 0
-938 -948 -951 -941 3643 3700 3646 3655 0
-937 -948 -961 -942 3643 3701 3656 3647 0
-937 -952 -961 -938 3647 3701 3656 3643 0
-938 -948 -952 -942 3643 3701 3647 3656 0
-937 -948 -962 -943 3643 3702 3657 3648 0
-937 -953 -962 -938 3648 3702 3657 3643 0
-938 -948 -953 -943 3643 3702 3648 3657 0
-937 -948 -963 -944 3643 3703 3658 3649 0
-937 -954 -963 -938 3649 3703 3658 3643 0
-938 -948 -954 -944 3643 3703 3649 3658 0
-937 -948 -964 -945 3643 3704 3659 3650 0
-937 -955 -964 -938 3650 3704 3659 3643 0
-938 -948 -955 -945 3643 3704 3650 3659 0
-937 -948 -965 -946 3643 3705 3660 3651 0
-937 -956 -965 -938 3651 3705 3660 3643 0
-938 -948 -956 -946 3643 3705 3651 3660 0
-937 -948 -966 -947 3643 3706 3661 3652 0
-937 -957 -966 -938 3652 3706 3661 3643 0
-938 -948 -957 -947 3643 3706 3652 3661 0
-937 -949 -967 -940 3644 3707 3662 3645 0
-937 -950 -967 -939 3645 3707 3662 3644 0
-939 -949 -950 -940 3644 3707 3645 3662 0
-937 -949 -968 -941 3644 3708 3663 3646 0
-937 -951 -968 -939 3646 3708 3663 3644 0
-939 -949 -951 -941 3644 3708 3646 3663 0
-937 -949 -969 -942 3644 3709 3664 3647 0
-937 -952 -969 -939 3647 3709 3664 3644 0
-939 -949 -952 -942 3644 3709 3647 3664 0
-937 -949 -970 -943 3644 3710 3665 3648 0
-937 -953 -970 -939 3648 3710 3665 3644 0
-939 -949 -953 -943 3644 3710 3648 3665 0
-937 -949 -971 -944 3644 3711 3666 3649 0
-937 -954 -971 -939 3649 3711 3666 3644 0
-939 -949 -954 -944 3644 3711 3649 3666 0
-937 -949 -972 -945 3644 3712 3667 3650 0
-937 -955 -972 -939 3650 3712 3667 3644 0
-939 -949 -955 -945 3644 3712 3650 3667 0
-937 -949 -973 -946 3644 3713 3668 3651 0
-937 -956 -973 -939 3651 3713 3668 3644 0
-939 -949 -956 -946 3644 3713 3651 3668 0
-937 -949 -974 -947 3644 3714 3669 3652 0
-937 -957 -974 -939 3652 3714 3669 3644 0
-939 -949 -957 -947 3644 3714 3652 3669 0
-937 -950 -975 -941 3645 3715 3670 3646 0
-937 -951 -975 -940 3646 3715 3670 3645 0
-940 -950 -951 -941 3645 3715 3646 3670 0
-937 -950 -976 -942 3645 3716 3671 3647 0
-937 -952 -976 -940 3647 3716 3671 3645 0
-940 -950 -952 -942 3645 3716 3647 3671 0
-937 -950 -977 -943 3645 3717 3672 3648 0
-937 -953 -977 -940 3648 3717 3672 3645 0
-940 -950 -953 -943 3645 3717 3648 3672 0
-937 -950 -978 -944 3645 3718 3673 3649 0
-937 -954 -978 -940 3649 3718 3673 3645 0
-940 -950 -954 -944 3645 3718 3649 3673 0
-937 -950 -979 -945 3645 3719 3674 3650 0
-937 -955 -979 -940 3650 3719 3674 3645 0
-940 -950 -955 -945 3645 3719 3650 3674 0
-937 -950 -980 -946 3645 3720 3675 3651 0
-937 -956 -980 -940 3651 3720 3675 3645 0
-940 -950 -956 -946 3645 3720 3651 3675 0
-937 -950 -981 -947 3645 3721 3676 3652 0
-937 -957 -981 -940 3652 3721 3676 3645 0
-940 -950 -957 -947 3645 3721 3652 3676 0
-937 -951 -982 -942 3646 3722 3677 3647 0
-937 -952 -982 -941 3647 3722 3677 3646 0
-941 -951 -952 -942 3646 3722 3647 3677 0
-937 -951 -983 -943 3646 3723 3678 3648 0
-937 -953 -983 -941 3648 3723 3678 3646 0
-941 -951 -953 -943 3646 3723 3648 3678 0
-937 -951 -984 -944 3646 3724 3679 3649 0
-937 -954 -984 -941 3649 3724 3679 3646 0
-941 -951 -954 -944 3646 3724 3649 3679 0
-937 -951 -985 -945 3646 3725 3680 3650 0
-937 -955 -985 -941 3650 3725 3680 3646 0
-941 -951 -955 -945 3646 3725 3650 3680 0
-937 -951 -986 -946 3646 3726 3681 3651 0
-937 -956 -986 -941 3651 3726 3681 3646 0
-941 -951 -956 -946 3646 3726 3651 3681 0
-937 -951 -987 -947 3646 3727 3682 3652 0
-937 -957 -987 -941 3652 3727 3682 3646 0
-941 -951 -957 -947 3646 3727 3652 3682 0
-937 -952 -988 -943 3647 3728 3683 3648 0
-937 -953 -988 -942 3648 3728 3683 3647 0
-942 -952 -953 -943 3647 3728 3648 3683 0
-937 -952 -989 -944 3647 3729 3684 3649 0
-937 -954 -989 -942 3649 3729 3684 3647 0
-942 -952 -954 -944 3647 3729 3649 3684 0
-937 -952 -990 -945 3647 3730 3685 3650 0
-937 -955 -990 -942 3650 3730 3685 3647 0
-942 -952 -955 -945 3647 3730 3650 3685 0
-937 -952 -991 -946 3647 3731 3686 3651 0
-937 -956 -991 -942 3651 3731 3686 3647 0
-942 -952 -956 -946 3647 3731 3651 3686 0
-937 -952 -992 -947 3647 3732 3687 3652 0
-937 -957 -992 -942 3652 3732 3687 3647 0
-942 -952 -957 -947 3647 3732 3652 3687 0
-937 -953 -993 -944 3648 3733 3688 3649 0
-937 -954 -993 -943 3649 3733 3688 3648 0
-943 -953 -954 -944 3648 3733 3649 3688 0
-937 -953 -994 -945 3648 3734 3689 3650 0
-937 -955 -994 -943 3650 3734 3689 3648 0
-943 -953 -955 -945 3648 3734 3650 3689 0
-937 -953 -995 -946 3648 3735 3690 3651 0
-937 -956 -995 -943 3651 3735 3690 3648 0
-943 -953 -956 -946 3648 3735 3651 3690 0
-937 -953 -996 -947 3648 3736 3691 3652 0
-937 -957 -996 -943 3652 3736 3691 3648 0
-943 -953 -957 -947 3648 3736 3652 3691 0
-937 -954 -997 -945 3649 3737 3692 3650 0
-937 -955 -997 -944 3650 3737 3692 3649 0
-944 -954 -955 -945 3649 3737 3650 3692 0
-937 -954 -998 -946 3649 3738 3693 3651 0
-937 -956 -998 -944 3651 3738 3693 3649 0
-944 -954 -956 -946 3649 3738 3651 3693 0
-937 -954 -999 -947 3649 3739 3694 3652 0
-937 -957 -999 -944 3652 3739 3694 3649 0
-944 -954 -957 -947 3649 3739 3652 3694 0
-937 -955 -1000 -946 3650 3740 3695 3651 0
-937 -956 -1000 -945 3651 3740 3695 3650 0
-945 -955 -956 -946 3650 3740 3651 3695 0
-937 -955 -1001 -947 3650 3741 3696 3652 0
-937 -957 -1001 -945 3652 3741 3696 3650 0
-945 -955 -957 -947 3650 3741 3652 3696 0
-937 -956 -1002 -947 3651 3742 3697 3652 0
-937 -957 -1002 -946 3652 3742 3697 3651 0
-946 -956 -957 -947 3651 3742 3652 3697 0
-938 -958 -967 -940 3653 3743 3662 3654 0
-938 -959 -967 -939 3654 3743 3662 3653 0
-939 -958 -959 -940 3653 3743 3654 3662 0
-938 -958 -968 -941 3653 3744 3663 3655 0
-938 -960 -968 -939 3655 3744 3663 3653 0
-939 -958 -960 -941 3653 3744 3655 3663 0
-938 -958 -969 -942 3653 3745 3664 3656 0
-938 -961 -969 -939 3656 3745 3664 3653 0
-939 -958 -961 -942 3653 3745 3656 3664 0
-938 -958 -970 -943 3653 3746 3665 3657 0
-938 -962 -970 -939 3657 3746 3665 3653 0
-939 -958 -962 -943 3653 3746 3657 3665 0
-938 -958 -971 -944 3653 3747 3666 3658 0
-938 -963 -971 -939 3658 3747 3666 3653 0
-939 -958 -963 -944 3653 3747 3658 3666 0
-938 -958 -972 -945 3653 3748 3667 3659 0
-938 -964 -972 -939 3659 3748 3667 3653 0
-939 -958 -964 -945 3653 3748 3659 3667 0
-938 -958 -973 -946 3653 3749 3668 3660 0
-938 -965 -973 -939 3660 3749 3668 3653 0
-939 -958 -965 -946 3653 3749 3660 3668 0
-938 -958 -974 -947 3653 3750 3669 3661 0
-938 -966 -974 -939 3661 3750 3669 3653 0
-939 -958 -966 -947 3653 3750 3661 3669 0
-938 -959 -975 -941 3654 3751 3670 3655 0
-938 -960 -975 -940 3655 3751 3670 3654 0
-940 -959 -960 -941 3654 3751 3655 3670 0
-938 -959 -976 -942 3654 3752 3671 3656 0
-938 -961 -976 -940 3656 3752 3671 3654 0
-940 -959 -961 -942 3654 3752 3656 3671 0
-938 -959 -977 -943 3654 3753 3672 3657 0
-938 -962 -977 -940 3657 3753 3672 3654 0
-940 -959 -962 -943 3654 3753 3657 3672 0
-938 -959 -978 -944 3654 3754 3673 3658 0
-938 -963 -978 -940 3658 3754 3673 3654 0
-940 -959 -963 -944 3654 3754 3658 3673 0
-938 -959 -979 -945 3654 3755 3674 3659 0
-938 -964 -979 -940 3659 3755 3674 3654 0
-940 -959 -964 -945 3654 3755 3659 3674 0
-938 -959 -980 -946 3654 3756 3675 3660 0
-938 -965 -980 -940 3660 3756 3675 3654 0
-940 -959 -965 -946 3654 3756 3660 3675 0
-938 -959 -981 -947 3654 3757 3676 3661 0
-938 -966 -981 -940 3661 3757 3676 3654 0
-940 -959 -966 -947 3654 3757 3661 3676 0
-938 -960 -982 -942 3655 3758 3677 3656 0
-938 -961 -982 -941 3656 3758 3677 3655 0
-941 -960 -961 -942 3655 3758 3656 3677 0
-938 -960 -983 -943 3655 3759 3678 3657 0
-938 -962 -983 -941 3657 3759 3678 3655 0
-941 -960 -962 -943 3655 3759 3657 3678 0
-938 -960 -984 -944 3655 3760 3679 3658 0
-938 -963 -984 -941 3658 3760 3679 3655 0
-941 -960 -963 -944 3655 3760 3658 3679 0
-938 -960 -985 -945 3655 3761 3680 3659 0
-938 -964 -985 -941 3659 3761 3680 3655 0
-941 -960 -964 -945 3655 3761 3659 3680 0
-938 -960 -986 -946 3655 3762 3681 3660 0
-938 -965 -986 -941 3660 3762 3681 3655 0
-941 -960 -965 -946 3655 3762 3660 3681 0
-938 -960 -987 -947 3655 3763 3682 3661 0
-938 -966 -987 -941 3661 3763 3682 3655 0
-941 -960 -966 -947 3655 3763 3661 3682 0
-938 -961 -988 -943 3656 3764 3683 3657 0
-938 -962 -988 -942 3657 3764 3683 3656 0
-942 -961 -962 -943 3656 3764 3657 3683 0
-938 -961 -989 -944 3656 3765 3684 3658 0
-938 -963 -989 -942 3658 3765 3684 3656 0
-942 -961 -963 -944 3656 3765 3658 3684 0
-938 -961 -990 -945 3656 3766 3685 3659 0
-938 -964 -990 -942 3659 3766 3685 3656 0
-942 -961 -964 -945 3656 3766 3659 3685 0
-938 -961 -991 -946 3656 3767 3686 3660 0
-938 -965 -991 -942 3660 3767 3686 3656 0
-942 -961 -965 -946 3656 3767 3660 3686 0
-938 -961 -992 -947 3656 3768 3687 3661 0
-938 -966 -992 -942 3661 3768 3687 3656 0
-942 -961 -966 -947 3656 3768 3661 3687 0
-938 -962 -993 -944 3657 3769 3688 3658 0
-938 -963 -993 -943 3658 3769 3688 3657 0
-943 -962 -963 -944 3657 3769 3658 3688 0
-938 -962 -994 -945 3657 3770 3689 3659 0
-938 -964 -994 -943 3659 3770 3689 3657 0
-943 -962 -964 -945 3657 3770 3659 3689 0
-938 -962 -995 -946 3657 3771 3690 3660 0
-938 -965 -995 -943 3660 3771 3690 3657 0
-943 -962 -965 -946 3657 3771 3660 3690 0
-938 -962 -996 -947 3657 3772 3691 3661 0
-938 -966 -996 -943 3661 3772 3691 3657 0
-943 -962 -966 -947 3657 3772 3661 3691 0
-938 -963 -997 -945 3658 3773 3692 3659 0
-938 -964 -997 -944 3659 3773 3692 3658 0
-944 -963 -964 -945 3658 3773 3659 3692 0
-938 -963 -998 -946 3658 3774 3693 3660 0
-938 -965 -998 -944 3660 3774 3693 3658 0
-944 -963 -965 -946 3658 3774 3660 3693 0
-938 -963 -999 -947 3658 3775 3694 3661 0
-938 -966 -999 -944 3661 3775 3694 3658 0
-944 -963 -966 -947 3658 3775 3661 3694 0
-938 -964 -1000 -946 3659 3776 3695 3660 0
-938 -965 -1000 -945 3660 3776 3695 3659 0
-945 -964 -965 -946 3659 3776 3660 3695 0
-938 -964 -1001 -947 3659 3777 3696 3661 0
-938 -966 -1001 -945 3661 3777 3696 3659 0
-945 -964 -966 -947 3659 3777 3661 3696 0
-938 -965 -1002 -947 3660 3778 3697 3661 0
-938 -966 -1002 -946 3661 3778 3697 3660 0
-946 -965 -966 -947 3660 3778 3661 3697 0
-939 -967 -975 -941 3662 3779 3670 3663 0
-939 -968 -975 -940 3663 3779 3670 3662 0
-940 -967 -968 -941 3662 3779 3663 3670 0
-939 -967 -976 -942 3662 3780 3671 3664 0
-939 -969 -976 -940 3664 3780 3671 3662 0
-940 -967 -969 -942 3662 3780 3664 3671 0
-939 -967 -977 -943 3662 3781 3672 3665 0
-939 -970 -977 -940 3665 3781 3672 3662 0
-940 -967 -970 -943 3662 3781 3665 3672 0
-939 -967 -978 -944 3662 3782 3673 3666 0
-939 -971 -978 -940 3666 3782 3673 3662 0
-940 -967 -971 -944 3662 3782 3666 3673 0
-939 -967 -979 -945 3662 3783 3674 3667 0
-939 -972 -979 -940 3667 3783 3674 3662 0
-940 -967 -972 -945 3662 3783 3667 3674 0
-939 -967 -980 -946 3662 3784 3675 3668 0
-939 -973 -980 -940 3668 3784 3675 3662 0
-940 -967 -973 -946 3662 3784 3668 3675 0
-939 -967 -981 -947 3662 3785 3676 3669 0
-939 -974 -981 -940 3669 3785 3676 3662 0
-940 -967 -974 -947 3662 3785 3669 3676 0
-939 -968 -982 -942 3663 3786 3677 3664 0
-939 -969 -982 -941 3664 3786 3677 3663 0
-941 -968 -969 -942 3663 3786 3664 3677 0
-939 -968 -983 -943 3663 3787 3678 3665 0
-939 -970 -983 -941 3665 3787 3678 3663 0
-941 -968 -970 -943 3663 3787 3665 3678 0
-939 -968 -984 -944 3663 3788 3679 3666 0
-939 -971 -984 -941 3666 3788 3679 3663 0
-941 -968 -971 -944 3663 3788 3666 3679 0
-939 -968 -985 -945 3663 3789 3680 3667 0
-939 -972 -985 -941 3667 3789 3680 3663 0
-941 -968 -972 -945 3663 3789 3667 3680 0
-939 -968 -986 -946 3663 3790 3681 3668 0
-939 -973 -986 -941 3668 3790 3681 3663 0
-941 -968 -973 -946 3663 3790 3668 3681 0
-939 -968 -987 -947 3663 3791 3682 3669 0
-939 -974 -987 -941 3669 3791 3682 3663 0
-941 -968 -974 -947 3663 3791 3669 3682 0
-939 -969 -988 -943 3664 3792 3683 3665 0
-939 -970 -988 -942 3665 3792 3683 3664 0
-942 -969 -970 -943 3664 3792 3665 3683 0
-939 -969 -989 -944 3664 3793 3684 3666 0
-939 -971 -989 -942 3666 3793 3684 3664 0
-942 -969 -971 -944 3664 3793 3666 3684 0
-939 -969 -990 -945 3664 3794 3685 3667 0
-939 -972 -990 -942 3667 3794 3685 3664 0
-942 -969 -972 -945 3664 3794 3667 3685 0
-939 -969 -991 -946 3664 3795 3686 3668 0
-939 -973 -991 -942 3668 3795 3686 3664 0
-942 -969 -973 -946 3664 3795 3668 3686 0
-939 -969 -992 -947 3664 3796 3687 3669 0
-939 -974 -992 -942 3669 3796 3687 3664 0
-942 -969 -974 -947 3664 3796 3669 3687 0
-939 -970 -993 -944 3665 3797 3688 3666 0
-939 -971 -993 -943 3666 3797 3688 3665 0
-943 -970 -971 -944 3665 3797 3666 3688 0
-939 -970 -994 -945 3665 3798 3689 3667 0
-939 -972 -994 -943 3667 3798 3689 3665 0
-943 -970 -972 -945 3665 3798 3667 3689 0
-939 -970 -995 -946 3665 3799 3690 3668 0
-939 -973 -995 -943 3668 3799 3690 3665 0
-943 -970 -973 -946 3665 3799 3668 3690 0
-939 -970 -996 -947 3665 3800 3691 3669 0
-939 -974 -996 -943 3669 3800 3691 3665 0
-943 -970 -974 -947 3665 3800 3669 3691 0
-939 -971 -997 -945 3666 3801 3692 3667 0
-939 -972 -997 -944 3667 3801 3692 3666 0
-944 -971 -972 -945 3666 3801 3667 3692 0
-939 -971 -998 -946 3666 3802 3693 3668 0
-939 -973 -998 -944 3668 3802 3693 3666 0
-944 -971 -973 -946 3666 3802 3668 3693 0
-939 -971 -999 -947 3666 3803 3694 3669 0
-939 -974 -999 -944 3669 3803 3694 3666 0
-944 -971 -974 -947 3666 3803 3669 3694 0
-939 -972 -1000 -946 3667 3804 3695 3668 0
-939 -973 -1000 -945 3668 3804 3695 3667 0
-945 -972 -973 -946 3667 3804 3668 3695 0
-939 -972 -1001 -947 3667 3805 3696 3669 0
-939 -974 -1001 -945 3669 3805 3696 3667 0
-945 -972 -974 -947 3667 3805 3669 3696 0
-939 -973 -1002 -947 3668 3806 3697 3669 0
-939 -974 -1002 -946 3669 3806 3697 3668 0
-946 -973 -974 -947 3668 3806 3669 3697 0
-940 -975 -982 -942 3670 3807 3677 3671 0
-940 -976 -982 -941 3671 3807 3677 3670 0
-941 -975 -976 -942 3670 3807 3671 3677 0
-940 -975 -983 -943 3670 3808 3678 3672 0
-940 -977 -983 -941 3672 3808 3678 3670 0
-941 -975 -977 -943 3670 3808 3672 3678 0
-940 -975 -984 -944 3670 3809 3679 3673 0
-940 -978 -984 -941 3673 3809 3679 3670 0
-941 -975 -978 -944 3670 3809 3673 3679 0
-940 -975 -985 -945 3670 3810 3680 3674 0
-940 -979 -985 -941 3674 3810 3680 3670 0
-941 -975 -979 -945 3670 3810 3674 3680 0
-940 -975 -986 -946 3670 3811 3681 3675 0
-940 -980 -986 -941 3675 3811 3681 3670 0
-941 -975 -980 -946 3670 3811 3675 3681 0
-940 -975 -987 -947 3670 3812 3682 3676 0
-940 -981 -987 -941 3676 3812 3682 3670 0
-941 -975 -981 -947 3670 3812 3676 3682 0
-940 -976 -988 -943 3671 3813 3683 3672 0
-940 -977 -988 -942 3672 3813 3683 3671 0
-942 -976 -977 -943 3671 3813 3672 3683 0
-940 -976 -989 -944 3671 3814 3684 3673 0
-940 -978 -989 -942 3673 3814 3684 3671 0
-942 -976 -978 -944 3671 3814 3673 3684 0
-940 -976 -990 -945 3671 3815 3685 3674 0
-940 -979 -990 -942 3674 3815 3685 3671 0
-942 -976 -979 -945 3671 3815 3674 3685 0
-940 -976 -991 -946 3671 3816 3686 3675 0
-940 -980 -991 -942 3675 3816 3686 3671 0
-942 -976 -980 -946 3671 3816 3675 3686 0
-940 -976 -992 -947 3671 3817 3687 3676 0
-940 -981 -992 -942 3676 3817 3687 3671 0
-942 -976 -981 -947 3671 3817 3676 3687 0
-940 -977 -993 -944 3672 3818 3688 3673 0
-940 -978 -993 -943 3673 3818 3688 3672 0
-943 -977 -978 -944 3672 3818 3673 3688 0
-940 -977 -994 -945 3672 3819 3689 3674 0
-940 -979 -994 -943 3674 3819 3689 3672 0
-943 -977 -979 -945 3672 3819 3674 3689 0
-940 -977 -995 -946 3672 3820 3690 3675 0
-940 -980 -995 -943 3675 3820 3690 3672 0
-943 -977 -980 -946 3672 3820 3675 3690 0
-940 -977 -996 -947 3672 3821 3691 3676 0
-940 -981 -996 -943 3676 3821 3691 3672 0
-943 -977 -981 -947 3672 3821 3676 3691 0
-940 -978 -997 -945 3673 3822 3692 3674 0
-940 -979 -997 -944 3674 3822 3692 3673 0
-944 -978 -979 -945 3673 3822 3674 3692 0
-940 -978 -998 -946 3673 3823 3693 3675 0
-940 -980 -998 -944 3675 3823 3693 3673 0
-944 -978 -980 -946 3673 3823 3675 3693 0
-940 -978 -999 -947 3673 3824 3694 3676 0
-940 -981 -999 -944 3676 3824 3694 3673 0
-944 -978 -981 -947 3673 3824 3676 3694 0
-940 -979 -1000 -946 3674 3825 3695 3675 0
-940 -980 -1000 -945 3675 3825 3695 3674 0
-945 -979 -980 -946 3674 3825 3675 3695 0
-940 -979 -1001 -947 3674 3826 3696 3676 0
-940 -981 -1001 -945 3676 3826 3696 3674 0
-945 -979 -981 -947 3674 3826 3676 3696 0
-940 -980 -1002 -947 3675 3827 3697 3676 0
-940 -981 -1002 -946 3676 3827 3697 3675 0
-946 -980 -981 -947 3675 3827 3676 3697 0
-941 -982 -988 -943 3677 3828 3683 3678 0
-941 -983 -988 -942 3678 3828 3683 3677 0
-942 -982 -983 -943 3677 3828 3678 3683 0
-941 -982 -989 -944 3677 3829 3684 3679 0
-941 -984 -989 -942 3679 3829 3684 3677 0
-942 -982 -984 -944 3677 3829 3679 3684 0
-941 -982 -990 -945 3677 3830 3685 3680 0
-941 -985 -990 -942 3680 3830 3685 3677 0
-942 -982 -985 -945 3677 3830 3680 3685 0
-941 -982 -991 -946 3677 3831 3686 3681 0
-941 -986 -991 -942 3681 3831 3686 3677 0
-942 -982 -986 -946 3677 3831 3681 3686 0
-941 -982 -992 -947 3677 3832 3687 3682 0
-941 -987 -992 -942 3682 3832 3687 3677 0
-942 -982 -987 -947 3677 3832 3682 3687 0
-941 -983 -993 -944 3678 3833 3688 3679 0
-941 -984 -993 -943 3679 3833 3688 3678 0
-943 -983 -984 -944 3678 3833 3679 3688 0
-941 -983 -994 -945 3678 3834 3689 3680 0
-941 -985 -994 -943 3680 3834 3689 3678 0
-943 -983 -985 -945 3678 3834 3680 3689 0
-941 -983 -995 -946 3678 3835 3690 3681 0
-941 -986 -995 -943 3681 3835 3690 3678 0
-943 -983 -986 -946 3678 3835 3681 3690 0
-941 -983 -996 -947 3678 3836 3691 3682 0
-941 -987 -996 -943 3682 3836 3691 3678 0
-943 -983 -987 -947 3678 3836 3682 3691 0
-941 -984 -997 -945 3679 3837 3692 3680 0
-941 -985 -997 -944 3680 3837 3692 3679 0
-944 -984 -985 -945 3679 3837 3680 3692 0
-941 -984 -998 -946 3679 3838 3693 3681 0
-941 -986 -998 -944 3681 3838 3693 3679 0
-944 -984 -986 -946 3679 3838 3681 3693 0
-941 -984 -999 -947 3679 3839 3694 3682 0
-941 -987 -999 -944 3682 3839 3694 3679 0
-944 -984 -987 -947 3679 3839 3682 3694 0
-941 -985 -1000 -946 3680 3840 3695 3681 0
-941 -986 -1000 -945 3681 3840 3695 3680 0
-945 -985 -986 -946 3680 3840 3681 3695 0
-941 -985 -1001 -947 3680 3841 3696 3682 0
-941 -987 -1001 -945 3682 3841 3696 3680 0
-945 -985 -987 -947 3680 3841 3682 3696 0
-941 -986 -1002 -947 3681 3842 3697 3682 0
-941 -987 -1002 -946 3682 3842 3697 3681 0
-946 -986 -987 -947 3681 3842 3682 3697 0
-942 -988 -993 -944 3683 3843 3688 3684 0
-942 -989 -993 -943 3684 3843 3688 3683 0
-943 -988 -989 -944 3683 3843 3684 3688 0
-942 -988 -994 -945 3683 3844 3689 3685 0
-942 -990 -994 -943 3685 3844 3689 3683 0
-943 -988 -990 -945 3683 3844 3685 3689 0
-942 -988 -995 -946 3683 3845 3690 3686 0
-942 -991 -995 -943 3686 3845 3690 3683 0
-943 -988 -991 -946 3683 3845 3686 3690 0
-942 -988 -996 -947 3683 3846 3691 3687 0
-942 -992 -996 -943 3687 3846 3691 3683 0
-943 -988 -992 -947 3683 3846 3687 3691 0
-942 -989 -997 -945 3684 3847 3692 3685 0
-942 -990 -997 -944 3685 3847 3692 3684 0
-944 -989 -990 -945 3684 3847 3685 3692 0
-942 -989 -998 -946 3684 3848 3693 3686 0
-942 -991 -998 -944 3686 3848 3693 3684 0
-944 -989 -991 -946 3684 3848 3686 3693 0
-942 -989 -999 -947 3684 3849 3694 3687 0
-942 -992 -999 -944 3687 3849 3694 3684 0
-944 -989 -992 -947 3684 3849 3687 3694 0
-942 -990 -1000 -946 3685 3850 3695 3686 0
-942 -991 -1000 -945 3686 3850 3695 3685 0
-945 -990 -991 -946 3685 3850 3686 3695 0
-942 -990 -1001 -947 3685 3851 3696 3687 0
-942 -992 -1001 -945 3687 3851 3696 3685 0
-945 -990 -992 -947 3685 3851 3687 3696 0
-942 -991 -1002 -947 3686 3852 3697 3687 0
-942 -992 -1002 -946 3687 3852 3697 3686 0
-946 -991 -992 -947 3686 3852 3687 3697 0
-943 -993 -997 -945 3688 3853 3692 3689 0
-943 -994 -997 -944 3689 3853 3692 3688 0
-944 -993 -994 -945 3688 3853 3689 3692 0
-943 -993 -998 -946 3688 3854 3693 3690 0
-943 -995 -998 -944 3690 3854 3693 3688 0
-944 -993 -995 -946 3688 3854 3690 3693 0
-943 -993 -999 -947 3688 3855 3694 3691 0
-943 -996 -999 -944 3691 3855 3694 3688 0
-944 -993 -996 -947 3688 3855 3691 3694 0
-943 -994 -1000 -946 3689 3856 3695 3690 0
-943 -995 -1000 -945 3690 3856 3695 3689 0
-945 -994 -995 -946 3689 3856 3690 3695 0
-943 -994 -1001 -947 3689 3857 3696 3691 0
-943 -996 -1001 -945 3691 3857 3696 3689 0
-945 -994 -996 -947 3689 3857 3691 3696 0
-943 -995 -1002 -947 3690 3858 3697 3691 0
-943 -996 -1002 -946 3691 3858 3697 3690 0
-946 -995 -996 -947 3690 3858 3691 3697 0
-944 -997 -1000 -946 3692 3859 3695 3693 0
-944 -998 -1000 -945 3693 3859 3695 3692 0
-945 -997 -998 -946 3692 3859 3693 3695 0
-944 -997 -1001 -947 3692 3860 3696 3694 0
-944 -999 -1001 -945 3694 3860 3696 3692 0
-945 -997 -999 -947 3692 3860 3694 3696 0
-944 -998 -1002 -947 3693 3861 3697 3694 0
-944 -999 -1002 -946 3694 3861 3697 3693 0
-946 -998 -999 -947 3693 3861 3694 3697 0
-945 -1000 -1002 -947 3695 3862 3697 3696 0
-945 -1001 -1002 -946 3696 3862 3697 3695 0
-946 -1000 -1001 -947 3695 3862 3696 3697 0
-948 -958 -967 -950 3698 3743 3707 3699 0
-948 -959 -967 -949 3699 3743 3707 3698 0
-949 -958 -959 -950 3698 3743 3699 3707 0
-948 -958 -968 -951 3698 3744 3708 3700 0
-948 -960 -968 -949 3700 3744 3708 3698 0
-949 -958 -960 -951 3698 3744 3700 3708 0
-948 -958 -969 -952 3698 3745 3709 3701 0
-948 -961 -969 -949 3701 3745 3709 3698 0
-949 -958 -961 -952 3698 3745 3701 3709 0
-948 -958 -970 -953 3698 3746 3710 3702 0
-948 -962 -970 -949 3702 3746 3710 3698 0
-949 -958 -962 -953 3698 3746 3702 3710 0
-948 -958 -971 -954 3698 3747 3711 3703 0
-948 -963 -971 -949 3703 3747 3711 3698 0
-949 -958 -963 -954 3698 3747 3703 3711 0
-948 -958 -972 -955 3698 3748 3712 3704 0
-948 -964 -972 -949 3704 3748 3712 3698 0
-949 -958 -964 -955 3698 3748 3704 3712 0
-948 -958 -973 -956 3698 3749 3713 3705 0
-948 -965 -973 -949 3705 3749 3713 3698 0
-949 -958 -965 -956 3698 3749 3705 3713 0
-948 -958 -974 -957 3698 3750 3714 3706 0
-948 -966 -974 -949 3706 3750 3714 3698 0
-949 -958 -966 -957 3698 3750 3706 3714 0
-948 -959 -975 -951 3699 3751 3715 3700 0
-948 -960 -975 -950 3700 3751 3715 3699 0
-950 -959 -960 -951 3699 3751 3700 3715 0
-948 -959 -976 -952 3699 3752 3716 3701 0
-948 -961 -976 -950 3701 3752 3716 3699 0
-950 -959 -961 -952 3699 3752 3701 3716 0
-948 -959 -977 -953 3699 3753 3717 3702 0
-948 -962 -977 -950 3702 3753 3717 3699 0
-950 -959 -962 -953 3699 3753 3702 3717 0
-948 -959 -978 -954 3699 3754 3718 3703 0
-948 -963 -978 -950 3703 3754 3718 3699 0
-950 -959 -963 -954 3699 3754 3703 3718 0
-948 -959 -979 -955 3699 3755 3719 3704 0
-948 -964 -979 -950 3704 3755 3719 3699 0
-950 -959 -964 -955 3699 3755 3704 3719 0
-948 -959 -980 -956 3699 3756 3720 3705 0
-948 -965 -980 -950 3705 3756 3720 3699 0
-950 -959 -965 -956 3699 3756 3705 3720 0
-948 -959 -981 -957 3699 3757 3721 3706 0
-948 -966 -981 -950 3706 3757 3721 3699 0
-950 -959 -966 -957 3699 3757 3706 3721 0
-948 -960 -982 -952 3700 3758 3722 3701 0
-948 -961 -982 -951 3701 3758 3722 3700 0
-951 -960 -961 -952 3700 3758 3701 3722 0
-948 -960 -983 -953 3700 3759 3723 3702 0
-948 -962 -983 -951 3702 3759 3723 3700 0
-951 -960 -962 -953 3700 3759 3702 3723 0
-948 -960 -984 -954 3700 3760 3724 3703 0
-948 -963 -984 -951 3703 3760 3724 3700 0
-951 -960 -963 -954 3700 3760 3703 3724 0
-948 -960 -985 -955 3700 3761 3725 3704 0
-948 -964 -985 -951 3704 3761 3725 3700 0
-951 -960 -964 -955 3700 3761 3704 3725 0
-948 -960 -986 -956 3700 3762 3726 3705 0
-948 -965 -986 -951 3705 3762 3726 3700 0
-951 -960 -965 -956 3700 3762 3705 3726 0
-948 -960 -987 -957 3700 3763 3727 3706 0
-948 -966 -987 -951 3706 3763 3727 3700 0
-951 -960 -966 -957 3700 3763 3706 3727 0
-948 -961 -988 -953 3701 3764 3728 3702 0
-948 -962 -988 -952 3702 3764 3728 3701 0
-952 -961 -962 -953 3701 3764 3702 3728 0
-948 -961 -989 -954 3701 3765 3729 3703 0
-948 -963 -989 -952 3703 3765 3729 3701 0
-952 -961 -963 -954 3701 3765 3703 3729 0
-948 -961 -990 -955 3701 3766 3730 3704 0
-948 -964 -990 -952 3704 3766 3730 3701 0
-952 -961 -964 -955 3701 3766 3704 3730 0
-948 -961 -991 -956 3701 3767 3731 3705 0
-948 -965 -991 -952 3705 3767 3731 3701 0
-952 -961 -965 -956 3701 3767 3705 3731 0
-948 -961 -992 -957 3701 3768 3732 3706 0
-948 -966 -992 -952 3706 3768 3732 3701 0
-952 -961 -966 -957 3701 3768 3706 3732 0
-948 -962 -993 -954 3702 3769 3733 3703 0
-948 -963 -993 -953 3703 3769 3733 3702 0
-953 -962 -963 -954 3702 3769 3703 3733 0
-948 -962 -994 -955 3702 3770 3734 3704 0
-948 -964 -994 -953 3704 3770 3734 3702 0
-953 -962 -964 -955 3702 3770 3704 3734 0
-948 -962 -995 -956 3702 3771 3735 3705 0
-948 -965 -995 -953 3705 3771 3735 3702 0
-953 -962 -965 -956 3702 3771 3705 3735 0
-948 -962 -996 -957 3702 3772 3736 3706 0
-948 -966 -996 -953 3706 3772 3736 3702 0
-953 -962 -966 -957 3702 3772 3706 3736 0
-948 -963 -997 -955 3703 3773 3737 3704 0
-948 -964 -997 -954 3704 3773 3737 3703 0
-954 -963 -964 -955 3703 3773 3704 3737 0
-948 -963 -998 -956 3703 3774 3738 3705 0
-948 -965 -998 -954 3705 3774 3738 3703 0
-954 -963 -965 -956 3703 3774 3705 3738 0
-948 -963 -999 -957 3703 3775 3739 3706 0
-948 -966 -999 -954 3706 3775 3739 3703 0
-954 -963 -966 -957 3703 3775 3706 3739 0
-948 -964 -1000 -956 3704 3776 3740 3705 0
-948 -965 -1000 -955 3705 3776 3740 3704 0
-955 -964 -965 -956 3704 3776 3705 3740 0
-948 -964 -1001 -957 3704 3777 3741 3706 0
-948 -966 -1001 -955 3706 3777 3741 3704 0
-955 -964 -966 -957 3704 3777 3706 3741 0
-948 -965 -1002 -957 3705 3778 3742 3706 0
-948 -966 -1002 -956 3706 3778 3742 3705 0
-956 -965 -966 -957 3705 3778 3706 3742 0
-949 -967 -975 -951 3707 3779 3715 3708 0
-949 -968 -975 -950 3708 3779 3715 3707 0
-950 -967 -968 -951 3707 3779 3708 3715 0
-949 -967 -976 -952 3707 3780 3716 3709 0
-949 -969 -976 -950 3709 3780 3716 3707 0
-950 -967 -969 -952 3707 3780 3709 3716 0
-949 -967 -977 -953 3707 3781 3717 3710 0
-949 -970 -977 -950 3710 3781 3717 3707 0
-950 -967 -970 -953 3707 3781 3710 3717 0
-949 -967 -978 -954 3707 3782 3718 3711 0
-949 -971 -978 -950 3711 3782 3718 3707 0
-950 -967 -971 -954 3707 3782 3711 3718 0
-949 -967 -979 -955 3707 3783 3719 3712 0
-949 -972 -979 -950 3712 3783 3719 3707 0
-950 -967 -972 -955 3707 3783 3712 3719 0
-949 -967 -980 -956 3707 3784 3720 3713 0
-949 -973 -980 -950 3713 3784 3720 3707 0
-950 -967 -973 -956 3707 3784 3713 3720 0
-949 -967 -981 -957 3707 3785 3721 3714 0
-949 -974 -981 -950 3714 3785 3721 3707 0
-950 -967 -974 -957 3707 3785 3714 3721 0
-949 -968 -982 -952 3708 3786 3722 3709 0
-949 -969 -982 -951 3709 3786 3722 3708 0
-951 -968 -969 -952 3708 3786 3709 3722 0
-949 -968 -983 -953 3708 3787 3723 3710 0
-949 -970 -983 -951 3710 3787 3723 3708 0
-951 -968 -970 -953 3708 3787 3710 3723 0
-949 -968 -984 -954 3708 3788 3724 3711 0
-949 -971 -984 -951 3711 3788 3724 3708 0
-951 -968 -971 -954 3708 3788 3711 3724 0
-949 -968 -985 -955 3708 3789 3725 3712 0
-949 -972 -985 -951 3712 3789 3725 3708 0
-951 -968 -972 -955 3708 3789 3712 3725 0
-949 -968 -986 -956 3708 3790 3726 3713 0
-949 -973 -986 -951 3713 3790 3726 3708 0
-951 -968 -973 -956 3708 3790 3713 3726 0
-949 -968 -987 -957 3708 3791 3727 3714 0
-949 -974 -987 -951 3714 3791 3727 3708 0
-951 -968 -974 -957 3708 3791 3714 3727 0
-949 -969 -988 -953 3709 3792 3728 3710 0
-949 -970 -988 -952 3710 3792 3728 3709 0
-952 -969 -970 -953 3709 3792 3710 3728 0
-949 -969 -989 -954 3709 3793 3729 3711 0
-949 -971 -989 -952 3711 3793 3729 3709 0
-952 -969 -971 -954 3709 3793 3711 3729 0
-949 -969 -990 -955 3709 3794 3730 3712 0
-949 -972 -990 -952 3712 3794 3730 3709 0
-952 -969 -972 -955 3709 3794 3712 3730 0
-949 -969 -991 -956 3709 3795 3731 3713 0
-949 -973 -991 -952 3713 3795 3731 3709 0
-952 -969 -973 -956 3709 3795 3713 3731 0
-949 -969 -992 -957 3709 3796 3732 3714 0
-949 -974 -992 -952 3714 3796 3732 3709 0
-952 -969 -974 -957 3709 3796 3714 3732 0
-949 -970 -993 -954 3710 3797 3733 3711 0
-949 -971 -993 -953 3711 3797 3733 3710 0
-953 -970 -971 -954 3710 3797 3711 3733 0
-949 -970 -994 -955 3710 3798 3734 3712 0
-949 -972 -994 -953 3712 3798 3734 3710 0
-953 -970 -972 -955 3710 3798 3712 3734 0
-949 -970 -995 -956 3710 3799 3735 3713 0
-949 -973 -995 -953 3713 3799 3735 3710 0
-953 -970 -973 -956 3710 3799 3713 3735 0
-949 -970 -996 -957 3710 3800 3736 3714 0
-949 -974 -996 -953 3714 3800 3736 3710 0
-953 -970 -974 -957 3710 3800 3714 3736 0
-949 -971 -997 -955 3711 3801 3737 3712 0
-949 -972 -997 -954 3712 3801 3737 3711 0
-954 -971 -972 -955 3711 3801 3712 3737 0
-949 -971 -998 -956 3711 3802 3738 3713 0
-949 -973 -998 -954 3713 3802 3738 3711 0
-954 -971 -973 -956 3711 3802 3713 3738 0
-949 -971 -999 -957 3711 3803 3739 3714 0
-949 -974 -999 -954 3714 3803 3739 3711 0
-954 -971 -974 -957 3711 3803 3714 3739 0
-949 -972 -1000 -956 3712 3804 3740 3713 0
-949 -973 -1000 -955 3713 3804 3740 3712 0
-955 -972 -973 -956 3712 3804 3713 3740 0
-949 -972 -1001 -957 3712 3805 3741 3714 0
-949 -974 -1001 -955 3714 3805 3741 3712 0
-955 -972 -974 -957 3712 3805 3714 3741 0
-949 -973 -1002 -957 3713 3806 3742 3714 0
-949 -974 -1002 -956 3714 3806 3742 3713 0
-956 -973 -974 -957 3713 3806 3714 3742 0
-950 -975 -982 -952 3715 3807 3722 3716 0
-950 -976 -982 -951 3716 3807 3722 3715 0
-951 -975 -976 -952 3715 3807 3716 3722 0
-950 -975 -983 -953 3715 3808 3723 3717 0
-950 -977 -983 -951 3717 3808 3723 3715 0
-951 -975 -977 -953 3715 3808 3717 3723 0
-950 -975 -984 -954 3715 3809 3724 3718 0
-950 -978 -984 -951 3718 3809 3724 3715 0
-951 -975 -978 -954 3715 3809 3718 3724 0
-950 -975 -985 -955 3715 3810 3725 3719 0
-950 -979 -985 -951 3719 3810 3725 3715 0
-951 -975 -979 -955 3715 3810 3719 3725 0
-950 -975 -986 -956 3715 3811 3726 3720 0
-950 -980 -986 -951 3720 3811 3726 3715 0
-951 -975 -980 -956 3715 3811 3720 3726 0
-950 -975 -987 -957 3715 3812 3727 3721 0
-950 -981 -987 -951 3721 3812 3727 3715 0
-951 -975 -981 -957 3715 3812 3721 3727 0
-950 -976 -988 -953 3716 3813 3728 3717 0
-950 -977 -988 -952 3717 3813 3728 3716 0
-952 -976 -977 -953 3716 3813 3717 3728 0
-950 -976 -989 -954 3716 3814 3729 3718 0
-950 -978 -989 -952 3718 3814 3729 3716 0
-952 -976 -978 -954 3716 3814 3718 3729 0
-950 -976 -990 -955 3716 3815 3730 3719 0
-950 -979 -990 -952 3719 3815 3730 3716 0
-952 -976 -979 -955 3716 3815 3719 3730 0
-950 -976 -991 -956 3716 3816 3731 3720 0
-950 -980 -991 -952 3720 3816 3731 3716 0
-952 -976 -980 -956 3716 3816 3720 3731 0
-950 -976 -992 -957 3716 3817 3732 3721 0
-950 -981 -992 -952 3721 3817 3732 3716 0
-952 -976 -981 -957 3716 3817 3721 3732 0
-950 -977 -993 -954 3717 3818 3733 3718 0
-950 -978 -993 -953 3718 3818 3733 3717 0
-953 -977 -978 -954 3717 3818 3718 3733 0
-950 -977 -994 -955 3717 3819 3734 3719 0
-950 -979 -994 -953 3719 3819 3734 3717 0
-953 -977 -979 -955 3717 3819 3719 3734 0
-950 -977 -995 -956 3717 3820 3735 3720 0
-950 -980 -995 -953 3720 3820 3735 3717 0
-953 -977 -980 -956 3717 3820 3720 3735 0
-950 -977 -996 -957 3717 3821 3736 3721 0
-950 -981 -996 -953 3721 3821 3736 3717 0
-953 -977 -981 -957 3717 3821 3721 3736 0
-950 -978 -997 -955 3718 3822 3737 3719 0
-950 -979 -997 -954 3719 3822 3737 3718 0
-954 -978 -979 -955 3718 3822 3719 3737 0
-950 -978 -998 -956 3718 3823 3738 3720 0
-950 -980 -998 -954 3720 3823 3738 3718 0
-954 -978 -980 -956 3718 3823 3720 3738 0
-950 -978 -999 -957 3718 3824 3739 3721 0
-950 -981 -999 -954 3721 3824 3739 3718 0
-954 -978 -981 -957 3718 3824 3721 3739 0
-950 -979 -1000 -956 3719 3825 3740 3720 0
-950 -980 -1000 -955 3720 3825 3740 3719 0
-955 -979 -980 -956 3719 3825 3720 3740 0
-950 -979 -1001 -957 3719 3826 3741 3721 0
-950 -981 -1001 -955 3721 3826 3741 3719 0
-955 -979 -981 -957 3719 3826 3721 3741 0
-950 -980 -1002 -957 3720 3827 3742 3721 0
-950 -981 -1002 -956 3721 3827 3742 3720 0
-956 -980 -981 -957 3720 3827 3721 3742 0
-951 -982 -988 -953 3722 3828 3728 3723 0
-951 -983 -988 -952 3723 3828 3728 3722 0
-952 -982 -983 -953 3722 3828 3723 3728 0
-951 -982 -989 -954 3722 3829 3729 3724 0
-951 -984 -989 -952 3724 3829 3729 3722 0
-952 -982 -984 -954 3722 3829 3724 3729 0
-951 -982 -990 -955 3722 3830 3730 3725 0
-951 -985 -990 -952 3725 3830 3730 3722 0
-952 -982 -985 -955 3722 3830 3725 3730 0
-951 -982 -991 -956 3722 3831 3731 3726 0
-951 -986 -991 -952 3726 3831 3731 3722 0
-952 -982 -986 -956 3722 3831 3726 3731 0
-951 -982 -992 -957 3722 3832 3732 3727 0
-951 -987 -992 -952 3727 3832 3732 3722 0
-952 -982 -987 -957 3722 3832 3727 3732 0
-951 -983 -993 -954 3723 3833 3733 3724 0
-951 -984 -993 -953 3724 3833 3733 3723 0
-953 -983 -984 -954 3723 3833 3724 3733 0
-951 -983 -994 -955 3723 3834 3734 3725 0
-951 -985 -994 -953 3725 3834 3734 3723 0
-953 -983 -985 -955 3723 3834 3725 3734 0
-951 -983 -995 -956 3723 3835 3735 3726 0
-951 -986 -995 -953 3726 3835 3735 3723 0
-953 -983 -986 -956 3723 3835 3726 3735 0
-951 -983 -996 -957 3723 3836 3736 3727 0
-951 -987 -996 -953 3727 3836 3736 3723 0
-953 -983 -987 -957 3723 3836 3727 3736 0
-951 -984 -997 -955 3724 3837 3737 3725 0
-951 -985 -997 -954 3725 3837 3737 3724 0
-954 -984 -985 -955 3724 3837 3725 3737 0
-951 -984 -998 -956 3724 3838 3738 3726 0
-951 -986 -998 -954 3726 3838 3738 3724 0
-954 -984 -986 -956 3724 3838 3726 3738 0
-951 -984 -999 -957 3724 3839 3739 3727 0
-951 -987 -999 -954 3727 3839 3739 3724 0
-954 -984 -987 -957 3724 3839 3727 3739 0
-951 -985 -1000 -956 3725 3840 3740 3726 0
-951 -986 -1000 -955 3726 3840 3740 3725 0
-955 -985 -986 -956 3725 3840 3726 3740 0
-951 -985 -1001 -957 3725 3841 3741 3727 0
-951 -987 -1001 -955 3727 3841 3741 3725 0
-955 -985 -987 -957 3725 3841 3727 3741 0
-951 -986 -1002 -957 3726 3842 3742 3727 0
-951 -987 -1002 -956 3727 3842 3742 3726 0
-956 -986 -987 -957 3726 3842 3727 3742 0
-952 -988 -993 -954 3728 3843 3733 3729 0
-952 -989 -993 -953 3729 3843 3733 3728 0
-953 -988 -989 -954 3728 3843 3729 3733 0
-952 -988 -994 -955 3728 3844 3734 3730 0
-952 -990 -994 -953 3730 3844 3734 3728 0
-953 -988 -990 -955 3728 3844 3730 3734 0
-952 -988 -995 -956 3728 3845 3735 3731 0
-952 -991 -995 -953 3731 3845 3735 3728 0
-953 -988 -991 -956 3728 3845 3731 3735 0
-952 -988 -996 -957 3728 3846 3736 3732 0
-952 -992 -996 -953 3732 3846 3736 3728 0
-953 -988 -992 -957 3728 3846 3732 3736 0
-952 -989 -997 -955 3729 3847 3737 3730 0
-952 -990 -997 -954 3730 3847 3737 3729 0
-954 -989 -990 -955 3729 3847 3730 3737 0
-952 -989 -998 -956 3729 3848 3738 3731 0
-952 -991 -998 -954 3731 3848 3738 3729 0
-954 -989 -991 -956 3729 3848 3731 3738 0
-952 -989 -999 -957 3729 3849 3739 3732 0
-952 -992 -999 -954 3732 3849 3739 3729 0
-954 -989 -992 -957 3729 3849 3732 3739 0
-952 -990 -1000 -956 3730 3850 3740 3731 0
-952 -991 -1000 -955 3731 3850 3740 3730 0
-955 -990 -991 -956 3730 3850 3731 3740 0
-952 -990 -1001 -957 3730 3851 3741 3732 0
-952 -992 -1001 -955 3732 3851 3741 3730 0
-955 -990 -992 -957 3730 3851 3732 3741 0
-952 -991 -1002 -957 3731 3852 3742 3732 0
-952 -992 -1002 -956 3732 3852 3742 3731 0
-956 -991 -992 -957 3731 3852 3732 3742 0
-953 -993 -997 -955 3733 3853 3737 3734 0
-953 -994 -997 -954 3734 3853 3737 3733 0
-954 -993 -994 -955 3733 3853 3734 3737 0
-953 -993 -998 -956 3733 3854 3738 3735 0
-953 -995 -998 -954 3735 3854 3738 3733 0
-954 -993 -995 -956 3733 3854 3735 3738 0
-953 -993 -999 -957 3733 3855 3739 3736 0
-953 -996 -999 -954 3736 3855 3739 3733 0
-954 -993 -996 -957 3733 3855 3736 3739 0
-953 -994 -1000 -956 3734 3856 3740 3735 0
-953 -995 -1000 -955 3735 3856 3740 3734 0
-955 -994 -995 -956 3734 3856 3735 3740 0
-953 -994 -1001 -957 3734 3857 3741 3736 0
-953 -996 -1001 -955 3736 3857 3741 3734 0
-955 -994 -996 -957 3734 3857 3736 3741 0
-953 -995 -1002 -957 3735 3858 3742 3736 0
-953 -996 -1002 -956 3736 3858 3742 3735 0
-956 -995 -996 -957 3735 3858 3736 3742 0
-954 -997 -1000 -956 3737 3859 3740 3738 0
-954 -998 -1000 -955 3738 3859 3740 3737 0
-955 -997 -998 -956 3737 3859 3738 3740 0
-954 -997 -1001 -957 3737 3860 3741 3739 0
-954 -999 -1001 -955 3739 3860 3741 3737 0
-955 -997 -999 -957 3737 3860 3739 3741 0
-954 -998 -1002 -957 3738 3861 3742 3739 0
-954 -999 -1002 -956 3739 3861 3742 3738 0
-956 -998 -999 -957 3738 3861 3739 3742 0
-955 -1000 -1002 -957 3740 3862 3742 3741 0
-955 -1001 -1002 -956 3741 3862 3742 3740 0
-956 -1000 -1001 -957 3740 3862 3741 3742 0
-958 -967 -975 -960 3743 3779 3751 3744 0
-958 -968 -975 -959 3744 3779 3751 3743 0
-959 -967 -968 -960 3743 3779 3744 3751 0
-958 -967 -976 -961 3743 3780 3752 3745 0
-958 -969 -976 -959 3745 3780 3752 3743 0
-959 -967 -969 -961 3743 3780 3745 3752 0
-958 -967 -977 -962 3743 3781 3753 3746 0
-958 -970 -977 -959 3746 3781 3753 3743 0
-959 -967 -970 -962 3743 3781 3746 3753 0
-958 -967 -978 -963 3743 3782 3754 3747 0
-958 -971 -978 -959 3747 3782 3754 3743 0
-959 -967 -971 -963 3743 3782 3747 3754 0
-958 -967 -979 -964 3743 3783 3755 3748 0
-958 -972 -979 -959 3748 3783 3755 3743 0
-959 -967 -972 -964 3743 3783 3748 3755 0
-958 -967 -980 -965 3743 3784 3756 3749 0
-958 -973 -980 -959 3749 3784 3756 3743 0
-959 -967 -973 -965 3743 3784 3749 3756 0
-958 -967 -981 -966 3743 3785 3757 3750 0
-958 -974 -981 -959 3750 3785 3757 3743 0
-959 -967 -974 -966 3743 3785 3750 3757 0
-958 -968 -982 -961 3744 3786 3758 3745 0
-958 -969 -982 -960 3745 3786 3758 3744 0
-960 -968 -969 -961 3744 3786 3745 3758 0
-958 -968 -983 -962 3744 3787 3759 3746 0
-958 -970 -983 -960 3746 3787 3759 3744 0
-960 -968 -970 -962 3744 3787 3746 3759 0
-958 -968 -984 -963 3744 3788 3760 3747 0
-958 -971 -984 -960 3747 3788 3760 3744 0
-960 -968 -971 -963 3744 3788 3747 3760 0
-958 -968 -985 -964 3744 3789 3761 3748 0
-958 -972 -985 -960 3748 3789 3761 3744 0
-960 -968 -972 -964 3744 3789 3748 3761 0
-958 -968 -986 -965 3744 3790 3762 3749 0
-958 -973 -986 -960 3749 3790 3762 3744 0
-960 -968 -973 -965 3744 3790 3749 3762 0
-958 -968 -987 -966 3744 3791 3763 3750 0
-958 -974 -987 -960 3750 3791 3763 3744 0
-960 -968 -974 -966 3744 3791 3750 3763 0
-958 -969 -988 -962 3745 3792 3764 3746 0
-958 -970 -988 -961 3746 3792 3764 3745 0
-961 -969 -970 -962 3745 3792 3746 3764 0
-958 -969 -989 -963 3745 3793 3765 3747 0
-958 -971 -989 -961 3747 3793 3765 3745 0
-961 -969 -971 -963 3745 3793 3747 3765 0
-958 -969 -990 -964 3745 3794 3766 3748 0
-958 -972 -990 -961 3748 3794 3766 3745 0
-961 -969 -972 -964 3745 3794 3748 3766 0
-958 -969 -991 -965 3745 3795 3767 3749 0
-958 -973 -991 -961 3749 3795 3767 3745 0
-961 -969 -973 -965 3745 3795 3749 3767 0
-958 -969 -992 -966 3745 3796 3768 3750 0
-958 -974 -992 -961 3750 3796 3768 3745 0
-961 -969 -974 -966 3745 3796 3750 3768 0
-958 -970 -993 -963 3746 3797 3769 3747 0
-958 -971 -993 -962 3747 3797 3769 3746 0
-962 -970 -971 -963 3746 3797 3747 3769 0
-958 -970 -994 -964 3746 3798 3770 3748 0
-958 -972 -994 -962 3748 3798 3770 3746 0
-962 -970 -972 -964 3746 3798 3748 3770 0
-958 -970 -995 -965 3746 3799 3771 3749 0
-958 -973 -995 -962 3749 3799 3771 3746 0
-962 -970 -973 -965 3746 3799 3749 3771 0
-958 -970 -996 -966 3746 3800 3772 3750 0
-958 -974 -996 -962 3750 3800 3772 3746 0
-962 -970 -974 -966 3746 3800 3750 3772 0
-958 -971 -997 -964 3747 3801 3773 3748 0
-958 -972 -997 -963 3748 3801 3773 3747 0
-963 -971 -972 -964 3747 3801 3748 3773 0
-958 -971 -998 -965 3747 3802 3774 3749 0
-958 -973 -998 -963 3749 3802 3774 3747 0
-963 -971 -973 -965 3747 3802 3749 3774 0
-958 -971 -999 -966 3747 3803 3775 3750 0
-958 -974 -999 -963 3750 3803 3775 3747 0
-963 -971 -974 -966 3747 3803 3750 3775 0
-958 -972 -1000 -965 3748 3804 3776 3749 0
-958 -973 -1000 -964 3749 3804 3776 3748 0
-964 -972 -973 -965 3748 3804 3749 3776 0
-958 -972 -1001 -966 3748 3805 3777 3750 0
-958 -974 -1001 -964 3750 3805 3777 3748 0
-964 -972 -974 -966 3748 3805 3750 3777 0
-958 -973 -1002 -966 3749 3806 3778 3750 0
-958 -974 -1002 -965 3750 3806 3778 3749 0
-965 -973 -974 -966 3749 3806 3750 3778 0
-959 -975 -982 -961 3751 3807 3758 3752 0
-959 -976 -982 -960 3752 3807 3758 3751 0
-960 -975 -976 -961 3751 3807 3752 3758 0
-959 -975 -983 -962 3751 3808 3759 3753 0
-959 -977 -983 -960 3753 3808 3759 3751 0
-960 -975 -977 -962 3751 3808 3753 3759 0
-959 -975 -984 -963 3751 3809 3760 3754 0
-959 -978 -984 -960 3754 3809 3760 3751 0
-960 -975 -978 -963 3751 3809 3754 3760 0
-959 -975 -985 -964 3751 3810 3761 3755 0
-959 -979 -985 -960 3755 3810 3761 3751 0
-960 -975 -979 -964 3751 3810 3755 3761 0
-959 -975 -986 -965 3751 3811 3762 3756 0
-959 -980 -986 -960 3756 3811 3762 3751 0
-960 -975 -980 -965 3751 3811 3756 3762 0
-959 -975 -987 -966 3751 3812 3763 3757 0
-959 -981 -987 -960 3757 3812 3763 3751 0
-960 -975 -981 -966 3751 3812 3757 3763 0
-959 -976 -988 -962 3752 3813 3764 3753 0
-959 -977 -988 -961 3753 3813 3764 3752 0
-961 -976 -977 -962 3752 3813 3753 3764 0
-959 -976 -989 -963 3752 3814 3765 3754 0
-959 -978 -989 -961 3754 3814 3765 3752 0
-961 -976 -978 -963 3752 3814 3754 3765 0
-959 -976 -990 -964 3752 3815 3766 3755 0
-959 -979 -990 -961 3755 3815 3766 3752 0
-961 -976 -979 -964 3752 3815 3755 3766 0
-959 -976 -991 -965 3752 3816 3767 3756 0
-959 -980 -991 -961 3756 3816 3767 3752 0
-961 -976 -980 -965 3752 3816 3756 3767 0
-959 -976 -992 -966 3752 3817 3768 3757 0
-959 -981 -992 -961 3757 3817 3768 3752 0
-961 -976 -981 -966 3752 3817 3757 3768 0
-959 -977 -993 -963 3753 3818 3769 3754 0
-959 -978 -993 -962 3754 3818 3769 3753 0
-962 -977 -978 -963 3753 3818 3754 3769 0
-959 -977 -994 -964 3753 3819 3770 3755 0
-959 -979 -994 -962 3755 3819 3770 3753 0
-962 -977 -979 -964 3753 3819 3755 3770 0
-959 -977 -995 -965 3753 3820 3771 3756 0
-959 -980 -995 -962 3756 3820 3771 3753 0
-962 -977 -980 -965 3753 3820 3756 3771 0
-959 -977 -996 -966 3753 3821 3772 3757 0
-959 -981 -996 -962 3757 3821 3772 3753 0
-962 -977 -981 -966 3753 3821 3757 3772 0
-959 -978 -997 -964 3754 3822 3773 3755 0
-959 -979 -997 -963 3755 3822 3773 3754 0
-963 -978 -979 -964 3754 3822 3755 3773 0
-959 -978 -998 -965 3754 3823 3774 3756 0
-959 -980 -998 -963 3756 3823 3774 3754 0
-963 -978 -980 -965 3754 3823 3756 3774 0
-959 -978 -999 -966 3754 3824 3775 3757 0
-959 -981 -999 -963 3757 3824 3775 3754 0
-963 -978 -981 -966 3754 3824 3757 3775 0
-959 -979 -1000 -965 3755 3825 3776 3756 0
-959 -980 -1000 -964 3756 3825 3776 3755 0
-964 -979 -980 -965 3755 3825 3756 3776 0
-959 -979 -1001 -966 3755 3826 3777 3757 0
-959 -981 -1001 -964 3757 3826 3777 3755 0
-964 -979 -981 -966 3755 3826 3757 3777 0
-959 -980 -1002 -966 3756 3827 3778 3757 0
-959 -981 -1002 -965 3757 3827 3778 3756 0
-965 -980 -981 -966 3756 3827 3757 3778 0
-960 -982 -988 -962 3758 3828 3764 3759 0
-960 -983 -988 -961 3759 3828 3764 3758 0
-961 -982 -983 -962 3758 3828 3759 3764 0
-960 -982 -989 -963 3758 3829 3765 3760 0
-960 -984 -989 -961 3760 3829 3765 3758 0
-961 -982 -984 -963 3758 3829 3760 3765 0
-960 -982 -990 -964 3758 3830 3766 3761 0
-960 -985 -990 -961 3761 3830 3766 3758 0
-961 -982 -985 -964 3758 3830 3761 3766 0
-960 -982 -991 -965 3758 3831 3767 3762 0
-960 -986 -991 -961 3762 3831 3767 3758 0
-961 -982 -986 -965 3758 3831 3762 3767 0
-960 -982 -992 -966 3758 3832 3768 3763 0
-960 -987 -992 -961 3763 3832 3768 3758 0
-961 -982 -987 -966 3758 3832 3763 3768 0
-960 -983 -993 -963 3759 3833 3769 3760 0
-960 -984 -993 -962 3760 3833 3769 3759 0
-962 -983 -984 -963 3759 3833 3760 3769 0
-960 -983 -994 -964 3759 3834 3770 3761 0
-960 -985 -994 -962 3761 3834 3770 3759 0
-962 -983 -985 -964 3759 3834 3761 3770 0
-960 -983 -995 -965 3759 3835 3771 3762 0
-960 -986 -995 -962 3762 3835 3771 3759 0
-962 -983 -986 -965 3759 3835 3762 3771 0
-960 -983 -996 -966 3759 3836 3772 3763 0
-960 -987 -996 -962 3763 3836 3772 3759 0
-962 -983 -987 -966 3759 3836 3763 3772 0
-960 -984 -997 -964 3760 3837 3773 3761 0
-960 -985 -997 -963 3761 3837 3773 3760 0
-963 -984 -985 -964 3760 3837 3761 3773 0
-960 -984 -998 -965 3760 3838 3774 3762 0
-960 -986 -998 -963 3762 3838 3774 3760 0
-963 -984 -986 -965 3760 3838 3762 3774 0
-960 -984 -999 -966 3760 3839 3775 3763 0
-960 -987 -999 -963 3763 3839 3775 3760 0
-963 -984 -987 -966 3760 3839 3763 3775 0
-960 -985 -1000 -965 3761 3840 3776 3762 0
-960 -986 -1000 -964 3762 3840 3776 3761 0
-964 -985 -986 -965 3761 3840 3762 3776 0
-960 -985 -1001 -966 3761 3841 3777 3763 0
-960 -987 -1001 -964 3763 3841 3777 3761 0
-964 -985 -987 -966 3761 3841 3763 3777 0
-960 -986 -1002 -966 3762 3842 3778 3763 0
-960 -987 -1002 -965 3763 3842 3778 3762 0
-965 -986 -987 -966 3762 3842 3763 3778 0
-961 -988 -993 -963 3764 3843 3769 3765 0
-961 -989 -993 -962 3765 3843 3769 3764 0
-962 -988 -989 -963 3764 3843 3765 3769 0
-961 -988 -994 -964 3764 3844 3770 3766 0
-961 -990 -994 -962 3766 3844 3770 3764 0
-962 -988 -990 -964 3764 3844 3766 3770 0
-961 -988 -995 -965 3764 3845 3771 3767 0
-961 -991 -995 -962 3767 3845 3771 3764 0
-962 -988 -991 -965 3764 3845 3767 3771 0
-961 -988 -996 -966 3764 3846 3772 3768 0
-961 -992 -996 -962 3768 3846 3772 3764 0
-962 -988 -992 -966 3764 3846 3768 3772 0
-961 -989 -997 -964 3765 3847 3773 3766 0
-961 -990 -997 -963 3766 3847 3773 3765 0
-963 -989 -990 -964 3765 3847 3766 3773 0
-961 -989 -998 -965 3765 3848 3774 3767 0
-961 -991 -998 -963 3767 3848 3774 3765 0
-963 -989 -991 -965 3765 3848 3767 3774 0
-961 -989 -999 -966 3765 3849 3775 3768 0
-961 -992 -999 -963 3768 3849 3775 3765 0
-963 -989 -992 -966 3765 3849 3768 3775 0
-961 -990 -1000 -965 3766 3850 3776 3767 0
-961 -991 -1000 -964 3767 3850 3776 3766 0
-964 -990 -991 -965 3766 3850 3767 3776 0
-961 -990 -1001 -966 3766 3851 3777 3768 0
-961 -992 -1001 -964 3768 3851 3777 3766 0
-964 -990 -992 -966 3766 3851 3768 3777 0
-961 -991 -1002 -966 3767 3852 3778 3768 0
-961 -992 -1002 -965 3768 3852 3778 3767 0
-965 -991 -992 -966 3767 3852 3768 3778 0
-962 -993 -997 -964 3769 3853 3773 3770 0
-962 -994 -997 -963 3770 3853 3773 3769 0
-963 -993 -994 -964 3769 3853 3770 3773 0
-962 -993 -998 -965 3769 3854 3774 3771 0
-962 -995 -998 -963 3771 3854 3774 3769 0
-963 -993 -995 -965 3769 3854 3771 3774 0
-962 -993 -999 -966 3769 3855 3775 3772 0
-962 -996 -999 -963 3772 3855 3775 3769 0
-963 -993 -996 -966 3769 3855 3772 3775 0
-962 -994 -1000 -965 3770 3856 3776 3771 0
-962 -995 -1000 -964 3771 3856 3776 3770 0
-964 -994 -995 -965 3770 3856 3771 3776 0
-962 -994 -1001 -966 3770 3857 3777 3772 0
-962 -996 -1001 -964 3772 3857 3777 3770 0
-964 -994 -996 -966 3770 3857 3772 3777 0
-962 -995 -1002 -966 3771 3858 3778 3772 0
-962 -996 -1002 -965 3772 3858 3778 3771 0
-965 -995 -996 -966 3771 3858 3772 3778 0
-963 -997 -1000 -965 3773 3859 3776 3774 0
-963 -998 -1000 -964 3774 3859 3776 3773 0
-964 -997 -998 -965 3773 3859 3774 3776 0
-963 -997 -1001 -966 3773 3860 3777 3775 0
-963 -999 -1001 -964 3775 3860 3777 3773 0
-964 -997 -999 -966 3773 3860 3775 3777 0
-963 -998 -1002 -966 3774 3861 3778 3775 0
-963 -999 -1002 -965 3775 3861 3778 3774 0
-965 -998 -999 -966 3774 3861 3775 3778 0
-964 -1000 -1002 -966 3776 3862 3778 3777 0
-964 -1001 -1002 -965 3777 3862 3778 3776 0
-965 -1000 -1001 -966 3776 3862 3777 3778 0
-967 -975 -982 -969 3779 3807 3786 3780 0
-967 -976 -982 -968 3780 3807 3786 3779 0
-968 -975 -976 -969 3779 3807 3780 3786 0
-967 -975 -983 -970 3779 3808 3787 3781 0
-967 -977 -983 -968 3781 3808 3787 3779 0
-968 -975 -977 -970 3779 3808 3781 3787 0
-967 -975 -984 -971 3779 3809 3788 3782 0
-967 -978 -984 -968 3782 3809 3788 3779 0
-968 -975 -978 -971 3779 3809 3782 3788 0
-967 -975 -985 -972 3779 3810 3789 3783 0
-967 -979 -985 -968 3783 3810 3789 3779 0
-968 -975 -979 -972 3779 3810 3783 3789 0
-967 -975 -986 -973 3779 3811 3790 3784 0
-967 -980 -986 -968 3784 3811 3790 3779 0
-968 -975 -980 -973 3779 3811 3784 3790 0
-967 -975 -987 -974 3779 3812 3791 3785 0
-967 -981 -987 -968 3785 3812 3791 3779 0
-968 -975 -981 -974 3779 3812 3785 3791 0
-967 -976 -988 -970 3780 3813 3792 3781 0
-967 -977 -988 -969 3781 3813 3792 3780 0
-969 -976 -977 -970 3780 3813 3781 3792 0
-967 -976 -989 -971 3780 3814 3793 3782 0
-967 -978 -989 -969 3782 3814 3793 3780 0
-969 -976 -978 -971 3780 3814 3782 3793 0
-967 -976 -990 -972 3780 3815 3794 3783 0
-967 -979 -990 -969 3783 3815 3794 3780 0
-969 -976 -979 -972 3780 3815 3783 3794 0
-967 -976 -991 -973 3780 3816 3795 3784 0
-967 -980 -991 -969 3784 3816 3795 3780 0
-969 -976 -980 -973 3780 3816 3784 3795 0
-967 -976 -992 -974 3780 3817 3796 3785 0
-967 -981 -992 -969 3785 3817 3796 3780 0
-969 -976 -981 -974 3780 3817 3785 3796 0
-967 -977 -993 -971 3781 3818 3797 3782 0
-967 -978 -993 -970 3782 3818 3797 3781 0
-970 -977 -978 -971 3781 3818 3782 3797 0
-967 -977 -994 -972 3781 3819 3798 3783 0
-967 -979 -994 -970 3783 3819 3798 3781 0
-970 -977 -979 -972 3781 3819 3783 3798 0
-967 -977 -995 -973 3781 3820 3799 3784 0
-967 -980 -995 -970 3784 3820 3799 3781 0
-970 -977 -980 -973 3781 3820 3784 3799 0
-967 -977 -996 -974 3781 3821 3800 3785 0
-967 -981 -996 -970 3785 3821 3800 3781 0
-970 -977 -981 -974 3781 3821 3785 3800 0
-967 -978 -997 -972 3782 3822 3801 3783 0
-967 -979 -997 -971 3783 3822 3801 3782 0
-971 -978 -979 -972 3782 3822 3783 3801 0
-967 -978 -998 -973 3782 3823 3802 3784 0
-967 -980 -998 -971 3784 3823 3802 3782 0
-971 -978 -980 -973 3782 3823 3784 3802 0
-967 -978 -999 -974 3782 3824 3803 3785 0
-967 -981 -999 -971 3785 3824 3803 3782 0
-971 -978 -981 -974 3782 3824 3785 3803 0
-967 -979 -1000 -973 3783 3825 3804 3784 0
-967 -980 -1000 -972 3784 3825 3804 3783 0
-972 -979 -980 -973 3783 3825 3784 3804 0
-967 -979 -1001 -974 3783 3826 3805 3785 0
-967 -981 -1001 -972 3785 3826 3805 3783 0
-972 -979 -981 -974 3783 3826 3785 3805 0
-967 -980 -1002 -974 3784 3827 3806 3785 0
-967 -981 -1002 -973 3785 3827 3806 3784 0
-973 -980 -981 -974 3784 3827 3785 3806 0
-968 -982 -988 -970 3786 3828 3792 3787 0
-968 -983 -988 -969 3787 3828 3792 3786 0
-969 -982 -983 -970 3786 3828 3787 3792 0
-968 -982 -989 -971 3786 3829 3793 3788 0
-968 -984 -989 -969 3788 3829 3793 3786 0
-969 -982 -984 -971 3786 3829 3788 3793 0
-968 -982 -990 -972 3786 3830 3794 3789 0
-968 -985 -990 -969 3789 3830 3794 3786 0
-969 -982 -985 -972 3786 3830 3789 3794 0
-968 -982 -991 -973 3786 3831 3795 3790 0
-968 -986 -991 -969 3790 3831 3795 3786 0
-969 -982 -986 -973 3786 3831 3790 3795 0
-968 -982 -992 -974 3786 3832 3796 3791 0
-968 -987 -992 -969 3791 3832 3796 3786 0
-969 -982 -987 -974 3786 3832 3791 3796 0
-968 -983 -993 -971 3787 3833 3797 3788 0
-968 -984 -993 -970 3788 3833 3797 3787 0
-970 -983 -984 -971 3787 3833 3788 3797 0
-968 -983 -994 -972 3787 3834 3798 3789 0
-968 -985 -994 -970 3789 3834 3798 3787 0
-970 -983 -985 -972 3787 3834 3789 3798 0
-968 -983 -995 -973 3787 3835 3799 3790 0
-968 -986 -995 -970 3790 3835 3799 3787 0
-970 -983 -986 -973 3787 3835 3790 3799 0
-968 -983 -996 -974 3787 3836 3800 3791 0
-968 -987 -996 -970 3791 3836 3800 3787 0
-970 -983 -987 -974 3787 3836 3791 3800 0
-968 -984 -997 -972 3788 3837 3801 3789 0
-968 -985 -997 -971 3789 3837 3801 3788 0
-971 -984 -985 -972 3788 3837 3789 3801 0
-968 -984 -998 -973 3788 3838 3802 3790 0
-968 -986 -998 -971 3790 3838 3802 3788 0
-971 -984 -986 -973 3788 3838 3790 3802 0
-968 -984 -999 -974 3788 3839 3803 3791 0
-968 -987 -999 -971 3791 3839 3803 3788 0
-971 -984 -987 -974 3788 3839 3791 3803 0
-968 -985 -1000 -973 3789 3840 3804 3790 0
-968 -986 -1000 -972 3790 3840 3804 3789 0
-972 -985 -986 -973 3789 3840 3790 3804 0
-968 -985 -1001 -974 3789 3841 3805 3791 0
-968 -987 -1001 -972 3791 3841 3805 3789 0
-972 -985 -987 -974 3789 3841 3791 3805 0
-968 -986 -1002 -974 3790 3842 3806 3791 0
-968 -987 -1002 -973 3791 3842 3806 3790 0
-973 -986 -987 -974 3790 3842 3791 3806 0
-969 -988 -993 -971 3792 3843 3797 3793 0
-969 -989 -993 -970 3793 3843 3797 3792 0
-970 -988 -989 -971 3792 3843 3793 3797 0
-969 -988 -994 -972 3792 3844 3798 3794 0
-969 -990 -994 -970 3794 3844 3798 3792 0
-970 -988 -990 -972 3792 3844 3794 3798 0
-969 -988 -995 -973 3792 3845 3799 3795 0
-969 -991 -995 -970 3795 3845 3799 3792 0
-970 -988 -991 -973 3792 3845 3795 3799 0
-969 -988 -996 -974 3792 3846 3800 3796 0
-969 -992 -996 -970 3796 3846 3800 3792 0
-970 -988 -992 -974 3792 3846 3796 3800 0
-969 -989 -997 -972 3793 3847 3801 3794 0
-969 -990 -997 -971 3794 3847 3801 3793 0
-971 -989 -990 -972 3793 3847 3794 3801 0
-969 -989 -998 -973 3793 3848 3802 3795 0
-969 -991 -998 -971 3795 3848 3802 3793 0
-971 -989 -991 -973 3793 3848 3795 3802 0
-969 -989 -999 -974 3793 3849 3803 3796 0
-969 -992 -999 -971 3796 3849 3803 3793 0
-971 -989 -992 -974 3793 3849 3796 3803 0
-969 -990 -1000 -973 3794 3850 3804 3795 0
-969 -991 -1000 -972 3795 3850 3804 3794 0
-972 -990 -991 -973 3794 3850 3795 3804 0
-969 -990 -1001 -974 3794 3851 3805 3796 0
-969 -992 -1001 -972 3796 3851 3805 3794 0
-972 -990 -992 -974 3794 3851 3796 3805 0
-969 -991 -1002 -974 3795 3852 3806 3796 0
-969 -992 -1002 -973 3796 3852 3806 3795 0
-973 -991 -992 -974 3795 3852 3796 3806 0
-970 -993 -997 -972 3797 3853 3801 3798 0
-970 -994 -997 -971 3798 3853 3801 3797 0
-971 -993 -994 -972 3797 3853 3798 3801 0
-970 -993 -998 -973 3797 3854 3802 3799 0
-970 -995 -998 -971 3799 3854 3802 3797 0
-971 -993 -995 -973 3797 3854 3799 3802 0
-970 -993 -999 -974 3797 3855 3803 3800 0
-970 -996 -999 -971 3800 3855 3803 3797 0
-971 -993 -996 -974 3797 3855 3800 3803 0
-970 -994 -1000 -973 3798 3856 3804 3799 0
-970 -995 -1000 -972 3799 3856 3804 3798 0
-972 -994 -995 -973 3798 3856 3799 3804 0
-970 -994 -1001 -974 3798 3857 3805 3800 0
-970 -996 -1001 -972 3800 3857 3805 3798 0
-972 -994 -996 -974 3798 3857 3800 3805 0
-970 -995 -1002 -974 3799 3858 3806 3800 0
-970 -996 -1002 -973 3800 3858 3806 3799 0
-973 -995 -996 -974 3799 3858 3800 3806 0
-971 -997 -1000 -973 3801 3859 3804 3802 0
-971 -998 -1000 -972 3802 3859 3804 3801 0
-972 -997 -998 -973 3801 3859 3802 3804 0
-971 -997 -1001 -974 3801 3860 3805 3803 0
-971 -999 -1001 -972 3803 3860 3805 3801 0
-972 -997 -999 -974 3801 3860 3803 3805 0
-971 -998 -1002 -974 3802 3861 3806 3803 0
-971 -999 -1002 -973 3803 3861 3806 3802 0
-973 -998 -999 -974 3802 3861 3803 3806 0
-972 -1000 -1002 -974 3804 3862 3806 3805 0
-972 -1001 -1002 -973 3805 3862 3806 3804 0
-973 -1000 -1001 -974 3804 3862 3805 3806 0
-975 -982 -988 -977 3807 3828 3813 3808 0
-975 -983 -988 -976 3808 3828 3813 3807 0
-976 -982 -983 -977 3807 3828 3808 3813 0
-975 -982 -989 -978 3807 3829 3814 3809 0
-975 -984 -989 -976 3809 3829 3814 3807 0
-976 -982 -984 -978 3807 3829 3809 3814 0
-975 -982 -990 -979 3807 3830 3815 3810 0
-975 -985 -990 -976 3810 3830 3815 3807 0
-976 -982 -985 -979 3807 3830 3810 3815 0
-975 -982 -991 -980 3807 3831 3816 3811 0
-975 -986 -991 -976 3811 3831 3816 3807 0
-976 -982 -986 -980 3807 3831 3811 3816 0
-975 -982 -992 -981 3807 3832 3817 3812 0
-975 -987 -992 -976 3812 3832 3817 3807 0
-976 -982 -987 -981 3807 3832 3812 3817 0
-975 -983 -993 -978 3808 3833 3818 3809 0
-975 -984 -993 -977 3809 3833 3818 3808 0
-977 -983 -984 -978 3808 3833 3809 3818 0
-975 -983 -994 -979 3808 3834 3819 3810 0
-975 -985 -994 -977 3810 3834 3819 3808 0
-977 -983 -985 -979 3808 3834 3810 3819 0
-975 -983 -995 -980 3808 3835 3820 3811 0
-975 -986 -995 -977 3811 3835 3820 3808 0
-977 -983 -986 -980 3808 3835 3811 3820 0
-975 -983 -996 -981 3808 3836 3821 3812 0
-975 -987 -996 -977 3812 3836 3821 3808 0
-977 -983 -987 -981 3808 3836 3812 3821 0
-975 -984 -997 -979 3809 3837 3822 3810 0
-975 -985 -997 -978 3810 3837 3822 3809 0
-978 -984 -985 -979 3809 3837 3810 3822 0
-975 -984 -998 -980 3809 3838 3823 3811 0
-975 -986 -998 -978 3811 3838 3823 3809 0
-978 -984 -986 -980 3809 3838 3811 3823 0
-975 -984 -999 -981 3809 3839 3824 3812 0
-975 -987 -999 -978 3812 3839 3824 3809 0
-978 -984 -987 -981 3809 3839 3812 3824 0
-975 -985 -1000 -980 3810 3840 3825 3811 0
-975 -986 -1000 -979 3811 3840 3825 3810 0
-979 -985 -986 -980 3810 3840 3811 3825 0
-975 -985 -1001 -981 3810 3841 3826 3812 0
-975 -987 -1001 -979 3812 3841 3826 3810 0
-979 -985 -987 -981 3810 3841 3812 3826 0
-975 -986 -1002 -981 3811 3842 3827 3812 0
-975 -987 -1002 -980 3812 3842 3827 3811 0
-980 -986 -987 -981 3811 3842 3812 3827 0
-976 -988 -993 -978 3813 3843 3818 3814 0
-976 -989 -993 -977 3814 3843 3818 3813 0
-977 -988 -989 -978 3813 3843 3814 3818 0
-976 -988 -994 -979 3813 3844 3819 3815 0
-976 -990 -994 -977 3815 3844 3819 3813 0
-977 -988 -990 -979 3813 3844 3815 3819 0
-976 -988 -995 -980 3813 3845 3820 3816 0
-976 -991 -995 -977 3816 3845 3820 3813 0
-977 -988 -991 -980 3813 3845 3816 3820 0
-976 -988 -996 -981 3813 3846 3821 3817 0
-976 -992 -996 -977 3817 3846 3821 3813 0
-977 -988 -992 -981 3813 3846 3817 3821 0
-976 -989 -997 -979 3814 3847 3822 3815 0
-976 -990 -997 -978 3815 3847 3822 3814 0
-978 -989 -990 -979 3814 3847 3815 3822 0
-976 -989 -998 -980 3814 3848 3823 3816 0
-976 -991 -998 -978 3816 3848 3823 3814 0
-978 -989 -991 -980 3814 3848 3816 3823 0
-976 -989 -999 -981 3814 3849 3824 3817 0
-976 -992 -999 -978 3817 3849 3824 3814 0
-978 -989 -992 -981 3814 3849 3817 3824 0
-976 -990 -1000 -980 3815 3850 3825 3816 0
-976 -991 -1000 -979 3816 3850 3825 3815 0
-979 -990 -991 -980 3815 3850 3816 3825 0
-976 -990 -1001 -981 3815 3851 3826 3817 0
-976 -992 -1001 -979 3817 3851 3826 3815 0
-979 -990 -992 -981 3815 3851 3817 3826 0
-976 -991 -1002 -981 3816 3852 3827 3817 0
-976 -992 -1002 -980 3817 3852 3827 3816 0
-980 -991 -992 -981 3816 3852 3817 3827 0
-977 -993 -997 -979 3818 3853 3822 3819 0
-977 -994 -997 -978 3819 3853 3822 3818 0
-978 -993 -994 -979 3818 3853 3819 3822 0
-977 -993 -998 -980 3818 3854 3823 3820 0
-977 -995 -998 -978 3820 3854 3823 3818 0
-978 -993 -995 -980 3818 3854 3820 3823 0
-977 -993 -999 -981 3818 3855 3824 3821 0
-977 -996 -999 -978 3821 3855 3824 3818 0
-978 -993 -996 -981 3818 3855 3821 3824 0
-977 -994 -1000 -980 3819 3856 3825 3820 0
-977 -995 -1000 -979 3820 3856 3825 3819 0
-979 -994 -995 -980 3819 3856 3820 3825 0
-977 -994 -1001 -981 3819 3857 3826 3821 0
-977 -996 -1001 -979 3821 3857 3826 3819 0
-979 -994 -996 -981 3819 3857 3821 3826 0
-977 -995 -1002 -981 3820 3858 3827 3821 0
-977 -996 -1002 -980 3821 3858 3827 3820 0
-980 -995 -996 -981 3820 3858 3821 3827 0
-978 -997 -1000 -980 3822 3859 3825 3823 0
-978 -998 -1000 -979 3823 3859 3825 3822 0
-979 -997 -998 -980 3822 3859 3823 3825 0
-978 -997 -1001 -981 3822 3860 3826 3824 0
-978 -999 -1001 -979 3824 3860 3826 3822 0
-979 -997 -999 -981 3822 3860 3824 3826 0
-978 -998 -1002 -981 3823 3861 3827 3824 0
-978 -999 -1002 -980 3824 3861 3827 3823 0
-980 -998 -999 -981 3823 3861 3824 3827 0
-979 -1000 -1002 -981 3825 3862 3827 3826 0
-979 -1001 -1002 -980 3826 3862 3827 3825 0
-980 -1000 -1001 -981 3825 3862 3826 3827 0
-982 -988 -993 -984 3828 3843 3833 3829 0
-982 -989 -993 -983 3829 3843 3833 3828 0
-983 -988 -989 -984 3828 3843 3829 3833 0
-982 -988 -994 -985 3828 3844 3834 3830 0
-982 -990 -994 -983 3830 3844 3834 3828 0
-983 -988 -990 -985 3828 3844 3830 3834 0
-982 -988 -995 -986 3828 3845 3835 3831 0
-982 -991 -995 -983 3831 3845 3835 3828 0
-983 -988 -991 -986 3828 3845 3831 3835 0
-982 -988 -996 -987 3828 3846 3836 3832 0
-982 -992 -996 -983 3832 3846 3836 3828 0
-983 -988 -992 -987 3828 3846 3832 3836 0
-982 -989 -997 -985 3829 3847 3837 3830 0
-982 -990 -997 -984 3830 3847 3837 3829 0
-984 -989 -990 -985 3829 3847 3830 3837 0
-982 -989 -998 -986 3829 3848 3838 3831 0
-982 -991 -998 -984 3831 3848 3838 3829 0
-984 -989 -991 -986 3829 3848 3831 3838 0
-982 -989 -999 -987 3829 3849 3839 3832 0
-982 -992 -999 -984 3832 3849 3839 3829 0
-984 -989 -992 -987 3829 3849 3832 3839 0
-982 -990 -1000 -986 3830 3850 3840 3831 0
-982 -991 -1000 -985 3831 3850 3840 3830 0
-985 -990 -991 -986 3830 3850 3831 3840 0
-982 -990 -1001 -987 3830 3851 3841 3832 0
-982 -992 -1001 -985 3832 3851 3841 3830 0
-985 -990 -992 -987 3830 3851 3832 3841 0
-982 -991 -1002 -987 3831 3852 3842 3832 0
-982 -992 -1002 -986 3832 3852 3842 3831 0
-986 -991 -992 -987 3831 3852 3832 3842 0
-983 -993 -997 -985 3833 3853 3837 3834 0
-983 -994 -997 -984 3834 3853 3837 3833 0
-984 -993 -994 -985 3833 3853 3834 3837 0
-983 -993 -998 -986 3833 3854 3838 3835 0
-983 -995 -998 -984 3835 3854 3838 3833 0
-984 -993 -995 -986 3833 3854 3835 3838 0
-983 -993 -999 -987 3833 3855 3839 3836 0
-983 -996 -999 -984 3836 3855 3839 3833 0
-984 -993 -996 -987 3833 3855 3836 3839 0
-983 -994 -1000 -986 3834 3856 3840 3835 0
-983 -995 -1000 -985 3835 3856 3840 3834 0
-985 -994 -995 -986 3834 3856 3835 3840 0
-983 -994 -1001 -987 3834 3857 3841 3836 0
-983 -996 -1001 -985 3836 3857 3841 3834 0
-985 -994 -996 -987 3834 3857 3836 3841 0
-983 -995 -1002 -987 3835 3858 3842 3836 0
-983 -996 -1002 -986 3836 3858 3842 3835 0
-986 -995 -996 -987 3835 3858 3836 3842 0
-984 -997 -1000 -986 3837 3859 3840 3838 0
-984 -998 -1000 -985 3838 3859 3840 3837 0
-985 -997 -998 -986 3837 3859 3838 3840 0
-984 -997 -1001 -987 3837 3860 3841 3839 0
-984 -999 -1001 -985 3839 3860 3841 3837 0
-985 -997 -999 -987 3837 3860 3839 3841 0
-984 -998 -1002 -987 3838 3861 3842 3839 0
-984 -999 -1002 -986 3839 3861 3842 3838 0
-986 -998 -999 -987 3838 3861 3839 3842 0
-985 -1000 -1002 -987 3840 3862 3842 3841 0
-985 -1001 -1002 -986 3841 3862 3842 3840 0
-986 -1000 -1001 -987 3840 3862 3841 3842 0
-988 -993 -997 -990 3843 3853 3847 3844 0
-988 -994 -997 -989 3844 3853 3847 3843 0
-989 -993 -994 -990 3843 3853 3844 3847 0
-988 -993 -998 -991 3843 3854 3848 3845 0
-988 -995 -998 -989 3845 3854 3848 3843 0
-989 -993 -995 -991 3843 3854 3845 3848 0
-988 -993 -999 -992 3843 3855 3849 3846 0
-988 -996 -999 -989 3846 3855 3849 3843 0
-989 -993 -996 -992 3843 3855 3846 3849 0
-988 -994 -1000 -991 3844 3856 3850 3845 0
-988 -995 -1000 -990 3845 3856 3850 3844 0
-990 -994 -995 -991 3844 3856 3845 3850 0
-988 -994 -1001 -992 3844 3857 3851 3846 0
-988 -996 -1001 -990 3846 3857 3851 3844 0
-990 -994 -996 -992 3844 3857 3846 3851 0
-988 -995 -1002 -992 3845 3858 3852 3846 0
-988 -996 -1002 -991 3846 3858 3852 3845 0
-991 -995 -996 -992 3845 3858 3846 3852 0
-989 -997 -1000 -991 3847 3859 3850 3848 0
-989 -998 -1000 -990 3848 3859 3850 3847 0
-990 -997 -998 -991 3847 3859 3848 3850 0
-989 -997 -1001 -992 3847 3860 3851 3849 0
-989 -999 -1001 -990 3849 3860 3851 3847 0
-990 -997 -999 -992 3847 3860 3849 3851 0
-989 -998 -1002 -992 3848 3861 3852 3849 0
-989 -999 -1002 -991 3849 3861 3852 3848 0
-991 -998 -999 -992 3848 3861 3849 3852 0
-990 -1000 -1002 -992 3850 3862 3852 3851 0
-990 -1001 -1002 -991 3851 3862 3852 3850 0
-991 -1000 -1001 -992 3850 3862 3851 3852 0
-993 -997 -1000 -995 3853 3859 3856 3854 0
-993 -998 -1000 -994 3854 3859 3856 3853 0
-994 -997 -998 -995 3853 3859 3854 3856 0
-993 -997 -1001 -996 3853 3860 3857 3855 0
-993 -999 -1001 -994 3855 3860 3857 3853 0
-994 -997 -999 -996 3853 3860 3855 3857 0
-993 -998 -1002 -996 3854 3861 3858 3855 0
-993 -999 -1002 -995 3855 3861 3858 3854 0
-995 -998 -999 -996 3854 3861 3855 3858 0
-994 -1000 -1002 -996 3856 3862 3858 3857 0
-994 -1001 -1002 -995 3857 3862 3858 3856 0
-995 -1000 -1001 -996 3856 3862 3857 3858 0
-997 -1000 -1002 -999 3859 3862 3861 3860 0
-997 -1001 -1002 -998 3860 3862 3861 3859 0
-998 -1000 -1001 -999 3859 3862 3860 3861 0
5857 0
-5857 2 -3 0
-5858 5857 0
-5858 2 -3 0
-5858 -2 3 0
-5857 -2 -3 5858 0
-5857 2 3 5858 0
-5858 14 -15 0
-5859 5858 0
-5859 14 -15 0
-5859 -14 15 0
-5858 -14 -15 5859 0
-5858 14 15 5859 0
-5859 26 -27 0
-5860 5859 0
-5860 26 -27 0
-5860 -26 27 0
-5859 -26 -27 5860 0
-5859 26 27 5860 0
-5860 38 -39 0
-5861 5860 0
-5861 38 -39 0
-5861 -38 39 0
-5860 -38 -39 5861 0
-5860 38 39 5861 0
-5861 50 -51 0
-5862 5861 0
-5862 50 -51 0
-5862 -50 51 0
-5861 -50 -51 5862 0
-5861 50 51 5862 0
-5862 62 -63 0
-5863 5862 0
-5863 62 -63 0
-5863 -62 63 0
-5862 -62 -63 5863 0
-5862 62 63 5863 0
-5863 74 -75 0
-5864 5863 0
-5864 74 -75 0
-5864 -74 75 0
-5863 -74 -75 5864 0
-5863 74 75 5864 0
-5864 86 -87 0
-5865 5864 0
-5865 86 -87 0
-5865 -86 87 0
-5864 -86 -87 5865 0
-5864 86 87 5865 0
-5865 98 -99 0
-5866 5865 0
-5866 98 -99 0
-5866 -98 99 0
-5865 -98 -99 5866 0
-5865 98 99 5866 0
-5866 110 -111 0
-5867 5866 0
-5867 110 -111 0
-5867 -110 111 0
-5866 -110 -111 5867 0
-5866 110 111 5867 0
-5867 122 -123 0
-5868 5867 0
-5868 122 -123 0
-5868 -122 123 0
-5867 -122 -123 5868 0
-5867 122 123 5868 0
-5868 134 -135 0
-5869 5868 0
-5869 134 -135 0
-5869 -134 135 0
-5868 -134 -135 5869 0
-5868 134 135 5869 0
5870 0
-5870 3 -4 0
-5871 5870 0
-5871 3 -4 0
-5871 -3 4 0
-5870 -3 -4 5871 0
-5870 3 4 5871 0
-5871 15 -16 0
-5872 5871 0
-5872 15 -16 0
-5872 -15 16 0
-5871 -15 -16 5872 0
-5871 15 16 5872 0
-5872 27 -28 0
-5873 5872 0
-5873 27 -28 0
-5873 -27 28 0
-5872 -27 -28 5873 0
-5872 27 28 5873 0
-5873 39 -40 0
-5874 5873 0
-5874 39 -40 0
-5874 -39 40 0
-5873 -39 -40 5874 0
-5873 39 40 5874 0
-5874 51 -52 0
-5875 5874 0
-5875 51 -52 0
-5875 -51 52 0
-5874 -51 -52 5875 0
-5874 51 52 5875 0
-5875 63 -64 0
-5876 5875 0
-5876 63 -64 0
-5876 -63 64 0
-5875 -63 -64 5876 0
-5875 63 64 5876 0
-5876 75 -76 0
-5877 5876 0
-5877 75 -76 0
-5877 -75 76 0
-5876 -75 -76 5877 0
-5876 75 76 5877 0
-5877 87 -88 0
-5878 5877 0
-5878 87 -88 0
-5878 -87 88 0
-5877 -87 -88 5878 0
-5877 87 88 5878 0
-5878 99 -100 0
-5879 5878 0
-5879 99 -100 0
-5879 -99 100 0
-5878 -99 -100 5879 0
-5878 99 100 5879 0
-5879 111 -112 0
-5880 5879 0
-5880 111 -112 0
-5880 -111 112 0
-5879 -111 -112 5880 0
-5879 111 112 5880 0
-5880 123 -124 0
-5881 5880 0
-5881 123 -124 0
-5881 -123 124 0
-5880 -123 -124 5881 0
-5880 123 124 5881 0
-5881 135 -136 0
-5882 5881 0
-5882 135 -136 0
-5882 -135 136 0
-5881 -135 -136 5882 0
-5881 135 136 5882 0
5883 0
-5883 4 -5 0
-5884 5883 0
-5884 4 -5 0
-5884 -4 5 0
-5883 -4 -5 5884 0
-5883 4 5 5884 0
-5884 16 -17 0
-5885 5884 0
-5885 16 -17 0
-5885 -16 17 0
-5884 -16 -17 5885 0
-5884 16 17 5885 0
-5885 28 -29 0
-5886 5885 0
-5886 28 -29 0
-5886 -28 29 0
-5885 -28 -29 5886 0
-5885 28 29 5886 0
-5886 40 -41 0
-5887 5886 0
-5887 40 -41 0
-5887 -40 41 0
-5886 -40 -41 5887 0
-5886 40 41 5887 0
-5887 52 -53 0
-5888 5887 0
-5888 52 -53 0
-5888 -52 53 0
-5887 -52 -53 5888 0
-5887 52 53 5888 0
-5888 64 -65 0
-5889 5888 0
-5889 64 -65 0
-5889 -64 65 0
-5888 -64 -65 5889 0
-5888 64 65 5889 0
-5889 76 -77 0
-5890 5889 0
-5890 76 -77 0
-5890 -76 77 0
-5889 -76 -77 5890 0
-5889 76 77 5890 0
-5890 88 -89 0
-5891 5890 0
-5891 88 -89 0
-5891 -88 89 0
-5890 -88 -89 5891 0
-5890 88 89 5891 0
-5891 100 -101 0
-5892 5891 0
-5892 100 -101 0
-5892 -100 101 0
-5891 -100 -101 5892 0
-5891 100 101 5892 0
-5892 112 -113 0
-5893 5892 0
-5893 112 -113 0
-5893 -112 113 0
-5892 -112 -113 5893 0
-5892 112 113 5893 0
-5893 124 -125 0
-5894 5893 0
-5894 124 -125 0
-5894 -124 125 0
-5893 -124 -125 5894 0
-5893 124 125 5894 0
-5894 136 -137 0
-5895 5894 0
-5895 136 -137 0
-5895 -136 137 0
-5894 -136 -137 5895 0
-5894 136 137 5895 0
5896 0
-5896 5 -6 0
-5897 5896 0
-5897 5 -6 0
-5897 -5 6 0
-5896 -5 -6 5897 0
-5896 5 6 5897 0
-5897 17 -18 0
-5898 5897 0
-5898 17 -18 0
-5898 -17 18 0
-5897 -17 -18 5898 0
-5897 17 18 5898 0
-5898 29 -30 0
-5899 5898 0
-5899 29 -30 0
-5899 -29 30 0
-5898 -29 -30 5899 0
-5898 29 30 5899 0
-5899 41 -42 0
-5900 5899 0
-5900 41 -42 0
-5900 -41 42 0
-5899 -41 -42 5900 0
-5899 41 42 5900 0
-5900 53 -54 0
-5901 5900 0
-5901 53 -54 0
-5901 -53 54 0
-5900 -53 -54 5901 0
-5900 53 54 5901 0
-5901 65 -66 0
-5902 5901 0
-5902 65 -66 0
-5902 -65 66 0
-5901 -65 -66 5902 0
-5901 65 66 5902 0
-5902 77 -78 0
-5903 5902 0
-5903 77 -78 0
-5903 -77 78 0
-5902 -77 -78 5903 0
-5902 77 78 5903 0
-5903 89 -90 0
-5904 5903 0
-5904 89 -90 0
-5904 -89 90 0
-5903 -89 -90 5904 0
-5903 89 90 5904 0
-5904 101 -102 0
-5905 5904 0
-5905 101 -102 0
-5905 -101 102 0
-5904 -101 -102 5905 0
-5904 101 102 5905 0
-5905 113 -114 0
-5906 5905 0
-5906 113 -114 0
-5906 -113 114 0
-5905 -113 -114 5906 0
-5905 113 114 5906 0
-5906 125 -126 0
-5907 5906 0
-5907 125 -126 0
-5907 -125 126 0
-5906 -125 -126 5907 0
-5906 125 126 5907 0
-5907 137 -138 0
-5908 5907 0
-5908 137 -138 0
-5908 -137 138 0
-5907 -137 -138 5908 0
-5907 137 138 5908 0
5909 0
-5909 6 -7 0
-5910 5909 0
-5910 6 -7 0
-5910 -6 7 0
-5909 -6 -7 5910 0
-5909 6 7 5910 0
-5910 18 -19 0
-5911 5910 0
-5911 18 -19 0
-5911 -18 19 0
-5910 -18 -19 5911 0
-5910 18 19 5911 0
-5911 30 -31 0
-5912 5911 0
-5912 30 -31 0
-5912 -30 31 0
-5911 -30 -31 5912 0
-5911 30 31 5912 0
-5912 42 -43 0
-5913 5912 0
-5913 42 -43 0
-5913 -42 43 0
-5912 -42 -43 5913 0
-5912 42 43 5913 0
-5913 54 -55 0
-5914 5913 0
-5914 54 -55 0
-5914 -54 55 0
-5913 -54 -55 5914 0
-5913 54 55 5914 0
-5914 66 -67 0
-5915 5914 0
-5915 66 -67 0
-5915 -66 67 0
-5914 -66 -67 5915 0
-5914 66 67 5915 0
-5915 78 -79 0
-5916 5915 0
-5916 78 -79 0
-5916 -78 79 0
-5915 -78 -79 5916 0
-5915 78 79 5916 0
-5916 90 -91 0
-5917 5916 0
-5917 90 -91 0
-5917 -90 91 0
-5916 -90 -91 5917 0
-5916 90 91 5917 0
-5917 102 -103 0
-5918 5917 0
-5918 102 -103 0
-5918 -102 103 0
-5917 -102 -103 5918 0
-5917 102 103 5918 0
-5918 114 -115 0
-5919 5918 0
-5919 114 -115 0
-5919 -114 115 0
-5918 -114 -115 5919 0
-5918 114 115 5919 0
-5919 126 -127 0
-5920 5919 0
-5920 126 -127 0
-5920 -126 127 0
-5919 -126 -127 5920 0
-5919 126 127 5920 0
-5920 138 -139 0
-5921 5920 0
-5921 138 -139 0
-5921 -138 139 0
-5920 -138 -139 5921 0
-5920 138 139 5921 0
5922 0
-5922 7 -8 0
-5923 5922 0
-5923 7 -8 0
-5923 -7 8 0
-5922 -7 -8 5923 0
-5922 7 8 5923 0
-5923 19 -20 0
-5924 5923 0
-5924 19 -20 0
-5924 -19 20 0
-5923 -19 -20 5924 0
-5923 19 20 5924 0
-5924 31 -32 0
-5925 5924 0
-5925 31 -32 0
-5925 -31 32 0
-5924 -31 -32 5925 0
-5924 31 32 5925 0
-5925 43 -44 0
-5926 5925 0
-5926 43 -44 0
-5926 -43 44 0
-5925 -43 -44 5926 0
-5925 43 44 5926 0
-5926 55 -56 0
-5927 5926 0
-5927 55 -56 0
-5927 -55 56 0
-5926 -55 -56 5927 0
-5926 55 56 5927 0
-5927 67 -68 0
-5928 5927 0
-5928 67 -68 0
-5928 -67 68 0
-5927 -67 -68 5928 0
-5927 67 68 5928 0
-5928 79 -80 0
-5929 5928 0
-5929 79 -80 0
-5929 -79 80 0
-5928 -79 -80 5929 0
-5928 79 80 5929 0
-5929 91 -92 0
-5930 5929 0
-5930 91 -92 0
-5930 -91 92 0
-5929 -91 -92 5930 0
-5929 91 92 5930 0
-5930 103 -104 0
-5931 5930 0
-5931 103 -104 0
-5931 -103 104 0
-5930 -103 -104 5931 0
-5930 103 104 5931 0
-5931 115 -116 0
-5932 5931 0
-5932 115 -116 0
-5932 -115 116 0
-5931 -115 -116 5932 0
-5931 115 116 5932 0
-5932 127 -128 0
-5933 5932 0
-5933 127 -128 0
-5933 -127 128 0
-5932 -127 -128 5933 0
-5932 127 128 5933 0
-5933 139 -140 0
-5934 5933 0
-5934 139 -140 0
-5934 -139 140 0
-5933 -139 -140 5934 0
-5933 139 140 5934 0
5935 0
-5935 8 -9 0
-5936 5935 0
-5936 8 -9 0
-5936 -8 9 0
-5935 -8 -9 5936 0
-5935 8 9 5936 0
-5936 20 -21 0
-5937 5936 0
-5937 20 -21 0
-5937 -20 21 0
-5936 -20 -21 5937 0
-5936 20 21 5937 0
-5937 32 -33 0
-5938 5937 0
-5938 32 -33 0
-5938 -32 33 0
-5937 -32 -33 5938 0
-5937 32 33 5938 0
-5938 44 -45 0
-5939 5938 0
-5939 44 -45 0
-5939 -44 45 0
-5938 -44 -45 5939 0
-5938 44 45 5939 0
-5939 56 -57 0
-5940 5939 0
-5940 56 -57 0
-5940 -56 57 0
-5939 -56 -57 5940 0
-5939 56 57 5940 0
-5940 68 -69 0
-5941 5940 0
-5941 68 -69 0
-5941 -68 69 0
-5940 -68 -69 5941 0
-5940 68 69 5941 0
-5941 80 -81 0
-5942 5941 0
-5942 80 -81 0
-5942 -80 81 0
-5941 -80 -81 5942 0
-5941 80 81 5942 0
-5942 92 -93 0
-5943 5942 0
-5943 92 -93 0
-5943 -92 93 0
-5942 -92 -93 5943 0
-5942 92 93 5943 0
-5943 104 -105 0
-5944 5943 0
-5944 104 -105 0
-5944 -104 105 0
-5943 -104 -105 5944 0
-5943 104 105 5944 0
-5944 116 -117 0
-5945 5944 0
-5945 116 -117 0
-5945 -116 117 0
-5944 -116 -117 5945 0
-5944 116 117 5945 0
-5945 128 -129 0
-5946 5945 0
-5946 128 -129 0
-5946 -128 129 0
-5945 -128 -129 5946 0
-5945 128 129 5946 0
-5946 140 -141 0
-5947 5946 0
-5947 140 -141 0
-5947 -140 141 0
-5946 -140 -141 5947 0
-5946 140 141 5947 0
5948 0
-5948 9 -10 0
-5949 5948 0
-5949 9 -10 0
-5949 -9 10 0
-5948 -9 -10 5949 0
-5948 9 10 5949 0
-5949 21 -22 0
-5950 5949 0
-5950 21 -22 0
-5950 -21 22 0
-5949 -21 -22 5950 0
-5949 21 22 5950 0
-5950 33 -34 0
-5951 5950 0
-5951 33 -34 0
-5951 -33 34 0
-5950 -33 -34 5951 0
-5950 33 34 5951 0
-5951 45 -46 0
-5952 5951 0
-5952 45 -46 0
-5952 -45 46 0
-5951 -45 -46 5952 0
-5951 45 46 5952 0
-5952 57 -58 0
-5953 5952 0
-5953 57 -58 0
-5953 -57 58 0
-5952 -57 -58 5953 0
-5952 57 58 5953 0
-5953 69 -70 0
-5954 5953 0
-5954 69 -70 0
-5954 -69 70 0
-5953 -69 -70 5954 0
-5953 69 70 5954 0
-5954 81 -82 0
-5955 5954 0
-5955 81 -82 0
-5955 -81 82 0
-5954 -81 -82 5955 0
-5954 81 82 5955 0
-5955 93 -94 0
-5956 5955 0
-5956 93 -94 0
-5956 -93 94 0
-5955 -93 -94 5956 0
-5955 93 94 5956 0
-5956 105 -106 0
-5957 5956 0
-5957 105 -106 0
-5957 -105 106 0
-5956 -105 -106 5957 0
-5956 105 106 5957 0
-5957 117 -118 0
-5958 5957 0
-5958 117 -118 0
-5958 -117 118 0
-5957 -117 -118 5958 0
-5957 117 118 5958 0
-5958 129 -130 0
-5959 5958 0
-5959 129 -130 0
-5959 -129 130 0
-5958 -129 -130 5959 0
-5958 129 130 5959 0
-5959 141 -142 0
-5960 5959 0
-5960 141 -142 0
-5960 -141 142 0
-5959 -141 -142 5960 0
-5959 141 142 5960 0
5961 0
-5961 10 -11 0
-5962 5961 0
-5962 10 -11 0
-5962 -10 11 0
-5961 -10 -11 5962 0
-5961 10 11 5962 0
-5962 22 -23 0
-5963 5962 0
-5963 22 -23 0
-5963 -22 23 0
-5962 -22 -23 5963 0
-5962 22 23 5963 0
-5963 34 -35 0
-5964 5963 0
-5964 34 -35 0
-5964 -34 35 0
-5963 -34 -35 5964 0
-5963 34 35 5964 0
-5964 46 -47 0
-5965 5964 0
-5965 46 -47 0
-5965 -46 47 0
-5964 -46 -47 5965 0
-5964 46 47 5965 0
-5965 58 -59 0
-5966 5965 0
-5966 58 -59 0
-5966 -58 59 0
-5965 -58 -59 5966 0
-5965 58 59 5966 0
-5966 70 -71 0
-5967 5966 0
-5967 70 -71 0
-5967 -70 71 0
-5966 -70 -71 5967 0
-5966 70 71 5967 0
-5967 82 -83 0
-5968 5967 0
-5968 82 -83 0
-5968 -82 83 0
-5967 -82 -83 5968 0
-5967 82 83 5968 0
-5968 94 -95 0
-5969 5968 0
-5969 94 -95 0
-5969 -94 95 0
-5968 -94 -95 5969 0
-5968 94 95 5969 0
-5969 106 -107 0
-5970 5969 0
-5970 106 -107 0
-5970 -106 107 0
-5969 -106 -107 5970 0
-5969 106 107 5970 0
-5970 118 -119 0
-5971 5970 0
-5971 118 -119 0
-5971 -118 119 0
-5970 -118 -119 5971 0
-5970 118 119 5971 0
-5971 130 -131 0
-5972 5971 0
-5972 130 -131 0
-5972 -130 131 0
-5971 -130 -131 5972 0
-5971 130 131 5972 0
-5972 142 -143 0
-5973 5972 0
-5973 142 -143 0
-5973 -142 143 0
-5972 -142 -143 5973 0
-5972 142 143 5973 0
5974 0
-5974 11 -12 0
-5975 5974 0
-5975 11 -12 0
-5975 -11 12 0
-5974 -11 -12 5975 0
-5974 11 12 5975 0
-5975 23 -24 0
-5976 5975 0
-5976 23 -24 0
-5976 -23 24 0
-5975 -23 -24 5976 0
-5975 23 24 5976 0
-5976 35 -36 0
-5977 5976 0
-5977 35 -36 0
-5977 -35 36 0
-5976 -35 -36 5977 0
-5976 35 36 5977 0
-5977 47 -48 0
-5978 5977 0
-5978 47 -48 0
-5978 -47 48 0
-5977 -47 -48 5978 0
-5977 47 48 5978 0
-5978 59 -60 0
-5979 5978 0
-5979 59 -60 0
-5979 -59 60 0
-5978 -59 -60 5979 0
-5978 59 60 5979 0
-5979 71 -72 0
-5980 5979 0
-5980 71 -72 0
-5980 -71 72 0
-5979 -71 -72 5980 0
-5979 71 72 5980 0
-5980 83 -84 0
-5981 5980 0
-5981 83 -84 0
-5981 -83 84 0
-5980 -83 -84 5981 0
-5980 83 84 5981 0
-5981 95 -96 0
-5982 5981 0
-5982 95 -96 0
-5982 -95 96 0
-5981 -95 -96 5982 0
-5981 95 96 5982 0
-5982 107 -108 0
-5983 5982 0
-5983 107 -108 0
-5983 -107 108 0
-5982 -107 -108 5983 0
-5982 107 108 5983 0
-5983 119 -120 0
-5984 5983 0
-5984 119 -120 0
-5984 -119 120 0
-5983 -119 -120 5984 0
-5983 119 120 5984 0
-5984 131 -132 0
-5985 5984 0
-5985 131 -132 0
-5985 -131 132 0
-5984 -131 -132 5985 0
-5984 131 132 5985 0
-5985 143 -144 0
-5986 5985 0
-5986 143 -144 0
-5986 -143 144 0
-5985 -143 -144 5986 0
-5985 143 144 5986 0
5987 0
-5987 13 -25 0
-5988 5987 0
-5988 13 -25 0
-5988 -13 25 0
-5987 -13 -25 5988 0
-5987 13 25 5988 0
-5988 14 -26 0
-5989 5988 0
-5989 14 -26 0
-5989 -14 26 0
-5988 -14 -26 5989 0
-5988 14 26 5989 0
-5989 15 -27 0
-5990 5989 0
-5990 15 -27 0
-5990 -15 27 0
-5989 -15 -27 5990 0
-5989 15 27 5990 0
-5990 16 -28 0
-5991 5990 0
-5991 16 -28 0
-5991 -16 28 0
-5990 -16 -28 5991 0
-5990 16 28 5991 0
-5991 17 -29 0
-5992 5991 0
-5992 17 -29 0
-5992 -17 29 0
-5991 -17 -29 5992 0
-5991 17 29 5992 0
-5992 18 -30 0
-5993 5992 0
-5993 18 -30 0
-5993 -18 30 0
-5992 -18 -30 5993 0
-5992 18 30 5993 0
-5993 19 -31 0
-5994 5993 0
-5994 19 -31 0
-5994 -19 31 0
-5993 -19 -31 5994 0
-5993 19 31 5994 0
-5994 20 -32 0
-5995 5994 0
-5995 20 -32 0
-5995 -20 32 0
-5994 -20 -32 5995 0
-5994 20 32 5995 0
-5995 21 -33 0
-5996 5995 0
-5996 21 -33 0
-5996 -21 33 0
-5995 -21 -33 5996 0
-5995 21 33 5996 0
-5996 22 -34 0
-5997 5996 0
-5997 22 -34 0
-5997 -22 34 0
-5996 -22 -34 5997 0
-5996 22 34 5997 0
-5997 23 -35 0
-5998 5997 0
-5998 23 -35 0
-5998 -23 35 0
-5997 -23 -35 5998 0
-5997 23 35 5998 0
-5998 24 -36 0
-5999 5998 0
-5999 24 -36 0
-5999 -24 36 0
-5998 -24 -36 5999 0
-5998 24 36 5999 0
6000 0
-6000 25 -37 0
-6001 6000 0
-6001 25 -37 0
-6001 -25 37 0
-6000 -25 -37 6001 0
-6000 25 37 6001 0
-6001 26 -38 0
-6002 6001 0
-6002 26 -38 0
-6002 -26 38 0
-6001 -26 -38 6002 0
-6001 26 38 6002 0
-6002 27 -39 0
-6003 6002 0
-6003 27 -39 0
-6003 -27 39 0
-6002 -27 -39 6003 0
-6002 27 39 6003 0
-6003 28 -40 0
-6004 6003 0
-6004 28 -40 0
-6004 -28 40 0
-6003 -28 -40 6004 0
-6003 28 40 6004 0
-6004 29 -41 0
-6005 6004 0
-6005 29 -41 0
-6005 -29 41 0
-6004 -29 -41 6005 0
-6004 29 41 6005 0
-6005 30 -42 0
-6006 6005 0
-6006 30 -42 0
-6006 -30 42 0
-6005 -30 -42 6006 0
-6005 30 42 6006 0
-6006 31 -43 0
-6007 6006 0
-6007 31 -43 0
-6007 -31 43 0
-6006 -31 -43 6007 0
-6006 31 43 6007 0
-6007 32 -44 0
-6008 6007 0
-6008 32 -44 0
-6008 -32 44 0
-6007 -32 -44 6008 0
-6007 32 44 6008 0
-6008 33 -45 0
-6009 6008 0
-6009 33 -45 0
-6009 -33 45 0
-6008 -33 -45 6009 0
-6008 33 45 6009 0
-6009 34 -46 0
-6010 6009 0
-6010 34 -46 0
-6010 -34 46 0
-6009 -34 -46 6010 0
-6009 34 46 6010 0
-6010 35 -47 0
-6011 6010 0
-6011 35 -47 0
-6011 -35 47 0
-6010 -35 -47 6011 0
-6010 35 47 6011 0
-6011 36 -48 0
-6012 6011 0
-6012 36 -48 0
-6012 -36 48 0
-6011 -36 -48 6012 0
-6011 36 48 6012 0
6013 0
-6013 37 -49 0
-6014 6013 0
-6014 37 -49 0
-6014 -37 49 0
-6013 -37 -49 6014 0
-6013 37 49 6014 0
-6014 38 -50 0
-6015 6014 0
-6015 38 -50 0
-6015 -38 50 0
-6014 -38 -50 6015 0
-6014 38 50 6015 0
-6015 39 -51 0
-6016 6015 0
-6016 39 -51 0
-6016 -39 51 0
-6015 -39 -51 6016 0
-6015 39 51 6016 0
-6016 40 -52 0
-6017 6016 0
-6017 40 -52 0
-6017 -40 52 0
-6016 -40 -52 6017 0
-6016 40 52 6017 0
-6017 41 -53 0
-6018 6017 0
-6018 41 -53 0
-6018 -41 53 0
-6017 -41 -53 6018 0
-6017 41 53 6018 0
-6018 42 -54 0
-6019 6018 0
-6019 42 -54 0
-6019 -42 54 0
-6018 -42 -54 6019 0
-6018 42 54 6019 0
-6019 43 -55 0
-6020 6019 0
-6020 43 -55 0
-6020 -43 55 0
-6019 -43 -55 6020 0
-6019 43 55 6020 0
-6020 44 -56 0
-6021 6020 0
-6021 44 -56 0
-6021 -44 56 0
-6020 -44 -56 6021 0
-6020 44 56 6021 0
-6021 45 -57 0
-6022 6021 0
-6022 45 -57 0
-6022 -45 57 0
-6021 -45 -57 6022 0
-6021 45 57 6022 0
-6022 46 -58 0
-6023 6022 0
-6023 46 -58 0
-6023 -46 58 0
-6022 -46 -58 6023 0
-6022 46 58 6023 0
-6023 47 -59 0
-6024 6023 0
-6024 47 -59 0
-6024 -47 59 0
-6023 -47 -59 6024 0
-6023 47 59 6024 0
-6024 48 -60 0
-6025 6024 0
-6025 48 -60 0
-6025 -48 60 0
-6024 -48 -60 6025 0
-6024 48 60 6025 0
6026 0
-6026 49 -61 0
-6027 6026 0
-6027 49 -61 0
-6027 -49 61 0
-6026 -49 -61 6027 0
-6026 49 61 6027 0
-6027 50 -62 0
-6028 6027 0
-6028 50 -62 0
-6028 -50 62 0
-6027 -50 -62 6028 0
-6027 50 62 6028 0
-6028 51 -63 0
-6029 6028 0
-6029 51 -63 0
-6029 -51 63 0
-6028 -51 -63 6029 0
-6028 51 63 6029 0
-6029 52 -64 0
-6030 6029 0
-6030 52 -64 0
-6030 -52 64 0
-6029 -52 -64 6030 0
-6029 52 64 6030 0
-6030 53 -65 0
-6031 6030 0
-6031 53 -65 0
-6031 -53 65 0
-6030 -53 -65 6031 0
-6030 53 65 6031 0
-6031 54 -66 0
-6032 6031 0
-6032 54 -66 0
-6032 -54 66 0
-6031 -54 -66 6032 0
-6031 54 66 6032 0
-6032 55 -67 0
-6033 6032 0
-6033 55 -67 0
-6033 -55 67 0
-6032 -55 -67 6033 0
-6032 55 67 6033 0
-6033 56 -68 0
-6034 6033 0
-6034 56 -68 0
-6034 -56 68 0
-6033 -56 -68 6034 0
-6033 56 68 6034 0
-6034 57 -69 0
-6035 6034 0
-6035 57 -69 0
-6035 -57 69 0
-6034 -57 -69 6035 0
-6034 57 69 6035 0
-6035 58 -70 0
-6036 6035 0
-6036 58 -70 0
-6036 -58 70 0
-6035 -58 -70 6036 0
-6035 58 70 6036 0
-6036 59 -71 0
-6037 6036 0
-6037 59 -71 0
-6037 -59 71 0
-6036 -59 -71 6037 0
-6036 59 71 6037 0
-6037 60 -72 0
-6038 6037 0
-6038 60 -72 0
-6038 -60 72 0
-6037 -60 -72 6038 0
-6037 60 72 6038 0
6039 0
-6039 61 -73 0
-6040 6039 0
-6040 61 -73 0
-6040 -61 73 0
-6039 -61 -73 6040 0
-6039 61 73 6040 0
-6040 62 -74 0
-6041 6040 0
-6041 62 -74 0
-6041 -62 74 0
-6040 -62 -74 6041 0
-6040 62 74 6041 0
-6041 63 -75 0
-6042 6041 0
-6042 63 -75 0
-6042 -63 75 0
-6041 -63 -75 6042 0
-6041 63 75 6042 0
-6042 64 -76 0
-6043 6042 0
-6043 64 -76 0
-6043 -64 76 0
-6042 -64 -76 6043 0
-6042 64 76 6043 0
-6043 65 -77 0
-6044 6043 0
-6044 65 -77 0
-6044 -65 77 0
-6043 -65 -77 6044 0
-6043 65 77 6044 0
-6044 66 -78 0
-6045 6044 0
-6045 66 -78 0
-6045 -66 78 0
-6044 -66 -78 6045 0
-6044 66 78 6045 0
-6045 67 -79 0
-6046 6045 0
-6046 67 -79 0
-6046 -67 79 0
-6045 -67 -79 6046 0
-6045 67 79 6046 0
-6046 68 -80 0
-6047 6046 0
-6047 68 -80 0
-6047 -68 80 0
-6046 -68 -80 6047 0
-6046 68 80 6047 0
-6047 69 -81 0
-6048 6047 0
-6048 69 -81 0
-6048 -69 81 0
-6047 -69 -81 6048 0
-6047 69 81 6048 0
-6048 70 -82 0
-6049 6048 0
-6049 70 -82 0
-6049 -70 82 0
-6048 -70 -82 6049 0
-6048 70 82 6049 0
-6049 71 -83 0
-6050 6049 0
-6050 71 -83 0
-6050 -71 83 0
-6049 -71 -83 6050 0
-6049 71 83 6050 0
-6050 72 -84 0
-6051 6050 0
-6051 72 -84 0
-6051 -72 84 0
-6050 -72 -84 6051 0
-6050 72 84 6051 0
6052 0
-6052 73 -85 0
-6053 6052 0
-6053 73 -85 0
-6053 -73 85 0
-6052 -73 -85 6053 0
-6052 73 85 6053 0
-6053 74 -86 0
-6054 6053 0
-6054 74 -86 0
-6054 -74 86 0
-6053 -74 -86 6054 0
-6053 74 86 6054 0
-6054 75 -87 0
-6055 6054 0
-6055 75 -87 0
-6055 -75 87 0
-6054 -75 -87 6055 0
-6054 75 87 6055 0
-6055 76 -88 0
-6056 6055 0
-6056 76 -88 0
-6056 -76 88 0
-6055 -76 -88 6056 0
-6055 76 88 6056 0
-6056 77 -89 0
-6057 6056 0
-6057 77 -89 0
-6057 -77 89 0
-6056 -77 -89 6057 0
-6056 77 89 6057 0
-6057 78 -90 0
-6058 6057 0
-6058 78 -90 0
-6058 -78 90 0
-6057 -78 -90 6058 0
-6057 78 90 6058 0
-6058 79 -91 0
-6059 6058 0
-6059 79 -91 0
-6059 -79 91 0
-6058 -79 -91 6059 0
-6058 79 91 6059 0
-6059 80 -92 0
-6060 6059 0
-6060 80 -92 0
-6060 -80 92 0
-6059 -80 -92 6060 0
-6059 80 92 6060 0
-6060 81 -93 0
-6061 6060 0
-6061 81 -93 0
-6061 -81 93 0
-6060 -81 -93 6061 0
-6060 81 93 6061 0
-6061 82 -94 0
-6062 6061 0
-6062 82 -94 0
-6062 -82 94 0
-6061 -82 -94 6062 0
-6061 82 94 6062 0
-6062 83 -95 0
-6063 6062 0
-6063 83 -95 0
-6063 -83 95 0
-6062 -83 -95 6063 0
-6062 83 95 6063 0
-6063 84 -96 0
-6064 6063 0
-6064 84 -96 0
-6064 -84 96 0
-6063 -84 -96 6064 0
-6063 84 96 6064 0
6065 0
-6065 85 -97 0
-6066 6065 0
-6066 85 -97 0
-6066 -85 97 0
-6065 -85 -97 6066 0
-6065 85 97 6066 0
-6066 86 -98 0
-6067 6066 0
-6067 86 -98 0
-6067 -86 98 0
-6066 -86 -98 6067 0
-6066 86 98 6067 0
-6067 87 -99 0
-6068 6067 0
-6068 87 -99 0
-6068 -87 99 0
-6067 -87 -99 6068 0
-6067 87 99 6068 0
-6068 88 -100 0
-6069 6068 0
-6069 88 -100 0
-6069 -88 100 0
-6068 -88 -100 6069 0
-6068 88 100 6069 0
-6069 89 -101 0
-6070 6069 0
-6070 89 -101 0
-6070 -89 101 0
-6069 -89 -101 6070 0
-6069 89 101 6070 0
-6070 90 -102 0
-6071 6070 0
-6071 90 -102 0
-6071 -90 102 0
-6070 -90 -102 6071 0
-6070 90 102 6071 0
-6071 91 -103 0
-6072 6071 0
-6072 91 -103 0
-6072 -91 103 0
-6071 -91 -103 6072 0
-6071 91 103 6072 0
-6072 92 -104 0
-6073 6072 0
-6073 92 -104 0
-6073 -92 104 0
-6072 -92 -104 6073 0
-6072 92 104 6073 0
-6073 93 -105 0
-6074 6073 0
-6074 93 -105 0
-6074 -93 105 0
-6073 -93 -105 6074 0
-6073 93 105 6074 0
-6074 94 -106 0
-6075 6074 0
-6075 94 -106 0
-6075 -94 106 0
-6074 -94 -106 6075 0
-6074 94 106 6075 0
-6075 95 -107 0
-6076 6075 0
-6076 95 -107 0
-6076 -95 107 0
-6075 -95 -107 6076 0
-6075 95 107 6076 0
-6076 96 -108 0
-6077 6076 0
-6077 96 -108 0
-6077 -96 108 0
-6076 -96 -108 6077 0
-6076 96 108 6077 0
6078 0
-6078 97 -109 0
-6079 6078 0
-6079 97 -109 0
-6079 -97 109 0
-6078 -97 -109 6079 0
-6078 97 109 6079 0
-6079 98 -110 0
-6080 6079 0
-6080 98 -110 0
-6080 -98 110 0
-6079 -98 -110 6080 0
-6079 98 110 6080 0
-6080 99 -111 0
-6081 6080 0
-6081 99 -111 0
-6081 -99 111 0
-6080 -99 -111 6081 0
-6080 99 111 6081 0
-6081 100 -112 0
-6082 6081 0
-6082 100 -112 0
-6082 -100 112 0
-6081 -100 -112 6082 0
-6081 100 112 6082 0
-6082 101 -113 0
-6083 6082 0
-6083 101 -113 0
-6083 -101 113 0
-6082 -101 -113 6083 0
-6082 101 113 6083 0
-6083 102 -114 0
-6084 6083 0
-6084 102 -114 0
-6084 -102 114 0
-6083 -102 -114 6084 0
-6083 102 114 6084 0
-6084 103 -115 0
-6085 6084 0
-6085 103 -115 0
-6085 -103 115 0
-6084 -103 -115 6085 0
-6084 103 115 6085 0
-6085 104 -116 0
-6086 6085 0
-6086 104 -116 0
-6086 -104 116 0
-6085 -104 -116 6086 0
-6085 104 116 6086 0
-6086 105 -117 0
-6087 6086 0
-6087 105 -117 0
-6087 -105 117 0
-6086 -105 -117 6087 0
-6086 105 117 6087 0
-6087 106 -118 0
-6088 6087 0
-6088 106 -118 0
-6088 -106 118 0
-6087 -106 -118 6088 0
-6087 106 118 6088 0
-6088 107 -119 0
-6089 6088 0
-6089 107 -119 0
-6089 -107 119 0
-6088 -107 -119 6089 0
-6088 107 119 6089 0
-6089 108 -120 0
-6090 6089 0
-6090 108 -120 0
-6090 -108 120 0
-6089 -108 -120 6090 0
-6089 108 120 6090 0
6091 0
-6091 109 -121 0
-6092 6091 0
-6092 109 -121 0
-6092 -109 121 0
-6091 -109 -121 6092 0
-6091 109 121 6092 0
-6092 110 -122 0
-6093 6092 0
-6093 110 -122 0
-6093 -110 122 0
-6092 -110 -122 6093 0
-6092 110 122 6093 0
-6093 111 -123 0
-6094 6093 0
-6094 111 -123 0
-6094 -111 123 0
-6093 -111 -123 6094 0
-6093 111 123 6094 0
-6094 112 -124 0
-6095 6094 0
-6095 112 -124 0
-6095 -112 124 0
-6094 -112 -124 6095 0
-6094 112 124 6095 0
-6095 113 -125 0
-6096 6095 0
-6096 113 -125 0
-6096 -113 125 0
-6095 -113 -125 6096 0
-6095 113 125 6096 0
-6096 114 -126 0
-6097 6096 0
-6097 114 -126 0
-6097 -114 126 0
-6096 -114 -126 6097 0
-6096 114 126 6097 0
-6097 115 -127 0
-6098 6097 0
-6098 115 -127 0
-6098 -115 127 0
-6097 -115 -127 6098 0
-6097 115 127 6098 0
-6098 116 -128 0
-6099 6098 0
-6099 116 -128 0
-6099 -116 128 0
-6098 -116 -128 6099 0
-6098 116 128 6099 0
-6099 117 -129 0
-6100 6099 0
-6100 117 -129 0
-6100 -117 129 0
-6099 -117 -129 6100 0
-6099 117 129 6100 0
-6100 118 -130 0
-6101 6100 0
-6101 118 -130 0
-6101 -118 130 0
-6100 -118 -130 6101 0
-6100 118 130 6101 0
-6101 119 -131 0
-6102 6101 0
-6102 119 -131 0
-6102 -119 131 0
-6101 -119 -131 6102 0
-6101 119 131 6102 0
-6102 120 -132 0
-6103 6102 0
-6103 120 -132 0
-6103 -120 132 0
-6102 -120 -132 6103 0
-6102 120 132 6103 0
6104 0
-6104 121 -133 0
-6105 6104 0
-6105 121 -133 0
-6105 -121 133 0
-6104 -121 -133 6105 0
-6104 121 133 6105 0
-6105 122 -134 0
-6106 6105 0
-6106 122 -134 0
-6106 -122 134 0
-6105 -122 -134 6106 0
-6105 122 134 6106 0
-6106 123 -135 0
-6107 6106 0
-6107 123 -135 0
-6107 -123 135 0
-6106 -123 -135 6107 0
-6106 123 135 6107 0
-6107 124 -136 0
-6108 6107 0
-6108 124 -136 0
-6108 -124 136 0
-6107 -124 -136 6108 0
-6107 124 136 6108 0
-6108 125 -137 0
-6109 6108 0
-6109 125 -137 0
-6109 -125 137 0
-6108 -125 -137 6109 0
-6108 125 137 6109 0
-6109 126 -138 0
-6110 6109 0
-6110 126 -138 0
-6110 -126 138 0
-6109 -126 -138 6110 0
-6109 126 138 6110 0
-6110 127 -139 0
-6111 6110 0
-6111 127 -139 0
-6111 -127 139 0
-6110 -127 -139 6111 0
-6110 127 139 6111 0
-6111 128 -140 0
-6112 6111 0
-6112 128 -140 0
-6112 -128 140 0
-6111 -128 -140 6112 0
-6111 128 140 6112 0
-6112 129 -141 0
-6113 6112 0
-6113 129 -141 0
-6113 -129 141 0
-6112 -129 -141 6113 0
-6112 129 141 6113 0
-6113 130 -142 0
-6114 6113 0
-6114 130 -142 0
-6114 -130 142 0
-6113 -130 -142 6114 0
-6113 130 142 6114 0
-6114 131 -143 0
-6115 6114 0
-6115 131 -143 0
-6115 -131 143 0
-6114 -131 -143 6115 0
-6114 131 143 6115 0
-6115 132 -144 0
-6116 6115 0
-6116 132 -144 0
-6116 -132 144 0
-6115 -132 -144 6116 0
-6115 132 144 6116 0
