p cnf 13191 55991
1 9186 0
-9186 9187 0
16 -9186 9188 0
-9188 9189 0
31 -9188 9190 0
-9190 9191 0
46 -9190 9192 0
-9192 9193 0
61 -9192 9194 0
-9194 9195 0
76 -9194 9196 0
-9196 9197 0
91 -9196 9198 0
-9198 9199 0
106 -9198 9200 0
-9200 9201 0
121 -9200 9202 0
-9202 9203 0
136 -9202 9204 0
-9204 9205 0
151 -9204 9206 0
-9206 9207 0
166 -9206 9208 0
-9208 9209 0
181 -9208 9210 0
-9210 9211 0
196 -9210 0
16 9187 0
31 -9187 9189 0
46 -9189 9191 0
61 -9191 9193 0
76 -9193 9195 0
91 -9195 9197 0
106 -9197 9199 0
121 -9199 9201 0
136 -9201 9203 0
151 -9203 9205 0
166 -9205 9207 0
181 -9207 9209 0
196 -9209 9211 0
211 -9211 0
-1 9212 0
-9212 9213 0
-16 -9212 9214 0
-9214 9215 0
-31 -9214 0
-16 9213 0
-9213 9216 0
-31 -9213 9215 0
-9215 9217 0
-46 -9215 0
-31 9216 0
-9216 9218 0
-46 -9216 9217 0
-9217 9219 0
-61 -9217 0
-46 9218 0
-9218 9220 0
-61 -9218 9219 0
-9219 9221 0
-76 -9219 0
-61 9220 0
-9220 9222 0
-76 -9220 9221 0
-9221 9223 0
-91 -9221 0
-76 9222 0
-9222 9224 0
-91 -9222 9223 0
-9223 9225 0
-106 -9223 0
-91 9224 0
-9224 9226 0
-106 -9224 9225 0
-9225 9227 0
-121 -9225 0
-106 9226 0
-9226 9228 0
-121 -9226 9227 0
-9227 9229 0
-136 -9227 0
-121 9228 0
-9228 9230 0
-136 -9228 9229 0
-9229 9231 0
-151 -9229 0
-136 9230 0
-9230 9232 0
-151 -9230 9231 0
-9231 9233 0
-166 -9231 0
-151 9232 0
-9232 9234 0
-166 -9232 9233 0
-9233 9235 0
-181 -9233 0
-166 9234 0
-9234 9236 0
-181 -9234 9235 0
-9235 9237 0
-196 -9235 0
-181 9236 0
-196 -9236 9237 0
-211 -9237 0
2 9238 0
-9238 9239 0
17 -9238 9240 0
-9240 9241 0
32 -9240 9242 0
-9242 9243 0
47 -9242 9244 0
-9244 9245 0
62 -9244 9246 0
-9246 9247 0
77 -9246 9248 0
-9248 9249 0
92 -9248 9250 0
-9250 9251 0
107 -9250 9252 0
-9252 9253 0
122 -9252 9254 0
-9254 9255 0
137 -9254 9256 0
-9256 9257 0
152 -9256 9258 0
-9258 9259 0
167 -9258 9260 0
-9260 9261 0
182 -9260 0
17 9239 0
-9239 9262 0
32 -9239 9241 0
-9241 9263 0
47 -9241 9243 0
-9243 9264 0
62 -9243 9245 0
-9245 9265 0
77 -9245 9247 0
-9247 9266 0
92 -9247 9249 0
-9249 9267 0
107 -9249 9251 0
-9251 9268 0
122 -9251 9253 0
-9253 9269 0
137 -9253 9255 0
-9255 9270 0
152 -9255 9257 0
-9257 9271 0
167 -9257 9259 0
-9259 9272 0
182 -9259 9261 0
-9261 9273 0
197 -9261 0
32 9262 0
47 -9262 9263 0
62 -9263 9264 0
77 -9264 9265 0
92 -9265 9266 0
107 -9266 9267 0
122 -9267 9268 0
137 -9268 9269 0
152 -9269 9270 0
167 -9270 9271 0
182 -9271 9272 0
197 -9272 9273 0
212 -9273 0
-2 9274 0
-9274 9275 0
-17 -9274 9276 0
-9276 9277 0
-32 -9276 9278 0
-9278 9279 0
-47 -9278 0
-17 9275 0
-9275 9280 0
-32 -9275 9277 0
-9277 9281 0
-47 -9277 9279 0
-9279 9282 0
-62 -9279 0
-32 9280 0
-9280 9283 0
-47 -9280 9281 0
-9281 9284 0
-62 -9281 9282 0
-9282 9285 0
-77 -9282 0
-47 9283 0
-9283 9286 0
-62 -9283 9284 0
-9284 9287 0
-77 -9284 9285 0
-9285 9288 0
-92 -9285 0
-62 9286 0
-9286 9289 0
-77 -9286 9287 0
-9287 9290 0
-92 -9287 9288 0
-9288 9291 0
-107 -9288 0
-77 9289 0
-9289 9292 0
-92 -9289 9290 0
-9290 9293 0
-107 -9290 9291 0
-9291 9294 0
-122 -9291 0
-92 9292 0
-9292 9295 0
-107 -9292 9293 0
-9293 9296 0
-122 -9293 9294 0
-9294 9297 0
-137 -9294 0
-107 9295 0
-9295 9298 0
-122 -9295 9296 0
-9296 9299 0
-137 -9296 9297 0
-9297 9300 0
-152 -9297 0
-122 9298 0
-9298 9301 0
-137 -9298 9299 0
-9299 9302 0
-152 -9299 9300 0
-9300 9303 0
-167 -9300 0
-137 9301 0
-9301 9304 0
-152 -9301 9302 0
-9302 9305 0
-167 -9302 9303 0
-9303 9306 0
-182 -9303 0
-152 9304 0
-9304 9307 0
-167 -9304 9305 0
-9305 9308 0
-182 -9305 9306 0
-9306 9309 0
-197 -9306 0
-167 9307 0
-182 -9307 9308 0
-197 -9308 9309 0
-212 -9309 0
3 9310 0
-9310 9311 0
18 -9310 9312 0
-9312 9313 0
33 -9312 9314 0
-9314 9315 0
48 -9314 9316 0
-9316 9317 0
63 -9316 9318 0
-9318 9319 0
78 -9318 9320 0
-9320 9321 0
93 -9320 9322 0
-9322 9323 0
108 -9322 9324 0
-9324 9325 0
123 -9324 9326 0
-9326 9327 0
138 -9326 9328 0
-9328 9329 0
153 -9328 9330 0
-9330 9331 0
168 -9330 9332 0
-9332 9333 0
183 -9332 0
18 9311 0
-9311 9334 0
33 -9311 9313 0
-9313 9335 0
48 -9313 9315 0
-9315 9336 0
63 -9315 9317 0
-9317 9337 0
78 -9317 9319 0
-9319 9338 0
93 -9319 9321 0
-9321 9339 0
108 -9321 9323 0
-9323 9340 0
123 -9323 9325 0
-9325 9341 0
138 -9325 9327 0
-9327 9342 0
153 -9327 9329 0
-9329 9343 0
168 -9329 9331 0
-9331 9344 0
183 -9331 9333 0
-9333 9345 0
198 -9333 0
33 9334 0
48 -9334 9335 0
63 -9335 9336 0
78 -9336 9337 0
93 -9337 9338 0
108 -9338 9339 0
123 -9339 9340 0
138 -9340 9341 0
153 -9341 9342 0
168 -9342 9343 0
183 -9343 9344 0
198 -9344 9345 0
213 -9345 0
-3 9346 0
-9346 9347 0
-18 -9346 9348 0
-9348 9349 0
-33 -9348 9350 0
-9350 9351 0
-48 -9350 0
-18 9347 0
-9347 9352 0
-33 -9347 9349 0
-9349 9353 0
-48 -9349 9351 0
-9351 9354 0
-63 -9351 0
-33 9352 0
-9352 9355 0
-48 -9352 9353 0
-9353 9356 0
-63 -9353 9354 0
-9354 9357 0
-78 -9354 0
-48 9355 0
-9355 9358 0
-63 -9355 9356 0
-9356 9359 0
-78 -9356 9357 0
-9357 9360 0
-93 -9357 0
-63 9358 0
-9358 9361 0
-78 -9358 9359 0
-9359 9362 0
-93 -9359 9360 0
-9360 9363 0
-108 -9360 0
-78 9361 0
-9361 9364 0
-93 -9361 9362 0
-9362 9365 0
-108 -9362 9363 0
-9363 9366 0
-123 -9363 0
-93 9364 0
-9364 9367 0
-108 -9364 9365 0
-9365 9368 0
-123 -9365 9366 0
-9366 9369 0
-138 -9366 0
-108 9367 0
-9367 9370 0
-123 -9367 9368 0
-9368 9371 0
-138 -9368 9369 0
-9369 9372 0
-153 -9369 0
-123 9370 0
-9370 9373 0
-138 -9370 9371 0
-9371 9374 0
-153 -9371 9372 0
-9372 9375 0
-168 -9372 0
-138 9373 0
-9373 9376 0
-153 -9373 9374 0
-9374 9377 0
-168 -9374 9375 0
-9375 9378 0
-183 -9375 0
-153 9376 0
-9376 9379 0
-168 -9376 9377 0
-9377 9380 0
-183 -9377 9378 0
-9378 9381 0
-198 -9378 0
-168 9379 0
-183 -9379 9380 0
-198 -9380 9381 0
-213 -9381 0
4 9382 0
-9382 9383 0
19 -9382 9384 0
-9384 9385 0
34 -9384 9386 0
-9386 9387 0
49 -9386 9388 0
-9388 9389 0
64 -9388 9390 0
-9390 9391 0
79 -9390 9392 0
-9392 9393 0
94 -9392 9394 0
-9394 9395 0
109 -9394 9396 0
-9396 9397 0
124 -9396 9398 0
-9398 9399 0
139 -9398 9400 0
-9400 9401 0
154 -9400 9402 0
-9402 9403 0
169 -9402 9404 0
-9404 9405 0
184 -9404 0
19 9383 0
-9383 9406 0
34 -9383 9385 0
-9385 9407 0
49 -9385 9387 0
-9387 9408 0
64 -9387 9389 0
-9389 9409 0
79 -9389 9391 0
-9391 9410 0
94 -9391 9393 0
-9393 9411 0
109 -9393 9395 0
-9395 9412 0
124 -9395 9397 0
-9397 9413 0
139 -9397 9399 0
-9399 9414 0
154 -9399 9401 0
-9401 9415 0
169 -9401 9403 0
-9403 9416 0
184 -9403 9405 0
-9405 9417 0
199 -9405 0
34 9406 0
49 -9406 9407 0
64 -9407 9408 0
79 -9408 9409 0
94 -9409 9410 0
109 -9410 9411 0
124 -9411 9412 0
139 -9412 9413 0
154 -9413 9414 0
169 -9414 9415 0
184 -9415 9416 0
199 -9416 9417 0
214 -9417 0
-4 9418 0
-9418 9419 0
-19 -9418 9420 0
-9420 9421 0
-34 -9420 9422 0
-9422 9423 0
-49 -9422 0
-19 9419 0
-9419 9424 0
-34 -9419 9421 0
-9421 9425 0
-49 -9421 9423 0
-9423 9426 0
-64 -9423 0
-34 9424 0
-9424 9427 0
-49 -9424 9425 0
-9425 9428 0
-64 -9425 9426 0
-9426 9429 0
-79 -9426 0
-49 9427 0
-9427 9430 0
-64 -9427 9428 0
-9428 9431 0
-79 -9428 9429 0
-9429 9432 0
-94 -9429 0
-64 9430 0
-9430 9433 0
-79 -9430 9431 0
-9431 9434 0
-94 -9431 9432 0
-9432 9435 0
-109 -9432 0
-79 9433 0
-9433 9436 0
-94 -9433 9434 0
-9434 9437 0
-109 -9434 9435 0
-9435 9438 0
-124 -9435 0
-94 9436 0
-9436 9439 0
-109 -9436 9437 0
-9437 9440 0
-124 -9437 9438 0
-9438 9441 0
-139 -9438 0
-109 9439 0
-9439 9442 0
-124 -9439 9440 0
-9440 9443 0
-139 -9440 9441 0
-9441 9444 0
-154 -9441 0
-124 9442 0
-9442 9445 0
-139 -9442 9443 0
-9443 9446 0
-154 -9443 9444 0
-9444 9447 0
-169 -9444 0
-139 9445 0
-9445 9448 0
-154 -9445 9446 0
-9446 9449 0
-169 -9446 9447 0
-9447 9450 0
-184 -9447 0
-154 9448 0
-9448 9451 0
-169 -9448 9449 0
-9449 9452 0
-184 -9449 9450 0
-9450 9453 0
-199 -9450 0
-169 9451 0
-184 -9451 9452 0
-199 -9452 9453 0
-214 -9453 0
5 9454 0
-9454 9455 0
20 -9454 9456 0
-9456 9457 0
35 -9456 9458 0
-9458 9459 0
50 -9458 9460 0
-9460 9461 0
65 -9460 9462 0
-9462 9463 0
80 -9462 9464 0
-9464 9465 0
95 -9464 9466 0
-9466 9467 0
110 -9466 9468 0
-9468 9469 0
125 -9468 9470 0
-9470 9471 0
140 -9470 9472 0
-9472 9473 0
155 -9472 9474 0
-9474 9475 0
170 -9474 9476 0
-9476 9477 0
185 -9476 0
20 9455 0
-9455 9478 0
35 -9455 9457 0
-9457 9479 0
50 -9457 9459 0
-9459 9480 0
65 -9459 9461 0
-9461 9481 0
80 -9461 9463 0
-9463 9482 0
95 -9463 9465 0
-9465 9483 0
110 -9465 9467 0
-9467 9484 0
125 -9467 9469 0
-9469 9485 0
140 -9469 9471 0
-9471 9486 0
155 -9471 9473 0
-9473 9487 0
170 -9473 9475 0
-9475 9488 0
185 -9475 9477 0
-9477 9489 0
200 -9477 0
35 9478 0
50 -9478 9479 0
65 -9479 9480 0
80 -9480 9481 0
95 -9481 9482 0
110 -9482 9483 0
125 -9483 9484 0
140 -9484 9485 0
155 -9485 9486 0
170 -9486 9487 0
185 -9487 9488 0
200 -9488 9489 0
215 -9489 0
-5 9490 0
-9490 9491 0
-20 -9490 9492 0
-9492 9493 0
-35 -9492 9494 0
-9494 9495 0
-50 -9494 0
-20 9491 0
-9491 9496 0
-35 -9491 9493 0
-9493 9497 0
-50 -9493 9495 0
-9495 9498 0
-65 -9495 0
-35 9496 0
-9496 9499 0
-50 -9496 9497 0
-9497 9500 0
-65 -9497 9498 0
-9498 9501 0
-80 -9498 0
-50 9499 0
-9499 9502 0
-65 -9499 9500 0
-9500 9503 0
-80 -9500 9501 0
-9501 9504 0
-95 -9501 0
-65 9502 0
-9502 9505 0
-80 -9502 9503 0
-9503 9506 0
-95 -9503 9504 0
-9504 9507 0
-110 -9504 0
-80 9505 0
-9505 9508 0
-95 -9505 9506 0
-9506 9509 0
-110 -9506 9507 0
-9507 9510 0
-125 -9507 0
-95 9508 0
-9508 9511 0
-110 -9508 9509 0
-9509 9512 0
-125 -9509 9510 0
-9510 9513 0
-140 -9510 0
-110 9511 0
-9511 9514 0
-125 -9511 9512 0
-9512 9515 0
-140 -9512 9513 0
-9513 9516 0
-155 -9513 0
-125 9514 0
-9514 9517 0
-140 -9514 9515 0
-9515 9518 0
-155 -9515 9516 0
-9516 9519 0
-170 -9516 0
-140 9517 0
-9517 9520 0
-155 -9517 9518 0
-9518 9521 0
-170 -9518 9519 0
-9519 9522 0
-185 -9519 0
-155 9520 0
-9520 9523 0
-170 -9520 9521 0
-9521 9524 0
-185 -9521 9522 0
-9522 9525 0
-200 -9522 0
-170 9523 0
-185 -9523 9524 0
-200 -9524 9525 0
-215 -9525 0
6 9526 0
-9526 9527 0
21 -9526 9528 0
-9528 9529 0
36 -9528 9530 0
-9530 9531 0
51 -9530 9532 0
-9532 9533 0
66 -9532 9534 0
-9534 9535 0
81 -9534 9536 0
-9536 9537 0
96 -9536 9538 0
-9538 9539 0
111 -9538 9540 0
-9540 9541 0
126 -9540 9542 0
-9542 9543 0
141 -9542 9544 0
-9544 9545 0
156 -9544 9546 0
-9546 9547 0
171 -9546 9548 0
-9548 9549 0
186 -9548 0
21 9527 0
-9527 9550 0
36 -9527 9529 0
-9529 9551 0
51 -9529 9531 0
-9531 9552 0
66 -9531 9533 0
-9533 9553 0
81 -9533 9535 0
-9535 9554 0
96 -9535 9537 0
-9537 9555 0
111 -9537 9539 0
-9539 9556 0
126 -9539 9541 0
-9541 9557 0
141 -9541 9543 0
-9543 9558 0
156 -9543 9545 0
-9545 9559 0
171 -9545 9547 0
-9547 9560 0
186 -9547 9549 0
-9549 9561 0
201 -9549 0
36 9550 0
51 -9550 9551 0
66 -9551 9552 0
81 -9552 9553 0
96 -9553 9554 0
111 -9554 9555 0
126 -9555 9556 0
141 -9556 9557 0
156 -9557 9558 0
171 -9558 9559 0
186 -9559 9560 0
201 -9560 9561 0
216 -9561 0
-6 9562 0
-9562 9563 0
-21 -9562 9564 0
-9564 9565 0
-36 -9564 9566 0
-9566 9567 0
-51 -9566 0
-21 9563 0
-9563 9568 0
-36 -9563 9565 0
-9565 9569 0
-51 -9565 9567 0
-9567 9570 0
-66 -9567 0
-36 9568 0
-9568 9571 0
-51 -9568 9569 0
-9569 9572 0
-66 -9569 9570 0
-9570 9573 0
-81 -9570 0
-51 9571 0
-9571 9574 0
-66 -9571 9572 0
-9572 9575 0
-81 -9572 9573 0
-9573 9576 0
-96 -9573 0
-66 9574 0
-9574 9577 0
-81 -9574 9575 0
-9575 9578 0
-96 -9575 9576 0
-9576 9579 0
-111 -9576 0
-81 9577 0
-9577 9580 0
-96 -9577 9578 0
-9578 9581 0
-111 -9578 9579 0
-9579 9582 0
-126 -9579 0
-96 9580 0
-9580 9583 0
-111 -9580 9581 0
-9581 9584 0
-126 -9581 9582 0
-9582 9585 0
-141 -9582 0
-111 9583 0
-9583 9586 0
-126 -9583 9584 0
-9584 9587 0
-141 -9584 9585 0
-9585 9588 0
-156 -9585 0
-126 9586 0
-9586 9589 0
-141 -9586 9587 0
-9587 9590 0
-156 -9587 9588 0
-9588 9591 0
-171 -9588 0
-141 9589 0
-9589 9592 0
-156 -9589 9590 0
-9590 9593 0
-171 -9590 9591 0
-9591 9594 0
-186 -9591 0
-156 9592 0
-9592 9595 0
-171 -9592 9593 0
-9593 9596 0
-186 -9593 9594 0
-9594 9597 0
-201 -9594 0
-171 9595 0
-186 -9595 9596 0
-201 -9596 9597 0
-216 -9597 0
7 9598 0
-9598 9599 0
22 -9598 9600 0
-9600 9601 0
37 -9600 9602 0
-9602 9603 0
52 -9602 9604 0
-9604 9605 0
67 -9604 9606 0
-9606 9607 0
82 -9606 9608 0
-9608 9609 0
97 -9608 9610 0
-9610 9611 0
112 -9610 9612 0
-9612 9613 0
127 -9612 9614 0
-9614 9615 0
142 -9614 9616 0
-9616 9617 0
157 -9616 9618 0
-9618 9619 0
172 -9618 9620 0
-9620 9621 0
187 -9620 0
22 9599 0
-9599 9622 0
37 -9599 9601 0
-9601 9623 0
52 -9601 9603 0
-9603 9624 0
67 -9603 9605 0
-9605 9625 0
82 -9605 9607 0
-9607 9626 0
97 -9607 9609 0
-9609 9627 0
112 -9609 9611 0
-9611 9628 0
127 -9611 9613 0
-9613 9629 0
142 -9613 9615 0
-9615 9630 0
157 -9615 9617 0
-9617 9631 0
172 -9617 9619 0
-9619 9632 0
187 -9619 9621 0
-9621 9633 0
202 -9621 0
37 9622 0
52 -9622 9623 0
67 -9623 9624 0
82 -9624 9625 0
97 -9625 9626 0
112 -9626 9627 0
127 -9627 9628 0
142 -9628 9629 0
157 -9629 9630 0
172 -9630 9631 0
187 -9631 9632 0
202 -9632 9633 0
217 -9633 0
-7 9634 0
-9634 9635 0
-22 -9634 9636 0
-9636 9637 0
-37 -9636 9638 0
-9638 9639 0
-52 -9638 0
-22 9635 0
-9635 9640 0
-37 -9635 9637 0
-9637 9641 0
-52 -9637 9639 0
-9639 9642 0
-67 -9639 0
-37 9640 0
-9640 9643 0
-52 -9640 9641 0
-9641 9644 0
-67 -9641 9642 0
-9642 9645 0
-82 -9642 0
-52 9643 0
-9643 9646 0
-67 -9643 9644 0
-9644 9647 0
-82 -9644 9645 0
-9645 9648 0
-97 -9645 0
-67 9646 0
-9646 9649 0
-82 -9646 9647 0
-9647 9650 0
-97 -9647 9648 0
-9648 9651 0
-112 -9648 0
-82 9649 0
-9649 9652 0
-97 -9649 9650 0
-9650 9653 0
-112 -9650 9651 0
-9651 9654 0
-127 -9651 0
-97 9652 0
-9652 9655 0
-112 -9652 9653 0
-9653 9656 0
-127 -9653 9654 0
-9654 9657 0
-142 -9654 0
-112 9655 0
-9655 9658 0
-127 -9655 9656 0
-9656 9659 0
-142 -9656 9657 0
-9657 9660 0
-157 -9657 0
-127 9658 0
-9658 9661 0
-142 -9658 9659 0
-9659 9662 0
-157 -9659 9660 0
-9660 9663 0
-172 -9660 0
-142 9661 0
-9661 9664 0
-157 -9661 9662 0
-9662 9665 0
-172 -9662 9663 0
-9663 9666 0
-187 -9663 0
-157 9664 0
-9664 9667 0
-172 -9664 9665 0
-9665 9668 0
-187 -9665 9666 0
-9666 9669 0
-202 -9666 0
-172 9667 0
-187 -9667 9668 0
-202 -9668 9669 0
-217 -9669 0
8 9670 0
-9670 9671 0
23 -9670 9672 0
-9672 9673 0
38 -9672 9674 0
-9674 9675 0
53 -9674 9676 0
-9676 9677 0
68 -9676 9678 0
-9678 9679 0
83 -9678 9680 0
-9680 9681 0
98 -9680 9682 0
-9682 9683 0
113 -9682 9684 0
-9684 9685 0
128 -9684 9686 0
-9686 9687 0
143 -9686 9688 0
-9688 9689 0
158 -9688 9690 0
-9690 9691 0
173 -9690 9692 0
-9692 9693 0
188 -9692 0
23 9671 0
-9671 9694 0
38 -9671 9673 0
-9673 9695 0
53 -9673 9675 0
-9675 9696 0
68 -9675 9677 0
-9677 9697 0
83 -9677 9679 0
-9679 9698 0
98 -9679 9681 0
-9681 9699 0
113 -9681 9683 0
-9683 9700 0
128 -9683 9685 0
-9685 9701 0
143 -9685 9687 0
-9687 9702 0
158 -9687 9689 0
-9689 9703 0
173 -9689 9691 0
-9691 9704 0
188 -9691 9693 0
-9693 9705 0
203 -9693 0
38 9694 0
53 -9694 9695 0
68 -9695 9696 0
83 -9696 9697 0
98 -9697 9698 0
113 -9698 9699 0
128 -9699 9700 0
143 -9700 9701 0
158 -9701 9702 0
173 -9702 9703 0
188 -9703 9704 0
203 -9704 9705 0
218 -9705 0
-8 9706 0
-9706 9707 0
-23 -9706 9708 0
-9708 9709 0
-38 -9708 9710 0
-9710 9711 0
-53 -9710 0
-23 9707 0
-9707 9712 0
-38 -9707 9709 0
-9709 9713 0
-53 -9709 9711 0
-9711 9714 0
-68 -9711 0
-38 9712 0
-9712 9715 0
-53 -9712 9713 0
-9713 9716 0
-68 -9713 9714 0
-9714 9717 0
-83 -9714 0
-53 9715 0
-9715 9718 0
-68 -9715 9716 0
-9716 9719 0
-83 -9716 9717 0
-9717 9720 0
-98 -9717 0
-68 9718 0
-9718 9721 0
-83 -9718 9719 0
-9719 9722 0
-98 -9719 9720 0
-9720 9723 0
-113 -9720 0
-83 9721 0
-9721 9724 0
-98 -9721 9722 0
-9722 9725 0
-113 -9722 9723 0
-9723 9726 0
-128 -9723 0
-98 9724 0
-9724 9727 0
-113 -9724 9725 0
-9725 9728 0
-128 -9725 9726 0
-9726 9729 0
-143 -9726 0
-113 9727 0
-9727 9730 0
-128 -9727 9728 0
-9728 9731 0
-143 -9728 9729 0
-9729 9732 0
-158 -9729 0
-128 9730 0
-9730 9733 0
-143 -9730 9731 0
-9731 9734 0
-158 -9731 9732 0
-9732 9735 0
-173 -9732 0
-143 9733 0
-9733 9736 0
-158 -9733 9734 0
-9734 9737 0
-173 -9734 9735 0
-9735 9738 0
-188 -9735 0
-158 9736 0
-9736 9739 0
-173 -9736 9737 0
-9737 9740 0
-188 -9737 9738 0
-9738 9741 0
-203 -9738 0
-173 9739 0
-188 -9739 9740 0
-203 -9740 9741 0
-218 -9741 0
9 9742 0
-9742 9743 0
24 -9742 9744 0
-9744 9745 0
39 -9744 9746 0
-9746 9747 0
54 -9746 9748 0
-9748 9749 0
69 -9748 9750 0
-9750 9751 0
84 -9750 9752 0
-9752 9753 0
99 -9752 9754 0
-9754 9755 0
114 -9754 9756 0
-9756 9757 0
129 -9756 9758 0
-9758 9759 0
144 -9758 9760 0
-9760 9761 0
159 -9760 9762 0
-9762 9763 0
174 -9762 9764 0
-9764 9765 0
189 -9764 0
24 9743 0
-9743 9766 0
39 -9743 9745 0
-9745 9767 0
54 -9745 9747 0
-9747 9768 0
69 -9747 9749 0
-9749 9769 0
84 -9749 9751 0
-9751 9770 0
99 -9751 9753 0
-9753 9771 0
114 -9753 9755 0
-9755 9772 0
129 -9755 9757 0
-9757 9773 0
144 -9757 9759 0
-9759 9774 0
159 -9759 9761 0
-9761 9775 0
174 -9761 9763 0
-9763 9776 0
189 -9763 9765 0
-9765 9777 0
204 -9765 0
39 9766 0
54 -9766 9767 0
69 -9767 9768 0
84 -9768 9769 0
99 -9769 9770 0
114 -9770 9771 0
129 -9771 9772 0
144 -9772 9773 0
159 -9773 9774 0
174 -9774 9775 0
189 -9775 9776 0
204 -9776 9777 0
219 -9777 0
-9 9778 0
-9778 9779 0
-24 -9778 9780 0
-9780 9781 0
-39 -9780 9782 0
-9782 9783 0
-54 -9782 0
-24 9779 0
-9779 9784 0
-39 -9779 9781 0
-9781 9785 0
-54 -9781 9783 0
-9783 9786 0
-69 -9783 0
-39 9784 0
-9784 9787 0
-54 -9784 9785 0
-9785 9788 0
-69 -9785 9786 0
-9786 9789 0
-84 -9786 0
-54 9787 0
-9787 9790 0
-69 -9787 9788 0
-9788 9791 0
-84 -9788 9789 0
-9789 9792 0
-99 -9789 0
-69 9790 0
-9790 9793 0
-84 -9790 9791 0
-9791 9794 0
-99 -9791 9792 0
-9792 9795 0
-114 -9792 0
-84 9793 0
-9793 9796 0
-99 -9793 9794 0
-9794 9797 0
-114 -9794 9795 0
-9795 9798 0
-129 -9795 0
-99 9796 0
-9796 9799 0
-114 -9796 9797 0
-9797 9800 0
-129 -9797 9798 0
-9798 9801 0
-144 -9798 0
-114 9799 0
-9799 9802 0
-129 -9799 9800 0
-9800 9803 0
-144 -9800 9801 0
-9801 9804 0
-159 -9801 0
-129 9802 0
-9802 9805 0
-144 -9802 9803 0
-9803 9806 0
-159 -9803 9804 0
-9804 9807 0
-174 -9804 0
-144 9805 0
-9805 9808 0
-159 -9805 9806 0
-9806 9809 0
-174 -9806 9807 0
-9807 9810 0
-189 -9807 0
-159 9808 0
-9808 9811 0
-174 -9808 9809 0
-9809 9812 0
-189 -9809 9810 0
-9810 9813 0
-204 -9810 0
-174 9811 0
-189 -9811 9812 0
-204 -9812 9813 0
-219 -9813 0
10 9814 0
-9814 9815 0
25 -9814 9816 0
-9816 9817 0
40 -9816 9818 0
-9818 9819 0
55 -9818 9820 0
-9820 9821 0
70 -9820 9822 0
-9822 9823 0
85 -9822 9824 0
-9824 9825 0
100 -9824 9826 0
-9826 9827 0
115 -9826 9828 0
-9828 9829 0
130 -9828 9830 0
-9830 9831 0
145 -9830 9832 0
-9832 9833 0
160 -9832 9834 0
-9834 9835 0
175 -9834 9836 0
-9836 9837 0
190 -9836 0
25 9815 0
-9815 9838 0
40 -9815 9817 0
-9817 9839 0
55 -9817 9819 0
-9819 9840 0
70 -9819 9821 0
-9821 9841 0
85 -9821 9823 0
-9823 9842 0
100 -9823 9825 0
-9825 9843 0
115 -9825 9827 0
-9827 9844 0
130 -9827 9829 0
-9829 9845 0
145 -9829 9831 0
-9831 9846 0
160 -9831 9833 0
-9833 9847 0
175 -9833 9835 0
-9835 9848 0
190 -9835 9837 0
-9837 9849 0
205 -9837 0
40 9838 0
55 -9838 9839 0
70 -9839 9840 0
85 -9840 9841 0
100 -9841 9842 0
115 -9842 9843 0
130 -9843 9844 0
145 -9844 9845 0
160 -9845 9846 0
175 -9846 9847 0
190 -9847 9848 0
205 -9848 9849 0
220 -9849 0
-10 9850 0
-9850 9851 0
-25 -9850 9852 0
-9852 9853 0
-40 -9852 9854 0
-9854 9855 0
-55 -9854 0
-25 9851 0
-9851 9856 0
-40 -9851 9853 0
-9853 9857 0
-55 -9853 9855 0
-9855 9858 0
-70 -9855 0
-40 9856 0
-9856 9859 0
-55 -9856 9857 0
-9857 9860 0
-70 -9857 9858 0
-9858 9861 0
-85 -9858 0
-55 9859 0
-9859 9862 0
-70 -9859 9860 0
-9860 9863 0
-85 -9860 9861 0
-9861 9864 0
-100 -9861 0
-70 9862 0
-9862 9865 0
-85 -9862 9863 0
-9863 9866 0
-100 -9863 9864 0
-9864 9867 0
-115 -9864 0
-85 9865 0
-9865 9868 0
-100 -9865 9866 0
-9866 9869 0
-115 -9866 9867 0
-9867 9870 0
-130 -9867 0
-100 9868 0
-9868 9871 0
-115 -9868 9869 0
-9869 9872 0
-130 -9869 9870 0
-9870 9873 0
-145 -9870 0
-115 9871 0
-9871 9874 0
-130 -9871 9872 0
-9872 9875 0
-145 -9872 9873 0
-9873 9876 0
-160 -9873 0
-130 9874 0
-9874 9877 0
-145 -9874 9875 0
-9875 9878 0
-160 -9875 9876 0
-9876 9879 0
-175 -9876 0
-145 9877 0
-9877 9880 0
-160 -9877 9878 0
-9878 9881 0
-175 -9878 9879 0
-9879 9882 0
-190 -9879 0
-160 9880 0
-9880 9883 0
-175 -9880 9881 0
-9881 9884 0
-190 -9881 9882 0
-9882 9885 0
-205 -9882 0
-175 9883 0
-190 -9883 9884 0
-205 -9884 9885 0
-220 -9885 0
11 9886 0
-9886 9887 0
26 -9886 9888 0
-9888 9889 0
41 -9888 9890 0
-9890 9891 0
56 -9890 9892 0
-9892 9893 0
71 -9892 9894 0
-9894 9895 0
86 -9894 9896 0
-9896 9897 0
101 -9896 9898 0
-9898 9899 0
116 -9898 9900 0
-9900 9901 0
131 -9900 9902 0
-9902 9903 0
146 -9902 9904 0
-9904 9905 0
161 -9904 9906 0
-9906 9907 0
176 -9906 9908 0
-9908 9909 0
191 -9908 0
26 9887 0
-9887 9910 0
41 -9887 9889 0
-9889 9911 0
56 -9889 9891 0
-9891 9912 0
71 -9891 9893 0
-9893 9913 0
86 -9893 9895 0
-9895 9914 0
101 -9895 9897 0
-9897 9915 0
116 -9897 9899 0
-9899 9916 0
131 -9899 9901 0
-9901 9917 0
146 -9901 9903 0
-9903 9918 0
161 -9903 9905 0
-9905 9919 0
176 -9905 9907 0
-9907 9920 0
191 -9907 9909 0
-9909 9921 0
206 -9909 0
41 9910 0
56 -9910 9911 0
71 -9911 9912 0
86 -9912 9913 0
101 -9913 9914 0
116 -9914 9915 0
131 -9915 9916 0
146 -9916 9917 0
161 -9917 9918 0
176 -9918 9919 0
191 -9919 9920 0
206 -9920 9921 0
221 -9921 0
-11 9922 0
-9922 9923 0
-26 -9922 9924 0
-9924 9925 0
-41 -9924 9926 0
-9926 9927 0
-56 -9926 0
-26 9923 0
-9923 9928 0
-41 -9923 9925 0
-9925 9929 0
-56 -9925 9927 0
-9927 9930 0
-71 -9927 0
-41 9928 0
-9928 9931 0
-56 -9928 9929 0
-9929 9932 0
-71 -9929 9930 0
-9930 9933 0
-86 -9930 0
-56 9931 0
-9931 9934 0
-71 -9931 9932 0
-9932 9935 0
-86 -9932 9933 0
-9933 9936 0
-101 -9933 0
-71 9934 0
-9934 9937 0
-86 -9934 9935 0
-9935 9938 0
-101 -9935 9936 0
-9936 9939 0
-116 -9936 0
-86 9937 0
-9937 9940 0
-101 -9937 9938 0
-9938 9941 0
-116 -9938 9939 0
-9939 9942 0
-131 -9939 0
-101 9940 0
-9940 9943 0
-116 -9940 9941 0
-9941 9944 0
-131 -9941 9942 0
-9942 9945 0
-146 -9942 0
-116 9943 0
-9943 9946 0
-131 -9943 9944 0
-9944 9947 0
-146 -9944 9945 0
-9945 9948 0
-161 -9945 0
-131 9946 0
-9946 9949 0
-146 -9946 9947 0
-9947 9950 0
-161 -9947 9948 0
-9948 9951 0
-176 -9948 0
-146 9949 0
-9949 9952 0
-161 -9949 9950 0
-9950 9953 0
-176 -9950 9951 0
-9951 9954 0
-191 -9951 0
-161 9952 0
-9952 9955 0
-176 -9952 9953 0
-9953 9956 0
-191 -9953 9954 0
-9954 9957 0
-206 -9954 0
-176 9955 0
-191 -9955 9956 0
-206 -9956 9957 0
-221 -9957 0
12 9958 0
-9958 9959 0
27 -9958 9960 0
-9960 9961 0
42 -9960 9962 0
-9962 9963 0
57 -9962 9964 0
-9964 9965 0
72 -9964 9966 0
-9966 9967 0
87 -9966 9968 0
-9968 9969 0
102 -9968 9970 0
-9970 9971 0
117 -9970 9972 0
-9972 9973 0
132 -9972 9974 0
-9974 9975 0
147 -9974 9976 0
-9976 9977 0
162 -9976 9978 0
-9978 9979 0
177 -9978 9980 0
-9980 9981 0
192 -9980 0
27 9959 0
-9959 9982 0
42 -9959 9961 0
-9961 9983 0
57 -9961 9963 0
-9963 9984 0
72 -9963 9965 0
-9965 9985 0
87 -9965 9967 0
-9967 9986 0
102 -9967 9969 0
-9969 9987 0
117 -9969 9971 0
-9971 9988 0
132 -9971 9973 0
-9973 9989 0
147 -9973 9975 0
-9975 9990 0
162 -9975 9977 0
-9977 9991 0
177 -9977 9979 0
-9979 9992 0
192 -9979 9981 0
-9981 9993 0
207 -9981 0
42 9982 0
57 -9982 9983 0
72 -9983 9984 0
87 -9984 9985 0
102 -9985 9986 0
117 -9986 9987 0
132 -9987 9988 0
147 -9988 9989 0
162 -9989 9990 0
177 -9990 9991 0
192 -9991 9992 0
207 -9992 9993 0
222 -9993 0
-12 9994 0
-9994 9995 0
-27 -9994 9996 0
-9996 9997 0
-42 -9996 9998 0
-9998 9999 0
-57 -9998 0
-27 9995 0
-9995 10000 0
-42 -9995 9997 0
-9997 10001 0
-57 -9997 9999 0
-9999 10002 0
-72 -9999 0
-42 10000 0
-10000 10003 0
-57 -10000 10001 0
-10001 10004 0
-72 -10001 10002 0
-10002 10005 0
-87 -10002 0
-57 10003 0
-10003 10006 0
-72 -10003 10004 0
-10004 10007 0
-87 -10004 10005 0
-10005 10008 0
-102 -10005 0
-72 10006 0
-10006 10009 0
-87 -10006 10007 0
-10007 10010 0
-102 -10007 10008 0
-10008 10011 0
-117 -10008 0
-87 10009 0
-10009 10012 0
-102 -10009 10010 0
-10010 10013 0
-117 -10010 10011 0
-10011 10014 0
-132 -10011 0
-102 10012 0
-10012 10015 0
-117 -10012 10013 0
-10013 10016 0
-132 -10013 10014 0
-10014 10017 0
-147 -10014 0
-117 10015 0
-10015 10018 0
-132 -10015 10016 0
-10016 10019 0
-147 -10016 10017 0
-10017 10020 0
-162 -10017 0
-132 10018 0
-10018 10021 0
-147 -10018 10019 0
-10019 10022 0
-162 -10019 10020 0
-10020 10023 0
-177 -10020 0
-147 10021 0
-10021 10024 0
-162 -10021 10022 0
-10022 10025 0
-177 -10022 10023 0
-10023 10026 0
-192 -10023 0
-162 10024 0
-10024 10027 0
-177 -10024 10025 0
-10025 10028 0
-192 -10025 10026 0
-10026 10029 0
-207 -10026 0
-177 10027 0
-192 -10027 10028 0
-207 -10028 10029 0
-222 -10029 0
13 10030 0
-10030 10031 0
28 -10030 10032 0
-10032 10033 0
43 -10032 10034 0
-10034 10035 0
58 -10034 10036 0
-10036 10037 0
73 -10036 10038 0
-10038 10039 0
88 -10038 10040 0
-10040 10041 0
103 -10040 10042 0
-10042 10043 0
118 -10042 10044 0
-10044 10045 0
133 -10044 10046 0
-10046 10047 0
148 -10046 10048 0
-10048 10049 0
163 -10048 10050 0
-10050 10051 0
178 -10050 10052 0
-10052 10053 0
193 -10052 0
28 10031 0
-10031 10054 0
43 -10031 10033 0
-10033 10055 0
58 -10033 10035 0
-10035 10056 0
73 -10035 10037 0
-10037 10057 0
88 -10037 10039 0
-10039 10058 0
103 -10039 10041 0
-10041 10059 0
118 -10041 10043 0
-10043 10060 0
133 -10043 10045 0
-10045 10061 0
148 -10045 10047 0
-10047 10062 0
163 -10047 10049 0
-10049 10063 0
178 -10049 10051 0
-10051 10064 0
193 -10051 10053 0
-10053 10065 0
208 -10053 0
43 10054 0
58 -10054 10055 0
73 -10055 10056 0
88 -10056 10057 0
103 -10057 10058 0
118 -10058 10059 0
133 -10059 10060 0
148 -10060 10061 0
163 -10061 10062 0
178 -10062 10063 0
193 -10063 10064 0
208 -10064 10065 0
223 -10065 0
-13 10066 0
-10066 10067 0
-28 -10066 10068 0
-10068 10069 0
-43 -10068 10070 0
-10070 10071 0
-58 -10070 0
-28 10067 0
-10067 10072 0
-43 -10067 10069 0
-10069 10073 0
-58 -10069 10071 0
-10071 10074 0
-73 -10071 0
-43 10072 0
-10072 10075 0
-58 -10072 10073 0
-10073 10076 0
-73 -10073 10074 0
-10074 10077 0
-88 -10074 0
-58 10075 0
-10075 10078 0
-73 -10075 10076 0
-10076 10079 0
-88 -10076 10077 0
-10077 10080 0
-103 -10077 0
-73 10078 0
-10078 10081 0
-88 -10078 10079 0
-10079 10082 0
-103 -10079 10080 0
-10080 10083 0
-118 -10080 0
-88 10081 0
-10081 10084 0
-103 -10081 10082 0
-10082 10085 0
-118 -10082 10083 0
-10083 10086 0
-133 -10083 0
-103 10084 0
-10084 10087 0
-118 -10084 10085 0
-10085 10088 0
-133 -10085 10086 0
-10086 10089 0
-148 -10086 0
-118 10087 0
-10087 10090 0
-133 -10087 10088 0
-10088 10091 0
-148 -10088 10089 0
-10089 10092 0
-163 -10089 0
-133 10090 0
-10090 10093 0
-148 -10090 10091 0
-10091 10094 0
-163 -10091 10092 0
-10092 10095 0
-178 -10092 0
-148 10093 0
-10093 10096 0
-163 -10093 10094 0
-10094 10097 0
-178 -10094 10095 0
-10095 10098 0
-193 -10095 0
-163 10096 0
-10096 10099 0
-178 -10096 10097 0
-10097 10100 0
-193 -10097 10098 0
-10098 10101 0
-208 -10098 0
-178 10099 0
-193 -10099 10100 0
-208 -10100 10101 0
-223 -10101 0
14 10102 0
-10102 10103 0
29 -10102 10104 0
-10104 10105 0
44 -10104 10106 0
-10106 10107 0
59 -10106 10108 0
-10108 10109 0
74 -10108 10110 0
-10110 10111 0
89 -10110 10112 0
-10112 10113 0
104 -10112 10114 0
-10114 10115 0
119 -10114 10116 0
-10116 10117 0
134 -10116 10118 0
-10118 10119 0
149 -10118 10120 0
-10120 10121 0
164 -10120 10122 0
-10122 10123 0
179 -10122 10124 0
-10124 10125 0
194 -10124 0
29 10103 0
-10103 10126 0
44 -10103 10105 0
-10105 10127 0
59 -10105 10107 0
-10107 10128 0
74 -10107 10109 0
-10109 10129 0
89 -10109 10111 0
-10111 10130 0
104 -10111 10113 0
-10113 10131 0
119 -10113 10115 0
-10115 10132 0
134 -10115 10117 0
-10117 10133 0
149 -10117 10119 0
-10119 10134 0
164 -10119 10121 0
-10121 10135 0
179 -10121 10123 0
-10123 10136 0
194 -10123 10125 0
-10125 10137 0
209 -10125 0
44 10126 0
59 -10126 10127 0
74 -10127 10128 0
89 -10128 10129 0
104 -10129 10130 0
119 -10130 10131 0
134 -10131 10132 0
149 -10132 10133 0
164 -10133 10134 0
179 -10134 10135 0
194 -10135 10136 0
209 -10136 10137 0
224 -10137 0
-14 10138 0
-10138 10139 0
-29 -10138 10140 0
-10140 10141 0
-44 -10140 10142 0
-10142 10143 0
-59 -10142 0
-29 10139 0
-10139 10144 0
-44 -10139 10141 0
-10141 10145 0
-59 -10141 10143 0
-10143 10146 0
-74 -10143 0
-44 10144 0
-10144 10147 0
-59 -10144 10145 0
-10145 10148 0
-74 -10145 10146 0
-10146 10149 0
-89 -10146 0
-59 10147 0
-10147 10150 0
-74 -10147 10148 0
-10148 10151 0
-89 -10148 10149 0
-10149 10152 0
-104 -10149 0
-74 10150 0
-10150 10153 0
-89 -10150 10151 0
-10151 10154 0
-104 -10151 10152 0
-10152 10155 0
-119 -10152 0
-89 10153 0
-10153 10156 0
-104 -10153 10154 0
-10154 10157 0
-119 -10154 10155 0
-10155 10158 0
-134 -10155 0
-104 10156 0
-10156 10159 0
-119 -10156 10157 0
-10157 10160 0
-134 -10157 10158 0
-10158 10161 0
-149 -10158 0
-119 10159 0
-10159 10162 0
-134 -10159 10160 0
-10160 10163 0
-149 -10160 10161 0
-10161 10164 0
-164 -10161 0
-134 10162 0
-10162 10165 0
-149 -10162 10163 0
-10163 10166 0
-164 -10163 10164 0
-10164 10167 0
-179 -10164 0
-149 10165 0
-10165 10168 0
-164 -10165 10166 0
-10166 10169 0
-179 -10166 10167 0
-10167 10170 0
-194 -10167 0
-164 10168 0
-10168 10171 0
-179 -10168 10169 0
-10169 10172 0
-194 -10169 10170 0
-10170 10173 0
-209 -10170 0
-179 10171 0
-194 -10171 10172 0
-209 -10172 10173 0
-224 -10173 0
15 10174 0
-10174 10175 0
30 -10174 10176 0
-10176 10177 0
45 -10176 10178 0
-10178 10179 0
60 -10178 10180 0
-10180 10181 0
75 -10180 10182 0
-10182 10183 0
90 -10182 10184 0
-10184 10185 0
105 -10184 10186 0
-10186 10187 0
120 -10186 10188 0
-10188 10189 0
135 -10188 10190 0
-10190 10191 0
150 -10190 10192 0
-10192 10193 0
165 -10192 10194 0
-10194 10195 0
180 -10194 10196 0
-10196 10197 0
195 -10196 0
30 10175 0
-10175 10198 0
45 -10175 10177 0
-10177 10199 0
60 -10177 10179 0
-10179 10200 0
75 -10179 10181 0
-10181 10201 0
90 -10181 10183 0
-10183 10202 0
105 -10183 10185 0
-10185 10203 0
120 -10185 10187 0
-10187 10204 0
135 -10187 10189 0
-10189 10205 0
150 -10189 10191 0
-10191 10206 0
165 -10191 10193 0
-10193 10207 0
180 -10193 10195 0
-10195 10208 0
195 -10195 10197 0
-10197 10209 0
210 -10197 0
45 10198 0
60 -10198 10199 0
75 -10199 10200 0
90 -10200 10201 0
105 -10201 10202 0
120 -10202 10203 0
135 -10203 10204 0
150 -10204 10205 0
165 -10205 10206 0
180 -10206 10207 0
195 -10207 10208 0
210 -10208 10209 0
225 -10209 0
-15 10210 0
-10210 10211 0
-30 -10210 10212 0
-10212 10213 0
-45 -10212 10214 0
-10214 10215 0
-60 -10214 0
-30 10211 0
-10211 10216 0
-45 -10211 10213 0
-10213 10217 0
-60 -10213 10215 0
-10215 10218 0
-75 -10215 0
-45 10216 0
-10216 10219 0
-60 -10216 10217 0
-10217 10220 0
-75 -10217 10218 0
-10218 10221 0
-90 -10218 0
-60 10219 0
-10219 10222 0
-75 -10219 10220 0
-10220 10223 0
-90 -10220 10221 0
-10221 10224 0
-105 -10221 0
-75 10222 0
-10222 10225 0
-90 -10222 10223 0
-10223 10226 0
-105 -10223 10224 0
-10224 10227 0
-120 -10224 0
-90 10225 0
-10225 10228 0
-105 -10225 10226 0
-10226 10229 0
-120 -10226 10227 0
-10227 10230 0
-135 -10227 0
-105 10228 0
-10228 10231 0
-120 -10228 10229 0
-10229 10232 0
-135 -10229 10230 0
-10230 10233 0
-150 -10230 0
-120 10231 0
-10231 10234 0
-135 -10231 10232 0
-10232 10235 0
-150 -10232 10233 0
-10233 10236 0
-165 -10233 0
-135 10234 0
-10234 10237 0
-150 -10234 10235 0
-10235 10238 0
-165 -10235 10236 0
-10236 10239 0
-180 -10236 0
-150 10237 0
-10237 10240 0
-165 -10237 10238 0
-10238 10241 0
-180 -10238 10239 0
-10239 10242 0
-195 -10239 0
-165 10240 0
-10240 10243 0
-180 -10240 10241 0
-10241 10244 0
-195 -10241 10242 0
-10242 10245 0
-210 -10242 0
-180 10243 0
-195 -10243 10244 0
-210 -10244 10245 0
-225 -10245 0
1 10246 0
-10246 10247 0
2 -10246 10248 0
-10248 10249 0
3 -10248 10250 0
-10250 10251 0
4 -10250 10252 0
-10252 10253 0
5 -10252 10254 0
-10254 10255 0
6 -10254 10256 0
-10256 10257 0
7 -10256 10258 0
-10258 10259 0
8 -10258 10260 0
-10260 10261 0
9 -10260 10262 0
-10262 10263 0
10 -10262 10264 0
-10264 10265 0
11 -10264 10266 0
-10266 10267 0
12 -10266 10268 0
-10268 10269 0
13 -10268 10270 0
-10270 10271 0
14 -10270 0
2 10247 0
3 -10247 10249 0
4 -10249 10251 0
5 -10251 10253 0
6 -10253 10255 0
7 -10255 10257 0
8 -10257 10259 0
9 -10259 10261 0
10 -10261 10263 0
11 -10263 10265 0
12 -10265 10267 0
13 -10267 10269 0
14 -10269 10271 0
15 -10271 0
-1 10272 0
-10272 10273 0
-2 -10272 10274 0
-10274 10275 0
-3 -10274 0
-2 10273 0
-10273 10276 0
-3 -10273 10275 0
-10275 10277 0
-4 -10275 0
-3 10276 0
-10276 10278 0
-4 -10276 10277 0
-10277 10279 0
-5 -10277 0
-4 10278 0
-10278 10280 0
-5 -10278 10279 0
-10279 10281 0
-6 -10279 0
-5 10280 0
-10280 10282 0
-6 -10280 10281 0
-10281 10283 0
-7 -10281 0
-6 10282 0
-10282 10284 0
-7 -10282 10283 0
-10283 10285 0
-8 -10283 0
-7 10284 0
-10284 10286 0
-8 -10284 10285 0
-10285 10287 0
-9 -10285 0
-8 10286 0
-10286 10288 0
-9 -10286 10287 0
-10287 10289 0
-10 -10287 0
-9 10288 0
-10288 10290 0
-10 -10288 10289 0
-10289 10291 0
-11 -10289 0
-10 10290 0
-10290 10292 0
-11 -10290 10291 0
-10291 10293 0
-12 -10291 0
-11 10292 0
-10292 10294 0
-12 -10292 10293 0
-10293 10295 0
-13 -10293 0
-12 10294 0
-10294 10296 0
-13 -10294 10295 0
-10295 10297 0
-14 -10295 0
-13 10296 0
-14 -10296 10297 0
-15 -10297 0
16 10298 0
-10298 10299 0
17 -10298 10300 0
-10300 10301 0
18 -10300 10302 0
-10302 10303 0
19 -10302 10304 0
-10304 10305 0
20 -10304 10306 0
-10306 10307 0
21 -10306 10308 0
-10308 10309 0
22 -10308 10310 0
-10310 10311 0
23 -10310 10312 0
-10312 10313 0
24 -10312 10314 0
-10314 10315 0
25 -10314 10316 0
-10316 10317 0
26 -10316 10318 0
-10318 10319 0
27 -10318 10320 0
-10320 10321 0
28 -10320 0
17 10299 0
-10299 10322 0
18 -10299 10301 0
-10301 10323 0
19 -10301 10303 0
-10303 10324 0
20 -10303 10305 0
-10305 10325 0
21 -10305 10307 0
-10307 10326 0
22 -10307 10309 0
-10309 10327 0
23 -10309 10311 0
-10311 10328 0
24 -10311 10313 0
-10313 10329 0
25 -10313 10315 0
-10315 10330 0
26 -10315 10317 0
-10317 10331 0
27 -10317 10319 0
-10319 10332 0
28 -10319 10321 0
-10321 10333 0
29 -10321 0
18 10322 0
19 -10322 10323 0
20 -10323 10324 0
21 -10324 10325 0
22 -10325 10326 0
23 -10326 10327 0
24 -10327 10328 0
25 -10328 10329 0
26 -10329 10330 0
27 -10330 10331 0
28 -10331 10332 0
29 -10332 10333 0
30 -10333 0
-16 10334 0
-10334 10335 0
-17 -10334 10336 0
-10336 10337 0
-18 -10336 10338 0
-10338 10339 0
-19 -10338 0
-17 10335 0
-10335 10340 0
-18 -10335 10337 0
-10337 10341 0
-19 -10337 10339 0
-10339 10342 0
-20 -10339 0
-18 10340 0
-10340 10343 0
-19 -10340 10341 0
-10341 10344 0
-20 -10341 10342 0
-10342 10345 0
-21 -10342 0
-19 10343 0
-10343 10346 0
-20 -10343 10344 0
-10344 10347 0
-21 -10344 10345 0
-10345 10348 0
-22 -10345 0
-20 10346 0
-10346 10349 0
-21 -10346 10347 0
-10347 10350 0
-22 -10347 10348 0
-10348 10351 0
-23 -10348 0
-21 10349 0
-10349 10352 0
-22 -10349 10350 0
-10350 10353 0
-23 -10350 10351 0
-10351 10354 0
-24 -10351 0
-22 10352 0
-10352 10355 0
-23 -10352 10353 0
-10353 10356 0
-24 -10353 10354 0
-10354 10357 0
-25 -10354 0
-23 10355 0
-10355 10358 0
-24 -10355 10356 0
-10356 10359 0
-25 -10356 10357 0
-10357 10360 0
-26 -10357 0
-24 10358 0
-10358 10361 0
-25 -10358 10359 0
-10359 10362 0
-26 -10359 10360 0
-10360 10363 0
-27 -10360 0
-25 10361 0
-10361 10364 0
-26 -10361 10362 0
-10362 10365 0
-27 -10362 10363 0
-10363 10366 0
-28 -10363 0
-26 10364 0
-10364 10367 0
-27 -10364 10365 0
-10365 10368 0
-28 -10365 10366 0
-10366 10369 0
-29 -10366 0
-27 10367 0
-28 -10367 10368 0
-29 -10368 10369 0
-30 -10369 0
31 10370 0
-10370 10371 0
32 -10370 10372 0
-10372 10373 0
33 -10372 10374 0
-10374 10375 0
34 -10374 10376 0
-10376 10377 0
35 -10376 10378 0
-10378 10379 0
36 -10378 10380 0
-10380 10381 0
37 -10380 10382 0
-10382 10383 0
38 -10382 10384 0
-10384 10385 0
39 -10384 10386 0
-10386 10387 0
40 -10386 10388 0
-10388 10389 0
41 -10388 10390 0
-10390 10391 0
42 -10390 10392 0
-10392 10393 0
43 -10392 0
32 10371 0
-10371 10394 0
33 -10371 10373 0
-10373 10395 0
34 -10373 10375 0
-10375 10396 0
35 -10375 10377 0
-10377 10397 0
36 -10377 10379 0
-10379 10398 0
37 -10379 10381 0
-10381 10399 0
38 -10381 10383 0
-10383 10400 0
39 -10383 10385 0
-10385 10401 0
40 -10385 10387 0
-10387 10402 0
41 -10387 10389 0
-10389 10403 0
42 -10389 10391 0
-10391 10404 0
43 -10391 10393 0
-10393 10405 0
44 -10393 0
33 10394 0
34 -10394 10395 0
35 -10395 10396 0
36 -10396 10397 0
37 -10397 10398 0
38 -10398 10399 0
39 -10399 10400 0
40 -10400 10401 0
41 -10401 10402 0
42 -10402 10403 0
43 -10403 10404 0
44 -10404 10405 0
45 -10405 0
-31 10406 0
-10406 10407 0
-32 -10406 10408 0
-10408 10409 0
-33 -10408 10410 0
-10410 10411 0
-34 -10410 0
-32 10407 0
-10407 10412 0
-33 -10407 10409 0
-10409 10413 0
-34 -10409 10411 0
-10411 10414 0
-35 -10411 0
-33 10412 0
-10412 10415 0
-34 -10412 10413 0
-10413 10416 0
-35 -10413 10414 0
-10414 10417 0
-36 -10414 0
-34 10415 0
-10415 10418 0
-35 -10415 10416 0
-10416 10419 0
-36 -10416 10417 0
-10417 10420 0
-37 -10417 0
-35 10418 0
-10418 10421 0
-36 -10418 10419 0
-10419 10422 0
-37 -10419 10420 0
-10420 10423 0
-38 -10420 0
-36 10421 0
-10421 10424 0
-37 -10421 10422 0
-10422 10425 0
-38 -10422 10423 0
-10423 10426 0
-39 -10423 0
-37 10424 0
-10424 10427 0
-38 -10424 10425 0
-10425 10428 0
-39 -10425 10426 0
-10426 10429 0
-40 -10426 0
-38 10427 0
-10427 10430 0
-39 -10427 10428 0
-10428 10431 0
-40 -10428 10429 0
-10429 10432 0
-41 -10429 0
-39 10430 0
-10430 10433 0
-40 -10430 10431 0
-10431 10434 0
-41 -10431 10432 0
-10432 10435 0
-42 -10432 0
-40 10433 0
-10433 10436 0
-41 -10433 10434 0
-10434 10437 0
-42 -10434 10435 0
-10435 10438 0
-43 -10435 0
-41 10436 0
-10436 10439 0
-42 -10436 10437 0
-10437 10440 0
-43 -10437 10438 0
-10438 10441 0
-44 -10438 0
-42 10439 0
-43 -10439 10440 0
-44 -10440 10441 0
-45 -10441 0
46 10442 0
-10442 10443 0
47 -10442 10444 0
-10444 10445 0
48 -10444 10446 0
-10446 10447 0
49 -10446 10448 0
-10448 10449 0
50 -10448 10450 0
-10450 10451 0
51 -10450 10452 0
-10452 10453 0
52 -10452 10454 0
-10454 10455 0
53 -10454 10456 0
-10456 10457 0
54 -10456 10458 0
-10458 10459 0
55 -10458 10460 0
-10460 10461 0
56 -10460 10462 0
-10462 10463 0
57 -10462 10464 0
-10464 10465 0
58 -10464 0
47 10443 0
-10443 10466 0
48 -10443 10445 0
-10445 10467 0
49 -10445 10447 0
-10447 10468 0
50 -10447 10449 0
-10449 10469 0
51 -10449 10451 0
-10451 10470 0
52 -10451 10453 0
-10453 10471 0
53 -10453 10455 0
-10455 10472 0
54 -10455 10457 0
-10457 10473 0
55 -10457 10459 0
-10459 10474 0
56 -10459 10461 0
-10461 10475 0
57 -10461 10463 0
-10463 10476 0
58 -10463 10465 0
-10465 10477 0
59 -10465 0
48 10466 0
49 -10466 10467 0
50 -10467 10468 0
51 -10468 10469 0
52 -10469 10470 0
53 -10470 10471 0
54 -10471 10472 0
55 -10472 10473 0
56 -10473 10474 0
57 -10474 10475 0
58 -10475 10476 0
59 -10476 10477 0
60 -10477 0
-46 10478 0
-10478 10479 0
-47 -10478 10480 0
-10480 10481 0
-48 -10480 10482 0
-10482 10483 0
-49 -10482 0
-47 10479 0
-10479 10484 0
-48 -10479 10481 0
-10481 10485 0
-49 -10481 10483 0
-10483 10486 0
-50 -10483 0
-48 10484 0
-10484 10487 0
-49 -10484 10485 0
-10485 10488 0
-50 -10485 10486 0
-10486 10489 0
-51 -10486 0
-49 10487 0
-10487 10490 0
-50 -10487 10488 0
-10488 10491 0
-51 -10488 10489 0
-10489 10492 0
-52 -10489 0
-50 10490 0
-10490 10493 0
-51 -10490 10491 0
-10491 10494 0
-52 -10491 10492 0
-10492 10495 0
-53 -10492 0
-51 10493 0
-10493 10496 0
-52 -10493 10494 0
-10494 10497 0
-53 -10494 10495 0
-10495 10498 0
-54 -10495 0
-52 10496 0
-10496 10499 0
-53 -10496 10497 0
-10497 10500 0
-54 -10497 10498 0
-10498 10501 0
-55 -10498 0
-53 10499 0
-10499 10502 0
-54 -10499 10500 0
-10500 10503 0
-55 -10500 10501 0
-10501 10504 0
-56 -10501 0
-54 10502 0
-10502 10505 0
-55 -10502 10503 0
-10503 10506 0
-56 -10503 10504 0
-10504 10507 0
-57 -10504 0
-55 10505 0
-10505 10508 0
-56 -10505 10506 0
-10506 10509 0
-57 -10506 10507 0
-10507 10510 0
-58 -10507 0
-56 10508 0
-10508 10511 0
-57 -10508 10509 0
-10509 10512 0
-58 -10509 10510 0
-10510 10513 0
-59 -10510 0
-57 10511 0
-58 -10511 10512 0
-59 -10512 10513 0
-60 -10513 0
61 10514 0
-10514 10515 0
62 -10514 10516 0
-10516 10517 0
63 -10516 10518 0
-10518 10519 0
64 -10518 10520 0
-10520 10521 0
65 -10520 10522 0
-10522 10523 0
66 -10522 10524 0
-10524 10525 0
67 -10524 10526 0
-10526 10527 0
68 -10526 10528 0
-10528 10529 0
69 -10528 10530 0
-10530 10531 0
70 -10530 10532 0
-10532 10533 0
71 -10532 10534 0
-10534 10535 0
72 -10534 10536 0
-10536 10537 0
73 -10536 0
62 10515 0
-10515 10538 0
63 -10515 10517 0
-10517 10539 0
64 -10517 10519 0
-10519 10540 0
65 -10519 10521 0
-10521 10541 0
66 -10521 10523 0
-10523 10542 0
67 -10523 10525 0
-10525 10543 0
68 -10525 10527 0
-10527 10544 0
69 -10527 10529 0
-10529 10545 0
70 -10529 10531 0
-10531 10546 0
71 -10531 10533 0
-10533 10547 0
72 -10533 10535 0
-10535 10548 0
73 -10535 10537 0
-10537 10549 0
74 -10537 0
63 10538 0
64 -10538 10539 0
65 -10539 10540 0
66 -10540 10541 0
67 -10541 10542 0
68 -10542 10543 0
69 -10543 10544 0
70 -10544 10545 0
71 -10545 10546 0
72 -10546 10547 0
73 -10547 10548 0
74 -10548 10549 0
75 -10549 0
-61 10550 0
-10550 10551 0
-62 -10550 10552 0
-10552 10553 0
-63 -10552 10554 0
-10554 10555 0
-64 -10554 0
-62 10551 0
-10551 10556 0
-63 -10551 10553 0
-10553 10557 0
-64 -10553 10555 0
-10555 10558 0
-65 -10555 0
-63 10556 0
-10556 10559 0
-64 -10556 10557 0
-10557 10560 0
-65 -10557 10558 0
-10558 10561 0
-66 -10558 0
-64 10559 0
-10559 10562 0
-65 -10559 10560 0
-10560 10563 0
-66 -10560 10561 0
-10561 10564 0
-67 -10561 0
-65 10562 0
-10562 10565 0
-66 -10562 10563 0
-10563 10566 0
-67 -10563 10564 0
-10564 10567 0
-68 -10564 0
-66 10565 0
-10565 10568 0
-67 -10565 10566 0
-10566 10569 0
-68 -10566 10567 0
-10567 10570 0
-69 -10567 0
-67 10568 0
-10568 10571 0
-68 -10568 10569 0
-10569 10572 0
-69 -10569 10570 0
-10570 10573 0
-70 -10570 0
-68 10571 0
-10571 10574 0
-69 -10571 10572 0
-10572 10575 0
-70 -10572 10573 0
-10573 10576 0
-71 -10573 0
-69 10574 0
-10574 10577 0
-70 -10574 10575 0
-10575 10578 0
-71 -10575 10576 0
-10576 10579 0
-72 -10576 0
-70 10577 0
-10577 10580 0
-71 -10577 10578 0
-10578 10581 0
-72 -10578 10579 0
-10579 10582 0
-73 -10579 0
-71 10580 0
-10580 10583 0
-72 -10580 10581 0
-10581 10584 0
-73 -10581 10582 0
-10582 10585 0
-74 -10582 0
-72 10583 0
-73 -10583 10584 0
-74 -10584 10585 0
-75 -10585 0
76 10586 0
-10586 10587 0
77 -10586 10588 0
-10588 10589 0
78 -10588 10590 0
-10590 10591 0
79 -10590 10592 0
-10592 10593 0
80 -10592 10594 0
-10594 10595 0
81 -10594 10596 0
-10596 10597 0
82 -10596 10598 0
-10598 10599 0
83 -10598 10600 0
-10600 10601 0
84 -10600 10602 0
-10602 10603 0
85 -10602 10604 0
-10604 10605 0
86 -10604 10606 0
-10606 10607 0
87 -10606 10608 0
-10608 10609 0
88 -10608 0
77 10587 0
-10587 10610 0
78 -10587 10589 0
-10589 10611 0
79 -10589 10591 0
-10591 10612 0
80 -10591 10593 0
-10593 10613 0
81 -10593 10595 0
-10595 10614 0
82 -10595 10597 0
-10597 10615 0
83 -10597 10599 0
-10599 10616 0
84 -10599 10601 0
-10601 10617 0
85 -10601 10603 0
-10603 10618 0
86 -10603 10605 0
-10605 10619 0
87 -10605 10607 0
-10607 10620 0
88 -10607 10609 0
-10609 10621 0
89 -10609 0
78 10610 0
79 -10610 10611 0
80 -10611 10612 0
81 -10612 10613 0
82 -10613 10614 0
83 -10614 10615 0
84 -10615 10616 0
85 -10616 10617 0
86 -10617 10618 0
87 -10618 10619 0
88 -10619 10620 0
89 -10620 10621 0
90 -10621 0
-76 10622 0
-10622 10623 0
-77 -10622 10624 0
-10624 10625 0
-78 -10624 10626 0
-10626 10627 0
-79 -10626 0
-77 10623 0
-10623 10628 0
-78 -10623 10625 0
-10625 10629 0
-79 -10625 10627 0
-10627 10630 0
-80 -10627 0
-78 10628 0
-10628 10631 0
-79 -10628 10629 0
-10629 10632 0
-80 -10629 10630 0
-10630 10633 0
-81 -10630 0
-79 10631 0
-10631 10634 0
-80 -10631 10632 0
-10632 10635 0
-81 -10632 10633 0
-10633 10636 0
-82 -10633 0
-80 10634 0
-10634 10637 0
-81 -10634 10635 0
-10635 10638 0
-82 -10635 10636 0
-10636 10639 0
-83 -10636 0
-81 10637 0
-10637 10640 0
-82 -10637 10638 0
-10638 10641 0
-83 -10638 10639 0
-10639 10642 0
-84 -10639 0
-82 10640 0
-10640 10643 0
-83 -10640 10641 0
-10641 10644 0
-84 -10641 10642 0
-10642 10645 0
-85 -10642 0
-83 10643 0
-10643 10646 0
-84 -10643 10644 0
-10644 10647 0
-85 -10644 10645 0
-10645 10648 0
-86 -10645 0
-84 10646 0
-10646 10649 0
-85 -10646 10647 0
-10647 10650 0
-86 -10647 10648 0
-10648 10651 0
-87 -10648 0
-85 10649 0
-10649 10652 0
-86 -10649 10650 0
-10650 10653 0
-87 -10650 10651 0
-10651 10654 0
-88 -10651 0
-86 10652 0
-10652 10655 0
-87 -10652 10653 0
-10653 10656 0
-88 -10653 10654 0
-10654 10657 0
-89 -10654 0
-87 10655 0
-88 -10655 10656 0
-89 -10656 10657 0
-90 -10657 0
91 10658 0
-10658 10659 0
92 -10658 10660 0
-10660 10661 0
93 -10660 10662 0
-10662 10663 0
94 -10662 10664 0
-10664 10665 0
95 -10664 10666 0
-10666 10667 0
96 -10666 10668 0
-10668 10669 0
97 -10668 10670 0
-10670 10671 0
98 -10670 10672 0
-10672 10673 0
99 -10672 10674 0
-10674 10675 0
100 -10674 10676 0
-10676 10677 0
101 -10676 10678 0
-10678 10679 0
102 -10678 10680 0
-10680 10681 0
103 -10680 0
92 10659 0
-10659 10682 0
93 -10659 10661 0
-10661 10683 0
94 -10661 10663 0
-10663 10684 0
95 -10663 10665 0
-10665 10685 0
96 -10665 10667 0
-10667 10686 0
97 -10667 10669 0
-10669 10687 0
98 -10669 10671 0
-10671 10688 0
99 -10671 10673 0
-10673 10689 0
100 -10673 10675 0
-10675 10690 0
101 -10675 10677 0
-10677 10691 0
102 -10677 10679 0
-10679 10692 0
103 -10679 10681 0
-10681 10693 0
104 -10681 0
93 10682 0
94 -10682 10683 0
95 -10683 10684 0
96 -10684 10685 0
97 -10685 10686 0
98 -10686 10687 0
99 -10687 10688 0
100 -10688 10689 0
101 -10689 10690 0
102 -10690 10691 0
103 -10691 10692 0
104 -10692 10693 0
105 -10693 0
-91 10694 0
-10694 10695 0
-92 -10694 10696 0
-10696 10697 0
-93 -10696 10698 0
-10698 10699 0
-94 -10698 0
-92 10695 0
-10695 10700 0
-93 -10695 10697 0
-10697 10701 0
-94 -10697 10699 0
-10699 10702 0
-95 -10699 0
-93 10700 0
-10700 10703 0
-94 -10700 10701 0
-10701 10704 0
-95 -10701 10702 0
-10702 10705 0
-96 -10702 0
-94 10703 0
-10703 10706 0
-95 -10703 10704 0
-10704 10707 0
-96 -10704 10705 0
-10705 10708 0
-97 -10705 0
-95 10706 0
-10706 10709 0
-96 -10706 10707 0
-10707 10710 0
-97 -10707 10708 0
-10708 10711 0
-98 -10708 0
-96 10709 0
-10709 10712 0
-97 -10709 10710 0
-10710 10713 0
-98 -10710 10711 0
-10711 10714 0
-99 -10711 0
-97 10712 0
-10712 10715 0
-98 -10712 10713 0
-10713 10716 0
-99 -10713 10714 0
-10714 10717 0
-100 -10714 0
-98 10715 0
-10715 10718 0
-99 -10715 10716 0
-10716 10719 0
-100 -10716 10717 0
-10717 10720 0
-101 -10717 0
-99 10718 0
-10718 10721 0
-100 -10718 10719 0
-10719 10722 0
-101 -10719 10720 0
-10720 10723 0
-102 -10720 0
-100 10721 0
-10721 10724 0
-101 -10721 10722 0
-10722 10725 0
-102 -10722 10723 0
-10723 10726 0
-103 -10723 0
-101 10724 0
-10724 10727 0
-102 -10724 10725 0
-10725 10728 0
-103 -10725 10726 0
-10726 10729 0
-104 -10726 0
-102 10727 0
-103 -10727 10728 0
-104 -10728 10729 0
-105 -10729 0
106 10730 0
-10730 10731 0
107 -10730 10732 0
-10732 10733 0
108 -10732 10734 0
-10734 10735 0
109 -10734 10736 0
-10736 10737 0
110 -10736 10738 0
-10738 10739 0
111 -10738 10740 0
-10740 10741 0
112 -10740 10742 0
-10742 10743 0
113 -10742 10744 0
-10744 10745 0
114 -10744 10746 0
-10746 10747 0
115 -10746 10748 0
-10748 10749 0
116 -10748 10750 0
-10750 10751 0
117 -10750 10752 0
-10752 10753 0
118 -10752 0
107 10731 0
-10731 10754 0
108 -10731 10733 0
-10733 10755 0
109 -10733 10735 0
-10735 10756 0
110 -10735 10737 0
-10737 10757 0
111 -10737 10739 0
-10739 10758 0
112 -10739 10741 0
-10741 10759 0
113 -10741 10743 0
-10743 10760 0
114 -10743 10745 0
-10745 10761 0
115 -10745 10747 0
-10747 10762 0
116 -10747 10749 0
-10749 10763 0
117 -10749 10751 0
-10751 10764 0
118 -10751 10753 0
-10753 10765 0
119 -10753 0
108 10754 0
109 -10754 10755 0
110 -10755 10756 0
111 -10756 10757 0
112 -10757 10758 0
113 -10758 10759 0
114 -10759 10760 0
115 -10760 10761 0
116 -10761 10762 0
117 -10762 10763 0
118 -10763 10764 0
119 -10764 10765 0
120 -10765 0
-106 10766 0
-10766 10767 0
-107 -10766 10768 0
-10768 10769 0
-108 -10768 10770 0
-10770 10771 0
-109 -10770 0
-107 10767 0
-10767 10772 0
-108 -10767 10769 0
-10769 10773 0
-109 -10769 10771 0
-10771 10774 0
-110 -10771 0
-108 10772 0
-10772 10775 0
-109 -10772 10773 0
-10773 10776 0
-110 -10773 10774 0
-10774 10777 0
-111 -10774 0
-109 10775 0
-10775 10778 0
-110 -10775 10776 0
-10776 10779 0
-111 -10776 10777 0
-10777 10780 0
-112 -10777 0
-110 10778 0
-10778 10781 0
-111 -10778 10779 0
-10779 10782 0
-112 -10779 10780 0
-10780 10783 0
-113 -10780 0
-111 10781 0
-10781 10784 0
-112 -10781 10782 0
-10782 10785 0
-113 -10782 10783 0
-10783 10786 0
-114 -10783 0
-112 10784 0
-10784 10787 0
-113 -10784 10785 0
-10785 10788 0
-114 -10785 10786 0
-10786 10789 0
-115 -10786 0
-113 10787 0
-10787 10790 0
-114 -10787 10788 0
-10788 10791 0
-115 -10788 10789 0
-10789 10792 0
-116 -10789 0
-114 10790 0
-10790 10793 0
-115 -10790 10791 0
-10791 10794 0
-116 -10791 10792 0
-10792 10795 0
-117 -10792 0
-115 10793 0
-10793 10796 0
-116 -10793 10794 0
-10794 10797 0
-117 -10794 10795 0
-10795 10798 0
-118 -10795 0
-116 10796 0
-10796 10799 0
-117 -10796 10797 0
-10797 10800 0
-118 -10797 10798 0
-10798 10801 0
-119 -10798 0
-117 10799 0
-118 -10799 10800 0
-119 -10800 10801 0
-120 -10801 0
121 10802 0
-10802 10803 0
122 -10802 10804 0
-10804 10805 0
123 -10804 10806 0
-10806 10807 0
124 -10806 10808 0
-10808 10809 0
125 -10808 10810 0
-10810 10811 0
126 -10810 10812 0
-10812 10813 0
127 -10812 10814 0
-10814 10815 0
128 -10814 10816 0
-10816 10817 0
129 -10816 10818 0
-10818 10819 0
130 -10818 10820 0
-10820 10821 0
131 -10820 10822 0
-10822 10823 0
132 -10822 10824 0
-10824 10825 0
133 -10824 0
122 10803 0
-10803 10826 0
123 -10803 10805 0
-10805 10827 0
124 -10805 10807 0
-10807 10828 0
125 -10807 10809 0
-10809 10829 0
126 -10809 10811 0
-10811 10830 0
127 -10811 10813 0
-10813 10831 0
128 -10813 10815 0
-10815 10832 0
129 -10815 10817 0
-10817 10833 0
130 -10817 10819 0
-10819 10834 0
131 -10819 10821 0
-10821 10835 0
132 -10821 10823 0
-10823 10836 0
133 -10823 10825 0
-10825 10837 0
134 -10825 0
123 10826 0
124 -10826 10827 0
125 -10827 10828 0
126 -10828 10829 0
127 -10829 10830 0
128 -10830 10831 0
129 -10831 10832 0
130 -10832 10833 0
131 -10833 10834 0
132 -10834 10835 0
133 -10835 10836 0
134 -10836 10837 0
135 -10837 0
-121 10838 0
-10838 10839 0
-122 -10838 10840 0
-10840 10841 0
-123 -10840 10842 0
-10842 10843 0
-124 -10842 0
-122 10839 0
-10839 10844 0
-123 -10839 10841 0
-10841 10845 0
-124 -10841 10843 0
-10843 10846 0
-125 -10843 0
-123 10844 0
-10844 10847 0
-124 -10844 10845 0
-10845 10848 0
-125 -10845 10846 0
-10846 10849 0
-126 -10846 0
-124 10847 0
-10847 10850 0
-125 -10847 10848 0
-10848 10851 0
-126 -10848 10849 0
-10849 10852 0
-127 -10849 0
-125 10850 0
-10850 10853 0
-126 -10850 10851 0
-10851 10854 0
-127 -10851 10852 0
-10852 10855 0
-128 -10852 0
-126 10853 0
-10853 10856 0
-127 -10853 10854 0
-10854 10857 0
-128 -10854 10855 0
-10855 10858 0
-129 -10855 0
-127 10856 0
-10856 10859 0
-128 -10856 10857 0
-10857 10860 0
-129 -10857 10858 0
-10858 10861 0
-130 -10858 0
-128 10859 0
-10859 10862 0
-129 -10859 10860 0
-10860 10863 0
-130 -10860 10861 0
-10861 10864 0
-131 -10861 0
-129 10862 0
-10862 10865 0
-130 -10862 10863 0
-10863 10866 0
-131 -10863 10864 0
-10864 10867 0
-132 -10864 0
-130 10865 0
-10865 10868 0
-131 -10865 10866 0
-10866 10869 0
-132 -10866 10867 0
-10867 10870 0
-133 -10867 0
-131 10868 0
-10868 10871 0
-132 -10868 10869 0
-10869 10872 0
-133 -10869 10870 0
-10870 10873 0
-134 -10870 0
-132 10871 0
-133 -10871 10872 0
-134 -10872 10873 0
-135 -10873 0
136 10874 0
-10874 10875 0
137 -10874 10876 0
-10876 10877 0
138 -10876 10878 0
-10878 10879 0
139 -10878 10880 0
-10880 10881 0
140 -10880 10882 0
-10882 10883 0
141 -10882 10884 0
-10884 10885 0
142 -10884 10886 0
-10886 10887 0
143 -10886 10888 0
-10888 10889 0
144 -10888 10890 0
-10890 10891 0
145 -10890 10892 0
-10892 10893 0
146 -10892 10894 0
-10894 10895 0
147 -10894 10896 0
-10896 10897 0
148 -10896 0
137 10875 0
-10875 10898 0
138 -10875 10877 0
-10877 10899 0
139 -10877 10879 0
-10879 10900 0
140 -10879 10881 0
-10881 10901 0
141 -10881 10883 0
-10883 10902 0
142 -10883 10885 0
-10885 10903 0
143 -10885 10887 0
-10887 10904 0
144 -10887 10889 0
-10889 10905 0
145 -10889 10891 0
-10891 10906 0
146 -10891 10893 0
-10893 10907 0
147 -10893 10895 0
-10895 10908 0
148 -10895 10897 0
-10897 10909 0
149 -10897 0
138 10898 0
139 -10898 10899 0
140 -10899 10900 0
141 -10900 10901 0
142 -10901 10902 0
143 -10902 10903 0
144 -10903 10904 0
145 -10904 10905 0
146 -10905 10906 0
147 -10906 10907 0
148 -10907 10908 0
149 -10908 10909 0
150 -10909 0
-136 10910 0
-10910 10911 0
-137 -10910 10912 0
-10912 10913 0
-138 -10912 10914 0
-10914 10915 0
-139 -10914 0
-137 10911 0
-10911 10916 0
-138 -10911 10913 0
-10913 10917 0
-139 -10913 10915 0
-10915 10918 0
-140 -10915 0
-138 10916 0
-10916 10919 0
-139 -10916 10917 0
-10917 10920 0
-140 -10917 10918 0
-10918 10921 0
-141 -10918 0
-139 10919 0
-10919 10922 0
-140 -10919 10920 0
-10920 10923 0
-141 -10920 10921 0
-10921 10924 0
-142 -10921 0
-140 10922 0
-10922 10925 0
-141 -10922 10923 0
-10923 10926 0
-142 -10923 10924 0
-10924 10927 0
-143 -10924 0
-141 10925 0
-10925 10928 0
-142 -10925 10926 0
-10926 10929 0
-143 -10926 10927 0
-10927 10930 0
-144 -10927 0
-142 10928 0
-10928 10931 0
-143 -10928 10929 0
-10929 10932 0
-144 -10929 10930 0
-10930 10933 0
-145 -10930 0
-143 10931 0
-10931 10934 0
-144 -10931 10932 0
-10932 10935 0
-145 -10932 10933 0
-10933 10936 0
-146 -10933 0
-144 10934 0
-10934 10937 0
-145 -10934 10935 0
-10935 10938 0
-146 -10935 10936 0
-10936 10939 0
-147 -10936 0
-145 10937 0
-10937 10940 0
-146 -10937 10938 0
-10938 10941 0
-147 -10938 10939 0
-10939 10942 0
-148 -10939 0
-146 10940 0
-10940 10943 0
-147 -10940 10941 0
-10941 10944 0
-148 -10941 10942 0
-10942 10945 0
-149 -10942 0
-147 10943 0
-148 -10943 10944 0
-149 -10944 10945 0
-150 -10945 0
151 10946 0
-10946 10947 0
152 -10946 10948 0
-10948 10949 0
153 -10948 10950 0
-10950 10951 0
154 -10950 10952 0
-10952 10953 0
155 -10952 10954 0
-10954 10955 0
156 -10954 10956 0
-10956 10957 0
157 -10956 10958 0
-10958 10959 0
158 -10958 10960 0
-10960 10961 0
159 -10960 10962 0
-10962 10963 0
160 -10962 10964 0
-10964 10965 0
161 -10964 10966 0
-10966 10967 0
162 -10966 10968 0
-10968 10969 0
163 -10968 0
152 10947 0
-10947 10970 0
153 -10947 10949 0
-10949 10971 0
154 -10949 10951 0
-10951 10972 0
155 -10951 10953 0
-10953 10973 0
156 -10953 10955 0
-10955 10974 0
157 -10955 10957 0
-10957 10975 0
158 -10957 10959 0
-10959 10976 0
159 -10959 10961 0
-10961 10977 0
160 -10961 10963 0
-10963 10978 0
161 -10963 10965 0
-10965 10979 0
162 -10965 10967 0
-10967 10980 0
163 -10967 10969 0
-10969 10981 0
164 -10969 0
153 10970 0
154 -10970 10971 0
155 -10971 10972 0
156 -10972 10973 0
157 -10973 10974 0
158 -10974 10975 0
159 -10975 10976 0
160 -10976 10977 0
161 -10977 10978 0
162 -10978 10979 0
163 -10979 10980 0
164 -10980 10981 0
165 -10981 0
-151 10982 0
-10982 10983 0
-152 -10982 10984 0
-10984 10985 0
-153 -10984 10986 0
-10986 10987 0
-154 -10986 0
-152 10983 0
-10983 10988 0
-153 -10983 10985 0
-10985 10989 0
-154 -10985 10987 0
-10987 10990 0
-155 -10987 0
-153 10988 0
-10988 10991 0
-154 -10988 10989 0
-10989 10992 0
-155 -10989 10990 0
-10990 10993 0
-156 -10990 0
-154 10991 0
-10991 10994 0
-155 -10991 10992 0
-10992 10995 0
-156 -10992 10993 0
-10993 10996 0
-157 -10993 0
-155 10994 0
-10994 10997 0
-156 -10994 10995 0
-10995 10998 0
-157 -10995 10996 0
-10996 10999 0
-158 -10996 0
-156 10997 0
-10997 11000 0
-157 -10997 10998 0
-10998 11001 0
-158 -10998 10999 0
-10999 11002 0
-159 -10999 0
-157 11000 0
-11000 11003 0
-158 -11000 11001 0
-11001 11004 0
-159 -11001 11002 0
-11002 11005 0
-160 -11002 0
-158 11003 0
-11003 11006 0
-159 -11003 11004 0
-11004 11007 0
-160 -11004 11005 0
-11005 11008 0
-161 -11005 0
-159 11006 0
-11006 11009 0
-160 -11006 11007 0
-11007 11010 0
-161 -11007 11008 0
-11008 11011 0
-162 -11008 0
-160 11009 0
-11009 11012 0
-161 -11009 11010 0
-11010 11013 0
-162 -11010 11011 0
-11011 11014 0
-163 -11011 0
-161 11012 0
-11012 11015 0
-162 -11012 11013 0
-11013 11016 0
-163 -11013 11014 0
-11014 11017 0
-164 -11014 0
-162 11015 0
-163 -11015 11016 0
-164 -11016 11017 0
-165 -11017 0
166 11018 0
-11018 11019 0
167 -11018 11020 0
-11020 11021 0
168 -11020 11022 0
-11022 11023 0
169 -11022 11024 0
-11024 11025 0
170 -11024 11026 0
-11026 11027 0
171 -11026 11028 0
-11028 11029 0
172 -11028 11030 0
-11030 11031 0
173 -11030 11032 0
-11032 11033 0
174 -11032 11034 0
-11034 11035 0
175 -11034 11036 0
-11036 11037 0
176 -11036 11038 0
-11038 11039 0
177 -11038 11040 0
-11040 11041 0
178 -11040 0
167 11019 0
-11019 11042 0
168 -11019 11021 0
-11021 11043 0
169 -11021 11023 0
-11023 11044 0
170 -11023 11025 0
-11025 11045 0
171 -11025 11027 0
-11027 11046 0
172 -11027 11029 0
-11029 11047 0
173 -11029 11031 0
-11031 11048 0
174 -11031 11033 0
-11033 11049 0
175 -11033 11035 0
-11035 11050 0
176 -11035 11037 0
-11037 11051 0
177 -11037 11039 0
-11039 11052 0
178 -11039 11041 0
-11041 11053 0
179 -11041 0
168 11042 0
169 -11042 11043 0
170 -11043 11044 0
171 -11044 11045 0
172 -11045 11046 0
173 -11046 11047 0
174 -11047 11048 0
175 -11048 11049 0
176 -11049 11050 0
177 -11050 11051 0
178 -11051 11052 0
179 -11052 11053 0
180 -11053 0
-166 11054 0
-11054 11055 0
-167 -11054 11056 0
-11056 11057 0
-168 -11056 11058 0
-11058 11059 0
-169 -11058 0
-167 11055 0
-11055 11060 0
-168 -11055 11057 0
-11057 11061 0
-169 -11057 11059 0
-11059 11062 0
-170 -11059 0
-168 11060 0
-11060 11063 0
-169 -11060 11061 0
-11061 11064 0
-170 -11061 11062 0
-11062 11065 0
-171 -11062 0
-169 11063 0
-11063 11066 0
-170 -11063 11064 0
-11064 11067 0
-171 -11064 11065 0
-11065 11068 0
-172 -11065 0
-170 11066 0
-11066 11069 0
-171 -11066 11067 0
-11067 11070 0
-172 -11067 11068 0
-11068 11071 0
-173 -11068 0
-171 11069 0
-11069 11072 0
-172 -11069 11070 0
-11070 11073 0
-173 -11070 11071 0
-11071 11074 0
-174 -11071 0
-172 11072 0
-11072 11075 0
-173 -11072 11073 0
-11073 11076 0
-174 -11073 11074 0
-11074 11077 0
-175 -11074 0
-173 11075 0
-11075 11078 0
-174 -11075 11076 0
-11076 11079 0
-175 -11076 11077 0
-11077 11080 0
-176 -11077 0
-174 11078 0
-11078 11081 0
-175 -11078 11079 0
-11079 11082 0
-176 -11079 11080 0
-11080 11083 0
-177 -11080 0
-175 11081 0
-11081 11084 0
-176 -11081 11082 0
-11082 11085 0
-177 -11082 11083 0
-11083 11086 0
-178 -11083 0
-176 11084 0
-11084 11087 0
-177 -11084 11085 0
-11085 11088 0
-178 -11085 11086 0
-11086 11089 0
-179 -11086 0
-177 11087 0
-178 -11087 11088 0
-179 -11088 11089 0
-180 -11089 0
181 11090 0
-11090 11091 0
182 -11090 11092 0
-11092 11093 0
183 -11092 11094 0
-11094 11095 0
184 -11094 11096 0
-11096 11097 0
185 -11096 11098 0
-11098 11099 0
186 -11098 11100 0
-11100 11101 0
187 -11100 11102 0
-11102 11103 0
188 -11102 11104 0
-11104 11105 0
189 -11104 11106 0
-11106 11107 0
190 -11106 11108 0
-11108 11109 0
191 -11108 11110 0
-11110 11111 0
192 -11110 11112 0
-11112 11113 0
193 -11112 0
182 11091 0
-11091 11114 0
183 -11091 11093 0
-11093 11115 0
184 -11093 11095 0
-11095 11116 0
185 -11095 11097 0
-11097 11117 0
186 -11097 11099 0
-11099 11118 0
187 -11099 11101 0
-11101 11119 0
188 -11101 11103 0
-11103 11120 0
189 -11103 11105 0
-11105 11121 0
190 -11105 11107 0
-11107 11122 0
191 -11107 11109 0
-11109 11123 0
192 -11109 11111 0
-11111 11124 0
193 -11111 11113 0
-11113 11125 0
194 -11113 0
183 11114 0
184 -11114 11115 0
185 -11115 11116 0
186 -11116 11117 0
187 -11117 11118 0
188 -11118 11119 0
189 -11119 11120 0
190 -11120 11121 0
191 -11121 11122 0
192 -11122 11123 0
193 -11123 11124 0
194 -11124 11125 0
195 -11125 0
-181 11126 0
-11126 11127 0
-182 -11126 11128 0
-11128 11129 0
-183 -11128 11130 0
-11130 11131 0
-184 -11130 0
-182 11127 0
-11127 11132 0
-183 -11127 11129 0
-11129 11133 0
-184 -11129 11131 0
-11131 11134 0
-185 -11131 0
-183 11132 0
-11132 11135 0
-184 -11132 11133 0
-11133 11136 0
-185 -11133 11134 0
-11134 11137 0
-186 -11134 0
-184 11135 0
-11135 11138 0
-185 -11135 11136 0
-11136 11139 0
-186 -11136 11137 0
-11137 11140 0
-187 -11137 0
-185 11138 0
-11138 11141 0
-186 -11138 11139 0
-11139 11142 0
-187 -11139 11140 0
-11140 11143 0
-188 -11140 0
-186 11141 0
-11141 11144 0
-187 -11141 11142 0
-11142 11145 0
-188 -11142 11143 0
-11143 11146 0
-189 -11143 0
-187 11144 0
-11144 11147 0
-188 -11144 11145 0
-11145 11148 0
-189 -11145 11146 0
-11146 11149 0
-190 -11146 0
-188 11147 0
-11147 11150 0
-189 -11147 11148 0
-11148 11151 0
-190 -11148 11149 0
-11149 11152 0
-191 -11149 0
-189 11150 0
-11150 11153 0
-190 -11150 11151 0
-11151 11154 0
-191 -11151 11152 0
-11152 11155 0
-192 -11152 0
-190 11153 0
-11153 11156 0
-191 -11153 11154 0
-11154 11157 0
-192 -11154 11155 0
-11155 11158 0
-193 -11155 0
-191 11156 0
-11156 11159 0
-192 -11156 11157 0
-11157 11160 0
-193 -11157 11158 0
-11158 11161 0
-194 -11158 0
-192 11159 0
-193 -11159 11160 0
-194 -11160 11161 0
-195 -11161 0
196 11162 0
-11162 11163 0
197 -11162 11164 0
-11164 11165 0
198 -11164 11166 0
-11166 11167 0
199 -11166 11168 0
-11168 11169 0
200 -11168 11170 0
-11170 11171 0
201 -11170 11172 0
-11172 11173 0
202 -11172 11174 0
-11174 11175 0
203 -11174 11176 0
-11176 11177 0
204 -11176 11178 0
-11178 11179 0
205 -11178 11180 0
-11180 11181 0
206 -11180 11182 0
-11182 11183 0
207 -11182 11184 0
-11184 11185 0
208 -11184 0
197 11163 0
-11163 11186 0
198 -11163 11165 0
-11165 11187 0
199 -11165 11167 0
-11167 11188 0
200 -11167 11169 0
-11169 11189 0
201 -11169 11171 0
-11171 11190 0
202 -11171 11173 0
-11173 11191 0
203 -11173 11175 0
-11175 11192 0
204 -11175 11177 0
-11177 11193 0
205 -11177 11179 0
-11179 11194 0
206 -11179 11181 0
-11181 11195 0
207 -11181 11183 0
-11183 11196 0
208 -11183 11185 0
-11185 11197 0
209 -11185 0
198 11186 0
199 -11186 11187 0
200 -11187 11188 0
201 -11188 11189 0
202 -11189 11190 0
203 -11190 11191 0
204 -11191 11192 0
205 -11192 11193 0
206 -11193 11194 0
207 -11194 11195 0
208 -11195 11196 0
209 -11196 11197 0
210 -11197 0
-196 11198 0
-11198 11199 0
-197 -11198 11200 0
-11200 11201 0
-198 -11200 11202 0
-11202 11203 0
-199 -11202 0
-197 11199 0
-11199 11204 0
-198 -11199 11201 0
-11201 11205 0
-199 -11201 11203 0
-11203 11206 0
-200 -11203 0
-198 11204 0
-11204 11207 0
-199 -11204 11205 0
-11205 11208 0
-200 -11205 11206 0
-11206 11209 0
-201 -11206 0
-199 11207 0
-11207 11210 0
-200 -11207 11208 0
-11208 11211 0
-201 -11208 11209 0
-11209 11212 0
-202 -11209 0
-200 11210 0
-11210 11213 0
-201 -11210 11211 0
-11211 11214 0
-202 -11211 11212 0
-11212 11215 0
-203 -11212 0
-201 11213 0
-11213 11216 0
-202 -11213 11214 0
-11214 11217 0
-203 -11214 11215 0
-11215 11218 0
-204 -11215 0
-202 11216 0
-11216 11219 0
-203 -11216 11217 0
-11217 11220 0
-204 -11217 11218 0
-11218 11221 0
-205 -11218 0
-203 11219 0
-11219 11222 0
-204 -11219 11220 0
-11220 11223 0
-205 -11220 11221 0
-11221 11224 0
-206 -11221 0
-204 11222 0
-11222 11225 0
-205 -11222 11223 0
-11223 11226 0
-206 -11223 11224 0
-11224 11227 0
-207 -11224 0
-205 11225 0
-11225 11228 0
-206 -11225 11226 0
-11226 11229 0
-207 -11226 11227 0
-11227 11230 0
-208 -11227 0
-206 11228 0
-11228 11231 0
-207 -11228 11229 0
-11229 11232 0
-208 -11229 11230 0
-11230 11233 0
-209 -11230 0
-207 11231 0
-208 -11231 11232 0
-209 -11232 11233 0
-210 -11233 0
211 11234 0
-11234 11235 0
212 -11234 11236 0
-11236 11237 0
213 -11236 11238 0
-11238 11239 0
214 -11238 11240 0
-11240 11241 0
215 -11240 11242 0
-11242 11243 0
216 -11242 11244 0
-11244 11245 0
217 -11244 11246 0
-11246 11247 0
218 -11246 11248 0
-11248 11249 0
219 -11248 11250 0
-11250 11251 0
220 -11250 11252 0
-11252 11253 0
221 -11252 11254 0
-11254 11255 0
222 -11254 11256 0
-11256 11257 0
223 -11256 0
212 11235 0
-11235 11258 0
213 -11235 11237 0
-11237 11259 0
214 -11237 11239 0
-11239 11260 0
215 -11239 11241 0
-11241 11261 0
216 -11241 11243 0
-11243 11262 0
217 -11243 11245 0
-11245 11263 0
218 -11245 11247 0
-11247 11264 0
219 -11247 11249 0
-11249 11265 0
220 -11249 11251 0
-11251 11266 0
221 -11251 11253 0
-11253 11267 0
222 -11253 11255 0
-11255 11268 0
223 -11255 11257 0
-11257 11269 0
224 -11257 0
213 11258 0
214 -11258 11259 0
215 -11259 11260 0
216 -11260 11261 0
217 -11261 11262 0
218 -11262 11263 0
219 -11263 11264 0
220 -11264 11265 0
221 -11265 11266 0
222 -11266 11267 0
223 -11267 11268 0
224 -11268 11269 0
225 -11269 0
-211 11270 0
-11270 11271 0
-212 -11270 11272 0
-11272 11273 0
-213 -11272 11274 0
-11274 11275 0
-214 -11274 0
-212 11271 0
-11271 11276 0
-213 -11271 11273 0
-11273 11277 0
-214 -11273 11275 0
-11275 11278 0
-215 -11275 0
-213 11276 0
-11276 11279 0
-214 -11276 11277 0
-11277 11280 0
-215 -11277 11278 0
-11278 11281 0
-216 -11278 0
-214 11279 0
-11279 11282 0
-215 -11279 11280 0
-11280 11283 0
-216 -11280 11281 0
-11281 11284 0
-217 -11281 0
-215 11282 0
-11282 11285 0
-216 -11282 11283 0
-11283 11286 0
-217 -11283 11284 0
-11284 11287 0
-218 -11284 0
-216 11285 0
-11285 11288 0
-217 -11285 11286 0
-11286 11289 0
-218 -11286 11287 0
-11287 11290 0
-219 -11287 0
-217 11288 0
-11288 11291 0
-218 -11288 11289 0
-11289 11292 0
-219 -11289 11290 0
-11290 11293 0
-220 -11290 0
-218 11291 0
-11291 11294 0
-219 -11291 11292 0
-11292 11295 0
-220 -11292 11293 0
-11293 11296 0
-221 -11293 0
-219 11294 0
-11294 11297 0
-220 -11294 11295 0
-11295 11298 0
-221 -11295 11296 0
-11296 11299 0
-222 -11296 0
-220 11297 0
-11297 11300 0
-221 -11297 11298 0
-11298 11301 0
-222 -11298 11299 0
-11299 11302 0
-223 -11299 0
-221 11300 0
-11300 11303 0
-222 -11300 11301 0
-11301 11304 0
-223 -11301 11302 0
-11302 11305 0
-224 -11302 0
-222 11303 0
-223 -11303 11304 0
-224 -11304 11305 0
-225 -11305 0
-226 1 0
-226 16 0
-1 -16 226 0
-227 2 0
-227 17 0
-2 -17 227 0
-228 3 0
-228 18 0
-3 -18 228 0
-229 4 0
-229 19 0
-4 -19 229 0
-230 5 0
-230 20 0
-5 -20 230 0
-231 6 0
-231 21 0
-6 -21 231 0
-232 7 0
-232 22 0
-7 -22 232 0
-233 8 0
-233 23 0
-8 -23 233 0
-234 9 0
-234 24 0
-9 -24 234 0
-235 10 0
-235 25 0
-10 -25 235 0
-236 11 0
-236 26 0
-11 -26 236 0
-237 12 0
-237 27 0
-12 -27 237 0
-238 13 0
-238 28 0
-13 -28 238 0
-239 14 0
-239 29 0
-14 -29 239 0
-240 15 0
-240 30 0
-15 -30 240 0
-226 11306 0
-11306 11307 0
-227 -11306 0
-227 11307 0
-11307 11308 0
-228 -11307 0
-228 11308 0
-11308 11309 0
-229 -11308 0
-229 11309 0
-11309 11310 0
-230 -11309 0
-230 11310 0
-11310 11311 0
-231 -11310 0
-231 11311 0
-11311 11312 0
-232 -11311 0
-232 11312 0
-11312 11313 0
-233 -11312 0
-233 11313 0
-11313 11314 0
-234 -11313 0
-234 11314 0
-11314 11315 0
-235 -11314 0
-235 11315 0
-11315 11316 0
-236 -11315 0
-236 11316 0
-11316 11317 0
-237 -11316 0
-237 11317 0
-11317 11318 0
-238 -11317 0
-238 11318 0
-11318 11319 0
-239 -11318 0
-239 11319 0
-240 -11319 0
-226 1801 0
-227 1801 0
-228 1801 0
-229 1801 0
-230 1801 0
-231 1801 0
-232 1801 0
-233 1801 0
-234 1801 0
-235 1801 0
-236 1801 0
-237 1801 0
-238 1801 0
-239 1801 0
-240 1801 0
-1801 226 227 228 229 230 231 232 233 234 235 236 237 238 239 240 0
-241 1 0
-241 31 0
-1 -31 241 0
-242 2 0
-242 32 0
-2 -32 242 0
-243 3 0
-243 33 0
-3 -33 243 0
-244 4 0
-244 34 0
-4 -34 244 0
-245 5 0
-245 35 0
-5 -35 245 0
-246 6 0
-246 36 0
-6 -36 246 0
-247 7 0
-247 37 0
-7 -37 247 0
-248 8 0
-248 38 0
-8 -38 248 0
-249 9 0
-249 39 0
-9 -39 249 0
-250 10 0
-250 40 0
-10 -40 250 0
-251 11 0
-251 41 0
-11 -41 251 0
-252 12 0
-252 42 0
-12 -42 252 0
-253 13 0
-253 43 0
-13 -43 253 0
-254 14 0
-254 44 0
-14 -44 254 0
-255 15 0
-255 45 0
-15 -45 255 0
-241 11320 0
-11320 11321 0
-242 -11320 0
-242 11321 0
-11321 11322 0
-243 -11321 0
-243 11322 0
-11322 11323 0
-244 -11322 0
-244 11323 0
-11323 11324 0
-245 -11323 0
-245 11324 0
-11324 11325 0
-246 -11324 0
-246 11325 0
-11325 11326 0
-247 -11325 0
-247 11326 0
-11326 11327 0
-248 -11326 0
-248 11327 0
-11327 11328 0
-249 -11327 0
-249 11328 0
-11328 11329 0
-250 -11328 0
-250 11329 0
-11329 11330 0
-251 -11329 0
-251 11330 0
-11330 11331 0
-252 -11330 0
-252 11331 0
-11331 11332 0
-253 -11331 0
-253 11332 0
-11332 11333 0
-254 -11332 0
-254 11333 0
-255 -11333 0
-241 1802 0
-242 1802 0
-243 1802 0
-244 1802 0
-245 1802 0
-246 1802 0
-247 1802 0
-248 1802 0
-249 1802 0
-250 1802 0
-251 1802 0
-252 1802 0
-253 1802 0
-254 1802 0
-255 1802 0
-1802 241 242 243 244 245 246 247 248 249 250 251 252 253 254 255 0
-256 1 0
-256 46 0
-1 -46 256 0
-257 2 0
-257 47 0
-2 -47 257 0
-258 3 0
-258 48 0
-3 -48 258 0
-259 4 0
-259 49 0
-4 -49 259 0
-260 5 0
-260 50 0
-5 -50 260 0
-261 6 0
-261 51 0
-6 -51 261 0
-262 7 0
-262 52 0
-7 -52 262 0
-263 8 0
-263 53 0
-8 -53 263 0
-264 9 0
-264 54 0
-9 -54 264 0
-265 10 0
-265 55 0
-10 -55 265 0
-266 11 0
-266 56 0
-11 -56 266 0
-267 12 0
-267 57 0
-12 -57 267 0
-268 13 0
-268 58 0
-13 -58 268 0
-269 14 0
-269 59 0
-14 -59 269 0
-270 15 0
-270 60 0
-15 -60 270 0
-256 11334 0
-11334 11335 0
-257 -11334 0
-257 11335 0
-11335 11336 0
-258 -11335 0
-258 11336 0
-11336 11337 0
-259 -11336 0
-259 11337 0
-11337 11338 0
-260 -11337 0
-260 11338 0
-11338 11339 0
-261 -11338 0
-261 11339 0
-11339 11340 0
-262 -11339 0
-262 11340 0
-11340 11341 0
-263 -11340 0
-263 11341 0
-11341 11342 0
-264 -11341 0
-264 11342 0
-11342 11343 0
-265 -11342 0
-265 11343 0
-11343 11344 0
-266 -11343 0
-266 11344 0
-11344 11345 0
-267 -11344 0
-267 11345 0
-11345 11346 0
-268 -11345 0
-268 11346 0
-11346 11347 0
-269 -11346 0
-269 11347 0
-270 -11347 0
-256 1803 0
-257 1803 0
-258 1803 0
-259 1803 0
-260 1803 0
-261 1803 0
-262 1803 0
-263 1803 0
-264 1803 0
-265 1803 0
-266 1803 0
-267 1803 0
-268 1803 0
-269 1803 0
-270 1803 0
-1803 256 257 258 259 260 261 262 263 264 265 266 267 268 269 270 0
-271 1 0
-271 61 0
-1 -61 271 0
-272 2 0
-272 62 0
-2 -62 272 0
-273 3 0
-273 63 0
-3 -63 273 0
-274 4 0
-274 64 0
-4 -64 274 0
-275 5 0
-275 65 0
-5 -65 275 0
-276 6 0
-276 66 0
-6 -66 276 0
-277 7 0
-277 67 0
-7 -67 277 0
-278 8 0
-278 68 0
-8 -68 278 0
-279 9 0
-279 69 0
-9 -69 279 0
-280 10 0
-280 70 0
-10 -70 280 0
-281 11 0
-281 71 0
-11 -71 281 0
-282 12 0
-282 72 0
-12 -72 282 0
-283 13 0
-283 73 0
-13 -73 283 0
-284 14 0
-284 74 0
-14 -74 284 0
-285 15 0
-285 75 0
-15 -75 285 0
-271 11348 0
-11348 11349 0
-272 -11348 0
-272 11349 0
-11349 11350 0
-273 -11349 0
-273 11350 0
-11350 11351 0
-274 -11350 0
-274 11351 0
-11351 11352 0
-275 -11351 0
-275 11352 0
-11352 11353 0
-276 -11352 0
-276 11353 0
-11353 11354 0
-277 -11353 0
-277 11354 0
-11354 11355 0
-278 -11354 0
-278 11355 0
-11355 11356 0
-279 -11355 0
-279 11356 0
-11356 11357 0
-280 -11356 0
-280 11357 0
-11357 11358 0
-281 -11357 0
-281 11358 0
-11358 11359 0
-282 -11358 0
-282 11359 0
-11359 11360 0
-283 -11359 0
-283 11360 0
-11360 11361 0
-284 -11360 0
-284 11361 0
-285 -11361 0
-271 1804 0
-272 1804 0
-273 1804 0
-274 1804 0
-275 1804 0
-276 1804 0
-277 1804 0
-278 1804 0
-279 1804 0
-280 1804 0
-281 1804 0
-282 1804 0
-283 1804 0
-284 1804 0
-285 1804 0
-1804 271 272 273 274 275 276 277 278 279 280 281 282 283 284 285 0
-286 1 0
-286 76 0
-1 -76 286 0
-287 2 0
-287 77 0
-2 -77 287 0
-288 3 0
-288 78 0
-3 -78 288 0
-289 4 0
-289 79 0
-4 -79 289 0
-290 5 0
-290 80 0
-5 -80 290 0
-291 6 0
-291 81 0
-6 -81 291 0
-292 7 0
-292 82 0
-7 -82 292 0
-293 8 0
-293 83 0
-8 -83 293 0
-294 9 0
-294 84 0
-9 -84 294 0
-295 10 0
-295 85 0
-10 -85 295 0
-296 11 0
-296 86 0
-11 -86 296 0
-297 12 0
-297 87 0
-12 -87 297 0
-298 13 0
-298 88 0
-13 -88 298 0
-299 14 0
-299 89 0
-14 -89 299 0
-300 15 0
-300 90 0
-15 -90 300 0
-286 11362 0
-11362 11363 0
-287 -11362 0
-287 11363 0
-11363 11364 0
-288 -11363 0
-288 11364 0
-11364 11365 0
-289 -11364 0
-289 11365 0
-11365 11366 0
-290 -11365 0
-290 11366 0
-11366 11367 0
-291 -11366 0
-291 11367 0
-11367 11368 0
-292 -11367 0
-292 11368 0
-11368 11369 0
-293 -11368 0
-293 11369 0
-11369 11370 0
-294 -11369 0
-294 11370 0
-11370 11371 0
-295 -11370 0
-295 11371 0
-11371 11372 0
-296 -11371 0
-296 11372 0
-11372 11373 0
-297 -11372 0
-297 11373 0
-11373 11374 0
-298 -11373 0
-298 11374 0
-11374 11375 0
-299 -11374 0
-299 11375 0
-300 -11375 0
-286 1805 0
-287 1805 0
-288 1805 0
-289 1805 0
-290 1805 0
-291 1805 0
-292 1805 0
-293 1805 0
-294 1805 0
-295 1805 0
-296 1805 0
-297 1805 0
-298 1805 0
-299 1805 0
-300 1805 0
-1805 286 287 288 289 290 291 292 293 294 295 296 297 298 299 300 0
-301 1 0
-301 91 0
-1 -91 301 0
-302 2 0
-302 92 0
-2 -92 302 0
-303 3 0
-303 93 0
-3 -93 303 0
-304 4 0
-304 94 0
-4 -94 304 0
-305 5 0
-305 95 0
-5 -95 305 0
-306 6 0
-306 96 0
-6 -96 306 0
-307 7 0
-307 97 0
-7 -97 307 0
-308 8 0
-308 98 0
-8 -98 308 0
-309 9 0
-309 99 0
-9 -99 309 0
-310 10 0
-310 100 0
-10 -100 310 0
-311 11 0
-311 101 0
-11 -101 311 0
-312 12 0
-312 102 0
-12 -102 312 0
-313 13 0
-313 103 0
-13 -103 313 0
-314 14 0
-314 104 0
-14 -104 314 0
-315 15 0
-315 105 0
-15 -105 315 0
-301 11376 0
-11376 11377 0
-302 -11376 0
-302 11377 0
-11377 11378 0
-303 -11377 0
-303 11378 0
-11378 11379 0
-304 -11378 0
-304 11379 0
-11379 11380 0
-305 -11379 0
-305 11380 0
-11380 11381 0
-306 -11380 0
-306 11381 0
-11381 11382 0
-307 -11381 0
-307 11382 0
-11382 11383 0
-308 -11382 0
-308 11383 0
-11383 11384 0
-309 -11383 0
-309 11384 0
-11384 11385 0
-310 -11384 0
-310 11385 0
-11385 11386 0
-311 -11385 0
-311 11386 0
-11386 11387 0
-312 -11386 0
-312 11387 0
-11387 11388 0
-313 -11387 0
-313 11388 0
-11388 11389 0
-314 -11388 0
-314 11389 0
-315 -11389 0
-301 1806 0
-302 1806 0
-303 1806 0
-304 1806 0
-305 1806 0
-306 1806 0
-307 1806 0
-308 1806 0
-309 1806 0
-310 1806 0
-311 1806 0
-312 1806 0
-313 1806 0
-314 1806 0
-315 1806 0
-1806 301 302 303 304 305 306 307 308 309 310 311 312 313 314 315 0
-316 1 0
-316 106 0
-1 -106 316 0
-317 2 0
-317 107 0
-2 -107 317 0
-318 3 0
-318 108 0
-3 -108 318 0
-319 4 0
-319 109 0
-4 -109 319 0
-320 5 0
-320 110 0
-5 -110 320 0
-321 6 0
-321 111 0
-6 -111 321 0
-322 7 0
-322 112 0
-7 -112 322 0
-323 8 0
-323 113 0
-8 -113 323 0
-324 9 0
-324 114 0
-9 -114 324 0
-325 10 0
-325 115 0
-10 -115 325 0
-326 11 0
-326 116 0
-11 -116 326 0
-327 12 0
-327 117 0
-12 -117 327 0
-328 13 0
-328 118 0
-13 -118 328 0
-329 14 0
-329 119 0
-14 -119 329 0
-330 15 0
-330 120 0
-15 -120 330 0
-316 11390 0
-11390 11391 0
-317 -11390 0
-317 11391 0
-11391 11392 0
-318 -11391 0
-318 11392 0
-11392 11393 0
-319 -11392 0
-319 11393 0
-11393 11394 0
-320 -11393 0
-320 11394 0
-11394 11395 0
-321 -11394 0
-321 11395 0
-11395 11396 0
-322 -11395 0
-322 11396 0
-11396 11397 0
-323 -11396 0
-323 11397 0
-11397 11398 0
-324 -11397 0
-324 11398 0
-11398 11399 0
-325 -11398 0
-325 11399 0
-11399 11400 0
-326 -11399 0
-326 11400 0
-11400 11401 0
-327 -11400 0
-327 11401 0
-11401 11402 0
-328 -11401 0
-328 11402 0
-11402 11403 0
-329 -11402 0
-329 11403 0
-330 -11403 0
-316 1807 0
-317 1807 0
-318 1807 0
-319 1807 0
-320 1807 0
-321 1807 0
-322 1807 0
-323 1807 0
-324 1807 0
-325 1807 0
-326 1807 0
-327 1807 0
-328 1807 0
-329 1807 0
-330 1807 0
-1807 316 317 318 319 320 321 322 323 324 325 326 327 328 329 330 0
-331 1 0
-331 121 0
-1 -121 331 0
-332 2 0
-332 122 0
-2 -122 332 0
-333 3 0
-333 123 0
-3 -123 333 0
-334 4 0
-334 124 0
-4 -124 334 0
-335 5 0
-335 125 0
-5 -125 335 0
-336 6 0
-336 126 0
-6 -126 336 0
-337 7 0
-337 127 0
-7 -127 337 0
-338 8 0
-338 128 0
-8 -128 338 0
-339 9 0
-339 129 0
-9 -129 339 0
-340 10 0
-340 130 0
-10 -130 340 0
-341 11 0
-341 131 0
-11 -131 341 0
-342 12 0
-342 132 0
-12 -132 342 0
-343 13 0
-343 133 0
-13 -133 343 0
-344 14 0
-344 134 0
-14 -134 344 0
-345 15 0
-345 135 0
-15 -135 345 0
-331 11404 0
-11404 11405 0
-332 -11404 0
-332 11405 0
-11405 11406 0
-333 -11405 0
-333 11406 0
-11406 11407 0
-334 -11406 0
-334 11407 0
-11407 11408 0
-335 -11407 0
-335 11408 0
-11408 11409 0
-336 -11408 0
-336 11409 0
-11409 11410 0
-337 -11409 0
-337 11410 0
-11410 11411 0
-338 -11410 0
-338 11411 0
-11411 11412 0
-339 -11411 0
-339 11412 0
-11412 11413 0
-340 -11412 0
-340 11413 0
-11413 11414 0
-341 -11413 0
-341 11414 0
-11414 11415 0
-342 -11414 0
-342 11415 0
-11415 11416 0
-343 -11415 0
-343 11416 0
-11416 11417 0
-344 -11416 0
-344 11417 0
-345 -11417 0
-331 1808 0
-332 1808 0
-333 1808 0
-334 1808 0
-335 1808 0
-336 1808 0
-337 1808 0
-338 1808 0
-339 1808 0
-340 1808 0
-341 1808 0
-342 1808 0
-343 1808 0
-344 1808 0
-345 1808 0
-1808 331 332 333 334 335 336 337 338 339 340 341 342 343 344 345 0
-346 1 0
-346 136 0
-1 -136 346 0
-347 2 0
-347 137 0
-2 -137 347 0
-348 3 0
-348 138 0
-3 -138 348 0
-349 4 0
-349 139 0
-4 -139 349 0
-350 5 0
-350 140 0
-5 -140 350 0
-351 6 0
-351 141 0
-6 -141 351 0
-352 7 0
-352 142 0
-7 -142 352 0
-353 8 0
-353 143 0
-8 -143 353 0
-354 9 0
-354 144 0
-9 -144 354 0
-355 10 0
-355 145 0
-10 -145 355 0
-356 11 0
-356 146 0
-11 -146 356 0
-357 12 0
-357 147 0
-12 -147 357 0
-358 13 0
-358 148 0
-13 -148 358 0
-359 14 0
-359 149 0
-14 -149 359 0
-360 15 0
-360 150 0
-15 -150 360 0
-346 11418 0
-11418 11419 0
-347 -11418 0
-347 11419 0
-11419 11420 0
-348 -11419 0
-348 11420 0
-11420 11421 0
-349 -11420 0
-349 11421 0
-11421 11422 0
-350 -11421 0
-350 11422 0
-11422 11423 0
-351 -11422 0
-351 11423 0
-11423 11424 0
-352 -11423 0
-352 11424 0
-11424 11425 0
-353 -11424 0
-353 11425 0
-11425 11426 0
-354 -11425 0
-354 11426 0
-11426 11427 0
-355 -11426 0
-355 11427 0
-11427 11428 0
-356 -11427 0
-356 11428 0
-11428 11429 0
-357 -11428 0
-357 11429 0
-11429 11430 0
-358 -11429 0
-358 11430 0
-11430 11431 0
-359 -11430 0
-359 11431 0
-360 -11431 0
-346 1809 0
-347 1809 0
-348 1809 0
-349 1809 0
-350 1809 0
-351 1809 0
-352 1809 0
-353 1809 0
-354 1809 0
-355 1809 0
-356 1809 0
-357 1809 0
-358 1809 0
-359 1809 0
-360 1809 0
-1809 346 347 348 349 350 351 352 353 354 355 356 357 358 359 360 0
-361 1 0
-361 151 0
-1 -151 361 0
-362 2 0
-362 152 0
-2 -152 362 0
-363 3 0
-363 153 0
-3 -153 363 0
-364 4 0
-364 154 0
-4 -154 364 0
-365 5 0
-365 155 0
-5 -155 365 0
-366 6 0
-366 156 0
-6 -156 366 0
-367 7 0
-367 157 0
-7 -157 367 0
-368 8 0
-368 158 0
-8 -158 368 0
-369 9 0
-369 159 0
-9 -159 369 0
-370 10 0
-370 160 0
-10 -160 370 0
-371 11 0
-371 161 0
-11 -161 371 0
-372 12 0
-372 162 0
-12 -162 372 0
-373 13 0
-373 163 0
-13 -163 373 0
-374 14 0
-374 164 0
-14 -164 374 0
-375 15 0
-375 165 0
-15 -165 375 0
-361 11432 0
-11432 11433 0
-362 -11432 0
-362 11433 0
-11433 11434 0
-363 -11433 0
-363 11434 0
-11434 11435 0
-364 -11434 0
-364 11435 0
-11435 11436 0
-365 -11435 0
-365 11436 0
-11436 11437 0
-366 -11436 0
-366 11437 0
-11437 11438 0
-367 -11437 0
-367 11438 0
-11438 11439 0
-368 -11438 0
-368 11439 0
-11439 11440 0
-369 -11439 0
-369 11440 0
-11440 11441 0
-370 -11440 0
-370 11441 0
-11441 11442 0
-371 -11441 0
-371 11442 0
-11442 11443 0
-372 -11442 0
-372 11443 0
-11443 11444 0
-373 -11443 0
-373 11444 0
-11444 11445 0
-374 -11444 0
-374 11445 0
-375 -11445 0
-361 1810 0
-362 1810 0
-363 1810 0
-364 1810 0
-365 1810 0
-366 1810 0
-367 1810 0
-368 1810 0
-369 1810 0
-370 1810 0
-371 1810 0
-372 1810 0
-373 1810 0
-374 1810 0
-375 1810 0
-1810 361 362 363 364 365 366 367 368 369 370 371 372 373 374 375 0
-376 1 0
-376 166 0
-1 -166 376 0
-377 2 0
-377 167 0
-2 -167 377 0
-378 3 0
-378 168 0
-3 -168 378 0
-379 4 0
-379 169 0
-4 -169 379 0
-380 5 0
-380 170 0
-5 -170 380 0
-381 6 0
-381 171 0
-6 -171 381 0
-382 7 0
-382 172 0
-7 -172 382 0
-383 8 0
-383 173 0
-8 -173 383 0
-384 9 0
-384 174 0
-9 -174 384 0
-385 10 0
-385 175 0
-10 -175 385 0
-386 11 0
-386 176 0
-11 -176 386 0
-387 12 0
-387 177 0
-12 -177 387 0
-388 13 0
-388 178 0
-13 -178 388 0
-389 14 0
-389 179 0
-14 -179 389 0
-390 15 0
-390 180 0
-15 -180 390 0
-376 11446 0
-11446 11447 0
-377 -11446 0
-377 11447 0
-11447 11448 0
-378 -11447 0
-378 11448 0
-11448 11449 0
-379 -11448 0
-379 11449 0
-11449 11450 0
-380 -11449 0
-380 11450 0
-11450 11451 0
-381 -11450 0
-381 11451 0
-11451 11452 0
-382 -11451 0
-382 11452 0
-11452 11453 0
-383 -11452 0
-383 11453 0
-11453 11454 0
-384 -11453 0
-384 11454 0
-11454 11455 0
-385 -11454 0
-385 11455 0
-11455 11456 0
-386 -11455 0
-386 11456 0
-11456 11457 0
-387 -11456 0
-387 11457 0
-11457 11458 0
-388 -11457 0
-388 11458 0
-11458 11459 0
-389 -11458 0
-389 11459 0
-390 -11459 0
-376 1811 0
-377 1811 0
-378 1811 0
-379 1811 0
-380 1811 0
-381 1811 0
-382 1811 0
-383 1811 0
-384 1811 0
-385 1811 0
-386 1811 0
-387 1811 0
-388 1811 0
-389 1811 0
-390 1811 0
-1811 376 377 378 379 380 381 382 383 384 385 386 387 388 389 390 0
-391 1 0
-391 181 0
-1 -181 391 0
-392 2 0
-392 182 0
-2 -182 392 0
-393 3 0
-393 183 0
-3 -183 393 0
-394 4 0
-394 184 0
-4 -184 394 0
-395 5 0
-395 185 0
-5 -185 395 0
-396 6 0
-396 186 0
-6 -186 396 0
-397 7 0
-397 187 0
-7 -187 397 0
-398 8 0
-398 188 0
-8 -188 398 0
-399 9 0
-399 189 0
-9 -189 399 0
-400 10 0
-400 190 0
-10 -190 400 0
-401 11 0
-401 191 0
-11 -191 401 0
-402 12 0
-402 192 0
-12 -192 402 0
-403 13 0
-403 193 0
-13 -193 403 0
-404 14 0
-404 194 0
-14 -194 404 0
-405 15 0
-405 195 0
-15 -195 405 0
-391 11460 0
-11460 11461 0
-392 -11460 0
-392 11461 0
-11461 11462 0
-393 -11461 0
-393 11462 0
-11462 11463 0
-394 -11462 0
-394 11463 0
-11463 11464 0
-395 -11463 0
-395 11464 0
-11464 11465 0
-396 -11464 0
-396 11465 0
-11465 11466 0
-397 -11465 0
-397 11466 0
-11466 11467 0
-398 -11466 0
-398 11467 0
-11467 11468 0
-399 -11467 0
-399 11468 0
-11468 11469 0
-400 -11468 0
-400 11469 0
-11469 11470 0
-401 -11469 0
-401 11470 0
-11470 11471 0
-402 -11470 0
-402 11471 0
-11471 11472 0
-403 -11471 0
-403 11472 0
-11472 11473 0
-404 -11472 0
-404 11473 0
-405 -11473 0
-391 1812 0
-392 1812 0
-393 1812 0
-394 1812 0
-395 1812 0
-396 1812 0
-397 1812 0
-398 1812 0
-399 1812 0
-400 1812 0
-401 1812 0
-402 1812 0
-403 1812 0
-404 1812 0
-405 1812 0
-1812 391 392 393 394 395 396 397 398 399 400 401 402 403 404 405 0
-406 1 0
-406 196 0
-1 -196 406 0
-407 2 0
-407 197 0
-2 -197 407 0
-408 3 0
-408 198 0
-3 -198 408 0
-409 4 0
-409 199 0
-4 -199 409 0
-410 5 0
-410 200 0
-5 -200 410 0
-411 6 0
-411 201 0
-6 -201 411 0
-412 7 0
-412 202 0
-7 -202 412 0
-413 8 0
-413 203 0
-8 -203 413 0
-414 9 0
-414 204 0
-9 -204 414 0
-415 10 0
-415 205 0
-10 -205 415 0
-416 11 0
-416 206 0
-11 -206 416 0
-417 12 0
-417 207 0
-12 -207 417 0
-418 13 0
-418 208 0
-13 -208 418 0
-419 14 0
-419 209 0
-14 -209 419 0
-420 15 0
-420 210 0
-15 -210 420 0
-406 11474 0
-11474 11475 0
-407 -11474 0
-407 11475 0
-11475 11476 0
-408 -11475 0
-408 11476 0
-11476 11477 0
-409 -11476 0
-409 11477 0
-11477 11478 0
-410 -11477 0
-410 11478 0
-11478 11479 0
-411 -11478 0
-411 11479 0
-11479 11480 0
-412 -11479 0
-412 11480 0
-11480 11481 0
-413 -11480 0
-413 11481 0
-11481 11482 0
-414 -11481 0
-414 11482 0
-11482 11483 0
-415 -11482 0
-415 11483 0
-11483 11484 0
-416 -11483 0
-416 11484 0
-11484 11485 0
-417 -11484 0
-417 11485 0
-11485 11486 0
-418 -11485 0
-418 11486 0
-11486 11487 0
-419 -11486 0
-419 11487 0
-420 -11487 0
-406 1813 0
-407 1813 0
-408 1813 0
-409 1813 0
-410 1813 0
-411 1813 0
-412 1813 0
-413 1813 0
-414 1813 0
-415 1813 0
-416 1813 0
-417 1813 0
-418 1813 0
-419 1813 0
-420 1813 0
-1813 406 407 408 409 410 411 412 413 414 415 416 417 418 419 420 0
-421 1 0
-421 211 0
-1 -211 421 0
-422 2 0
-422 212 0
-2 -212 422 0
-423 3 0
-423 213 0
-3 -213 423 0
-424 4 0
-424 214 0
-4 -214 424 0
-425 5 0
-425 215 0
-5 -215 425 0
-426 6 0
-426 216 0
-6 -216 426 0
-427 7 0
-427 217 0
-7 -217 427 0
-428 8 0
-428 218 0
-8 -218 428 0
-429 9 0
-429 219 0
-9 -219 429 0
-430 10 0
-430 220 0
-10 -220 430 0
-431 11 0
-431 221 0
-11 -221 431 0
-432 12 0
-432 222 0
-12 -222 432 0
-433 13 0
-433 223 0
-13 -223 433 0
-434 14 0
-434 224 0
-14 -224 434 0
-435 15 0
-435 225 0
-15 -225 435 0
-421 11488 0
-11488 11489 0
-422 -11488 0
-422 11489 0
-11489 11490 0
-423 -11489 0
-423 11490 0
-11490 11491 0
-424 -11490 0
-424 11491 0
-11491 11492 0
-425 -11491 0
-425 11492 0
-11492 11493 0
-426 -11492 0
-426 11493 0
-11493 11494 0
-427 -11493 0
-427 11494 0
-11494 11495 0
-428 -11494 0
-428 11495 0
-11495 11496 0
-429 -11495 0
-429 11496 0
-11496 11497 0
-430 -11496 0
-430 11497 0
-11497 11498 0
-431 -11497 0
-431 11498 0
-11498 11499 0
-432 -11498 0
-432 11499 0
-11499 11500 0
-433 -11499 0
-433 11500 0
-11500 11501 0
-434 -11500 0
-434 11501 0
-435 -11501 0
-421 1814 0
-422 1814 0
-423 1814 0
-424 1814 0
-425 1814 0
-426 1814 0
-427 1814 0
-428 1814 0
-429 1814 0
-430 1814 0
-431 1814 0
-432 1814 0
-433 1814 0
-434 1814 0
-435 1814 0
-1814 421 422 423 424 425 426 427 428 429 430 431 432 433 434 435 0
-436 16 0
-436 31 0
-16 -31 436 0
-437 17 0
-437 32 0
-17 -32 437 0
-438 18 0
-438 33 0
-18 -33 438 0
-439 19 0
-439 34 0
-19 -34 439 0
-440 20 0
-440 35 0
-20 -35 440 0
-441 21 0
-441 36 0
-21 -36 441 0
-442 22 0
-442 37 0
-22 -37 442 0
-443 23 0
-443 38 0
-23 -38 443 0
-444 24 0
-444 39 0
-24 -39 444 0
-445 25 0
-445 40 0
-25 -40 445 0
-446 26 0
-446 41 0
-26 -41 446 0
-447 27 0
-447 42 0
-27 -42 447 0
-448 28 0
-448 43 0
-28 -43 448 0
-449 29 0
-449 44 0
-29 -44 449 0
-450 30 0
-450 45 0
-30 -45 450 0
-436 11502 0
-11502 11503 0
-437 -11502 0
-437 11503 0
-11503 11504 0
-438 -11503 0
-438 11504 0
-11504 11505 0
-439 -11504 0
-439 11505 0
-11505 11506 0
-440 -11505 0
-440 11506 0
-11506 11507 0
-441 -11506 0
-441 11507 0
-11507 11508 0
-442 -11507 0
-442 11508 0
-11508 11509 0
-443 -11508 0
-443 11509 0
-11509 11510 0
-444 -11509 0
-444 11510 0
-11510 11511 0
-445 -11510 0
-445 11511 0
-11511 11512 0
-446 -11511 0
-446 11512 0
-11512 11513 0
-447 -11512 0
-447 11513 0
-11513 11514 0
-448 -11513 0
-448 11514 0
-11514 11515 0
-449 -11514 0
-449 11515 0
-450 -11515 0
-436 1815 0
-437 1815 0
-438 1815 0
-439 1815 0
-440 1815 0
-441 1815 0
-442 1815 0
-443 1815 0
-444 1815 0
-445 1815 0
-446 1815 0
-447 1815 0
-448 1815 0
-449 1815 0
-450 1815 0
-1815 436 437 438 439 440 441 442 443 444 445 446 447 448 449 450 0
-451 16 0
-451 46 0
-16 -46 451 0
-452 17 0
-452 47 0
-17 -47 452 0
-453 18 0
-453 48 0
-18 -48 453 0
-454 19 0
-454 49 0
-19 -49 454 0
-455 20 0
-455 50 0
-20 -50 455 0
-456 21 0
-456 51 0
-21 -51 456 0
-457 22 0
-457 52 0
-22 -52 457 0
-458 23 0
-458 53 0
-23 -53 458 0
-459 24 0
-459 54 0
-24 -54 459 0
-460 25 0
-460 55 0
-25 -55 460 0
-461 26 0
-461 56 0
-26 -56 461 0
-462 27 0
-462 57 0
-27 -57 462 0
-463 28 0
-463 58 0
-28 -58 463 0
-464 29 0
-464 59 0
-29 -59 464 0
-465 30 0
-465 60 0
-30 -60 465 0
-451 11516 0
-11516 11517 0
-452 -11516 0
-452 11517 0
-11517 11518 0
-453 -11517 0
-453 11518 0
-11518 11519 0
-454 -11518 0
-454 11519 0
-11519 11520 0
-455 -11519 0
-455 11520 0
-11520 11521 0
-456 -11520 0
-456 11521 0
-11521 11522 0
-457 -11521 0
-457 11522 0
-11522 11523 0
-458 -11522 0
-458 11523 0
-11523 11524 0
-459 -11523 0
-459 11524 0
-11524 11525 0
-460 -11524 0
-460 11525 0
-11525 11526 0
-461 -11525 0
-461 11526 0
-11526 11527 0
-462 -11526 0
-462 11527 0
-11527 11528 0
-463 -11527 0
-463 11528 0
-11528 11529 0
-464 -11528 0
-464 11529 0
-465 -11529 0
-451 1816 0
-452 1816 0
-453 1816 0
-454 1816 0
-455 1816 0
-456 1816 0
-457 1816 0
-458 1816 0
-459 1816 0
-460 1816 0
-461 1816 0
-462 1816 0
-463 1816 0
-464 1816 0
-465 1816 0
-1816 451 452 453 454 455 456 457 458 459 460 461 462 463 464 465 0
-466 16 0
-466 61 0
-16 -61 466 0
-467 17 0
-467 62 0
-17 -62 467 0
-468 18 0
-468 63 0
-18 -63 468 0
-469 19 0
-469 64 0
-19 -64 469 0
-470 20 0
-470 65 0
-20 -65 470 0
-471 21 0
-471 66 0
-21 -66 471 0
-472 22 0
-472 67 0
-22 -67 472 0
-473 23 0
-473 68 0
-23 -68 473 0
-474 24 0
-474 69 0
-24 -69 474 0
-475 25 0
-475 70 0
-25 -70 475 0
-476 26 0
-476 71 0
-26 -71 476 0
-477 27 0
-477 72 0
-27 -72 477 0
-478 28 0
-478 73 0
-28 -73 478 0
-479 29 0
-479 74 0
-29 -74 479 0
-480 30 0
-480 75 0
-30 -75 480 0
-466 11530 0
-11530 11531 0
-467 -11530 0
-467 11531 0
-11531 11532 0
-468 -11531 0
-468 11532 0
-11532 11533 0
-469 -11532 0
-469 11533 0
-11533 11534 0
-470 -11533 0
-470 11534 0
-11534 11535 0
-471 -11534 0
-471 11535 0
-11535 11536 0
-472 -11535 0
-472 11536 0
-11536 11537 0
-473 -11536 0
-473 11537 0
-11537 11538 0
-474 -11537 0
-474 11538 0
-11538 11539 0
-475 -11538 0
-475 11539 0
-11539 11540 0
-476 -11539 0
-476 11540 0
-11540 11541 0
-477 -11540 0
-477 11541 0
-11541 11542 0
-478 -11541 0
-478 11542 0
-11542 11543 0
-479 -11542 0
-479 11543 0
-480 -11543 0
-466 1817 0
-467 1817 0
-468 1817 0
-469 1817 0
-470 1817 0
-471 1817 0
-472 1817 0
-473 1817 0
-474 1817 0
-475 1817 0
-476 1817 0
-477 1817 0
-478 1817 0
-479 1817 0
-480 1817 0
-1817 466 467 468 469 470 471 472 473 474 475 476 477 478 479 480 0
-481 16 0
-481 76 0
-16 -76 481 0
-482 17 0
-482 77 0
-17 -77 482 0
-483 18 0
-483 78 0
-18 -78 483 0
-484 19 0
-484 79 0
-19 -79 484 0
-485 20 0
-485 80 0
-20 -80 485 0
-486 21 0
-486 81 0
-21 -81 486 0
-487 22 0
-487 82 0
-22 -82 487 0
-488 23 0
-488 83 0
-23 -83 488 0
-489 24 0
-489 84 0
-24 -84 489 0
-490 25 0
-490 85 0
-25 -85 490 0
-491 26 0
-491 86 0
-26 -86 491 0
-492 27 0
-492 87 0
-27 -87 492 0
-493 28 0
-493 88 0
-28 -88 493 0
-494 29 0
-494 89 0
-29 -89 494 0
-495 30 0
-495 90 0
-30 -90 495 0
-481 11544 0
-11544 11545 0
-482 -11544 0
-482 11545 0
-11545 11546 0
-483 -11545 0
-483 11546 0
-11546 11547 0
-484 -11546 0
-484 11547 0
-11547 11548 0
-485 -11547 0
-485 11548 0
-11548 11549 0
-486 -11548 0
-486 11549 0
-11549 11550 0
-487 -11549 0
-487 11550 0
-11550 11551 0
-488 -11550 0
-488 11551 0
-11551 11552 0
-489 -11551 0
-489 11552 0
-11552 11553 0
-490 -11552 0
-490 11553 0
-11553 11554 0
-491 -11553 0
-491 11554 0
-11554 11555 0
-492 -11554 0
-492 11555 0
-11555 11556 0
-493 -11555 0
-493 11556 0
-11556 11557 0
-494 -11556 0
-494 11557 0
-495 -11557 0
-481 1818 0
-482 1818 0
-483 1818 0
-484 1818 0
-485 1818 0
-486 1818 0
-487 1818 0
-488 1818 0
-489 1818 0
-490 1818 0
-491 1818 0
-492 1818 0
-493 1818 0
-494 1818 0
-495 1818 0
-1818 481 482 483 484 485 486 487 488 489 490 491 492 493 494 495 0
-496 16 0
-496 91 0
-16 -91 496 0
-497 17 0
-497 92 0
-17 -92 497 0
-498 18 0
-498 93 0
-18 -93 498 0
-499 19 0
-499 94 0
-19 -94 499 0
-500 20 0
-500 95 0
-20 -95 500 0
-501 21 0
-501 96 0
-21 -96 501 0
-502 22 0
-502 97 0
-22 -97 502 0
-503 23 0
-503 98 0
-23 -98 503 0
-504 24 0
-504 99 0
-24 -99 504 0
-505 25 0
-505 100 0
-25 -100 505 0
-506 26 0
-506 101 0
-26 -101 506 0
-507 27 0
-507 102 0
-27 -102 507 0
-508 28 0
-508 103 0
-28 -103 508 0
-509 29 0
-509 104 0
-29 -104 509 0
-510 30 0
-510 105 0
-30 -105 510 0
-496 11558 0
-11558 11559 0
-497 -11558 0
-497 11559 0
-11559 11560 0
-498 -11559 0
-498 11560 0
-11560 11561 0
-499 -11560 0
-499 11561 0
-11561 11562 0
-500 -11561 0
-500 11562 0
-11562 11563 0
-501 -11562 0
-501 11563 0
-11563 11564 0
-502 -11563 0
-502 11564 0
-11564 11565 0
-503 -11564 0
-503 11565 0
-11565 11566 0
-504 -11565 0
-504 11566 0
-11566 11567 0
-505 -11566 0
-505 11567 0
-11567 11568 0
-506 -11567 0
-506 11568 0
-11568 11569 0
-507 -11568 0
-507 11569 0
-11569 11570 0
-508 -11569 0
-508 11570 0
-11570 11571 0
-509 -11570 0
-509 11571 0
-510 -11571 0
-496 1819 0
-497 1819 0
-498 1819 0
-499 1819 0
-500 1819 0
-501 1819 0
-502 1819 0
-503 1819 0
-504 1819 0
-505 1819 0
-506 1819 0
-507 1819 0
-508 1819 0
-509 1819 0
-510 1819 0
-1819 496 497 498 499 500 501 502 503 504 505 506 507 508 509 510 0
-511 16 0
-511 106 0
-16 -106 511 0
-512 17 0
-512 107 0
-17 -107 512 0
-513 18 0
-513 108 0
-18 -108 513 0
-514 19 0
-514 109 0
-19 -109 514 0
-515 20 0
-515 110 0
-20 -110 515 0
-516 21 0
-516 111 0
-21 -111 516 0
-517 22 0
-517 112 0
-22 -112 517 0
-518 23 0
-518 113 0
-23 -113 518 0
-519 24 0
-519 114 0
-24 -114 519 0
-520 25 0
-520 115 0
-25 -115 520 0
-521 26 0
-521 116 0
-26 -116 521 0
-522 27 0
-522 117 0
-27 -117 522 0
-523 28 0
-523 118 0
-28 -118 523 0
-524 29 0
-524 119 0
-29 -119 524 0
-525 30 0
-525 120 0
-30 -120 525 0
-511 11572 0
-11572 11573 0
-512 -11572 0
-512 11573 0
-11573 11574 0
-513 -11573 0
-513 11574 0
-11574 11575 0
-514 -11574 0
-514 11575 0
-11575 11576 0
-515 -11575 0
-515 11576 0
-11576 11577 0
-516 -11576 0
-516 11577 0
-11577 11578 0
-517 -11577 0
-517 11578 0
-11578 11579 0
-518 -11578 0
-518 11579 0
-11579 11580 0
-519 -11579 0
-519 11580 0
-11580 11581 0
-520 -11580 0
-520 11581 0
-11581 11582 0
-521 -11581 0
-521 11582 0
-11582 11583 0
-522 -11582 0
-522 11583 0
-11583 11584 0
-523 -11583 0
-523 11584 0
-11584 11585 0
-524 -11584 0
-524 11585 0
-525 -11585 0
-511 1820 0
-512 1820 0
-513 1820 0
-514 1820 0
-515 1820 0
-516 1820 0
-517 1820 0
-518 1820 0
-519 1820 0
-520 1820 0
-521 1820 0
-522 1820 0
-523 1820 0
-524 1820 0
-525 1820 0
-1820 511 512 513 514 515 516 517 518 519 520 521 522 523 524 525 0
-526 16 0
-526 121 0
-16 -121 526 0
-527 17 0
-527 122 0
-17 -122 527 0
-528 18 0
-528 123 0
-18 -123 528 0
-529 19 0
-529 124 0
-19 -124 529 0
-530 20 0
-530 125 0
-20 -125 530 0
-531 21 0
-531 126 0
-21 -126 531 0
-532 22 0
-532 127 0
-22 -127 532 0
-533 23 0
-533 128 0
-23 -128 533 0
-534 24 0
-534 129 0
-24 -129 534 0
-535 25 0
-535 130 0
-25 -130 535 0
-536 26 0
-536 131 0
-26 -131 536 0
-537 27 0
-537 132 0
-27 -132 537 0
-538 28 0
-538 133 0
-28 -133 538 0
-539 29 0
-539 134 0
-29 -134 539 0
-540 30 0
-540 135 0
-30 -135 540 0
-526 11586 0
-11586 11587 0
-527 -11586 0
-527 11587 0
-11587 11588 0
-528 -11587 0
-528 11588 0
-11588 11589 0
-529 -11588 0
-529 11589 0
-11589 11590 0
-530 -11589 0
-530 11590 0
-11590 11591 0
-531 -11590 0
-531 11591 0
-11591 11592 0
-532 -11591 0
-532 11592 0
-11592 11593 0
-533 -11592 0
-533 11593 0
-11593 11594 0
-534 -11593 0
-534 11594 0
-11594 11595 0
-535 -11594 0
-535 11595 0
-11595 11596 0
-536 -11595 0
-536 11596 0
-11596 11597 0
-537 -11596 0
-537 11597 0
-11597 11598 0
-538 -11597 0
-538 11598 0
-11598 11599 0
-539 -11598 0
-539 11599 0
-540 -11599 0
-526 1821 0
-527 1821 0
-528 1821 0
-529 1821 0
-530 1821 0
-531 1821 0
-532 1821 0
-533 1821 0
-534 1821 0
-535 1821 0
-536 1821 0
-537 1821 0
-538 1821 0
-539 1821 0
-540 1821 0
-1821 526 527 528 529 530 531 532 533 534 535 536 537 538 539 540 0
-541 16 0
-541 136 0
-16 -136 541 0
-542 17 0
-542 137 0
-17 -137 542 0
-543 18 0
-543 138 0
-18 -138 543 0
-544 19 0
-544 139 0
-19 -139 544 0
-545 20 0
-545 140 0
-20 -140 545 0
-546 21 0
-546 141 0
-21 -141 546 0
-547 22 0
-547 142 0
-22 -142 547 0
-548 23 0
-548 143 0
-23 -143 548 0
-549 24 0
-549 144 0
-24 -144 549 0
-550 25 0
-550 145 0
-25 -145 550 0
-551 26 0
-551 146 0
-26 -146 551 0
-552 27 0
-552 147 0
-27 -147 552 0
-553 28 0
-553 148 0
-28 -148 553 0
-554 29 0
-554 149 0
-29 -149 554 0
-555 30 0
-555 150 0
-30 -150 555 0
-541 11600 0
-11600 11601 0
-542 -11600 0
-542 11601 0
-11601 11602 0
-543 -11601 0
-543 11602 0
-11602 11603 0
-544 -11602 0
-544 11603 0
-11603 11604 0
-545 -11603 0
-545 11604 0
-11604 11605 0
-546 -11604 0
-546 11605 0
-11605 11606 0
-547 -11605 0
-547 11606 0
-11606 11607 0
-548 -11606 0
-548 11607 0
-11607 11608 0
-549 -11607 0
-549 11608 0
-11608 11609 0
-550 -11608 0
-550 11609 0
-11609 11610 0
-551 -11609 0
-551 11610 0
-11610 11611 0
-552 -11610 0
-552 11611 0
-11611 11612 0
-553 -11611 0
-553 11612 0
-11612 11613 0
-554 -11612 0
-554 11613 0
-555 -11613 0
-541 1822 0
-542 1822 0
-543 1822 0
-544 1822 0
-545 1822 0
-546 1822 0
-547 1822 0
-548 1822 0
-549 1822 0
-550 1822 0
-551 1822 0
-552 1822 0
-553 1822 0
-554 1822 0
-555 1822 0
-1822 541 542 543 544 545 546 547 548 549 550 551 552 553 554 555 0
-556 16 0
-556 151 0
-16 -151 556 0
-557 17 0
-557 152 0
-17 -152 557 0
-558 18 0
-558 153 0
-18 -153 558 0
-559 19 0
-559 154 0
-19 -154 559 0
-560 20 0
-560 155 0
-20 -155 560 0
-561 21 0
-561 156 0
-21 -156 561 0
-562 22 0
-562 157 0
-22 -157 562 0
-563 23 0
-563 158 0
-23 -158 563 0
-564 24 0
-564 159 0
-24 -159 564 0
-565 25 0
-565 160 0
-25 -160 565 0
-566 26 0
-566 161 0
-26 -161 566 0
-567 27 0
-567 162 0
-27 -162 567 0
-568 28 0
-568 163 0
-28 -163 568 0
-569 29 0
-569 164 0
-29 -164 569 0
-570 30 0
-570 165 0
-30 -165 570 0
-556 11614 0
-11614 11615 0
-557 -11614 0
-557 11615 0
-11615 11616 0
-558 -11615 0
-558 11616 0
-11616 11617 0
-559 -11616 0
-559 11617 0
-11617 11618 0
-560 -11617 0
-560 11618 0
-11618 11619 0
-561 -11618 0
-561 11619 0
-11619 11620 0
-562 -11619 0
-562 11620 0
-11620 11621 0
-563 -11620 0
-563 11621 0
-11621 11622 0
-564 -11621 0
-564 11622 0
-11622 11623 0
-565 -11622 0
-565 11623 0
-11623 11624 0
-566 -11623 0
-566 11624 0
-11624 11625 0
-567 -11624 0
-567 11625 0
-11625 11626 0
-568 -11625 0
-568 11626 0
-11626 11627 0
-569 -11626 0
-569 11627 0
-570 -11627 0
-556 1823 0
-557 1823 0
-558 1823 0
-559 1823 0
-560 1823 0
-561 1823 0
-562 1823 0
-563 1823 0
-564 1823 0
-565 1823 0
-566 1823 0
-567 1823 0
-568 1823 0
-569 1823 0
-570 1823 0
-1823 556 557 558 559 560 561 562 563 564 565 566 567 568 569 570 0
-571 16 0
-571 166 0
-16 -166 571 0
-572 17 0
-572 167 0
-17 -167 572 0
-573 18 0
-573 168 0
-18 -168 573 0
-574 19 0
-574 169 0
-19 -169 574 0
-575 20 0
-575 170 0
-20 -170 575 0
-576 21 0
-576 171 0
-21 -171 576 0
-577 22 0
-577 172 0
-22 -172 577 0
-578 23 0
-578 173 0
-23 -173 578 0
-579 24 0
-579 174 0
-24 -174 579 0
-580 25 0
-580 175 0
-25 -175 580 0
-581 26 0
-581 176 0
-26 -176 581 0
-582 27 0
-582 177 0
-27 -177 582 0
-583 28 0
-583 178 0
-28 -178 583 0
-584 29 0
-584 179 0
-29 -179 584 0
-585 30 0
-585 180 0
-30 -180 585 0
-571 11628 0
-11628 11629 0
-572 -11628 0
-572 11629 0
-11629 11630 0
-573 -11629 0
-573 11630 0
-11630 11631 0
-574 -11630 0
-574 11631 0
-11631 11632 0
-575 -11631 0
-575 11632 0
-11632 11633 0
-576 -11632 0
-576 11633 0
-11633 11634 0
-577 -11633 0
-577 11634 0
-11634 11635 0
-578 -11634 0
-578 11635 0
-11635 11636 0
-579 -11635 0
-579 11636 0
-11636 11637 0
-580 -11636 0
-580 11637 0
-11637 11638 0
-581 -11637 0
-581 11638 0
-11638 11639 0
-582 -11638 0
-582 11639 0
-11639 11640 0
-583 -11639 0
-583 11640 0
-11640 11641 0
-584 -11640 0
-584 11641 0
-585 -11641 0
-571 1824 0
-572 1824 0
-573 1824 0
-574 1824 0
-575 1824 0
-576 1824 0
-577 1824 0
-578 1824 0
-579 1824 0
-580 1824 0
-581 1824 0
-582 1824 0
-583 1824 0
-584 1824 0
-585 1824 0
-1824 571 572 573 574 575 576 577 578 579 580 581 582 583 584 585 0
-586 16 0
-586 181 0
-16 -181 586 0
-587 17 0
-587 182 0
-17 -182 587 0
-588 18 0
-588 183 0
-18 -183 588 0
-589 19 0
-589 184 0
-19 -184 589 0
-590 20 0
-590 185 0
-20 -185 590 0
-591 21 0
-591 186 0
-21 -186 591 0
-592 22 0
-592 187 0
-22 -187 592 0
-593 23 0
-593 188 0
-23 -188 593 0
-594 24 0
-594 189 0
-24 -189 594 0
-595 25 0
-595 190 0
-25 -190 595 0
-596 26 0
-596 191 0
-26 -191 596 0
-597 27 0
-597 192 0
-27 -192 597 0
-598 28 0
-598 193 0
-28 -193 598 0
-599 29 0
-599 194 0
-29 -194 599 0
-600 30 0
-600 195 0
-30 -195 600 0
-586 11642 0
-11642 11643 0
-587 -11642 0
-587 11643 0
-11643 11644 0
-588 -11643 0
-588 11644 0
-11644 11645 0
-589 -11644 0
-589 11645 0
-11645 11646 0
-590 -11645 0
-590 11646 0
-11646 11647 0
-591 -11646 0
-591 11647 0
-11647 11648 0
-592 -11647 0
-592 11648 0
-11648 11649 0
-593 -11648 0
-593 11649 0
-11649 11650 0
-594 -11649 0
-594 11650 0
-11650 11651 0
-595 -11650 0
-595 11651 0
-11651 11652 0
-596 -11651 0
-596 11652 0
-11652 11653 0
-597 -11652 0
-597 11653 0
-11653 11654 0
-598 -11653 0
-598 11654 0
-11654 11655 0
-599 -11654 0
-599 11655 0
-600 -11655 0
-586 1825 0
-587 1825 0
-588 1825 0
-589 1825 0
-590 1825 0
-591 1825 0
-592 1825 0
-593 1825 0
-594 1825 0
-595 1825 0
-596 1825 0
-597 1825 0
-598 1825 0
-599 1825 0
-600 1825 0
-1825 586 587 588 589 590 591 592 593 594 595 596 597 598 599 600 0
-601 16 0
-601 196 0
-16 -196 601 0
-602 17 0
-602 197 0
-17 -197 602 0
-603 18 0
-603 198 0
-18 -198 603 0
-604 19 0
-604 199 0
-19 -199 604 0
-605 20 0
-605 200 0
-20 -200 605 0
-606 21 0
-606 201 0
-21 -201 606 0
-607 22 0
-607 202 0
-22 -202 607 0
-608 23 0
-608 203 0
-23 -203 608 0
-609 24 0
-609 204 0
-24 -204 609 0
-610 25 0
-610 205 0
-25 -205 610 0
-611 26 0
-611 206 0
-26 -206 611 0
-612 27 0
-612 207 0
-27 -207 612 0
-613 28 0
-613 208 0
-28 -208 613 0
-614 29 0
-614 209 0
-29 -209 614 0
-615 30 0
-615 210 0
-30 -210 615 0
-601 11656 0
-11656 11657 0
-602 -11656 0
-602 11657 0
-11657 11658 0
-603 -11657 0
-603 11658 0
-11658 11659 0
-604 -11658 0
-604 11659 0
-11659 11660 0
-605 -11659 0
-605 11660 0
-11660 11661 0
-606 -11660 0
-606 11661 0
-11661 11662 0
-607 -11661 0
-607 11662 0
-11662 11663 0
-608 -11662 0
-608 11663 0
-11663 11664 0
-609 -11663 0
-609 11664 0
-11664 11665 0
-610 -11664 0
-610 11665 0
-11665 11666 0
-611 -11665 0
-611 11666 0
-11666 11667 0
-612 -11666 0
-612 11667 0
-11667 11668 0
-613 -11667 0
-613 11668 0
-11668 11669 0
-614 -11668 0
-614 11669 0
-615 -11669 0
-601 1826 0
-602 1826 0
-603 1826 0
-604 1826 0
-605 1826 0
-606 1826 0
-607 1826 0
-608 1826 0
-609 1826 0
-610 1826 0
-611 1826 0
-612 1826 0
-613 1826 0
-614 1826 0
-615 1826 0
-1826 601 602 603 604 605 606 607 608 609 610 611 612 613 614 615 0
-616 16 0
-616 211 0
-16 -211 616 0
-617 17 0
-617 212 0
-17 -212 617 0
-618 18 0
-618 213 0
-18 -213 618 0
-619 19 0
-619 214 0
-19 -214 619 0
-620 20 0
-620 215 0
-20 -215 620 0
-621 21 0
-621 216 0
-21 -216 621 0
-622 22 0
-622 217 0
-22 -217 622 0
-623 23 0
-623 218 0
-23 -218 623 0
-624 24 0
-624 219 0
-24 -219 624 0
-625 25 0
-625 220 0
-25 -220 625 0
-626 26 0
-626 221 0
-26 -221 626 0
-627 27 0
-627 222 0
-27 -222 627 0
-628 28 0
-628 223 0
-28 -223 628 0
-629 29 0
-629 224 0
-29 -224 629 0
-630 30 0
-630 225 0
-30 -225 630 0
-616 11670 0
-11670 11671 0
-617 -11670 0
-617 11671 0
-11671 11672 0
-618 -11671 0
-618 11672 0
-11672 11673 0
-619 -11672 0
-619 11673 0
-11673 11674 0
-620 -11673 0
-620 11674 0
-11674 11675 0
-621 -11674 0
-621 11675 0
-11675 11676 0
-622 -11675 0
-622 11676 0
-11676 11677 0
-623 -11676 0
-623 11677 0
-11677 11678 0
-624 -11677 0
-624 11678 0
-11678 11679 0
-625 -11678 0
-625 11679 0
-11679 11680 0
-626 -11679 0
-626 11680 0
-11680 11681 0
-627 -11680 0
-627 11681 0
-11681 11682 0
-628 -11681 0
-628 11682 0
-11682 11683 0
-629 -11682 0
-629 11683 0
-630 -11683 0
-616 1827 0
-617 1827 0
-618 1827 0
-619 1827 0
-620 1827 0
-621 1827 0
-622 1827 0
-623 1827 0
-624 1827 0
-625 1827 0
-626 1827 0
-627 1827 0
-628 1827 0
-629 1827 0
-630 1827 0
-1827 616 617 618 619 620 621 622 623 624 625 626 627 628 629 630 0
-631 31 0
-631 46 0
-31 -46 631 0
-632 32 0
-632 47 0
-32 -47 632 0
-633 33 0
-633 48 0
-33 -48 633 0
-634 34 0
-634 49 0
-34 -49 634 0
-635 35 0
-635 50 0
-35 -50 635 0
-636 36 0
-636 51 0
-36 -51 636 0
-637 37 0
-637 52 0
-37 -52 637 0
-638 38 0
-638 53 0
-38 -53 638 0
-639 39 0
-639 54 0
-39 -54 639 0
-640 40 0
-640 55 0
-40 -55 640 0
-641 41 0
-641 56 0
-41 -56 641 0
-642 42 0
-642 57 0
-42 -57 642 0
-643 43 0
-643 58 0
-43 -58 643 0
-644 44 0
-644 59 0
-44 -59 644 0
-645 45 0
-645 60 0
-45 -60 645 0
-631 11684 0
-11684 11685 0
-632 -11684 0
-632 11685 0
-11685 11686 0
-633 -11685 0
-633 11686 0
-11686 11687 0
-634 -11686 0
-634 11687 0
-11687 11688 0
-635 -11687 0
-635 11688 0
-11688 11689 0
-636 -11688 0
-636 11689 0
-11689 11690 0
-637 -11689 0
-637 11690 0
-11690 11691 0
-638 -11690 0
-638 11691 0
-11691 11692 0
-639 -11691 0
-639 11692 0
-11692 11693 0
-640 -11692 0
-640 11693 0
-11693 11694 0
-641 -11693 0
-641 11694 0
-11694 11695 0
-642 -11694 0
-642 11695 0
-11695 11696 0
-643 -11695 0
-643 11696 0
-11696 11697 0
-644 -11696 0
-644 11697 0
-645 -11697 0
-631 1828 0
-632 1828 0
-633 1828 0
-634 1828 0
-635 1828 0
-636 1828 0
-637 1828 0
-638 1828 0
-639 1828 0
-640 1828 0
-641 1828 0
-642 1828 0
-643 1828 0
-644 1828 0
-645 1828 0
-1828 631 632 633 634 635 636 637 638 639 640 641 642 643 644 645 0
-646 31 0
-646 61 0
-31 -61 646 0
-647 32 0
-647 62 0
-32 -62 647 0
-648 33 0
-648 63 0
-33 -63 648 0
-649 34 0
-649 64 0
-34 -64 649 0
-650 35 0
-650 65 0
-35 -65 650 0
-651 36 0
-651 66 0
-36 -66 651 0
-652 37 0
-652 67 0
-37 -67 652 0
-653 38 0
-653 68 0
-38 -68 653 0
-654 39 0
-654 69 0
-39 -69 654 0
-655 40 0
-655 70 0
-40 -70 655 0
-656 41 0
-656 71 0
-41 -71 656 0
-657 42 0
-657 72 0
-42 -72 657 0
-658 43 0
-658 73 0
-43 -73 658 0
-659 44 0
-659 74 0
-44 -74 659 0
-660 45 0
-660 75 0
-45 -75 660 0
-646 11698 0
-11698 11699 0
-647 -11698 0
-647 11699 0
-11699 11700 0
-648 -11699 0
-648 11700 0
-11700 11701 0
-649 -11700 0
-649 11701 0
-11701 11702 0
-650 -11701 0
-650 11702 0
-11702 11703 0
-651 -11702 0
-651 11703 0
-11703 11704 0
-652 -11703 0
-652 11704 0
-11704 11705 0
-653 -11704 0
-653 11705 0
-11705 11706 0
-654 -11705 0
-654 11706 0
-11706 11707 0
-655 -11706 0
-655 11707 0
-11707 11708 0
-656 -11707 0
-656 11708 0
-11708 11709 0
-657 -11708 0
-657 11709 0
-11709 11710 0
-658 -11709 0
-658 11710 0
-11710 11711 0
-659 -11710 0
-659 11711 0
-660 -11711 0
-646 1829 0
-647 1829 0
-648 1829 0
-649 1829 0
-650 1829 0
-651 1829 0
-652 1829 0
-653 1829 0
-654 1829 0
-655 1829 0
-656 1829 0
-657 1829 0
-658 1829 0
-659 1829 0
-660 1829 0
-1829 646 647 648 649 650 651 652 653 654 655 656 657 658 659 660 0
-661 31 0
-661 76 0
-31 -76 661 0
-662 32 0
-662 77 0
-32 -77 662 0
-663 33 0
-663 78 0
-33 -78 663 0
-664 34 0
-664 79 0
-34 -79 664 0
-665 35 0
-665 80 0
-35 -80 665 0
-666 36 0
-666 81 0
-36 -81 666 0
-667 37 0
-667 82 0
-37 -82 667 0
-668 38 0
-668 83 0
-38 -83 668 0
-669 39 0
-669 84 0
-39 -84 669 0
-670 40 0
-670 85 0
-40 -85 670 0
-671 41 0
-671 86 0
-41 -86 671 0
-672 42 0
-672 87 0
-42 -87 672 0
-673 43 0
-673 88 0
-43 -88 673 0
-674 44 0
-674 89 0
-44 -89 674 0
-675 45 0
-675 90 0
-45 -90 675 0
-661 11712 0
-11712 11713 0
-662 -11712 0
-662 11713 0
-11713 11714 0
-663 -11713 0
-663 11714 0
-11714 11715 0
-664 -11714 0
-664 11715 0
-11715 11716 0
-665 -11715 0
-665 11716 0
-11716 11717 0
-666 -11716 0
-666 11717 0
-11717 11718 0
-667 -11717 0
-667 11718 0
-11718 11719 0
-668 -11718 0
-668 11719 0
-11719 11720 0
-669 -11719 0
-669 11720 0
-11720 11721 0
-670 -11720 0
-670 11721 0
-11721 11722 0
-671 -11721 0
-671 11722 0
-11722 11723 0
-672 -11722 0
-672 11723 0
-11723 11724 0
-673 -11723 0
-673 11724 0
-11724 11725 0
-674 -11724 0
-674 11725 0
-675 -11725 0
-661 1830 0
-662 1830 0
-663 1830 0
-664 1830 0
-665 1830 0
-666 1830 0
-667 1830 0
-668 1830 0
-669 1830 0
-670 1830 0
-671 1830 0
-672 1830 0
-673 1830 0
-674 1830 0
-675 1830 0
-1830 661 662 663 664 665 666 667 668 669 670 671 672 673 674 675 0
-676 31 0
-676 91 0
-31 -91 676 0
-677 32 0
-677 92 0
-32 -92 677 0
-678 33 0
-678 93 0
-33 -93 678 0
-679 34 0
-679 94 0
-34 -94 679 0
-680 35 0
-680 95 0
-35 -95 680 0
-681 36 0
-681 96 0
-36 -96 681 0
-682 37 0
-682 97 0
-37 -97 682 0
-683 38 0
-683 98 0
-38 -98 683 0
-684 39 0
-684 99 0
-39 -99 684 0
-685 40 0
-685 100 0
-40 -100 685 0
-686 41 0
-686 101 0
-41 -101 686 0
-687 42 0
-687 102 0
-42 -102 687 0
-688 43 0
-688 103 0
-43 -103 688 0
-689 44 0
-689 104 0
-44 -104 689 0
-690 45 0
-690 105 0
-45 -105 690 0
-676 11726 0
-11726 11727 0
-677 -11726 0
-677 11727 0
-11727 11728 0
-678 -11727 0
-678 11728 0
-11728 11729 0
-679 -11728 0
-679 11729 0
-11729 11730 0
-680 -11729 0
-680 11730 0
-11730 11731 0
-681 -11730 0
-681 11731 0
-11731 11732 0
-682 -11731 0
-682 11732 0
-11732 11733 0
-683 -11732 0
-683 11733 0
-11733 11734 0
-684 -11733 0
-684 11734 0
-11734 11735 0
-685 -11734 0
-685 11735 0
-11735 11736 0
-686 -11735 0
-686 11736 0
-11736 11737 0
-687 -11736 0
-687 11737 0
-11737 11738 0
-688 -11737 0
-688 11738 0
-11738 11739 0
-689 -11738 0
-689 11739 0
-690 -11739 0
-676 1831 0
-677 1831 0
-678 1831 0
-679 1831 0
-680 1831 0
-681 1831 0
-682 1831 0
-683 1831 0
-684 1831 0
-685 1831 0
-686 1831 0
-687 1831 0
-688 1831 0
-689 1831 0
-690 1831 0
-1831 676 677 678 679 680 681 682 683 684 685 686 687 688 689 690 0
-691 31 0
-691 106 0
-31 -106 691 0
-692 32 0
-692 107 0
-32 -107 692 0
-693 33 0
-693 108 0
-33 -108 693 0
-694 34 0
-694 109 0
-34 -109 694 0
-695 35 0
-695 110 0
-35 -110 695 0
-696 36 0
-696 111 0
-36 -111 696 0
-697 37 0
-697 112 0
-37 -112 697 0
-698 38 0
-698 113 0
-38 -113 698 0
-699 39 0
-699 114 0
-39 -114 699 0
-700 40 0
-700 115 0
-40 -115 700 0
-701 41 0
-701 116 0
-41 -116 701 0
-702 42 0
-702 117 0
-42 -117 702 0
-703 43 0
-703 118 0
-43 -118 703 0
-704 44 0
-704 119 0
-44 -119 704 0
-705 45 0
-705 120 0
-45 -120 705 0
-691 11740 0
-11740 11741 0
-692 -11740 0
-692 11741 0
-11741 11742 0
-693 -11741 0
-693 11742 0
-11742 11743 0
-694 -11742 0
-694 11743 0
-11743 11744 0
-695 -11743 0
-695 11744 0
-11744 11745 0
-696 -11744 0
-696 11745 0
-11745 11746 0
-697 -11745 0
-697 11746 0
-11746 11747 0
-698 -11746 0
-698 11747 0
-11747 11748 0
-699 -11747 0
-699 11748 0
-11748 11749 0
-700 -11748 0
-700 11749 0
-11749 11750 0
-701 -11749 0
-701 11750 0
-11750 11751 0
-702 -11750 0
-702 11751 0
-11751 11752 0
-703 -11751 0
-703 11752 0
-11752 11753 0
-704 -11752 0
-704 11753 0
-705 -11753 0
-691 1832 0
-692 1832 0
-693 1832 0
-694 1832 0
-695 1832 0
-696 1832 0
-697 1832 0
-698 1832 0
-699 1832 0
-700 1832 0
-701 1832 0
-702 1832 0
-703 1832 0
-704 1832 0
-705 1832 0
-1832 691 692 693 694 695 696 697 698 699 700 701 702 703 704 705 0
-706 31 0
-706 121 0
-31 -121 706 0
-707 32 0
-707 122 0
-32 -122 707 0
-708 33 0
-708 123 0
-33 -123 708 0
-709 34 0
-709 124 0
-34 -124 709 0
-710 35 0
-710 125 0
-35 -125 710 0
-711 36 0
-711 126 0
-36 -126 711 0
-712 37 0
-712 127 0
-37 -127 712 0
-713 38 0
-713 128 0
-38 -128 713 0
-714 39 0
-714 129 0
-39 -129 714 0
-715 40 0
-715 130 0
-40 -130 715 0
-716 41 0
-716 131 0
-41 -131 716 0
-717 42 0
-717 132 0
-42 -132 717 0
-718 43 0
-718 133 0
-43 -133 718 0
-719 44 0
-719 134 0
-44 -134 719 0
-720 45 0
-720 135 0
-45 -135 720 0
-706 11754 0
-11754 11755 0
-707 -11754 0
-707 11755 0
-11755 11756 0
-708 -11755 0
-708 11756 0
-11756 11757 0
-709 -11756 0
-709 11757 0
-11757 11758 0
-710 -11757 0
-710 11758 0
-11758 11759 0
-711 -11758 0
-711 11759 0
-11759 11760 0
-712 -11759 0
-712 11760 0
-11760 11761 0
-713 -11760 0
-713 11761 0
-11761 11762 0
-714 -11761 0
-714 11762 0
-11762 11763 0
-715 -11762 0
-715 11763 0
-11763 11764 0
-716 -11763 0
-716 11764 0
-11764 11765 0
-717 -11764 0
-717 11765 0
-11765 11766 0
-718 -11765 0
-718 11766 0
-11766 11767 0
-719 -11766 0
-719 11767 0
-720 -11767 0
-706 1833 0
-707 1833 0
-708 1833 0
-709 1833 0
-710 1833 0
-711 1833 0
-712 1833 0
-713 1833 0
-714 1833 0
-715 1833 0
-716 1833 0
-717 1833 0
-718 1833 0
-719 1833 0
-720 1833 0
-1833 706 707 708 709 710 711 712 713 714 715 716 717 718 719 720 0
-721 31 0
-721 136 0
-31 -136 721 0
-722 32 0
-722 137 0
-32 -137 722 0
-723 33 0
-723 138 0
-33 -138 723 0
-724 34 0
-724 139 0
-34 -139 724 0
-725 35 0
-725 140 0
-35 -140 725 0
-726 36 0
-726 141 0
-36 -141 726 0
-727 37 0
-727 142 0
-37 -142 727 0
-728 38 0
-728 143 0
-38 -143 728 0
-729 39 0
-729 144 0
-39 -144 729 0
-730 40 0
-730 145 0
-40 -145 730 0
-731 41 0
-731 146 0
-41 -146 731 0
-732 42 0
-732 147 0
-42 -147 732 0
-733 43 0
-733 148 0
-43 -148 733 0
-734 44 0
-734 149 0
-44 -149 734 0
-735 45 0
-735 150 0
-45 -150 735 0
-721 11768 0
-11768 11769 0
-722 -11768 0
-722 11769 0
-11769 11770 0
-723 -11769 0
-723 11770 0
-11770 11771 0
-724 -11770 0
-724 11771 0
-11771 11772 0
-725 -11771 0
-725 11772 0
-11772 11773 0
-726 -11772 0
-726 11773 0
-11773 11774 0
-727 -11773 0
-727 11774 0
-11774 11775 0
-728 -11774 0
-728 11775 0
-11775 11776 0
-729 -11775 0
-729 11776 0
-11776 11777 0
-730 -11776 0
-730 11777 0
-11777 11778 0
-731 -11777 0
-731 11778 0
-11778 11779 0
-732 -11778 0
-732 11779 0
-11779 11780 0
-733 -11779 0
-733 11780 0
-11780 11781 0
-734 -11780 0
-734 11781 0
-735 -11781 0
-721 1834 0
-722 1834 0
-723 1834 0
-724 1834 0
-725 1834 0
-726 1834 0
-727 1834 0
-728 1834 0
-729 1834 0
-730 1834 0
-731 1834 0
-732 1834 0
-733 1834 0
-734 1834 0
-735 1834 0
-1834 721 722 723 724 725 726 727 728 729 730 731 732 733 734 735 0
-736 31 0
-736 151 0
-31 -151 736 0
-737 32 0
-737 152 0
-32 -152 737 0
-738 33 0
-738 153 0
-33 -153 738 0
-739 34 0
-739 154 0
-34 -154 739 0
-740 35 0
-740 155 0
-35 -155 740 0
-741 36 0
-741 156 0
-36 -156 741 0
-742 37 0
-742 157 0
-37 -157 742 0
-743 38 0
-743 158 0
-38 -158 743 0
-744 39 0
-744 159 0
-39 -159 744 0
-745 40 0
-745 160 0
-40 -160 745 0
-746 41 0
-746 161 0
-41 -161 746 0
-747 42 0
-747 162 0
-42 -162 747 0
-748 43 0
-748 163 0
-43 -163 748 0
-749 44 0
-749 164 0
-44 -164 749 0
-750 45 0
-750 165 0
-45 -165 750 0
-736 11782 0
-11782 11783 0
-737 -11782 0
-737 11783 0
-11783 11784 0
-738 -11783 0
-738 11784 0
-11784 11785 0
-739 -11784 0
-739 11785 0
-11785 11786 0
-740 -11785 0
-740 11786 0
-11786 11787 0
-741 -11786 0
-741 11787 0
-11787 11788 0
-742 -11787 0
-742 11788 0
-11788 11789 0
-743 -11788 0
-743 11789 0
-11789 11790 0
-744 -11789 0
-744 11790 0
-11790 11791 0
-745 -11790 0
-745 11791 0
-11791 11792 0
-746 -11791 0
-746 11792 0
-11792 11793 0
-747 -11792 0
-747 11793 0
-11793 11794 0
-748 -11793 0
-748 11794 0
-11794 11795 0
-749 -11794 0
-749 11795 0
-750 -11795 0
-736 1835 0
-737 1835 0
-738 1835 0
-739 1835 0
-740 1835 0
-741 1835 0
-742 1835 0
-743 1835 0
-744 1835 0
-745 1835 0
-746 1835 0
-747 1835 0
-748 1835 0
-749 1835 0
-750 1835 0
-1835 736 737 738 739 740 741 742 743 744 745 746 747 748 749 750 0
-751 31 0
-751 166 0
-31 -166 751 0
-752 32 0
-752 167 0
-32 -167 752 0
-753 33 0
-753 168 0
-33 -168 753 0
-754 34 0
-754 169 0
-34 -169 754 0
-755 35 0
-755 170 0
-35 -170 755 0
-756 36 0
-756 171 0
-36 -171 756 0
-757 37 0
-757 172 0
-37 -172 757 0
-758 38 0
-758 173 0
-38 -173 758 0
-759 39 0
-759 174 0
-39 -174 759 0
-760 40 0
-760 175 0
-40 -175 760 0
-761 41 0
-761 176 0
-41 -176 761 0
-762 42 0
-762 177 0
-42 -177 762 0
-763 43 0
-763 178 0
-43 -178 763 0
-764 44 0
-764 179 0
-44 -179 764 0
-765 45 0
-765 180 0
-45 -180 765 0
-751 11796 0
-11796 11797 0
-752 -11796 0
-752 11797 0
-11797 11798 0
-753 -11797 0
-753 11798 0
-11798 11799 0
-754 -11798 0
-754 11799 0
-11799 11800 0
-755 -11799 0
-755 11800 0
-11800 11801 0
-756 -11800 0
-756 11801 0
-11801 11802 0
-757 -11801 0
-757 11802 0
-11802 11803 0
-758 -11802 0
-758 11803 0
-11803 11804 0
-759 -11803 0
-759 11804 0
-11804 11805 0
-760 -11804 0
-760 11805 0
-11805 11806 0
-761 -11805 0
-761 11806 0
-11806 11807 0
-762 -11806 0
-762 11807 0
-11807 11808 0
-763 -11807 0
-763 11808 0
-11808 11809 0
-764 -11808 0
-764 11809 0
-765 -11809 0
-751 1836 0
-752 1836 0
-753 1836 0
-754 1836 0
-755 1836 0
-756 1836 0
-757 1836 0
-758 1836 0
-759 1836 0
-760 1836 0
-761 1836 0
-762 1836 0
-763 1836 0
-764 1836 0
-765 1836 0
-1836 751 752 753 754 755 756 757 758 759 760 761 762 763 764 765 0
-766 31 0
-766 181 0
-31 -181 766 0
-767 32 0
-767 182 0
-32 -182 767 0
-768 33 0
-768 183 0
-33 -183 768 0
-769 34 0
-769 184 0
-34 -184 769 0
-770 35 0
-770 185 0
-35 -185 770 0
-771 36 0
-771 186 0
-36 -186 771 0
-772 37 0
-772 187 0
-37 -187 772 0
-773 38 0
-773 188 0
-38 -188 773 0
-774 39 0
-774 189 0
-39 -189 774 0
-775 40 0
-775 190 0
-40 -190 775 0
-776 41 0
-776 191 0
-41 -191 776 0
-777 42 0
-777 192 0
-42 -192 777 0
-778 43 0
-778 193 0
-43 -193 778 0
-779 44 0
-779 194 0
-44 -194 779 0
-780 45 0
-780 195 0
-45 -195 780 0
-766 11810 0
-11810 11811 0
-767 -11810 0
-767 11811 0
-11811 11812 0
-768 -11811 0
-768 11812 0
-11812 11813 0
-769 -11812 0
-769 11813 0
-11813 11814 0
-770 -11813 0
-770 11814 0
-11814 11815 0
-771 -11814 0
-771 11815 0
-11815 11816 0
-772 -11815 0
-772 11816 0
-11816 11817 0
-773 -11816 0
-773 11817 0
-11817 11818 0
-774 -11817 0
-774 11818 0
-11818 11819 0
-775 -11818 0
-775 11819 0
-11819 11820 0
-776 -11819 0
-776 11820 0
-11820 11821 0
-777 -11820 0
-777 11821 0
-11821 11822 0
-778 -11821 0
-778 11822 0
-11822 11823 0
-779 -11822 0
-779 11823 0
-780 -11823 0
-766 1837 0
-767 1837 0
-768 1837 0
-769 1837 0
-770 1837 0
-771 1837 0
-772 1837 0
-773 1837 0
-774 1837 0
-775 1837 0
-776 1837 0
-777 1837 0
-778 1837 0
-779 1837 0
-780 1837 0
-1837 766 767 768 769 770 771 772 773 774 775 776 777 778 779 780 0
-781 31 0
-781 196 0
-31 -196 781 0
-782 32 0
-782 197 0
-32 -197 782 0
-783 33 0
-783 198 0
-33 -198 783 0
-784 34 0
-784 199 0
-34 -199 784 0
-785 35 0
-785 200 0
-35 -200 785 0
-786 36 0
-786 201 0
-36 -201 786 0
-787 37 0
-787 202 0
-37 -202 787 0
-788 38 0
-788 203 0
-38 -203 788 0
-789 39 0
-789 204 0
-39 -204 789 0
-790 40 0
-790 205 0
-40 -205 790 0
-791 41 0
-791 206 0
-41 -206 791 0
-792 42 0
-792 207 0
-42 -207 792 0
-793 43 0
-793 208 0
-43 -208 793 0
-794 44 0
-794 209 0
-44 -209 794 0
-795 45 0
-795 210 0
-45 -210 795 0
-781 11824 0
-11824 11825 0
-782 -11824 0
-782 11825 0
-11825 11826 0
-783 -11825 0
-783 11826 0
-11826 11827 0
-784 -11826 0
-784 11827 0
-11827 11828 0
-785 -11827 0
-785 11828 0
-11828 11829 0
-786 -11828 0
-786 11829 0
-11829 11830 0
-787 -11829 0
-787 11830 0
-11830 11831 0
-788 -11830 0
-788 11831 0
-11831 11832 0
-789 -11831 0
-789 11832 0
-11832 11833 0
-790 -11832 0
-790 11833 0
-11833 11834 0
-791 -11833 0
-791 11834 0
-11834 11835 0
-792 -11834 0
-792 11835 0
-11835 11836 0
-793 -11835 0
-793 11836 0
-11836 11837 0
-794 -11836 0
-794 11837 0
-795 -11837 0
-781 1838 0
-782 1838 0
-783 1838 0
-784 1838 0
-785 1838 0
-786 1838 0
-787 1838 0
-788 1838 0
-789 1838 0
-790 1838 0
-791 1838 0
-792 1838 0
-793 1838 0
-794 1838 0
-795 1838 0
-1838 781 782 783 784 785 786 787 788 789 790 791 792 793 794 795 0
-796 31 0
-796 211 0
-31 -211 796 0
-797 32 0
-797 212 0
-32 -212 797 0
-798 33 0
-798 213 0
-33 -213 798 0
-799 34 0
-799 214 0
-34 -214 799 0
-800 35 0
-800 215 0
-35 -215 800 0
-801 36 0
-801 216 0
-36 -216 801 0
-802 37 0
-802 217 0
-37 -217 802 0
-803 38 0
-803 218 0
-38 -218 803 0
-804 39 0
-804 219 0
-39 -219 804 0
-805 40 0
-805 220 0
-40 -220 805 0
-806 41 0
-806 221 0
-41 -221 806 0
-807 42 0
-807 222 0
-42 -222 807 0
-808 43 0
-808 223 0
-43 -223 808 0
-809 44 0
-809 224 0
-44 -224 809 0
-810 45 0
-810 225 0
-45 -225 810 0
-796 11838 0
-11838 11839 0
-797 -11838 0
-797 11839 0
-11839 11840 0
-798 -11839 0
-798 11840 0
-11840 11841 0
-799 -11840 0
-799 11841 0
-11841 11842 0
-800 -11841 0
-800 11842 0
-11842 11843 0
-801 -11842 0
-801 11843 0
-11843 11844 0
-802 -11843 0
-802 11844 0
-11844 11845 0
-803 -11844 0
-803 11845 0
-11845 11846 0
-804 -11845 0
-804 11846 0
-11846 11847 0
-805 -11846 0
-805 11847 0
-11847 11848 0
-806 -11847 0
-806 11848 0
-11848 11849 0
-807 -11848 0
-807 11849 0
-11849 11850 0
-808 -11849 0
-808 11850 0
-11850 11851 0
-809 -11850 0
-809 11851 0
-810 -11851 0
-796 1839 0
-797 1839 0
-798 1839 0
-799 1839 0
-800 1839 0
-801 1839 0
-802 1839 0
-803 1839 0
-804 1839 0
-805 1839 0
-806 1839 0
-807 1839 0
-808 1839 0
-809 1839 0
-810 1839 0
-1839 796 797 798 799 800 801 802 803 804 805 806 807 808 809 810 0
-811 46 0
-811 61 0
-46 -61 811 0
-812 47 0
-812 62 0
-47 -62 812 0
-813 48 0
-813 63 0
-48 -63 813 0
-814 49 0
-814 64 0
-49 -64 814 0
-815 50 0
-815 65 0
-50 -65 815 0
-816 51 0
-816 66 0
-51 -66 816 0
-817 52 0
-817 67 0
-52 -67 817 0
-818 53 0
-818 68 0
-53 -68 818 0
-819 54 0
-819 69 0
-54 -69 819 0
-820 55 0
-820 70 0
-55 -70 820 0
-821 56 0
-821 71 0
-56 -71 821 0
-822 57 0
-822 72 0
-57 -72 822 0
-823 58 0
-823 73 0
-58 -73 823 0
-824 59 0
-824 74 0
-59 -74 824 0
-825 60 0
-825 75 0
-60 -75 825 0
-811 11852 0
-11852 11853 0
-812 -11852 0
-812 11853 0
-11853 11854 0
-813 -11853 0
-813 11854 0
-11854 11855 0
-814 -11854 0
-814 11855 0
-11855 11856 0
-815 -11855 0
-815 11856 0
-11856 11857 0
-816 -11856 0
-816 11857 0
-11857 11858 0
-817 -11857 0
-817 11858 0
-11858 11859 0
-818 -11858 0
-818 11859 0
-11859 11860 0
-819 -11859 0
-819 11860 0
-11860 11861 0
-820 -11860 0
-820 11861 0
-11861 11862 0
-821 -11861 0
-821 11862 0
-11862 11863 0
-822 -11862 0
-822 11863 0
-11863 11864 0
-823 -11863 0
-823 11864 0
-11864 11865 0
-824 -11864 0
-824 11865 0
-825 -11865 0
-811 1840 0
-812 1840 0
-813 1840 0
-814 1840 0
-815 1840 0
-816 1840 0
-817 1840 0
-818 1840 0
-819 1840 0
-820 1840 0
-821 1840 0
-822 1840 0
-823 1840 0
-824 1840 0
-825 1840 0
-1840 811 812 813 814 815 816 817 818 819 820 821 822 823 824 825 0
-826 46 0
-826 76 0
-46 -76 826 0
-827 47 0
-827 77 0
-47 -77 827 0
-828 48 0
-828 78 0
-48 -78 828 0
-829 49 0
-829 79 0
-49 -79 829 0
-830 50 0
-830 80 0
-50 -80 830 0
-831 51 0
-831 81 0
-51 -81 831 0
-832 52 0
-832 82 0
-52 -82 832 0
-833 53 0
-833 83 0
-53 -83 833 0
-834 54 0
-834 84 0
-54 -84 834 0
-835 55 0
-835 85 0
-55 -85 835 0
-836 56 0
-836 86 0
-56 -86 836 0
-837 57 0
-837 87 0
-57 -87 837 0
-838 58 0
-838 88 0
-58 -88 838 0
-839 59 0
-839 89 0
-59 -89 839 0
-840 60 0
-840 90 0
-60 -90 840 0
-826 11866 0
-11866 11867 0
-827 -11866 0
-827 11867 0
-11867 11868 0
-828 -11867 0
-828 11868 0
-11868 11869 0
-829 -11868 0
-829 11869 0
-11869 11870 0
-830 -11869 0
-830 11870 0
-11870 11871 0
-831 -11870 0
-831 11871 0
-11871 11872 0
-832 -11871 0
-832 11872 0
-11872 11873 0
-833 -11872 0
-833 11873 0
-11873 11874 0
-834 -11873 0
-834 11874 0
-11874 11875 0
-835 -11874 0
-835 11875 0
-11875 11876 0
-836 -11875 0
-836 11876 0
-11876 11877 0
-837 -11876 0
-837 11877 0
-11877 11878 0
-838 -11877 0
-838 11878 0
-11878 11879 0
-839 -11878 0
-839 11879 0
-840 -11879 0
-826 1841 0
-827 1841 0
-828 1841 0
-829 1841 0
-830 1841 0
-831 1841 0
-832 1841 0
-833 1841 0
-834 1841 0
-835 1841 0
-836 1841 0
-837 1841 0
-838 1841 0
-839 1841 0
-840 1841 0
-1841 826 827 828 829 830 831 832 833 834 835 836 837 838 839 840 0
-841 46 0
-841 91 0
-46 -91 841 0
-842 47 0
-842 92 0
-47 -92 842 0
-843 48 0
-843 93 0
-48 -93 843 0
-844 49 0
-844 94 0
-49 -94 844 0
-845 50 0
-845 95 0
-50 -95 845 0
-846 51 0
-846 96 0
-51 -96 846 0
-847 52 0
-847 97 0
-52 -97 847 0
-848 53 0
-848 98 0
-53 -98 848 0
-849 54 0
-849 99 0
-54 -99 849 0
-850 55 0
-850 100 0
-55 -100 850 0
-851 56 0
-851 101 0
-56 -101 851 0
-852 57 0
-852 102 0
-57 -102 852 0
-853 58 0
-853 103 0
-58 -103 853 0
-854 59 0
-854 104 0
-59 -104 854 0
-855 60 0
-855 105 0
-60 -105 855 0
-841 11880 0
-11880 11881 0
-842 -11880 0
-842 11881 0
-11881 11882 0
-843 -11881 0
-843 11882 0
-11882 11883 0
-844 -11882 0
-844 11883 0
-11883 11884 0
-845 -11883 0
-845 11884 0
-11884 11885 0
-846 -11884 0
-846 11885 0
-11885 11886 0
-847 -11885 0
-847 11886 0
-11886 11887 0
-848 -11886 0
-848 11887 0
-11887 11888 0
-849 -11887 0
-849 11888 0
-11888 11889 0
-850 -11888 0
-850 11889 0
-11889 11890 0
-851 -11889 0
-851 11890 0
-11890 11891 0
-852 -11890 0
-852 11891 0
-11891 11892 0
-853 -11891 0
-853 11892 0
-11892 11893 0
-854 -11892 0
-854 11893 0
-855 -11893 0
-841 1842 0
-842 1842 0
-843 1842 0
-844 1842 0
-845 1842 0
-846 1842 0
-847 1842 0
-848 1842 0
-849 1842 0
-850 1842 0
-851 1842 0
-852 1842 0
-853 1842 0
-854 1842 0
-855 1842 0
-1842 841 842 843 844 845 846 847 848 849 850 851 852 853 854 855 0
-856 46 0
-856 106 0
-46 -106 856 0
-857 47 0
-857 107 0
-47 -107 857 0
-858 48 0
-858 108 0
-48 -108 858 0
-859 49 0
-859 109 0
-49 -109 859 0
-860 50 0
-860 110 0
-50 -110 860 0
-861 51 0
-861 111 0
-51 -111 861 0
-862 52 0
-862 112 0
-52 -112 862 0
-863 53 0
-863 113 0
-53 -113 863 0
-864 54 0
-864 114 0
-54 -114 864 0
-865 55 0
-865 115 0
-55 -115 865 0
-866 56 0
-866 116 0
-56 -116 866 0
-867 57 0
-867 117 0
-57 -117 867 0
-868 58 0
-868 118 0
-58 -118 868 0
-869 59 0
-869 119 0
-59 -119 869 0
-870 60 0
-870 120 0
-60 -120 870 0
-856 11894 0
-11894 11895 0
-857 -11894 0
-857 11895 0
-11895 11896 0
-858 -11895 0
-858 11896 0
-11896 11897 0
-859 -11896 0
-859 11897 0
-11897 11898 0
-860 -11897 0
-860 11898 0
-11898 11899 0
-861 -11898 0
-861 11899 0
-11899 11900 0
-862 -11899 0
-862 11900 0
-11900 11901 0
-863 -11900 0
-863 11901 0
-11901 11902 0
-864 -11901 0
-864 11902 0
-11902 11903 0
-865 -11902 0
-865 11903 0
-11903 11904 0
-866 -11903 0
-866 11904 0
-11904 11905 0
-867 -11904 0
-867 11905 0
-11905 11906 0
-868 -11905 0
-868 11906 0
-11906 11907 0
-869 -11906 0
-869 11907 0
-870 -11907 0
-856 1843 0
-857 1843 0
-858 1843 0
-859 1843 0
-860 1843 0
-861 1843 0
-862 1843 0
-863 1843 0
-864 1843 0
-865 1843 0
-866 1843 0
-867 1843 0
-868 1843 0
-869 1843 0
-870 1843 0
-1843 856 857 858 859 860 861 862 863 864 865 866 867 868 869 870 0
-871 46 0
-871 121 0
-46 -121 871 0
-872 47 0
-872 122 0
-47 -122 872 0
-873 48 0
-873 123 0
-48 -123 873 0
-874 49 0
-874 124 0
-49 -124 874 0
-875 50 0
-875 125 0
-50 -125 875 0
-876 51 0
-876 126 0
-51 -126 876 0
-877 52 0
-877 127 0
-52 -127 877 0
-878 53 0
-878 128 0
-53 -128 878 0
-879 54 0
-879 129 0
-54 -129 879 0
-880 55 0
-880 130 0
-55 -130 880 0
-881 56 0
-881 131 0
-56 -131 881 0
-882 57 0
-882 132 0
-57 -132 882 0
-883 58 0
-883 133 0
-58 -133 883 0
-884 59 0
-884 134 0
-59 -134 884 0
-885 60 0
-885 135 0
-60 -135 885 0
-871 11908 0
-11908 11909 0
-872 -11908 0
-872 11909 0
-11909 11910 0
-873 -11909 0
-873 11910 0
-11910 11911 0
-874 -11910 0
-874 11911 0
-11911 11912 0
-875 -11911 0
-875 11912 0
-11912 11913 0
-876 -11912 0
-876 11913 0
-11913 11914 0
-877 -11913 0
-877 11914 0
-11914 11915 0
-878 -11914 0
-878 11915 0
-11915 11916 0
-879 -11915 0
-879 11916 0
-11916 11917 0
-880 -11916 0
-880 11917 0
-11917 11918 0
-881 -11917 0
-881 11918 0
-11918 11919 0
-882 -11918 0
-882 11919 0
-11919 11920 0
-883 -11919 0
-883 11920 0
-11920 11921 0
-884 -11920 0
-884 11921 0
-885 -11921 0
-871 1844 0
-872 1844 0
-873 1844 0
-874 1844 0
-875 1844 0
-876 1844 0
-877 1844 0
-878 1844 0
-879 1844 0
-880 1844 0
-881 1844 0
-882 1844 0
-883 1844 0
-884 1844 0
-885 1844 0
-1844 871 872 873 874 875 876 877 878 879 880 881 882 883 884 885 0
-886 46 0
-886 136 0
-46 -136 886 0
-887 47 0
-887 137 0
-47 -137 887 0
-888 48 0
-888 138 0
-48 -138 888 0
-889 49 0
-889 139 0
-49 -139 889 0
-890 50 0
-890 140 0
-50 -140 890 0
-891 51 0
-891 141 0
-51 -141 891 0
-892 52 0
-892 142 0
-52 -142 892 0
-893 53 0
-893 143 0
-53 -143 893 0
-894 54 0
-894 144 0
-54 -144 894 0
-895 55 0
-895 145 0
-55 -145 895 0
-896 56 0
-896 146 0
-56 -146 896 0
-897 57 0
-897 147 0
-57 -147 897 0
-898 58 0
-898 148 0
-58 -148 898 0
-899 59 0
-899 149 0
-59 -149 899 0
-900 60 0
-900 150 0
-60 -150 900 0
-886 11922 0
-11922 11923 0
-887 -11922 0
-887 11923 0
-11923 11924 0
-888 -11923 0
-888 11924 0
-11924 11925 0
-889 -11924 0
-889 11925 0
-11925 11926 0
-890 -11925 0
-890 11926 0
-11926 11927 0
-891 -11926 0
-891 11927 0
-11927 11928 0
-892 -11927 0
-892 11928 0
-11928 11929 0
-893 -11928 0
-893 11929 0
-11929 11930 0
-894 -11929 0
-894 11930 0
-11930 11931 0
-895 -11930 0
-895 11931 0
-11931 11932 0
-896 -11931 0
-896 11932 0
-11932 11933 0
-897 -11932 0
-897 11933 0
-11933 11934 0
-898 -11933 0
-898 11934 0
-11934 11935 0
-899 -11934 0
-899 11935 0
-900 -11935 0
-886 1845 0
-887 1845 0
-888 1845 0
-889 1845 0
-890 1845 0
-891 1845 0
-892 1845 0
-893 1845 0
-894 1845 0
-895 1845 0
-896 1845 0
-897 1845 0
-898 1845 0
-899 1845 0
-900 1845 0
-1845 886 887 888 889 890 891 892 893 894 895 896 897 898 899 900 0
-901 46 0
-901 151 0
-46 -151 901 0
-902 47 0
-902 152 0
-47 -152 902 0
-903 48 0
-903 153 0
-48 -153 903 0
-904 49 0
-904 154 0
-49 -154 904 0
-905 50 0
-905 155 0
-50 -155 905 0
-906 51 0
-906 156 0
-51 -156 906 0
-907 52 0
-907 157 0
-52 -157 907 0
-908 53 0
-908 158 0
-53 -158 908 0
-909 54 0
-909 159 0
-54 -159 909 0
-910 55 0
-910 160 0
-55 -160 910 0
-911 56 0
-911 161 0
-56 -161 911 0
-912 57 0
-912 162 0
-57 -162 912 0
-913 58 0
-913 163 0
-58 -163 913 0
-914 59 0
-914 164 0
-59 -164 914 0
-915 60 0
-915 165 0
-60 -165 915 0
-901 11936 0
-11936 11937 0
-902 -11936 0
-902 11937 0
-11937 11938 0
-903 -11937 0
-903 11938 0
-11938 11939 0
-904 -11938 0
-904 11939 0
-11939 11940 0
-905 -11939 0
-905 11940 0
-11940 11941 0
-906 -11940 0
-906 11941 0
-11941 11942 0
-907 -11941 0
-907 11942 0
-11942 11943 0
-908 -11942 0
-908 11943 0
-11943 11944 0
-909 -11943 0
-909 11944 0
-11944 11945 0
-910 -11944 0
-910 11945 0
-11945 11946 0
-911 -11945 0
-911 11946 0
-11946 11947 0
-912 -11946 0
-912 11947 0
-11947 11948 0
-913 -11947 0
-913 11948 0
-11948 11949 0
-914 -11948 0
-914 11949 0
-915 -11949 0
-901 1846 0
-902 1846 0
-903 1846 0
-904 1846 0
-905 1846 0
-906 1846 0
-907 1846 0
-908 1846 0
-909 1846 0
-910 1846 0
-911 1846 0
-912 1846 0
-913 1846 0
-914 1846 0
-915 1846 0
-1846 901 902 903 904 905 906 907 908 909 910 911 912 913 914 915 0
-916 46 0
-916 166 0
-46 -166 916 0
-917 47 0
-917 167 0
-47 -167 917 0
-918 48 0
-918 168 0
-48 -168 918 0
-919 49 0
-919 169 0
-49 -169 919 0
-920 50 0
-920 170 0
-50 -170 920 0
-921 51 0
-921 171 0
-51 -171 921 0
-922 52 0
-922 172 0
-52 -172 922 0
-923 53 0
-923 173 0
-53 -173 923 0
-924 54 0
-924 174 0
-54 -174 924 0
-925 55 0
-925 175 0
-55 -175 925 0
-926 56 0
-926 176 0
-56 -176 926 0
-927 57 0
-927 177 0
-57 -177 927 0
-928 58 0
-928 178 0
-58 -178 928 0
-929 59 0
-929 179 0
-59 -179 929 0
-930 60 0
-930 180 0
-60 -180 930 0
-916 11950 0
-11950 11951 0
-917 -11950 0
-917 11951 0
-11951 11952 0
-918 -11951 0
-918 11952 0
-11952 11953 0
-919 -11952 0
-919 11953 0
-11953 11954 0
-920 -11953 0
-920 11954 0
-11954 11955 0
-921 -11954 0
-921 11955 0
-11955 11956 0
-922 -11955 0
-922 11956 0
-11956 11957 0
-923 -11956 0
-923 11957 0
-11957 11958 0
-924 -11957 0
-924 11958 0
-11958 11959 0
-925 -11958 0
-925 11959 0
-11959 11960 0
-926 -11959 0
-926 11960 0
-11960 11961 0
-927 -11960 0
-927 11961 0
-11961 11962 0
-928 -11961 0
-928 11962 0
-11962 11963 0
-929 -11962 0
-929 11963 0
-930 -11963 0
-916 1847 0
-917 1847 0
-918 1847 0
-919 1847 0
-920 1847 0
-921 1847 0
-922 1847 0
-923 1847 0
-924 1847 0
-925 1847 0
-926 1847 0
-927 1847 0
-928 1847 0
-929 1847 0
-930 1847 0
-1847 916 917 918 919 920 921 922 923 924 925 926 927 928 929 930 0
-931 46 0
-931 181 0
-46 -181 931 0
-932 47 0
-932 182 0
-47 -182 932 0
-933 48 0
-933 183 0
-48 -183 933 0
-934 49 0
-934 184 0
-49 -184 934 0
-935 50 0
-935 185 0
-50 -185 935 0
-936 51 0
-936 186 0
-51 -186 936 0
-937 52 0
-937 187 0
-52 -187 937 0
-938 53 0
-938 188 0
-53 -188 938 0
-939 54 0
-939 189 0
-54 -189 939 0
-940 55 0
-940 190 0
-55 -190 940 0
-941 56 0
-941 191 0
-56 -191 941 0
-942 57 0
-942 192 0
-57 -192 942 0
-943 58 0
-943 193 0
-58 -193 943 0
-944 59 0
-944 194 0
-59 -194 944 0
-945 60 0
-945 195 0
-60 -195 945 0
-931 11964 0
-11964 11965 0
-932 -11964 0
-932 11965 0
-11965 11966 0
-933 -11965 0
-933 11966 0
-11966 11967 0
-934 -11966 0
-934 11967 0
-11967 11968 0
-935 -11967 0
-935 11968 0
-11968 11969 0
-936 -11968 0
-936 11969 0
-11969 11970 0
-937 -11969 0
-937 11970 0
-11970 11971 0
-938 -11970 0
-938 11971 0
-11971 11972 0
-939 -11971 0
-939 11972 0
-11972 11973 0
-940 -11972 0
-940 11973 0
-11973 11974 0
-941 -11973 0
-941 11974 0
-11974 11975 0
-942 -11974 0
-942 11975 0
-11975 11976 0
-943 -11975 0
-943 11976 0
-11976 11977 0
-944 -11976 0
-944 11977 0
-945 -11977 0
-931 1848 0
-932 1848 0
-933 1848 0
-934 1848 0
-935 1848 0
-936 1848 0
-937 1848 0
-938 1848 0
-939 1848 0
-940 1848 0
-941 1848 0
-942 1848 0
-943 1848 0
-944 1848 0
-945 1848 0
-1848 931 932 933 934 935 936 937 938 939 940 941 942 943 944 945 0
-946 46 0
-946 196 0
-46 -196 946 0
-947 47 0
-947 197 0
-47 -197 947 0
-948 48 0
-948 198 0
-48 -198 948 0
-949 49 0
-949 199 0
-49 -199 949 0
-950 50 0
-950 200 0
-50 -200 950 0
-951 51 0
-951 201 0
-51 -201 951 0
-952 52 0
-952 202 0
-52 -202 952 0
-953 53 0
-953 203 0
-53 -203 953 0
-954 54 0
-954 204 0
-54 -204 954 0
-955 55 0
-955 205 0
-55 -205 955 0
-956 56 0
-956 206 0
-56 -206 956 0
-957 57 0
-957 207 0
-57 -207 957 0
-958 58 0
-958 208 0
-58 -208 958 0
-959 59 0
-959 209 0
-59 -209 959 0
-960 60 0
-960 210 0
-60 -210 960 0
-946 11978 0
-11978 11979 0
-947 -11978 0
-947 11979 0
-11979 11980 0
-948 -11979 0
-948 11980 0
-11980 11981 0
-949 -11980 0
-949 11981 0
-11981 11982 0
-950 -11981 0
-950 11982 0
-11982 11983 0
-951 -11982 0
-951 11983 0
-11983 11984 0
-952 -11983 0
-952 11984 0
-11984 11985 0
-953 -11984 0
-953 11985 0
-11985 11986 0
-954 -11985 0
-954 11986 0
-11986 11987 0
-955 -11986 0
-955 11987 0
-11987 11988 0
-956 -11987 0
-956 11988 0
-11988 11989 0
-957 -11988 0
-957 11989 0
-11989 11990 0
-958 -11989 0
-958 11990 0
-11990 11991 0
-959 -11990 0
-959 11991 0
-960 -11991 0
-946 1849 0
-947 1849 0
-948 1849 0
-949 1849 0
-950 1849 0
-951 1849 0
-952 1849 0
-953 1849 0
-954 1849 0
-955 1849 0
-956 1849 0
-957 1849 0
-958 1849 0
-959 1849 0
-960 1849 0
-1849 946 947 948 949 950 951 952 953 954 955 956 957 958 959 960 0
-961 46 0
-961 211 0
-46 -211 961 0
-962 47 0
-962 212 0
-47 -212 962 0
-963 48 0
-963 213 0
-48 -213 963 0
-964 49 0
-964 214 0
-49 -214 964 0
-965 50 0
-965 215 0
-50 -215 965 0
-966 51 0
-966 216 0
-51 -216 966 0
-967 52 0
-967 217 0
-52 -217 967 0
-968 53 0
-968 218 0
-53 -218 968 0
-969 54 0
-969 219 0
-54 -219 969 0
-970 55 0
-970 220 0
-55 -220 970 0
-971 56 0
-971 221 0
-56 -221 971 0
-972 57 0
-972 222 0
-57 -222 972 0
-973 58 0
-973 223 0
-58 -223 973 0
-974 59 0
-974 224 0
-59 -224 974 0
-975 60 0
-975 225 0
-60 -225 975 0
-961 11992 0
-11992 11993 0
-962 -11992 0
-962 11993 0
-11993 11994 0
-963 -11993 0
-963 11994 0
-11994 11995 0
-964 -11994 0
-964 11995 0
-11995 11996 0
-965 -11995 0
-965 11996 0
-11996 11997 0
-966 -11996 0
-966 11997 0
-11997 11998 0
-967 -11997 0
-967 11998 0
-11998 11999 0
-968 -11998 0
-968 11999 0
-11999 12000 0
-969 -11999 0
-969 12000 0
-12000 12001 0
-970 -12000 0
-970 12001 0
-12001 12002 0
-971 -12001 0
-971 12002 0
-12002 12003 0
-972 -12002 0
-972 12003 0
-12003 12004 0
-973 -12003 0
-973 12004 0
-12004 12005 0
-974 -12004 0
-974 12005 0
-975 -12005 0
-961 1850 0
-962 1850 0
-963 1850 0
-964 1850 0
-965 1850 0
-966 1850 0
-967 1850 0
-968 1850 0
-969 1850 0
-970 1850 0
-971 1850 0
-972 1850 0
-973 1850 0
-974 1850 0
-975 1850 0
-1850 961 962 963 964 965 966 967 968 969 970 971 972 973 974 975 0
-976 61 0
-976 76 0
-61 -76 976 0
-977 62 0
-977 77 0
-62 -77 977 0
-978 63 0
-978 78 0
-63 -78 978 0
-979 64 0
-979 79 0
-64 -79 979 0
-980 65 0
-980 80 0
-65 -80 980 0
-981 66 0
-981 81 0
-66 -81 981 0
-982 67 0
-982 82 0
-67 -82 982 0
-983 68 0
-983 83 0
-68 -83 983 0
-984 69 0
-984 84 0
-69 -84 984 0
-985 70 0
-985 85 0
-70 -85 985 0
-986 71 0
-986 86 0
-71 -86 986 0
-987 72 0
-987 87 0
-72 -87 987 0
-988 73 0
-988 88 0
-73 -88 988 0
-989 74 0
-989 89 0
-74 -89 989 0
-990 75 0
-990 90 0
-75 -90 990 0
-976 12006 0
-12006 12007 0
-977 -12006 0
-977 12007 0
-12007 12008 0
-978 -12007 0
-978 12008 0
-12008 12009 0
-979 -12008 0
-979 12009 0
-12009 12010 0
-980 -12009 0
-980 12010 0
-12010 12011 0
-981 -12010 0
-981 12011 0
-12011 12012 0
-982 -12011 0
-982 12012 0
-12012 12013 0
-983 -12012 0
-983 12013 0
-12013 12014 0
-984 -12013 0
-984 12014 0
-12014 12015 0
-985 -12014 0
-985 12015 0
-12015 12016 0
-986 -12015 0
-986 12016 0
-12016 12017 0
-987 -12016 0
-987 12017 0
-12017 12018 0
-988 -12017 0
-988 12018 0
-12018 12019 0
-989 -12018 0
-989 12019 0
-990 -12019 0
-976 1851 0
-977 1851 0
-978 1851 0
-979 1851 0
-980 1851 0
-981 1851 0
-982 1851 0
-983 1851 0
-984 1851 0
-985 1851 0
-986 1851 0
-987 1851 0
-988 1851 0
-989 1851 0
-990 1851 0
-1851 976 977 978 979 980 981 982 983 984 985 986 987 988 989 990 0
-991 61 0
-991 91 0
-61 -91 991 0
-992 62 0
-992 92 0
-62 -92 992 0
-993 63 0
-993 93 0
-63 -93 993 0
-994 64 0
-994 94 0
-64 -94 994 0
-995 65 0
-995 95 0
-65 -95 995 0
-996 66 0
-996 96 0
-66 -96 996 0
-997 67 0
-997 97 0
-67 -97 997 0
-998 68 0
-998 98 0
-68 -98 998 0
-999 69 0
-999 99 0
-69 -99 999 0
-1000 70 0
-1000 100 0
-70 -100 1000 0
-1001 71 0
-1001 101 0
-71 -101 1001 0
-1002 72 0
-1002 102 0
-72 -102 1002 0
-1003 73 0
-1003 103 0
-73 -103 1003 0
-1004 74 0
-1004 104 0
-74 -104 1004 0
-1005 75 0
-1005 105 0
-75 -105 1005 0
-991 12020 0
-12020 12021 0
-992 -12020 0
-992 12021 0
-12021 12022 0
-993 -12021 0
-993 12022 0
-12022 12023 0
-994 -12022 0
-994 12023 0
-12023 12024 0
-995 -12023 0
-995 12024 0
-12024 12025 0
-996 -12024 0
-996 12025 0
-12025 12026 0
-997 -12025 0
-997 12026 0
-12026 12027 0
-998 -12026 0
-998 12027 0
-12027 12028 0
-999 -12027 0
-999 12028 0
-12028 12029 0
-1000 -12028 0
-1000 12029 0
-12029 12030 0
-1001 -12029 0
-1001 12030 0
-12030 12031 0
-1002 -12030 0
-1002 12031 0
-12031 12032 0
-1003 -12031 0
-1003 12032 0
-12032 12033 0
-1004 -12032 0
-1004 12033 0
-1005 -12033 0
-991 1852 0
-992 1852 0
-993 1852 0
-994 1852 0
-995 1852 0
-996 1852 0
-997 1852 0
-998 1852 0
-999 1852 0
-1000 1852 0
-1001 1852 0
-1002 1852 0
-1003 1852 0
-1004 1852 0
-1005 1852 0
-1852 991 992 993 994 995 996 997 998 999 1000 1001 1002 1003 1004 1005 0
-1006 61 0
-1006 106 0
-61 -106 1006 0
-1007 62 0
-1007 107 0
-62 -107 1007 0
-1008 63 0
-1008 108 0
-63 -108 1008 0
-1009 64 0
-1009 109 0
-64 -109 1009 0
-1010 65 0
-1010 110 0
-65 -110 1010 0
-1011 66 0
-1011 111 0
-66 -111 1011 0
-1012 67 0
-1012 112 0
-67 -112 1012 0
-1013 68 0
-1013 113 0
-68 -113 1013 0
-1014 69 0
-1014 114 0
-69 -114 1014 0
-1015 70 0
-1015 115 0
-70 -115 1015 0
-1016 71 0
-1016 116 0
-71 -116 1016 0
-1017 72 0
-1017 117 0
-72 -117 1017 0
-1018 73 0
-1018 118 0
-73 -118 1018 0
-1019 74 0
-1019 119 0
-74 -119 1019 0
-1020 75 0
-1020 120 0
-75 -120 1020 0
-1006 12034 0
-12034 12035 0
-1007 -12034 0
-1007 12035 0
-12035 12036 0
-1008 -12035 0
-1008 12036 0
-12036 12037 0
-1009 -12036 0
-1009 12037 0
-12037 12038 0
-1010 -12037 0
-1010 12038 0
-12038 12039 0
-1011 -12038 0
-1011 12039 0
-12039 12040 0
-1012 -12039 0
-1012 12040 0
-12040 12041 0
-1013 -12040 0
-1013 12041 0
-12041 12042 0
-1014 -12041 0
-1014 12042 0
-12042 12043 0
-1015 -12042 0
-1015 12043 0
-12043 12044 0
-1016 -12043 0
-1016 12044 0
-12044 12045 0
-1017 -12044 0
-1017 12045 0
-12045 12046 0
-1018 -12045 0
-1018 12046 0
-12046 12047 0
-1019 -12046 0
-1019 12047 0
-1020 -12047 0
-1006 1853 0
-1007 1853 0
-1008 1853 0
-1009 1853 0
-1010 1853 0
-1011 1853 0
-1012 1853 0
-1013 1853 0
-1014 1853 0
-1015 1853 0
-1016 1853 0
-1017 1853 0
-1018 1853 0
-1019 1853 0
-1020 1853 0
-1853 1006 1007 1008 1009 1010 1011 1012 1013 1014 1015 1016 1017 1018 1019 1020 0
-1021 61 0
-1021 121 0
-61 -121 1021 0
-1022 62 0
-1022 122 0
-62 -122 1022 0
-1023 63 0
-1023 123 0
-63 -123 1023 0
-1024 64 0
-1024 124 0
-64 -124 1024 0
-1025 65 0
-1025 125 0
-65 -125 1025 0
-1026 66 0
-1026 126 0
-66 -126 1026 0
-1027 67 0
-1027 127 0
-67 -127 1027 0
-1028 68 0
-1028 128 0
-68 -128 1028 0
-1029 69 0
-1029 129 0
-69 -129 1029 0
-1030 70 0
-1030 130 0
-70 -130 1030 0
-1031 71 0
-1031 131 0
-71 -131 1031 0
-1032 72 0
-1032 132 0
-72 -132 1032 0
-1033 73 0
-1033 133 0
-73 -133 1033 0
-1034 74 0
-1034 134 0
-74 -134 1034 0
-1035 75 0
-1035 135 0
-75 -135 1035 0
-1021 12048 0
-12048 12049 0
-1022 -12048 0
-1022 12049 0
-12049 12050 0
-1023 -12049 0
-1023 12050 0
-12050 12051 0
-1024 -12050 0
-1024 12051 0
-12051 12052 0
-1025 -12051 0
-1025 12052 0
-12052 12053 0
-1026 -12052 0
-1026 12053 0
-12053 12054 0
-1027 -12053 0
-1027 12054 0
-12054 12055 0
-1028 -12054 0
-1028 12055 0
-12055 12056 0
-1029 -12055 0
-1029 12056 0
-12056 12057 0
-1030 -12056 0
-1030 12057 0
-12057 12058 0
-1031 -12057 0
-1031 12058 0
-12058 12059 0
-1032 -12058 0
-1032 12059 0
-12059 12060 0
-1033 -12059 0
-1033 12060 0
-12060 12061 0
-1034 -12060 0
-1034 12061 0
-1035 -12061 0
-1021 1854 0
-1022 1854 0
-1023 1854 0
-1024 1854 0
-1025 1854 0
-1026 1854 0
-1027 1854 0
-1028 1854 0
-1029 1854 0
-1030 1854 0
-1031 1854 0
-1032 1854 0
-1033 1854 0
-1034 1854 0
-1035 1854 0
-1854 1021 1022 1023 1024 1025 1026 1027 1028 1029 1030 1031 1032 1033 1034 1035 0
-1036 61 0
-1036 136 0
-61 -136 1036 0
-1037 62 0
-1037 137 0
-62 -137 1037 0
-1038 63 0
-1038 138 0
-63 -138 1038 0
-1039 64 0
-1039 139 0
-64 -139 1039 0
-1040 65 0
-1040 140 0
-65 -140 1040 0
-1041 66 0
-1041 141 0
-66 -141 1041 0
-1042 67 0
-1042 142 0
-67 -142 1042 0
-1043 68 0
-1043 143 0
-68 -143 1043 0
-1044 69 0
-1044 144 0
-69 -144 1044 0
-1045 70 0
-1045 145 0
-70 -145 1045 0
-1046 71 0
-1046 146 0
-71 -146 1046 0
-1047 72 0
-1047 147 0
-72 -147 1047 0
-1048 73 0
-1048 148 0
-73 -148 1048 0
-1049 74 0
-1049 149 0
-74 -149 1049 0
-1050 75 0
-1050 150 0
-75 -150 1050 0
-1036 12062 0
-12062 12063 0
-1037 -12062 0
-1037 12063 0
-12063 12064 0
-1038 -12063 0
-1038 12064 0
-12064 12065 0
-1039 -12064 0
-1039 12065 0
-12065 12066 0
-1040 -12065 0
-1040 12066 0
-12066 12067 0
-1041 -12066 0
-1041 12067 0
-12067 12068 0
-1042 -12067 0
-1042 12068 0
-12068 12069 0
-1043 -12068 0
-1043 12069 0
-12069 12070 0
-1044 -12069 0
-1044 12070 0
-12070 12071 0
-1045 -12070 0
-1045 12071 0
-12071 12072 0
-1046 -12071 0
-1046 12072 0
-12072 12073 0
-1047 -12072 0
-1047 12073 0
-12073 12074 0
-1048 -12073 0
-1048 12074 0
-12074 12075 0
-1049 -12074 0
-1049 12075 0
-1050 -12075 0
-1036 1855 0
-1037 1855 0
-1038 1855 0
-1039 1855 0
-1040 1855 0
-1041 1855 0
-1042 1855 0
-1043 1855 0
-1044 1855 0
-1045 1855 0
-1046 1855 0
-1047 1855 0
-1048 1855 0
-1049 1855 0
-1050 1855 0
-1855 1036 1037 1038 1039 1040 1041 1042 1043 1044 1045 1046 1047 1048 1049 1050 0
-1051 61 0
-1051 151 0
-61 -151 1051 0
-1052 62 0
-1052 152 0
-62 -152 1052 0
-1053 63 0
-1053 153 0
-63 -153 1053 0
-1054 64 0
-1054 154 0
-64 -154 1054 0
-1055 65 0
-1055 155 0
-65 -155 1055 0
-1056 66 0
-1056 156 0
-66 -156 1056 0
-1057 67 0
-1057 157 0
-67 -157 1057 0
-1058 68 0
-1058 158 0
-68 -158 1058 0
-1059 69 0
-1059 159 0
-69 -159 1059 0
-1060 70 0
-1060 160 0
-70 -160 1060 0
-1061 71 0
-1061 161 0
-71 -161 1061 0
-1062 72 0
-1062 162 0
-72 -162 1062 0
-1063 73 0
-1063 163 0
-73 -163 1063 0
-1064 74 0
-1064 164 0
-74 -164 1064 0
-1065 75 0
-1065 165 0
-75 -165 1065 0
-1051 12076 0
-12076 12077 0
-1052 -12076 0
-1052 12077 0
-12077 12078 0
-1053 -12077 0
-1053 12078 0
-12078 12079 0
-1054 -12078 0
-1054 12079 0
-12079 12080 0
-1055 -12079 0
-1055 12080 0
-12080 12081 0
-1056 -12080 0
-1056 12081 0
-12081 12082 0
-1057 -12081 0
-1057 12082 0
-12082 12083 0
-1058 -12082 0
-1058 12083 0
-12083 12084 0
-1059 -12083 0
-1059 12084 0
-12084 12085 0
-1060 -12084 0
-1060 12085 0
-12085 12086 0
-1061 -12085 0
-1061 12086 0
-12086 12087 0
-1062 -12086 0
-1062 12087 0
-12087 12088 0
-1063 -12087 0
-1063 12088 0
-12088 12089 0
-1064 -12088 0
-1064 12089 0
-1065 -12089 0
-1051 1856 0
-1052 1856 0
-1053 1856 0
-1054 1856 0
-1055 1856 0
-1056 1856 0
-1057 1856 0
-1058 1856 0
-1059 1856 0
-1060 1856 0
-1061 1856 0
-1062 1856 0
-1063 1856 0
-1064 1856 0
-1065 1856 0
-1856 1051 1052 1053 1054 1055 1056 1057 1058 1059 1060 1061 1062 1063 1064 1065 0
-1066 61 0
-1066 166 0
-61 -166 1066 0
-1067 62 0
-1067 167 0
-62 -167 1067 0
-1068 63 0
-1068 168 0
-63 -168 1068 0
-1069 64 0
-1069 169 0
-64 -169 1069 0
-1070 65 0
-1070 170 0
-65 -170 1070 0
-1071 66 0
-1071 171 0
-66 -171 1071 0
-1072 67 0
-1072 172 0
-67 -172 1072 0
-1073 68 0
-1073 173 0
-68 -173 1073 0
-1074 69 0
-1074 174 0
-69 -174 1074 0
-1075 70 0
-1075 175 0
-70 -175 1075 0
-1076 71 0
-1076 176 0
-71 -176 1076 0
-1077 72 0
-1077 177 0
-72 -177 1077 0
-1078 73 0
-1078 178 0
-73 -178 1078 0
-1079 74 0
-1079 179 0
-74 -179 1079 0
-1080 75 0
-1080 180 0
-75 -180 1080 0
-1066 12090 0
-12090 12091 0
-1067 -12090 0
-1067 12091 0
-12091 12092 0
-1068 -12091 0
-1068 12092 0
-12092 12093 0
-1069 -12092 0
-1069 12093 0
-12093 12094 0
-1070 -12093 0
-1070 12094 0
-12094 12095 0
-1071 -12094 0
-1071 12095 0
-12095 12096 0
-1072 -12095 0
-1072 12096 0
-12096 12097 0
-1073 -12096 0
-1073 12097 0
-12097 12098 0
-1074 -12097 0
-1074 12098 0
-12098 12099 0
-1075 -12098 0
-1075 12099 0
-12099 12100 0
-1076 -12099 0
-1076 12100 0
-12100 12101 0
-1077 -12100 0
-1077 12101 0
-12101 12102 0
-1078 -12101 0
-1078 12102 0
-12102 12103 0
-1079 -12102 0
-1079 12103 0
-1080 -12103 0
-1066 1857 0
-1067 1857 0
-1068 1857 0
-1069 1857 0
-1070 1857 0
-1071 1857 0
-1072 1857 0
-1073 1857 0
-1074 1857 0
-1075 1857 0
-1076 1857 0
-1077 1857 0
-1078 1857 0
-1079 1857 0
-1080 1857 0
-1857 1066 1067 1068 1069 1070 1071 1072 1073 1074 1075 1076 1077 1078 1079 1080 0
-1081 61 0
-1081 181 0
-61 -181 1081 0
-1082 62 0
-1082 182 0
-62 -182 1082 0
-1083 63 0
-1083 183 0
-63 -183 1083 0
-1084 64 0
-1084 184 0
-64 -184 1084 0
-1085 65 0
-1085 185 0
-65 -185 1085 0
-1086 66 0
-1086 186 0
-66 -186 1086 0
-1087 67 0
-1087 187 0
-67 -187 1087 0
-1088 68 0
-1088 188 0
-68 -188 1088 0
-1089 69 0
-1089 189 0
-69 -189 1089 0
-1090 70 0
-1090 190 0
-70 -190 1090 0
-1091 71 0
-1091 191 0
-71 -191 1091 0
-1092 72 0
-1092 192 0
-72 -192 1092 0
-1093 73 0
-1093 193 0
-73 -193 1093 0
-1094 74 0
-1094 194 0
-74 -194 1094 0
-1095 75 0
-1095 195 0
-75 -195 1095 0
-1081 12104 0
-12104 12105 0
-1082 -12104 0
-1082 12105 0
-12105 12106 0
-1083 -12105 0
-1083 12106 0
-12106 12107 0
-1084 -12106 0
-1084 12107 0
-12107 12108 0
-1085 -12107 0
-1085 12108 0
-12108 12109 0
-1086 -12108 0
-1086 12109 0
-12109 12110 0
-1087 -12109 0
-1087 12110 0
-12110 12111 0
-1088 -12110 0
-1088 12111 0
-12111 12112 0
-1089 -12111 0
-1089 12112 0
-12112 12113 0
-1090 -12112 0
-1090 12113 0
-12113 12114 0
-1091 -12113 0
-1091 12114 0
-12114 12115 0
-1092 -12114 0
-1092 12115 0
-12115 12116 0
-1093 -12115 0
-1093 12116 0
-12116 12117 0
-1094 -12116 0
-1094 12117 0
-1095 -12117 0
-1081 1858 0
-1082 1858 0
-1083 1858 0
-1084 1858 0
-1085 1858 0
-1086 1858 0
-1087 1858 0
-1088 1858 0
-1089 1858 0
-1090 1858 0
-1091 1858 0
-1092 1858 0
-1093 1858 0
-1094 1858 0
-1095 1858 0
-1858 1081 1082 1083 1084 1085 1086 1087 1088 1089 1090 1091 1092 1093 1094 1095 0
-1096 61 0
-1096 196 0
-61 -196 1096 0
-1097 62 0
-1097 197 0
-62 -197 1097 0
-1098 63 0
-1098 198 0
-63 -198 1098 0
-1099 64 0
-1099 199 0
-64 -199 1099 0
-1100 65 0
-1100 200 0
-65 -200 1100 0
-1101 66 0
-1101 201 0
-66 -201 1101 0
-1102 67 0
-1102 202 0
-67 -202 1102 0
-1103 68 0
-1103 203 0
-68 -203 1103 0
-1104 69 0
-1104 204 0
-69 -204 1104 0
-1105 70 0
-1105 205 0
-70 -205 1105 0
-1106 71 0
-1106 206 0
-71 -206 1106 0
-1107 72 0
-1107 207 0
-72 -207 1107 0
-1108 73 0
-1108 208 0
-73 -208 1108 0
-1109 74 0
-1109 209 0
-74 -209 1109 0
-1110 75 0
-1110 210 0
-75 -210 1110 0
-1096 12118 0
-12118 12119 0
-1097 -12118 0
-1097 12119 0
-12119 12120 0
-1098 -12119 0
-1098 12120 0
-12120 12121 0
-1099 -12120 0
-1099 12121 0
-12121 12122 0
-1100 -12121 0
-1100 12122 0
-12122 12123 0
-1101 -12122 0
-1101 12123 0
-12123 12124 0
-1102 -12123 0
-1102 12124 0
-12124 12125 0
-1103 -12124 0
-1103 12125 0
-12125 12126 0
-1104 -12125 0
-1104 12126 0
-12126 12127 0
-1105 -12126 0
-1105 12127 0
-12127 12128 0
-1106 -12127 0
-1106 12128 0
-12128 12129 0
-1107 -12128 0
-1107 12129 0
-12129 12130 0
-1108 -12129 0
-1108 12130 0
-12130 12131 0
-1109 -12130 0
-1109 12131 0
-1110 -12131 0
-1096 1859 0
-1097 1859 0
-1098 1859 0
-1099 1859 0
-1100 1859 0
-1101 1859 0
-1102 1859 0
-1103 1859 0
-1104 1859 0
-1105 1859 0
-1106 1859 0
-1107 1859 0
-1108 1859 0
-1109 1859 0
-1110 1859 0
-1859 1096 1097 1098 1099 1100 1101 1102 1103 1104 1105 1106 1107 1108 1109 1110 0
-1111 61 0
-1111 211 0
-61 -211 1111 0
-1112 62 0
-1112 212 0
-62 -212 1112 0
-1113 63 0
-1113 213 0
-63 -213 1113 0
-1114 64 0
-1114 214 0
-64 -214 1114 0
-1115 65 0
-1115 215 0
-65 -215 1115 0
-1116 66 0
-1116 216 0
-66 -216 1116 0
-1117 67 0
-1117 217 0
-67 -217 1117 0
-1118 68 0
-1118 218 0
-68 -218 1118 0
-1119 69 0
-1119 219 0
-69 -219 1119 0
-1120 70 0
-1120 220 0
-70 -220 1120 0
-1121 71 0
-1121 221 0
-71 -221 1121 0
-1122 72 0
-1122 222 0
-72 -222 1122 0
-1123 73 0
-1123 223 0
-73 -223 1123 0
-1124 74 0
-1124 224 0
-74 -224 1124 0
-1125 75 0
-1125 225 0
-75 -225 1125 0
-1111 12132 0
-12132 12133 0
-1112 -12132 0
-1112 12133 0
-12133 12134 0
-1113 -12133 0
-1113 12134 0
-12134 12135 0
-1114 -12134 0
-1114 12135 0
-12135 12136 0
-1115 -12135 0
-1115 12136 0
-12136 12137 0
-1116 -12136 0
-1116 12137 0
-12137 12138 0
-1117 -12137 0
-1117 12138 0
-12138 12139 0
-1118 -12138 0
-1118 12139 0
-12139 12140 0
-1119 -12139 0
-1119 12140 0
-12140 12141 0
-1120 -12140 0
-1120 12141 0
-12141 12142 0
-1121 -12141 0
-1121 12142 0
-12142 12143 0
-1122 -12142 0
-1122 12143 0
-12143 12144 0
-1123 -12143 0
-1123 12144 0
-12144 12145 0
-1124 -12144 0
-1124 12145 0
-1125 -12145 0
-1111 1860 0
-1112 1860 0
-1113 1860 0
-1114 1860 0
-1115 1860 0
-1116 1860 0
-1117 1860 0
-1118 1860 0
-1119 1860 0
-1120 1860 0
-1121 1860 0
-1122 1860 0
-1123 1860 0
-1124 1860 0
-1125 1860 0
-1860 1111 1112 1113 1114 1115 1116 1117 1118 1119 1120 1121 1122 1123 1124 1125 0
-1126 76 0
-1126 91 0
-76 -91 1126 0
-1127 77 0
-1127 92 0
-77 -92 1127 0
-1128 78 0
-1128 93 0
-78 -93 1128 0
-1129 79 0
-1129 94 0
-79 -94 1129 0
-1130 80 0
-1130 95 0
-80 -95 1130 0
-1131 81 0
-1131 96 0
-81 -96 1131 0
-1132 82 0
-1132 97 0
-82 -97 1132 0
-1133 83 0
-1133 98 0
-83 -98 1133 0
-1134 84 0
-1134 99 0
-84 -99 1134 0
-1135 85 0
-1135 100 0
-85 -100 1135 0
-1136 86 0
-1136 101 0
-86 -101 1136 0
-1137 87 0
-1137 102 0
-87 -102 1137 0
-1138 88 0
-1138 103 0
-88 -103 1138 0
-1139 89 0
-1139 104 0
-89 -104 1139 0
-1140 90 0
-1140 105 0
-90 -105 1140 0
-1126 12146 0
-12146 12147 0
-1127 -12146 0
-1127 12147 0
-12147 12148 0
-1128 -12147 0
-1128 12148 0
-12148 12149 0
-1129 -12148 0
-1129 12149 0
-12149 12150 0
-1130 -12149 0
-1130 12150 0
-12150 12151 0
-1131 -12150 0
-1131 12151 0
-12151 12152 0
-1132 -12151 0
-1132 12152 0
-12152 12153 0
-1133 -12152 0
-1133 12153 0
-12153 12154 0
-1134 -12153 0
-1134 12154 0
-12154 12155 0
-1135 -12154 0
-1135 12155 0
-12155 12156 0
-1136 -12155 0
-1136 12156 0
-12156 12157 0
-1137 -12156 0
-1137 12157 0
-12157 12158 0
-1138 -12157 0
-1138 12158 0
-12158 12159 0
-1139 -12158 0
-1139 12159 0
-1140 -12159 0
-1126 1861 0
-1127 1861 0
-1128 1861 0
-1129 1861 0
-1130 1861 0
-1131 1861 0
-1132 1861 0
-1133 1861 0
-1134 1861 0
-1135 1861 0
-1136 1861 0
-1137 1861 0
-1138 1861 0
-1139 1861 0
-1140 1861 0
-1861 1126 1127 1128 1129 1130 1131 1132 1133 1134 1135 1136 1137 1138 1139 1140 0
-1141 76 0
-1141 106 0
-76 -106 1141 0
-1142 77 0
-1142 107 0
-77 -107 1142 0
-1143 78 0
-1143 108 0
-78 -108 1143 0
-1144 79 0
-1144 109 0
-79 -109 1144 0
-1145 80 0
-1145 110 0
-80 -110 1145 0
-1146 81 0
-1146 111 0
-81 -111 1146 0
-1147 82 0
-1147 112 0
-82 -112 1147 0
-1148 83 0
-1148 113 0
-83 -113 1148 0
-1149 84 0
-1149 114 0
-84 -114 1149 0
-1150 85 0
-1150 115 0
-85 -115 1150 0
-1151 86 0
-1151 116 0
-86 -116 1151 0
-1152 87 0
-1152 117 0
-87 -117 1152 0
-1153 88 0
-1153 118 0
-88 -118 1153 0
-1154 89 0
-1154 119 0
-89 -119 1154 0
-1155 90 0
-1155 120 0
-90 -120 1155 0
-1141 12160 0
-12160 12161 0
-1142 -12160 0
-1142 12161 0
-12161 12162 0
-1143 -12161 0
-1143 12162 0
-12162 12163 0
-1144 -12162 0
-1144 12163 0
-12163 12164 0
-1145 -12163 0
-1145 12164 0
-12164 12165 0
-1146 -12164 0
-1146 12165 0
-12165 12166 0
-1147 -12165 0
-1147 12166 0
-12166 12167 0
-1148 -12166 0
-1148 12167 0
-12167 12168 0
-1149 -12167 0
-1149 12168 0
-12168 12169 0
-1150 -12168 0
-1150 12169 0
-12169 12170 0
-1151 -12169 0
-1151 12170 0
-12170 12171 0
-1152 -12170 0
-1152 12171 0
-12171 12172 0
-1153 -12171 0
-1153 12172 0
-12172 12173 0
-1154 -12172 0
-1154 12173 0
-1155 -12173 0
-1141 1862 0
-1142 1862 0
-1143 1862 0
-1144 1862 0
-1145 1862 0
-1146 1862 0
-1147 1862 0
-1148 1862 0
-1149 1862 0
-1150 1862 0
-1151 1862 0
-1152 1862 0
-1153 1862 0
-1154 1862 0
-1155 1862 0
-1862 1141 1142 1143 1144 1145 1146 1147 1148 1149 1150 1151 1152 1153 1154 1155 0
-1156 76 0
-1156 121 0
-76 -121 1156 0
-1157 77 0
-1157 122 0
-77 -122 1157 0
-1158 78 0
-1158 123 0
-78 -123 1158 0
-1159 79 0
-1159 124 0
-79 -124 1159 0
-1160 80 0
-1160 125 0
-80 -125 1160 0
-1161 81 0
-1161 126 0
-81 -126 1161 0
-1162 82 0
-1162 127 0
-82 -127 1162 0
-1163 83 0
-1163 128 0
-83 -128 1163 0
-1164 84 0
-1164 129 0
-84 -129 1164 0
-1165 85 0
-1165 130 0
-85 -130 1165 0
-1166 86 0
-1166 131 0
-86 -131 1166 0
-1167 87 0
-1167 132 0
-87 -132 1167 0
-1168 88 0
-1168 133 0
-88 -133 1168 0
-1169 89 0
-1169 134 0
-89 -134 1169 0
-1170 90 0
-1170 135 0
-90 -135 1170 0
-1156 12174 0
-12174 12175 0
-1157 -12174 0
-1157 12175 0
-12175 12176 0
-1158 -12175 0
-1158 12176 0
-12176 12177 0
-1159 -12176 0
-1159 12177 0
-12177 12178 0
-1160 -12177 0
-1160 12178 0
-12178 12179 0
-1161 -12178 0
-1161 12179 0
-12179 12180 0
-1162 -12179 0
-1162 12180 0
-12180 12181 0
-1163 -12180 0
-1163 12181 0
-12181 12182 0
-1164 -12181 0
-1164 12182 0
-12182 12183 0
-1165 -12182 0
-1165 12183 0
-12183 12184 0
-1166 -12183 0
-1166 12184 0
-12184 12185 0
-1167 -12184 0
-1167 12185 0
-12185 12186 0
-1168 -12185 0
-1168 12186 0
-12186 12187 0
-1169 -12186 0
-1169 12187 0
-1170 -12187 0
-1156 1863 0
-1157 1863 0
-1158 1863 0
-1159 1863 0
-1160 1863 0
-1161 1863 0
-1162 1863 0
-1163 1863 0
-1164 1863 0
-1165 1863 0
-1166 1863 0
-1167 1863 0
-1168 1863 0
-1169 1863 0
-1170 1863 0
-1863 1156 1157 1158 1159 1160 1161 1162 1163 1164 1165 1166 1167 1168 1169 1170 0
-1171 76 0
-1171 136 0
-76 -136 1171 0
-1172 77 0
-1172 137 0
-77 -137 1172 0
-1173 78 0
-1173 138 0
-78 -138 1173 0
-1174 79 0
-1174 139 0
-79 -139 1174 0
-1175 80 0
-1175 140 0
-80 -140 1175 0
-1176 81 0
-1176 141 0
-81 -141 1176 0
-1177 82 0
-1177 142 0
-82 -142 1177 0
-1178 83 0
-1178 143 0
-83 -143 1178 0
-1179 84 0
-1179 144 0
-84 -144 1179 0
-1180 85 0
-1180 145 0
-85 -145 1180 0
-1181 86 0
-1181 146 0
-86 -146 1181 0
-1182 87 0
-1182 147 0
-87 -147 1182 0
-1183 88 0
-1183 148 0
-88 -148 1183 0
-1184 89 0
-1184 149 0
-89 -149 1184 0
-1185 90 0
-1185 150 0
-90 -150 1185 0
-1171 12188 0
-12188 12189 0
-1172 -12188 0
-1172 12189 0
-12189 12190 0
-1173 -12189 0
-1173 12190 0
-12190 12191 0
-1174 -12190 0
-1174 12191 0
-12191 12192 0
-1175 -12191 0
-1175 12192 0
-12192 12193 0
-1176 -12192 0
-1176 12193 0
-12193 12194 0
-1177 -12193 0
-1177 12194 0
-12194 12195 0
-1178 -12194 0
-1178 12195 0
-12195 12196 0
-1179 -12195 0
-1179 12196 0
-12196 12197 0
-1180 -12196 0
-1180 12197 0
-12197 12198 0
-1181 -12197 0
-1181 12198 0
-12198 12199 0
-1182 -12198 0
-1182 12199 0
-12199 12200 0
-1183 -12199 0
-1183 12200 0
-12200 12201 0
-1184 -12200 0
-1184 12201 0
-1185 -12201 0
-1171 1864 0
-1172 1864 0
-1173 1864 0
-1174 1864 0
-1175 1864 0
-1176 1864 0
-1177 1864 0
-1178 1864 0
-1179 1864 0
-1180 1864 0
-1181 1864 0
-1182 1864 0
-1183 1864 0
-1184 1864 0
-1185 1864 0
-1864 1171 1172 1173 1174 1175 1176 1177 1178 1179 1180 1181 1182 1183 1184 1185 0
-1186 76 0
-1186 151 0
-76 -151 1186 0
-1187 77 0
-1187 152 0
-77 -152 1187 0
-1188 78 0
-1188 153 0
-78 -153 1188 0
-1189 79 0
-1189 154 0
-79 -154 1189 0
-1190 80 0
-1190 155 0
-80 -155 1190 0
-1191 81 0
-1191 156 0
-81 -156 1191 0
-1192 82 0
-1192 157 0
-82 -157 1192 0
-1193 83 0
-1193 158 0
-83 -158 1193 0
-1194 84 0
-1194 159 0
-84 -159 1194 0
-1195 85 0
-1195 160 0
-85 -160 1195 0
-1196 86 0
-1196 161 0
-86 -161 1196 0
-1197 87 0
-1197 162 0
-87 -162 1197 0
-1198 88 0
-1198 163 0
-88 -163 1198 0
-1199 89 0
-1199 164 0
-89 -164 1199 0
-1200 90 0
-1200 165 0
-90 -165 1200 0
-1186 12202 0
-12202 12203 0
-1187 -12202 0
-1187 12203 0
-12203 12204 0
-1188 -12203 0
-1188 12204 0
-12204 12205 0
-1189 -12204 0
-1189 12205 0
-12205 12206 0
-1190 -12205 0
-1190 12206 0
-12206 12207 0
-1191 -12206 0
-1191 12207 0
-12207 12208 0
-1192 -12207 0
-1192 12208 0
-12208 12209 0
-1193 -12208 0
-1193 12209 0
-12209 12210 0
-1194 -12209 0
-1194 12210 0
-12210 12211 0
-1195 -12210 0
-1195 12211 0
-12211 12212 0
-1196 -12211 0
-1196 12212 0
-12212 12213 0
-1197 -12212 0
-1197 12213 0
-12213 12214 0
-1198 -12213 0
-1198 12214 0
-12214 12215 0
-1199 -12214 0
-1199 12215 0
-1200 -12215 0
-1186 1865 0
-1187 1865 0
-1188 1865 0
-1189 1865 0
-1190 1865 0
-1191 1865 0
-1192 1865 0
-1193 1865 0
-1194 1865 0
-1195 1865 0
-1196 1865 0
-1197 1865 0
-1198 1865 0
-1199 1865 0
-1200 1865 0
-1865 1186 1187 1188 1189 1190 1191 1192 1193 1194 1195 1196 1197 1198 1199 1200 0
-1201 76 0
-1201 166 0
-76 -166 1201 0
-1202 77 0
-1202 167 0
-77 -167 1202 0
-1203 78 0
-1203 168 0
-78 -168 1203 0
-1204 79 0
-1204 169 0
-79 -169 1204 0
-1205 80 0
-1205 170 0
-80 -170 1205 0
-1206 81 0
-1206 171 0
-81 -171 1206 0
-1207 82 0
-1207 172 0
-82 -172 1207 0
-1208 83 0
-1208 173 0
-83 -173 1208 0
-1209 84 0
-1209 174 0
-84 -174 1209 0
-1210 85 0
-1210 175 0
-85 -175 1210 0
-1211 86 0
-1211 176 0
-86 -176 1211 0
-1212 87 0
-1212 177 0
-87 -177 1212 0
-1213 88 0
-1213 178 0
-88 -178 1213 0
-1214 89 0
-1214 179 0
-89 -179 1214 0
-1215 90 0
-1215 180 0
-90 -180 1215 0
-1201 12216 0
-12216 12217 0
-1202 -12216 0
-1202 12217 0
-12217 12218 0
-1203 -12217 0
-1203 12218 0
-12218 12219 0
-1204 -12218 0
-1204 12219 0
-12219 12220 0
-1205 -12219 0
-1205 12220 0
-12220 12221 0
-1206 -12220 0
-1206 12221 0
-12221 12222 0
-1207 -12221 0
-1207 12222 0
-12222 12223 0
-1208 -12222 0
-1208 12223 0
-12223 12224 0
-1209 -12223 0
-1209 12224 0
-12224 12225 0
-1210 -12224 0
-1210 12225 0
-12225 12226 0
-1211 -12225 0
-1211 12226 0
-12226 12227 0
-1212 -12226 0
-1212 12227 0
-12227 12228 0
-1213 -12227 0
-1213 12228 0
-12228 12229 0
-1214 -12228 0
-1214 12229 0
-1215 -12229 0
-1201 1866 0
-1202 1866 0
-1203 1866 0
-1204 1866 0
-1205 1866 0
-1206 1866 0
-1207 1866 0
-1208 1866 0
-1209 1866 0
-1210 1866 0
-1211 1866 0
-1212 1866 0
-1213 1866 0
-1214 1866 0
-1215 1866 0
-1866 1201 1202 1203 1204 1205 1206 1207 1208 1209 1210 1211 1212 1213 1214 1215 0
-1216 76 0
-1216 181 0
-76 -181 1216 0
-1217 77 0
-1217 182 0
-77 -182 1217 0
-1218 78 0
-1218 183 0
-78 -183 1218 0
-1219 79 0
-1219 184 0
-79 -184 1219 0
-1220 80 0
-1220 185 0
-80 -185 1220 0
-1221 81 0
-1221 186 0
-81 -186 1221 0
-1222 82 0
-1222 187 0
-82 -187 1222 0
-1223 83 0
-1223 188 0
-83 -188 1223 0
-1224 84 0
-1224 189 0
-84 -189 1224 0
-1225 85 0
-1225 190 0
-85 -190 1225 0
-1226 86 0
-1226 191 0
-86 -191 1226 0
-1227 87 0
-1227 192 0
-87 -192 1227 0
-1228 88 0
-1228 193 0
-88 -193 1228 0
-1229 89 0
-1229 194 0
-89 -194 1229 0
-1230 90 0
-1230 195 0
-90 -195 1230 0
-1216 12230 0
-12230 12231 0
-1217 -12230 0
-1217 12231 0
-12231 12232 0
-1218 -12231 0
-1218 12232 0
-12232 12233 0
-1219 -12232 0
-1219 12233 0
-12233 12234 0
-1220 -12233 0
-1220 12234 0
-12234 12235 0
-1221 -12234 0
-1221 12235 0
-12235 12236 0
-1222 -12235 0
-1222 12236 0
-12236 12237 0
-1223 -12236 0
-1223 12237 0
-12237 12238 0
-1224 -12237 0
-1224 12238 0
-12238 12239 0
-1225 -12238 0
-1225 12239 0
-12239 12240 0
-1226 -12239 0
-1226 12240 0
-12240 12241 0
-1227 -12240 0
-1227 12241 0
-12241 12242 0
-1228 -12241 0
-1228 12242 0
-12242 12243 0
-1229 -12242 0
-1229 12243 0
-1230 -12243 0
-1216 1867 0
-1217 1867 0
-1218 1867 0
-1219 1867 0
-1220 1867 0
-1221 1867 0
-1222 1867 0
-1223 1867 0
-1224 1867 0
-1225 1867 0
-1226 1867 0
-1227 1867 0
-1228 1867 0
-1229 1867 0
-1230 1867 0
-1867 1216 1217 1218 1219 1220 1221 1222 1223 1224 1225 1226 1227 1228 1229 1230 0
-1231 76 0
-1231 196 0
-76 -196 1231 0
-1232 77 0
-1232 197 0
-77 -197 1232 0
-1233 78 0
-1233 198 0
-78 -198 1233 0
-1234 79 0
-1234 199 0
-79 -199 1234 0
-1235 80 0
-1235 200 0
-80 -200 1235 0
-1236 81 0
-1236 201 0
-81 -201 1236 0
-1237 82 0
-1237 202 0
-82 -202 1237 0
-1238 83 0
-1238 203 0
-83 -203 1238 0
-1239 84 0
-1239 204 0
-84 -204 1239 0
-1240 85 0
-1240 205 0
-85 -205 1240 0
-1241 86 0
-1241 206 0
-86 -206 1241 0
-1242 87 0
-1242 207 0
-87 -207 1242 0
-1243 88 0
-1243 208 0
-88 -208 1243 0
-1244 89 0
-1244 209 0
-89 -209 1244 0
-1245 90 0
-1245 210 0
-90 -210 1245 0
-1231 12244 0
-12244 12245 0
-1232 -12244 0
-1232 12245 0
-12245 12246 0
-1233 -12245 0
-1233 12246 0
-12246 12247 0
-1234 -12246 0
-1234 12247 0
-12247 12248 0
-1235 -12247 0
-1235 12248 0
-12248 12249 0
-1236 -12248 0
-1236 12249 0
-12249 12250 0
-1237 -12249 0
-1237 12250 0
-12250 12251 0
-1238 -12250 0
-1238 12251 0
-12251 12252 0
-1239 -12251 0
-1239 12252 0
-12252 12253 0
-1240 -12252 0
-1240 12253 0
-12253 12254 0
-1241 -12253 0
-1241 12254 0
-12254 12255 0
-1242 -12254 0
-1242 12255 0
-12255 12256 0
-1243 -12255 0
-1243 12256 0
-12256 12257 0
-1244 -12256 0
-1244 12257 0
-1245 -12257 0
-1231 1868 0
-1232 1868 0
-1233 1868 0
-1234 1868 0
-1235 1868 0
-1236 1868 0
-1237 1868 0
-1238 1868 0
-1239 1868 0
-1240 1868 0
-1241 1868 0
-1242 1868 0
-1243 1868 0
-1244 1868 0
-1245 1868 0
-1868 1231 1232 1233 1234 1235 1236 1237 1238 1239 1240 1241 1242 1243 1244 1245 0
-1246 76 0
-1246 211 0
-76 -211 1246 0
-1247 77 0
-1247 212 0
-77 -212 1247 0
-1248 78 0
-1248 213 0
-78 -213 1248 0
-1249 79 0
-1249 214 0
-79 -214 1249 0
-1250 80 0
-1250 215 0
-80 -215 1250 0
-1251 81 0
-1251 216 0
-81 -216 1251 0
-1252 82 0
-1252 217 0
-82 -217 1252 0
-1253 83 0
-1253 218 0
-83 -218 1253 0
-1254 84 0
-1254 219 0
-84 -219 1254 0
-1255 85 0
-1255 220 0
-85 -220 1255 0
-1256 86 0
-1256 221 0
-86 -221 1256 0
-1257 87 0
-1257 222 0
-87 -222 1257 0
-1258 88 0
-1258 223 0
-88 -223 1258 0
-1259 89 0
-1259 224 0
-89 -224 1259 0
-1260 90 0
-1260 225 0
-90 -225 1260 0
-1246 12258 0
-12258 12259 0
-1247 -12258 0
-1247 12259 0
-12259 12260 0
-1248 -12259 0
-1248 12260 0
-12260 12261 0
-1249 -12260 0
-1249 12261 0
-12261 12262 0
-1250 -12261 0
-1250 12262 0
-12262 12263 0
-1251 -12262 0
-1251 12263 0
-12263 12264 0
-1252 -12263 0
-1252 12264 0
-12264 12265 0
-1253 -12264 0
-1253 12265 0
-12265 12266 0
-1254 -12265 0
-1254 12266 0
-12266 12267 0
-1255 -12266 0
-1255 12267 0
-12267 12268 0
-1256 -12267 0
-1256 12268 0
-12268 12269 0
-1257 -12268 0
-1257 12269 0
-12269 12270 0
-1258 -12269 0
-1258 12270 0
-12270 12271 0
-1259 -12270 0
-1259 12271 0
-1260 -12271 0
-1246 1869 0
-1247 1869 0
-1248 1869 0
-1249 1869 0
-1250 1869 0
-1251 1869 0
-1252 1869 0
-1253 1869 0
-1254 1869 0
-1255 1869 0
-1256 1869 0
-1257 1869 0
-1258 1869 0
-1259 1869 0
-1260 1869 0
-1869 1246 1247 1248 1249 1250 1251 1252 1253 1254 1255 1256 1257 1258 1259 1260 0
-1261 91 0
-1261 106 0
-91 -106 1261 0
-1262 92 0
-1262 107 0
-92 -107 1262 0
-1263 93 0
-1263 108 0
-93 -108 1263 0
-1264 94 0
-1264 109 0
-94 -109 1264 0
-1265 95 0
-1265 110 0
-95 -110 1265 0
-1266 96 0
-1266 111 0
-96 -111 1266 0
-1267 97 0
-1267 112 0
-97 -112 1267 0
-1268 98 0
-1268 113 0
-98 -113 1268 0
-1269 99 0
-1269 114 0
-99 -114 1269 0
-1270 100 0
-1270 115 0
-100 -115 1270 0
-1271 101 0
-1271 116 0
-101 -116 1271 0
-1272 102 0
-1272 117 0
-102 -117 1272 0
-1273 103 0
-1273 118 0
-103 -118 1273 0
-1274 104 0
-1274 119 0
-104 -119 1274 0
-1275 105 0
-1275 120 0
-105 -120 1275 0
-1261 12272 0
-12272 12273 0
-1262 -12272 0
-1262 12273 0
-12273 12274 0
-1263 -12273 0
-1263 12274 0
-12274 12275 0
-1264 -12274 0
-1264 12275 0
-12275 12276 0
-1265 -12275 0
-1265 12276 0
-12276 12277 0
-1266 -12276 0
-1266 12277 0
-12277 12278 0
-1267 -12277 0
-1267 12278 0
-12278 12279 0
-1268 -12278 0
-1268 12279 0
-12279 12280 0
-1269 -12279 0
-1269 12280 0
-12280 12281 0
-1270 -12280 0
-1270 12281 0
-12281 12282 0
-1271 -12281 0
-1271 12282 0
-12282 12283 0
-1272 -12282 0
-1272 12283 0
-12283 12284 0
-1273 -12283 0
-1273 12284 0
-12284 12285 0
-1274 -12284 0
-1274 12285 0
-1275 -12285 0
-1261 1870 0
-1262 1870 0
-1263 1870 0
-1264 1870 0
-1265 1870 0
-1266 1870 0
-1267 1870 0
-1268 1870 0
-1269 1870 0
-1270 1870 0
-1271 1870 0
-1272 1870 0
-1273 1870 0
-1274 1870 0
-1275 1870 0
-1870 1261 1262 1263 1264 1265 1266 1267 1268 1269 1270 1271 1272 1273 1274 1275 0
-1276 91 0
-1276 121 0
-91 -121 1276 0
-1277 92 0
-1277 122 0
-92 -122 1277 0
-1278 93 0
-1278 123 0
-93 -123 1278 0
-1279 94 0
-1279 124 0
-94 -124 1279 0
-1280 95 0
-1280 125 0
-95 -125 1280 0
-1281 96 0
-1281 126 0
-96 -126 1281 0
-1282 97 0
-1282 127 0
-97 -127 1282 0
-1283 98 0
-1283 128 0
-98 -128 1283 0
-1284 99 0
-1284 129 0
-99 -129 1284 0
-1285 100 0
-1285 130 0
-100 -130 1285 0
-1286 101 0
-1286 131 0
-101 -131 1286 0
-1287 102 0
-1287 132 0
-102 -132 1287 0
-1288 103 0
-1288 133 0
-103 -133 1288 0
-1289 104 0
-1289 134 0
-104 -134 1289 0
-1290 105 0
-1290 135 0
-105 -135 1290 0
-1276 12286 0
-12286 12287 0
-1277 -12286 0
-1277 12287 0
-12287 12288 0
-1278 -12287 0
-1278 12288 0
-12288 12289 0
-1279 -12288 0
-1279 12289 0
-12289 12290 0
-1280 -12289 0
-1280 12290 0
-12290 12291 0
-1281 -12290 0
-1281 12291 0
-12291 12292 0
-1282 -12291 0
-1282 12292 0
-12292 12293 0
-1283 -12292 0
-1283 12293 0
-12293 12294 0
-1284 -12293 0
-1284 12294 0
-12294 12295 0
-1285 -12294 0
-1285 12295 0
-12295 12296 0
-1286 -12295 0
-1286 12296 0
-12296 12297 0
-1287 -12296 0
-1287 12297 0
-12297 12298 0
-1288 -12297 0
-1288 12298 0
-12298 12299 0
-1289 -12298 0
-1289 12299 0
-1290 -12299 0
-1276 1871 0
-1277 1871 0
-1278 1871 0
-1279 1871 0
-1280 1871 0
-1281 1871 0
-1282 1871 0
-1283 1871 0
-1284 1871 0
-1285 1871 0
-1286 1871 0
-1287 1871 0
-1288 1871 0
-1289 1871 0
-1290 1871 0
-1871 1276 1277 1278 1279 1280 1281 1282 1283 1284 1285 1286 1287 1288 1289 1290 0
-1291 91 0
-1291 136 0
-91 -136 1291 0
-1292 92 0
-1292 137 0
-92 -137 1292 0
-1293 93 0
-1293 138 0
-93 -138 1293 0
-1294 94 0
-1294 139 0
-94 -139 1294 0
-1295 95 0
-1295 140 0
-95 -140 1295 0
-1296 96 0
-1296 141 0
-96 -141 1296 0
-1297 97 0
-1297 142 0
-97 -142 1297 0
-1298 98 0
-1298 143 0
-98 -143 1298 0
-1299 99 0
-1299 144 0
-99 -144 1299 0
-1300 100 0
-1300 145 0
-100 -145 1300 0
-1301 101 0
-1301 146 0
-101 -146 1301 0
-1302 102 0
-1302 147 0
-102 -147 1302 0
-1303 103 0
-1303 148 0
-103 -148 1303 0
-1304 104 0
-1304 149 0
-104 -149 1304 0
-1305 105 0
-1305 150 0
-105 -150 1305 0
-1291 12300 0
-12300 12301 0
-1292 -12300 0
-1292 12301 0
-12301 12302 0
-1293 -12301 0
-1293 12302 0
-12302 12303 0
-1294 -12302 0
-1294 12303 0
-12303 12304 0
-1295 -12303 0
-1295 12304 0
-12304 12305 0
-1296 -12304 0
-1296 12305 0
-12305 12306 0
-1297 -12305 0
-1297 12306 0
-12306 12307 0
-1298 -12306 0
-1298 12307 0
-12307 12308 0
-1299 -12307 0
-1299 12308 0
-12308 12309 0
-1300 -12308 0
-1300 12309 0
-12309 12310 0
-1301 -12309 0
-1301 12310 0
-12310 12311 0
-1302 -12310 0
-1302 12311 0
-12311 12312 0
-1303 -12311 0
-1303 12312 0
-12312 12313 0
-1304 -12312 0
-1304 12313 0
-1305 -12313 0
-1291 1872 0
-1292 1872 0
-1293 1872 0
-1294 1872 0
-1295 1872 0
-1296 1872 0
-1297 1872 0
-1298 1872 0
-1299 1872 0
-1300 1872 0
-1301 1872 0
-1302 1872 0
-1303 1872 0
-1304 1872 0
-1305 1872 0
-1872 1291 1292 1293 1294 1295 1296 1297 1298 1299 1300 1301 1302 1303 1304 1305 0
-1306 91 0
-1306 151 0
-91 -151 1306 0
-1307 92 0
-1307 152 0
-92 -152 1307 0
-1308 93 0
-1308 153 0
-93 -153 1308 0
-1309 94 0
-1309 154 0
-94 -154 1309 0
-1310 95 0
-1310 155 0
-95 -155 1310 0
-1311 96 0
-1311 156 0
-96 -156 1311 0
-1312 97 0
-1312 157 0
-97 -157 1312 0
-1313 98 0
-1313 158 0
-98 -158 1313 0
-1314 99 0
-1314 159 0
-99 -159 1314 0
-1315 100 0
-1315 160 0
-100 -160 1315 0
-1316 101 0
-1316 161 0
-101 -161 1316 0
-1317 102 0
-1317 162 0
-102 -162 1317 0
-1318 103 0
-1318 163 0
-103 -163 1318 0
-1319 104 0
-1319 164 0
-104 -164 1319 0
-1320 105 0
-1320 165 0
-105 -165 1320 0
-1306 12314 0
-12314 12315 0
-1307 -12314 0
-1307 12315 0
-12315 12316 0
-1308 -12315 0
-1308 12316 0
-12316 12317 0
-1309 -12316 0
-1309 12317 0
-12317 12318 0
-1310 -12317 0
-1310 12318 0
-12318 12319 0
-1311 -12318 0
-1311 12319 0
-12319 12320 0
-1312 -12319 0
-1312 12320 0
-12320 12321 0
-1313 -12320 0
-1313 12321 0
-12321 12322 0
-1314 -12321 0
-1314 12322 0
-12322 12323 0
-1315 -12322 0
-1315 12323 0
-12323 12324 0
-1316 -12323 0
-1316 12324 0
-12324 12325 0
-1317 -12324 0
-1317 12325 0
-12325 12326 0
-1318 -12325 0
-1318 12326 0
-12326 12327 0
-1319 -12326 0
-1319 12327 0
-1320 -12327 0
-1306 1873 0
-1307 1873 0
-1308 1873 0
-1309 1873 0
-1310 1873 0
-1311 1873 0
-1312 1873 0
-1313 1873 0
-1314 1873 0
-1315 1873 0
-1316 1873 0
-1317 1873 0
-1318 1873 0
-1319 1873 0
-1320 1873 0
-1873 1306 1307 1308 1309 1310 1311 1312 1313 1314 1315 1316 1317 1318 1319 1320 0
-1321 91 0
-1321 166 0
-91 -166 1321 0
-1322 92 0
-1322 167 0
-92 -167 1322 0
-1323 93 0
-1323 168 0
-93 -168 1323 0
-1324 94 0
-1324 169 0
-94 -169 1324 0
-1325 95 0
-1325 170 0
-95 -170 1325 0
-1326 96 0
-1326 171 0
-96 -171 1326 0
-1327 97 0
-1327 172 0
-97 -172 1327 0
-1328 98 0
-1328 173 0
-98 -173 1328 0
-1329 99 0
-1329 174 0
-99 -174 1329 0
-1330 100 0
-1330 175 0
-100 -175 1330 0
-1331 101 0
-1331 176 0
-101 -176 1331 0
-1332 102 0
-1332 177 0
-102 -177 1332 0
-1333 103 0
-1333 178 0
-103 -178 1333 0
-1334 104 0
-1334 179 0
-104 -179 1334 0
-1335 105 0
-1335 180 0
-105 -180 1335 0
-1321 12328 0
-12328 12329 0
-1322 -12328 0
-1322 12329 0
-12329 12330 0
-1323 -12329 0
-1323 12330 0
-12330 12331 0
-1324 -12330 0
-1324 12331 0
-12331 12332 0
-1325 -12331 0
-1325 12332 0
-12332 12333 0
-1326 -12332 0
-1326 12333 0
-12333 12334 0
-1327 -12333 0
-1327 12334 0
-12334 12335 0
-1328 -12334 0
-1328 12335 0
-12335 12336 0
-1329 -12335 0
-1329 12336 0
-12336 12337 0
-1330 -12336 0
-1330 12337 0
-12337 12338 0
-1331 -12337 0
-1331 12338 0
-12338 12339 0
-1332 -12338 0
-1332 12339 0
-12339 12340 0
-1333 -12339 0
-1333 12340 0
-12340 12341 0
-1334 -12340 0
-1334 12341 0
-1335 -12341 0
-1321 1874 0
-1322 1874 0
-1323 1874 0
-1324 1874 0
-1325 1874 0
-1326 1874 0
-1327 1874 0
-1328 1874 0
-1329 1874 0
-1330 1874 0
-1331 1874 0
-1332 1874 0
-1333 1874 0
-1334 1874 0
-1335 1874 0
-1874 1321 1322 1323 1324 1325 1326 1327 1328 1329 1330 1331 1332 1333 1334 1335 0
-1336 91 0
-1336 181 0
-91 -181 1336 0
-1337 92 0
-1337 182 0
-92 -182 1337 0
-1338 93 0
-1338 183 0
-93 -183 1338 0
-1339 94 0
-1339 184 0
-94 -184 1339 0
-1340 95 0
-1340 185 0
-95 -185 1340 0
-1341 96 0
-1341 186 0
-96 -186 1341 0
-1342 97 0
-1342 187 0
-97 -187 1342 0
-1343 98 0
-1343 188 0
-98 -188 1343 0
-1344 99 0
-1344 189 0
-99 -189 1344 0
-1345 100 0
-1345 190 0
-100 -190 1345 0
-1346 101 0
-1346 191 0
-101 -191 1346 0
-1347 102 0
-1347 192 0
-102 -192 1347 0
-1348 103 0
-1348 193 0
-103 -193 1348 0
-1349 104 0
-1349 194 0
-104 -194 1349 0
-1350 105 0
-1350 195 0
-105 -195 1350 0
-1336 12342 0
-12342 12343 0
-1337 -12342 0
-1337 12343 0
-12343 12344 0
-1338 -12343 0
-1338 12344 0
-12344 12345 0
-1339 -12344 0
-1339 12345 0
-12345 12346 0
-1340 -12345 0
-1340 12346 0
-12346 12347 0
-1341 -12346 0
-1341 12347 0
-12347 12348 0
-1342 -12347 0
-1342 12348 0
-12348 12349 0
-1343 -12348 0
-1343 12349 0
-12349 12350 0
-1344 -12349 0
-1344 12350 0
-12350 12351 0
-1345 -12350 0
-1345 12351 0
-12351 12352 0
-1346 -12351 0
-1346 12352 0
-12352 12353 0
-1347 -12352 0
-1347 12353 0
-12353 12354 0
-1348 -12353 0
-1348 12354 0
-12354 12355 0
-1349 -12354 0
-1349 12355 0
-1350 -12355 0
-1336 1875 0
-1337 1875 0
-1338 1875 0
-1339 1875 0
-1340 1875 0
-1341 1875 0
-1342 1875 0
-1343 1875 0
-1344 1875 0
-1345 1875 0
-1346 1875 0
-1347 1875 0
-1348 1875 0
-1349 1875 0
-1350 1875 0
-1875 1336 1337 1338 1339 1340 1341 1342 1343 1344 1345 1346 1347 1348 1349 1350 0
-1351 91 0
-1351 196 0
-91 -196 1351 0
-1352 92 0
-1352 197 0
-92 -197 1352 0
-1353 93 0
-1353 198 0
-93 -198 1353 0
-1354 94 0
-1354 199 0
-94 -199 1354 0
-1355 95 0
-1355 200 0
-95 -200 1355 0
-1356 96 0
-1356 201 0
-96 -201 1356 0
-1357 97 0
-1357 202 0
-97 -202 1357 0
-1358 98 0
-1358 203 0
-98 -203 1358 0
-1359 99 0
-1359 204 0
-99 -204 1359 0
-1360 100 0
-1360 205 0
-100 -205 1360 0
-1361 101 0
-1361 206 0
-101 -206 1361 0
-1362 102 0
-1362 207 0
-102 -207 1362 0
-1363 103 0
-1363 208 0
-103 -208 1363 0
-1364 104 0
-1364 209 0
-104 -209 1364 0
-1365 105 0
-1365 210 0
-105 -210 1365 0
-1351 12356 0
-12356 12357 0
-1352 -12356 0
-1352 12357 0
-12357 12358 0
-1353 -12357 0
-1353 12358 0
-12358 12359 0
-1354 -12358 0
-1354 12359 0
-12359 12360 0
-1355 -12359 0
-1355 12360 0
-12360 12361 0
-1356 -12360 0
-1356 12361 0
-12361 12362 0
-1357 -12361 0
-1357 12362 0
-12362 12363 0
-1358 -12362 0
-1358 12363 0
-12363 12364 0
-1359 -12363 0
-1359 12364 0
-12364 12365 0
-1360 -12364 0
-1360 12365 0
-12365 12366 0
-1361 -12365 0
-1361 12366 0
-12366 12367 0
-1362 -12366 0
-1362 12367 0
-12367 12368 0
-1363 -12367 0
-1363 12368 0
-12368 12369 0
-1364 -12368 0
-1364 12369 0
-1365 -12369 0
-1351 1876 0
-1352 1876 0
-1353 1876 0
-1354 1876 0
-1355 1876 0
-1356 1876 0
-1357 1876 0
-1358 1876 0
-1359 1876 0
-1360 1876 0
-1361 1876 0
-1362 1876 0
-1363 1876 0
-1364 1876 0
-1365 1876 0
-1876 1351 1352 1353 1354 1355 1356 1357 1358 1359 1360 1361 1362 1363 1364 1365 0
-1366 91 0
-1366 211 0
-91 -211 1366 0
-1367 92 0
-1367 212 0
-92 -212 1367 0
-1368 93 0
-1368 213 0
-93 -213 1368 0
-1369 94 0
-1369 214 0
-94 -214 1369 0
-1370 95 0
-1370 215 0
-95 -215 1370 0
-1371 96 0
-1371 216 0
-96 -216 1371 0
-1372 97 0
-1372 217 0
-97 -217 1372 0
-1373 98 0
-1373 218 0
-98 -218 1373 0
-1374 99 0
-1374 219 0
-99 -219 1374 0
-1375 100 0
-1375 220 0
-100 -220 1375 0
-1376 101 0
-1376 221 0
-101 -221 1376 0
-1377 102 0
-1377 222 0
-102 -222 1377 0
-1378 103 0
-1378 223 0
-103 -223 1378 0
-1379 104 0
-1379 224 0
-104 -224 1379 0
-1380 105 0
-1380 225 0
-105 -225 1380 0
-1366 12370 0
-12370 12371 0
-1367 -12370 0
-1367 12371 0
-12371 12372 0
-1368 -12371 0
-1368 12372 0
-12372 12373 0
-1369 -12372 0
-1369 12373 0
-12373 12374 0
-1370 -12373 0
-1370 12374 0
-12374 12375 0
-1371 -12374 0
-1371 12375 0
-12375 12376 0
-1372 -12375 0
-1372 12376 0
-12376 12377 0
-1373 -12376 0
-1373 12377 0
-12377 12378 0
-1374 -12377 0
-1374 12378 0
-12378 12379 0
-1375 -12378 0
-1375 12379 0
-12379 12380 0
-1376 -12379 0
-1376 12380 0
-12380 12381 0
-1377 -12380 0
-1377 12381 0
-12381 12382 0
-1378 -12381 0
-1378 12382 0
-12382 12383 0
-1379 -12382 0
-1379 12383 0
-1380 -12383 0
-1366 1877 0
-1367 1877 0
-1368 1877 0
-1369 1877 0
-1370 1877 0
-1371 1877 0
-1372 1877 0
-1373 1877 0
-1374 1877 0
-1375 1877 0
-1376 1877 0
-1377 1877 0
-1378 1877 0
-1379 1877 0
-1380 1877 0
-1877 1366 1367 1368 1369 1370 1371 1372 1373 1374 1375 1376 1377 1378 1379 1380 0
-1381 106 0
-1381 121 0
-106 -121 1381 0
-1382 107 0
-1382 122 0
-107 -122 1382 0
-1383 108 0
-1383 123 0
-108 -123 1383 0
-1384 109 0
-1384 124 0
-109 -124 1384 0
-1385 110 0
-1385 125 0
-110 -125 1385 0
-1386 111 0
-1386 126 0
-111 -126 1386 0
-1387 112 0
-1387 127 0
-112 -127 1387 0
-1388 113 0
-1388 128 0
-113 -128 1388 0
-1389 114 0
-1389 129 0
-114 -129 1389 0
-1390 115 0
-1390 130 0
-115 -130 1390 0
-1391 116 0
-1391 131 0
-116 -131 1391 0
-1392 117 0
-1392 132 0
-117 -132 1392 0
-1393 118 0
-1393 133 0
-118 -133 1393 0
-1394 119 0
-1394 134 0
-119 -134 1394 0
-1395 120 0
-1395 135 0
-120 -135 1395 0
-1381 12384 0
-12384 12385 0
-1382 -12384 0
-1382 12385 0
-12385 12386 0
-1383 -12385 0
-1383 12386 0
-12386 12387 0
-1384 -12386 0
-1384 12387 0
-12387 12388 0
-1385 -12387 0
-1385 12388 0
-12388 12389 0
-1386 -12388 0
-1386 12389 0
-12389 12390 0
-1387 -12389 0
-1387 12390 0
-12390 12391 0
-1388 -12390 0
-1388 12391 0
-12391 12392 0
-1389 -12391 0
-1389 12392 0
-12392 12393 0
-1390 -12392 0
-1390 12393 0
-12393 12394 0
-1391 -12393 0
-1391 12394 0
-12394 12395 0
-1392 -12394 0
-1392 12395 0
-12395 12396 0
-1393 -12395 0
-1393 12396 0
-12396 12397 0
-1394 -12396 0
-1394 12397 0
-1395 -12397 0
-1381 1878 0
-1382 1878 0
-1383 1878 0
-1384 1878 0
-1385 1878 0
-1386 1878 0
-1387 1878 0
-1388 1878 0
-1389 1878 0
-1390 1878 0
-1391 1878 0
-1392 1878 0
-1393 1878 0
-1394 1878 0
-1395 1878 0
-1878 1381 1382 1383 1384 1385 1386 1387 1388 1389 1390 1391 1392 1393 1394 1395 0
-1396 106 0
-1396 136 0
-106 -136 1396 0
-1397 107 0
-1397 137 0
-107 -137 1397 0
-1398 108 0
-1398 138 0
-108 -138 1398 0
-1399 109 0
-1399 139 0
-109 -139 1399 0
-1400 110 0
-1400 140 0
-110 -140 1400 0
-1401 111 0
-1401 141 0
-111 -141 1401 0
-1402 112 0
-1402 142 0
-112 -142 1402 0
-1403 113 0
-1403 143 0
-113 -143 1403 0
-1404 114 0
-1404 144 0
-114 -144 1404 0
-1405 115 0
-1405 145 0
-115 -145 1405 0
-1406 116 0
-1406 146 0
-116 -146 1406 0
-1407 117 0
-1407 147 0
-117 -147 1407 0
-1408 118 0
-1408 148 0
-118 -148 1408 0
-1409 119 0
-1409 149 0
-119 -149 1409 0
-1410 120 0
-1410 150 0
-120 -150 1410 0
-1396 12398 0
-12398 12399 0
-1397 -12398 0
-1397 12399 0
-12399 12400 0
-1398 -12399 0
-1398 12400 0
-12400 12401 0
-1399 -12400 0
-1399 12401 0
-12401 12402 0
-1400 -12401 0
-1400 12402 0
-12402 12403 0
-1401 -12402 0
-1401 12403 0
-12403 12404 0
-1402 -12403 0
-1402 12404 0
-12404 12405 0
-1403 -12404 0
-1403 12405 0
-12405 12406 0
-1404 -12405 0
-1404 12406 0
-12406 12407 0
-1405 -12406 0
-1405 12407 0
-12407 12408 0
-1406 -12407 0
-1406 12408 0
-12408 12409 0
-1407 -12408 0
-1407 12409 0
-12409 12410 0
-1408 -12409 0
-1408 12410 0
-12410 12411 0
-1409 -12410 0
-1409 12411 0
-1410 -12411 0
-1396 1879 0
-1397 1879 0
-1398 1879 0
-1399 1879 0
-1400 1879 0
-1401 1879 0
-1402 1879 0
-1403 1879 0
-1404 1879 0
-1405 1879 0
-1406 1879 0
-1407 1879 0
-1408 1879 0
-1409 1879 0
-1410 1879 0
-1879 1396 1397 1398 1399 1400 1401 1402 1403 1404 1405 1406 1407 1408 1409 1410 0
-1411 106 0
-1411 151 0
-106 -151 1411 0
-1412 107 0
-1412 152 0
-107 -152 1412 0
-1413 108 0
-1413 153 0
-108 -153 1413 0
-1414 109 0
-1414 154 0
-109 -154 1414 0
-1415 110 0
-1415 155 0
-110 -155 1415 0
-1416 111 0
-1416 156 0
-111 -156 1416 0
-1417 112 0
-1417 157 0
-112 -157 1417 0
-1418 113 0
-1418 158 0
-113 -158 1418 0
-1419 114 0
-1419 159 0
-114 -159 1419 0
-1420 115 0
-1420 160 0
-115 -160 1420 0
-1421 116 0
-1421 161 0
-116 -161 1421 0
-1422 117 0
-1422 162 0
-117 -162 1422 0
-1423 118 0
-1423 163 0
-118 -163 1423 0
-1424 119 0
-1424 164 0
-119 -164 1424 0
-1425 120 0
-1425 165 0
-120 -165 1425 0
-1411 12412 0
-12412 12413 0
-1412 -12412 0
-1412 12413 0
-12413 12414 0
-1413 -12413 0
-1413 12414 0
-12414 12415 0
-1414 -12414 0
-1414 12415 0
-12415 12416 0
-1415 -12415 0
-1415 12416 0
-12416 12417 0
-1416 -12416 0
-1416 12417 0
-12417 12418 0
-1417 -12417 0
-1417 12418 0
-12418 12419 0
-1418 -12418 0
-1418 12419 0
-12419 12420 0
-1419 -12419 0
-1419 12420 0
-12420 12421 0
-1420 -12420 0
-1420 12421 0
-12421 12422 0
-1421 -12421 0
-1421 12422 0
-12422 12423 0
-1422 -12422 0
-1422 12423 0
-12423 12424 0
-1423 -12423 0
-1423 12424 0
-12424 12425 0
-1424 -12424 0
-1424 12425 0
-1425 -12425 0
-1411 1880 0
-1412 1880 0
-1413 1880 0
-1414 1880 0
-1415 1880 0
-1416 1880 0
-1417 1880 0
-1418 1880 0
-1419 1880 0
-1420 1880 0
-1421 1880 0
-1422 1880 0
-1423 1880 0
-1424 1880 0
-1425 1880 0
-1880 1411 1412 1413 1414 1415 1416 1417 1418 1419 1420 1421 1422 1423 1424 1425 0
-1426 106 0
-1426 166 0
-106 -166 1426 0
-1427 107 0
-1427 167 0
-107 -167 1427 0
-1428 108 0
-1428 168 0
-108 -168 1428 0
-1429 109 0
-1429 169 0
-109 -169 1429 0
-1430 110 0
-1430 170 0
-110 -170 1430 0
-1431 111 0
-1431 171 0
-111 -171 1431 0
-1432 112 0
-1432 172 0
-112 -172 1432 0
-1433 113 0
-1433 173 0
-113 -173 1433 0
-1434 114 0
-1434 174 0
-114 -174 1434 0
-1435 115 0
-1435 175 0
-115 -175 1435 0
-1436 116 0
-1436 176 0
-116 -176 1436 0
-1437 117 0
-1437 177 0
-117 -177 1437 0
-1438 118 0
-1438 178 0
-118 -178 1438 0
-1439 119 0
-1439 179 0
-119 -179 1439 0
-1440 120 0
-1440 180 0
-120 -180 1440 0
-1426 12426 0
-12426 12427 0
-1427 -12426 0
-1427 12427 0
-12427 12428 0
-1428 -12427 0
-1428 12428 0
-12428 12429 0
-1429 -12428 0
-1429 12429 0
-12429 12430 0
-1430 -12429 0
-1430 12430 0
-12430 12431 0
-1431 -12430 0
-1431 12431 0
-12431 12432 0
-1432 -12431 0
-1432 12432 0
-12432 12433 0
-1433 -12432 0
-1433 12433 0
-12433 12434 0
-1434 -12433 0
-1434 12434 0
-12434 12435 0
-1435 -12434 0
-1435 12435 0
-12435 12436 0
-1436 -12435 0
-1436 12436 0
-12436 12437 0
-1437 -12436 0
-1437 12437 0
-12437 12438 0
-1438 -12437 0
-1438 12438 0
-12438 12439 0
-1439 -12438 0
-1439 12439 0
-1440 -12439 0
-1426 1881 0
-1427 1881 0
-1428 1881 0
-1429 1881 0
-1430 1881 0
-1431 1881 0
-1432 1881 0
-1433 1881 0
-1434 1881 0
-1435 1881 0
-1436 1881 0
-1437 1881 0
-1438 1881 0
-1439 1881 0
-1440 1881 0
-1881 1426 1427 1428 1429 1430 1431 1432 1433 1434 1435 1436 1437 1438 1439 1440 0
-1441 106 0
-1441 181 0
-106 -181 1441 0
-1442 107 0
-1442 182 0
-107 -182 1442 0
-1443 108 0
-1443 183 0
-108 -183 1443 0
-1444 109 0
-1444 184 0
-109 -184 1444 0
-1445 110 0
-1445 185 0
-110 -185 1445 0
-1446 111 0
-1446 186 0
-111 -186 1446 0
-1447 112 0
-1447 187 0
-112 -187 1447 0
-1448 113 0
-1448 188 0
-113 -188 1448 0
-1449 114 0
-1449 189 0
-114 -189 1449 0
-1450 115 0
-1450 190 0
-115 -190 1450 0
-1451 116 0
-1451 191 0
-116 -191 1451 0
-1452 117 0
-1452 192 0
-117 -192 1452 0
-1453 118 0
-1453 193 0
-118 -193 1453 0
-1454 119 0
-1454 194 0
-119 -194 1454 0
-1455 120 0
-1455 195 0
-120 -195 1455 0
-1441 12440 0
-12440 12441 0
-1442 -12440 0
-1442 12441 0
-12441 12442 0
-1443 -12441 0
-1443 12442 0
-12442 12443 0
-1444 -12442 0
-1444 12443 0
-12443 12444 0
-1445 -12443 0
-1445 12444 0
-12444 12445 0
-1446 -12444 0
-1446 12445 0
-12445 12446 0
-1447 -12445 0
-1447 12446 0
-12446 12447 0
-1448 -12446 0
-1448 12447 0
-12447 12448 0
-1449 -12447 0
-1449 12448 0
-12448 12449 0
-1450 -12448 0
-1450 12449 0
-12449 12450 0
-1451 -12449 0
-1451 12450 0
-12450 12451 0
-1452 -12450 0
-1452 12451 0
-12451 12452 0
-1453 -12451 0
-1453 12452 0
-12452 12453 0
-1454 -12452 0
-1454 12453 0
-1455 -12453 0
-1441 1882 0
-1442 1882 0
-1443 1882 0
-1444 1882 0
-1445 1882 0
-1446 1882 0
-1447 1882 0
-1448 1882 0
-1449 1882 0
-1450 1882 0
-1451 1882 0
-1452 1882 0
-1453 1882 0
-1454 1882 0
-1455 1882 0
-1882 1441 1442 1443 1444 1445 1446 1447 1448 1449 1450 1451 1452 1453 1454 1455 0
-1456 106 0
-1456 196 0
-106 -196 1456 0
-1457 107 0
-1457 197 0
-107 -197 1457 0
-1458 108 0
-1458 198 0
-108 -198 1458 0
-1459 109 0
-1459 199 0
-109 -199 1459 0
-1460 110 0
-1460 200 0
-110 -200 1460 0
-1461 111 0
-1461 201 0
-111 -201 1461 0
-1462 112 0
-1462 202 0
-112 -202 1462 0
-1463 113 0
-1463 203 0
-113 -203 1463 0
-1464 114 0
-1464 204 0
-114 -204 1464 0
-1465 115 0
-1465 205 0
-115 -205 1465 0
-1466 116 0
-1466 206 0
-116 -206 1466 0
-1467 117 0
-1467 207 0
-117 -207 1467 0
-1468 118 0
-1468 208 0
-118 -208 1468 0
-1469 119 0
-1469 209 0
-119 -209 1469 0
-1470 120 0
-1470 210 0
-120 -210 1470 0
-1456 12454 0
-12454 12455 0
-1457 -12454 0
-1457 12455 0
-12455 12456 0
-1458 -12455 0
-1458 12456 0
-12456 12457 0
-1459 -12456 0
-1459 12457 0
-12457 12458 0
-1460 -12457 0
-1460 12458 0
-12458 12459 0
-1461 -12458 0
-1461 12459 0
-12459 12460 0
-1462 -12459 0
-1462 12460 0
-12460 12461 0
-1463 -12460 0
-1463 12461 0
-12461 12462 0
-1464 -12461 0
-1464 12462 0
-12462 12463 0
-1465 -12462 0
-1465 12463 0
-12463 12464 0
-1466 -12463 0
-1466 12464 0
-12464 12465 0
-1467 -12464 0
-1467 12465 0
-12465 12466 0
-1468 -12465 0
-1468 12466 0
-12466 12467 0
-1469 -12466 0
-1469 12467 0
-1470 -12467 0
-1456 1883 0
-1457 1883 0
-1458 1883 0
-1459 1883 0
-1460 1883 0
-1461 1883 0
-1462 1883 0
-1463 1883 0
-1464 1883 0
-1465 1883 0
-1466 1883 0
-1467 1883 0
-1468 1883 0
-1469 1883 0
-1470 1883 0
-1883 1456 1457 1458 1459 1460 1461 1462 1463 1464 1465 1466 1467 1468 1469 1470 0
-1471 106 0
-1471 211 0
-106 -211 1471 0
-1472 107 0
-1472 212 0
-107 -212 1472 0
-1473 108 0
-1473 213 0
-108 -213 1473 0
-1474 109 0
-1474 214 0
-109 -214 1474 0
-1475 110 0
-1475 215 0
-110 -215 1475 0
-1476 111 0
-1476 216 0
-111 -216 1476 0
-1477 112 0
-1477 217 0
-112 -217 1477 0
-1478 113 0
-1478 218 0
-113 -218 1478 0
-1479 114 0
-1479 219 0
-114 -219 1479 0
-1480 115 0
-1480 220 0
-115 -220 1480 0
-1481 116 0
-1481 221 0
-116 -221 1481 0
-1482 117 0
-1482 222 0
-117 -222 1482 0
-1483 118 0
-1483 223 0
-118 -223 1483 0
-1484 119 0
-1484 224 0
-119 -224 1484 0
-1485 120 0
-1485 225 0
-120 -225 1485 0
-1471 12468 0
-12468 12469 0
-1472 -12468 0
-1472 12469 0
-12469 12470 0
-1473 -12469 0
-1473 12470 0
-12470 12471 0
-1474 -12470 0
-1474 12471 0
-12471 12472 0
-1475 -12471 0
-1475 12472 0
-12472 12473 0
-1476 -12472 0
-1476 12473 0
-12473 12474 0
-1477 -12473 0
-1477 12474 0
-12474 12475 0
-1478 -12474 0
-1478 12475 0
-12475 12476 0
-1479 -12475 0
-1479 12476 0
-12476 12477 0
-1480 -12476 0
-1480 12477 0
-12477 12478 0
-1481 -12477 0
-1481 12478 0
-12478 12479 0
-1482 -12478 0
-1482 12479 0
-12479 12480 0
-1483 -12479 0
-1483 12480 0
-12480 12481 0
-1484 -12480 0
-1484 12481 0
-1485 -12481 0
-1471 1884 0
-1472 1884 0
-1473 1884 0
-1474 1884 0
-1475 1884 0
-1476 1884 0
-1477 1884 0
-1478 1884 0
-1479 1884 0
-1480 1884 0
-1481 1884 0
-1482 1884 0
-1483 1884 0
-1484 1884 0
-1485 1884 0
-1884 1471 1472 1473 1474 1475 1476 1477 1478 1479 1480 1481 1482 1483 1484 1485 0
-1486 121 0
-1486 136 0
-121 -136 1486 0
-1487 122 0
-1487 137 0
-122 -137 1487 0
-1488 123 0
-1488 138 0
-123 -138 1488 0
-1489 124 0
-1489 139 0
-124 -139 1489 0
-1490 125 0
-1490 140 0
-125 -140 1490 0
-1491 126 0
-1491 141 0
-126 -141 1491 0
-1492 127 0
-1492 142 0
-127 -142 1492 0
-1493 128 0
-1493 143 0
-128 -143 1493 0
-1494 129 0
-1494 144 0
-129 -144 1494 0
-1495 130 0
-1495 145 0
-130 -145 1495 0
-1496 131 0
-1496 146 0
-131 -146 1496 0
-1497 132 0
-1497 147 0
-132 -147 1497 0
-1498 133 0
-1498 148 0
-133 -148 1498 0
-1499 134 0
-1499 149 0
-134 -149 1499 0
-1500 135 0
-1500 150 0
-135 -150 1500 0
-1486 12482 0
-12482 12483 0
-1487 -12482 0
-1487 12483 0
-12483 12484 0
-1488 -12483 0
-1488 12484 0
-12484 12485 0
-1489 -12484 0
-1489 12485 0
-12485 12486 0
-1490 -12485 0
-1490 12486 0
-12486 12487 0
-1491 -12486 0
-1491 12487 0
-12487 12488 0
-1492 -12487 0
-1492 12488 0
-12488 12489 0
-1493 -12488 0
-1493 12489 0
-12489 12490 0
-1494 -12489 0
-1494 12490 0
-12490 12491 0
-1495 -12490 0
-1495 12491 0
-12491 12492 0
-1496 -12491 0
-1496 12492 0
-12492 12493 0
-1497 -12492 0
-1497 12493 0
-12493 12494 0
-1498 -12493 0
-1498 12494 0
-12494 12495 0
-1499 -12494 0
-1499 12495 0
-1500 -12495 0
-1486 1885 0
-1487 1885 0
-1488 1885 0
-1489 1885 0
-1490 1885 0
-1491 1885 0
-1492 1885 0
-1493 1885 0
-1494 1885 0
-1495 1885 0
-1496 1885 0
-1497 1885 0
-1498 1885 0
-1499 1885 0
-1500 1885 0
-1885 1486 1487 1488 1489 1490 1491 1492 1493 1494 1495 1496 1497 1498 1499 1500 0
-1501 121 0
-1501 151 0
-121 -151 1501 0
-1502 122 0
-1502 152 0
-122 -152 1502 0
-1503 123 0
-1503 153 0
-123 -153 1503 0
-1504 124 0
-1504 154 0
-124 -154 1504 0
-1505 125 0
-1505 155 0
-125 -155 1505 0
-1506 126 0
-1506 156 0
-126 -156 1506 0
-1507 127 0
-1507 157 0
-127 -157 1507 0
-1508 128 0
-1508 158 0
-128 -158 1508 0
-1509 129 0
-1509 159 0
-129 -159 1509 0
-1510 130 0
-1510 160 0
-130 -160 1510 0
-1511 131 0
-1511 161 0
-131 -161 1511 0
-1512 132 0
-1512 162 0
-132 -162 1512 0
-1513 133 0
-1513 163 0
-133 -163 1513 0
-1514 134 0
-1514 164 0
-134 -164 1514 0
-1515 135 0
-1515 165 0
-135 -165 1515 0
-1501 12496 0
-12496 12497 0
-1502 -12496 0
-1502 12497 0
-12497 12498 0
-1503 -12497 0
-1503 12498 0
-12498 12499 0
-1504 -12498 0
-1504 12499 0
-12499 12500 0
-1505 -12499 0
-1505 12500 0
-12500 12501 0
-1506 -12500 0
-1506 12501 0
-12501 12502 0
-1507 -12501 0
-1507 12502 0
-12502 12503 0
-1508 -12502 0
-1508 12503 0
-12503 12504 0
-1509 -12503 0
-1509 12504 0
-12504 12505 0
-1510 -12504 0
-1510 12505 0
-12505 12506 0
-1511 -12505 0
-1511 12506 0
-12506 12507 0
-1512 -12506 0
-1512 12507 0
-12507 12508 0
-1513 -12507 0
-1513 12508 0
-12508 12509 0
-1514 -12508 0
-1514 12509 0
-1515 -12509 0
-1501 1886 0
-1502 1886 0
-1503 1886 0
-1504 1886 0
-1505 1886 0
-1506 1886 0
-1507 1886 0
-1508 1886 0
-1509 1886 0
-1510 1886 0
-1511 1886 0
-1512 1886 0
-1513 1886 0
-1514 1886 0
-1515 1886 0
-1886 1501 1502 1503 1504 1505 1506 1507 1508 1509 1510 1511 1512 1513 1514 1515 0
-1516 121 0
-1516 166 0
-121 -166 1516 0
-1517 122 0
-1517 167 0
-122 -167 1517 0
-1518 123 0
-1518 168 0
-123 -168 1518 0
-1519 124 0
-1519 169 0
-124 -169 1519 0
-1520 125 0
-1520 170 0
-125 -170 1520 0
-1521 126 0
-1521 171 0
-126 -171 1521 0
-1522 127 0
-1522 172 0
-127 -172 1522 0
-1523 128 0
-1523 173 0
-128 -173 1523 0
-1524 129 0
-1524 174 0
-129 -174 1524 0
-1525 130 0
-1525 175 0
-130 -175 1525 0
-1526 131 0
-1526 176 0
-131 -176 1526 0
-1527 132 0
-1527 177 0
-132 -177 1527 0
-1528 133 0
-1528 178 0
-133 -178 1528 0
-1529 134 0
-1529 179 0
-134 -179 1529 0
-1530 135 0
-1530 180 0
-135 -180 1530 0
-1516 12510 0
-12510 12511 0
-1517 -12510 0
-1517 12511 0
-12511 12512 0
-1518 -12511 0
-1518 12512 0
-12512 12513 0
-1519 -12512 0
-1519 12513 0
-12513 12514 0
-1520 -12513 0
-1520 12514 0
-12514 12515 0
-1521 -12514 0
-1521 12515 0
-12515 12516 0
-1522 -12515 0
-1522 12516 0
-12516 12517 0
-1523 -12516 0
-1523 12517 0
-12517 12518 0
-1524 -12517 0
-1524 12518 0
-12518 12519 0
-1525 -12518 0
-1525 12519 0
-12519 12520 0
-1526 -12519 0
-1526 12520 0
-12520 12521 0
-1527 -12520 0
-1527 12521 0
-12521 12522 0
-1528 -12521 0
-1528 12522 0
-12522 12523 0
-1529 -12522 0
-1529 12523 0
-1530 -12523 0
-1516 1887 0
-1517 1887 0
-1518 1887 0
-1519 1887 0
-1520 1887 0
-1521 1887 0
-1522 1887 0
-1523 1887 0
-1524 1887 0
-1525 1887 0
-1526 1887 0
-1527 1887 0
-1528 1887 0
-1529 1887 0
-1530 1887 0
-1887 1516 1517 1518 1519 1520 1521 1522 1523 1524 1525 1526 1527 1528 1529 1530 0
-1531 121 0
-1531 181 0
-121 -181 1531 0
-1532 122 0
-1532 182 0
-122 -182 1532 0
-1533 123 0
-1533 183 0
-123 -183 1533 0
-1534 124 0
-1534 184 0
-124 -184 1534 0
-1535 125 0
-1535 185 0
-125 -185 1535 0
-1536 126 0
-1536 186 0
-126 -186 1536 0
-1537 127 0
-1537 187 0
-127 -187 1537 0
-1538 128 0
-1538 188 0
-128 -188 1538 0
-1539 129 0
-1539 189 0
-129 -189 1539 0
-1540 130 0
-1540 190 0
-130 -190 1540 0
-1541 131 0
-1541 191 0
-131 -191 1541 0
-1542 132 0
-1542 192 0
-132 -192 1542 0
-1543 133 0
-1543 193 0
-133 -193 1543 0
-1544 134 0
-1544 194 0
-134 -194 1544 0
-1545 135 0
-1545 195 0
-135 -195 1545 0
-1531 12524 0
-12524 12525 0
-1532 -12524 0
-1532 12525 0
-12525 12526 0
-1533 -12525 0
-1533 12526 0
-12526 12527 0
-1534 -12526 0
-1534 12527 0
-12527 12528 0
-1535 -12527 0
-1535 12528 0
-12528 12529 0
-1536 -12528 0
-1536 12529 0
-12529 12530 0
-1537 -12529 0
-1537 12530 0
-12530 12531 0
-1538 -12530 0
-1538 12531 0
-12531 12532 0
-1539 -12531 0
-1539 12532 0
-12532 12533 0
-1540 -12532 0
-1540 12533 0
-12533 12534 0
-1541 -12533 0
-1541 12534 0
-12534 12535 0
-1542 -12534 0
-1542 12535 0
-12535 12536 0
-1543 -12535 0
-1543 12536 0
-12536 12537 0
-1544 -12536 0
-1544 12537 0
-1545 -12537 0
-1531 1888 0
-1532 1888 0
-1533 1888 0
-1534 1888 0
-1535 1888 0
-1536 1888 0
-1537 1888 0
-1538 1888 0
-1539 1888 0
-1540 1888 0
-1541 1888 0
-1542 1888 0
-1543 1888 0
-1544 1888 0
-1545 1888 0
-1888 1531 1532 1533 1534 1535 1536 1537 1538 1539 1540 1541 1542 1543 1544 1545 0
-1546 121 0
-1546 196 0
-121 -196 1546 0
-1547 122 0
-1547 197 0
-122 -197 1547 0
-1548 123 0
-1548 198 0
-123 -198 1548 0
-1549 124 0
-1549 199 0
-124 -199 1549 0
-1550 125 0
-1550 200 0
-125 -200 1550 0
-1551 126 0
-1551 201 0
-126 -201 1551 0
-1552 127 0
-1552 202 0
-127 -202 1552 0
-1553 128 0
-1553 203 0
-128 -203 1553 0
-1554 129 0
-1554 204 0
-129 -204 1554 0
-1555 130 0
-1555 205 0
-130 -205 1555 0
-1556 131 0
-1556 206 0
-131 -206 1556 0
-1557 132 0
-1557 207 0
-132 -207 1557 0
-1558 133 0
-1558 208 0
-133 -208 1558 0
-1559 134 0
-1559 209 0
-134 -209 1559 0
-1560 135 0
-1560 210 0
-135 -210 1560 0
-1546 12538 0
-12538 12539 0
-1547 -12538 0
-1547 12539 0
-12539 12540 0
-1548 -12539 0
-1548 12540 0
-12540 12541 0
-1549 -12540 0
-1549 12541 0
-12541 12542 0
-1550 -12541 0
-1550 12542 0
-12542 12543 0
-1551 -12542 0
-1551 12543 0
-12543 12544 0
-1552 -12543 0
-1552 12544 0
-12544 12545 0
-1553 -12544 0
-1553 12545 0
-12545 12546 0
-1554 -12545 0
-1554 12546 0
-12546 12547 0
-1555 -12546 0
-1555 12547 0
-12547 12548 0
-1556 -12547 0
-1556 12548 0
-12548 12549 0
-1557 -12548 0
-1557 12549 0
-12549 12550 0
-1558 -12549 0
-1558 12550 0
-12550 12551 0
-1559 -12550 0
-1559 12551 0
-1560 -12551 0
-1546 1889 0
-1547 1889 0
-1548 1889 0
-1549 1889 0
-1550 1889 0
-1551 1889 0
-1552 1889 0
-1553 1889 0
-1554 1889 0
-1555 1889 0
-1556 1889 0
-1557 1889 0
-1558 1889 0
-1559 1889 0
-1560 1889 0
-1889 1546 1547 1548 1549 1550 1551 1552 1553 1554 1555 1556 1557 1558 1559 1560 0
-1561 121 0
-1561 211 0
-121 -211 1561 0
-1562 122 0
-1562 212 0
-122 -212 1562 0
-1563 123 0
-1563 213 0
-123 -213 1563 0
-1564 124 0
-1564 214 0
-124 -214 1564 0
-1565 125 0
-1565 215 0
-125 -215 1565 0
-1566 126 0
-1566 216 0
-126 -216 1566 0
-1567 127 0
-1567 217 0
-127 -217 1567 0
-1568 128 0
-1568 218 0
-128 -218 1568 0
-1569 129 0
-1569 219 0
-129 -219 1569 0
-1570 130 0
-1570 220 0
-130 -220 1570 0
-1571 131 0
-1571 221 0
-131 -221 1571 0
-1572 132 0
-1572 222 0
-132 -222 1572 0
-1573 133 0
-1573 223 0
-133 -223 1573 0
-1574 134 0
-1574 224 0
-134 -224 1574 0
-1575 135 0
-1575 225 0
-135 -225 1575 0
-1561 12552 0
-12552 12553 0
-1562 -12552 0
-1562 12553 0
-12553 12554 0
-1563 -12553 0
-1563 12554 0
-12554 12555 0
-1564 -12554 0
-1564 12555 0
-12555 12556 0
-1565 -12555 0
-1565 12556 0
-12556 12557 0
-1566 -12556 0
-1566 12557 0
-12557 12558 0
-1567 -12557 0
-1567 12558 0
-12558 12559 0
-1568 -12558 0
-1568 12559 0
-12559 12560 0
-1569 -12559 0
-1569 12560 0
-12560 12561 0
-1570 -12560 0
-1570 12561 0
-12561 12562 0
-1571 -12561 0
-1571 12562 0
-12562 12563 0
-1572 -12562 0
-1572 12563 0
-12563 12564 0
-1573 -12563 0
-1573 12564 0
-12564 12565 0
-1574 -12564 0
-1574 12565 0
-1575 -12565 0
-1561 1890 0
-1562 1890 0
-1563 1890 0
-1564 1890 0
-1565 1890 0
-1566 1890 0
-1567 1890 0
-1568 1890 0
-1569 1890 0
-1570 1890 0
-1571 1890 0
-1572 1890 0
-1573 1890 0
-1574 1890 0
-1575 1890 0
-1890 1561 1562 1563 1564 1565 1566 1567 1568 1569 1570 1571 1572 1573 1574 1575 0
-1576 136 0
-1576 151 0
-136 -151 1576 0
-1577 137 0
-1577 152 0
-137 -152 1577 0
-1578 138 0
-1578 153 0
-138 -153 1578 0
-1579 139 0
-1579 154 0
-139 -154 1579 0
-1580 140 0
-1580 155 0
-140 -155 1580 0
-1581 141 0
-1581 156 0
-141 -156 1581 0
-1582 142 0
-1582 157 0
-142 -157 1582 0
-1583 143 0
-1583 158 0
-143 -158 1583 0
-1584 144 0
-1584 159 0
-144 -159 1584 0
-1585 145 0
-1585 160 0
-145 -160 1585 0
-1586 146 0
-1586 161 0
-146 -161 1586 0
-1587 147 0
-1587 162 0
-147 -162 1587 0
-1588 148 0
-1588 163 0
-148 -163 1588 0
-1589 149 0
-1589 164 0
-149 -164 1589 0
-1590 150 0
-1590 165 0
-150 -165 1590 0
-1576 12566 0
-12566 12567 0
-1577 -12566 0
-1577 12567 0
-12567 12568 0
-1578 -12567 0
-1578 12568 0
-12568 12569 0
-1579 -12568 0
-1579 12569 0
-12569 12570 0
-1580 -12569 0
-1580 12570 0
-12570 12571 0
-1581 -12570 0
-1581 12571 0
-12571 12572 0
-1582 -12571 0
-1582 12572 0
-12572 12573 0
-1583 -12572 0
-1583 12573 0
-12573 12574 0
-1584 -12573 0
-1584 12574 0
-12574 12575 0
-1585 -12574 0
-1585 12575 0
-12575 12576 0
-1586 -12575 0
-1586 12576 0
-12576 12577 0
-1587 -12576 0
-1587 12577 0
-12577 12578 0
-1588 -12577 0
-1588 12578 0
-12578 12579 0
-1589 -12578 0
-1589 12579 0
-1590 -12579 0
-1576 1891 0
-1577 1891 0
-1578 1891 0
-1579 1891 0
-1580 1891 0
-1581 1891 0
-1582 1891 0
-1583 1891 0
-1584 1891 0
-1585 1891 0
-1586 1891 0
-1587 1891 0
-1588 1891 0
-1589 1891 0
-1590 1891 0
-1891 1576 1577 1578 1579 1580 1581 1582 1583 1584 1585 1586 1587 1588 1589 1590 0
-1591 136 0
-1591 166 0
-136 -166 1591 0
-1592 137 0
-1592 167 0
-137 -167 1592 0
-1593 138 0
-1593 168 0
-138 -168 1593 0
-1594 139 0
-1594 169 0
-139 -169 1594 0
-1595 140 0
-1595 170 0
-140 -170 1595 0
-1596 141 0
-1596 171 0
-141 -171 1596 0
-1597 142 0
-1597 172 0
-142 -172 1597 0
-1598 143 0
-1598 173 0
-143 -173 1598 0
-1599 144 0
-1599 174 0
-144 -174 1599 0
-1600 145 0
-1600 175 0
-145 -175 1600 0
-1601 146 0
-1601 176 0
-146 -176 1601 0
-1602 147 0
-1602 177 0
-147 -177 1602 0
-1603 148 0
-1603 178 0
-148 -178 1603 0
-1604 149 0
-1604 179 0
-149 -179 1604 0
-1605 150 0
-1605 180 0
-150 -180 1605 0
-1591 12580 0
-12580 12581 0
-1592 -12580 0
-1592 12581 0
-12581 12582 0
-1593 -12581 0
-1593 12582 0
-12582 12583 0
-1594 -12582 0
-1594 12583 0
-12583 12584 0
-1595 -12583 0
-1595 12584 0
-12584 12585 0
-1596 -12584 0
-1596 12585 0
-12585 12586 0
-1597 -12585 0
-1597 12586 0
-12586 12587 0
-1598 -12586 0
-1598 12587 0
-12587 12588 0
-1599 -12587 0
-1599 12588 0
-12588 12589 0
-1600 -12588 0
-1600 12589 0
-12589 12590 0
-1601 -12589 0
-1601 12590 0
-12590 12591 0
-1602 -12590 0
-1602 12591 0
-12591 12592 0
-1603 -12591 0
-1603 12592 0
-12592 12593 0
-1604 -12592 0
-1604 12593 0
-1605 -12593 0
-1591 1892 0
-1592 1892 0
-1593 1892 0
-1594 1892 0
-1595 1892 0
-1596 1892 0
-1597 1892 0
-1598 1892 0
-1599 1892 0
-1600 1892 0
-1601 1892 0
-1602 1892 0
-1603 1892 0
-1604 1892 0
-1605 1892 0
-1892 1591 1592 1593 1594 1595 1596 1597 1598 1599 1600 1601 1602 1603 1604 1605 0
-1606 136 0
-1606 181 0
-136 -181 1606 0
-1607 137 0
-1607 182 0
-137 -182 1607 0
-1608 138 0
-1608 183 0
-138 -183 1608 0
-1609 139 0
-1609 184 0
-139 -184 1609 0
-1610 140 0
-1610 185 0
-140 -185 1610 0
-1611 141 0
-1611 186 0
-141 -186 1611 0
-1612 142 0
-1612 187 0
-142 -187 1612 0
-1613 143 0
-1613 188 0
-143 -188 1613 0
-1614 144 0
-1614 189 0
-144 -189 1614 0
-1615 145 0
-1615 190 0
-145 -190 1615 0
-1616 146 0
-1616 191 0
-146 -191 1616 0
-1617 147 0
-1617 192 0
-147 -192 1617 0
-1618 148 0
-1618 193 0
-148 -193 1618 0
-1619 149 0
-1619 194 0
-149 -194 1619 0
-1620 150 0
-1620 195 0
-150 -195 1620 0
-1606 12594 0
-12594 12595 0
-1607 -12594 0
-1607 12595 0
-12595 12596 0
-1608 -12595 0
-1608 12596 0
-12596 12597 0
-1609 -12596 0
-1609 12597 0
-12597 12598 0
-1610 -12597 0
-1610 12598 0
-12598 12599 0
-1611 -12598 0
-1611 12599 0
-12599 12600 0
-1612 -12599 0
-1612 12600 0
-12600 12601 0
-1613 -12600 0
-1613 12601 0
-12601 12602 0
-1614 -12601 0
-1614 12602 0
-12602 12603 0
-1615 -12602 0
-1615 12603 0
-12603 12604 0
-1616 -12603 0
-1616 12604 0
-12604 12605 0
-1617 -12604 0
-1617 12605 0
-12605 12606 0
-1618 -12605 0
-1618 12606 0
-12606 12607 0
-1619 -12606 0
-1619 12607 0
-1620 -12607 0
-1606 1893 0
-1607 1893 0
-1608 1893 0
-1609 1893 0
-1610 1893 0
-1611 1893 0
-1612 1893 0
-1613 1893 0
-1614 1893 0
-1615 1893 0
-1616 1893 0
-1617 1893 0
-1618 1893 0
-1619 1893 0
-1620 1893 0
-1893 1606 1607 1608 1609 1610 1611 1612 1613 1614 1615 1616 1617 1618 1619 1620 0
-1621 136 0
-1621 196 0
-136 -196 1621 0
-1622 137 0
-1622 197 0
-137 -197 1622 0
-1623 138 0
-1623 198 0
-138 -198 1623 0
-1624 139 0
-1624 199 0
-139 -199 1624 0
-1625 140 0
-1625 200 0
-140 -200 1625 0
-1626 141 0
-1626 201 0
-141 -201 1626 0
-1627 142 0
-1627 202 0
-142 -202 1627 0
-1628 143 0
-1628 203 0
-143 -203 1628 0
-1629 144 0
-1629 204 0
-144 -204 1629 0
-1630 145 0
-1630 205 0
-145 -205 1630 0
-1631 146 0
-1631 206 0
-146 -206 1631 0
-1632 147 0
-1632 207 0
-147 -207 1632 0
-1633 148 0
-1633 208 0
-148 -208 1633 0
-1634 149 0
-1634 209 0
-149 -209 1634 0
-1635 150 0
-1635 210 0
-150 -210 1635 0
-1621 12608 0
-12608 12609 0
-1622 -12608 0
-1622 12609 0
-12609 12610 0
-1623 -12609 0
-1623 12610 0
-12610 12611 0
-1624 -12610 0
-1624 12611 0
-12611 12612 0
-1625 -12611 0
-1625 12612 0
-12612 12613 0
-1626 -12612 0
-1626 12613 0
-12613 12614 0
-1627 -12613 0
-1627 12614 0
-12614 12615 0
-1628 -12614 0
-1628 12615 0
-12615 12616 0
-1629 -12615 0
-1629 12616 0
-12616 12617 0
-1630 -12616 0
-1630 12617 0
-12617 12618 0
-1631 -12617 0
-1631 12618 0
-12618 12619 0
-1632 -12618 0
-1632 12619 0
-12619 12620 0
-1633 -12619 0
-1633 12620 0
-12620 12621 0
-1634 -12620 0
-1634 12621 0
-1635 -12621 0
-1621 1894 0
-1622 1894 0
-1623 1894 0
-1624 1894 0
-1625 1894 0
-1626 1894 0
-1627 1894 0
-1628 1894 0
-1629 1894 0
-1630 1894 0
-1631 1894 0
-1632 1894 0
-1633 1894 0
-1634 1894 0
-1635 1894 0
-1894 1621 1622 1623 1624 1625 1626 1627 1628 1629 1630 1631 1632 1633 1634 1635 0
-1636 136 0
-1636 211 0
-136 -211 1636 0
-1637 137 0
-1637 212 0
-137 -212 1637 0
-1638 138 0
-1638 213 0
-138 -213 1638 0
-1639 139 0
-1639 214 0
-139 -214 1639 0
-1640 140 0
-1640 215 0
-140 -215 1640 0
-1641 141 0
-1641 216 0
-141 -216 1641 0
-1642 142 0
-1642 217 0
-142 -217 1642 0
-1643 143 0
-1643 218 0
-143 -218 1643 0
-1644 144 0
-1644 219 0
-144 -219 1644 0
-1645 145 0
-1645 220 0
-145 -220 1645 0
-1646 146 0
-1646 221 0
-146 -221 1646 0
-1647 147 0
-1647 222 0
-147 -222 1647 0
-1648 148 0
-1648 223 0
-148 -223 1648 0
-1649 149 0
-1649 224 0
-149 -224 1649 0
-1650 150 0
-1650 225 0
-150 -225 1650 0
-1636 12622 0
-12622 12623 0
-1637 -12622 0
-1637 12623 0
-12623 12624 0
-1638 -12623 0
-1638 12624 0
-12624 12625 0
-1639 -12624 0
-1639 12625 0
-12625 12626 0
-1640 -12625 0
-1640 12626 0
-12626 12627 0
-1641 -12626 0
-1641 12627 0
-12627 12628 0
-1642 -12627 0
-1642 12628 0
-12628 12629 0
-1643 -12628 0
-1643 12629 0
-12629 12630 0
-1644 -12629 0
-1644 12630 0
-12630 12631 0
-1645 -12630 0
-1645 12631 0
-12631 12632 0
-1646 -12631 0
-1646 12632 0
-12632 12633 0
-1647 -12632 0
-1647 12633 0
-12633 12634 0
-1648 -12633 0
-1648 12634 0
-12634 12635 0
-1649 -12634 0
-1649 12635 0
-1650 -12635 0
-1636 1895 0
-1637 1895 0
-1638 1895 0
-1639 1895 0
-1640 1895 0
-1641 1895 0
-1642 1895 0
-1643 1895 0
-1644 1895 0
-1645 1895 0
-1646 1895 0
-1647 1895 0
-1648 1895 0
-1649 1895 0
-1650 1895 0
-1895 1636 1637 1638 1639 1640 1641 1642 1643 1644 1645 1646 1647 1648 1649 1650 0
-1651 151 0
-1651 166 0
-151 -166 1651 0
-1652 152 0
-1652 167 0
-152 -167 1652 0
-1653 153 0
-1653 168 0
-153 -168 1653 0
-1654 154 0
-1654 169 0
-154 -169 1654 0
-1655 155 0
-1655 170 0
-155 -170 1655 0
-1656 156 0
-1656 171 0
-156 -171 1656 0
-1657 157 0
-1657 172 0
-157 -172 1657 0
-1658 158 0
-1658 173 0
-158 -173 1658 0
-1659 159 0
-1659 174 0
-159 -174 1659 0
-1660 160 0
-1660 175 0
-160 -175 1660 0
-1661 161 0
-1661 176 0
-161 -176 1661 0
-1662 162 0
-1662 177 0
-162 -177 1662 0
-1663 163 0
-1663 178 0
-163 -178 1663 0
-1664 164 0
-1664 179 0
-164 -179 1664 0
-1665 165 0
-1665 180 0
-165 -180 1665 0
-1651 12636 0
-12636 12637 0
-1652 -12636 0
-1652 12637 0
-12637 12638 0
-1653 -12637 0
-1653 12638 0
-12638 12639 0
-1654 -12638 0
-1654 12639 0
-12639 12640 0
-1655 -12639 0
-1655 12640 0
-12640 12641 0
-1656 -12640 0
-1656 12641 0
-12641 12642 0
-1657 -12641 0
-1657 12642 0
-12642 12643 0
-1658 -12642 0
-1658 12643 0
-12643 12644 0
-1659 -12643 0
-1659 12644 0
-12644 12645 0
-1660 -12644 0
-1660 12645 0
-12645 12646 0
-1661 -12645 0
-1661 12646 0
-12646 12647 0
-1662 -12646 0
-1662 12647 0
-12647 12648 0
-1663 -12647 0
-1663 12648 0
-12648 12649 0
-1664 -12648 0
-1664 12649 0
-1665 -12649 0
-1651 1896 0
-1652 1896 0
-1653 1896 0
-1654 1896 0
-1655 1896 0
-1656 1896 0
-1657 1896 0
-1658 1896 0
-1659 1896 0
-1660 1896 0
-1661 1896 0
-1662 1896 0
-1663 1896 0
-1664 1896 0
-1665 1896 0
-1896 1651 1652 1653 1654 1655 1656 1657 1658 1659 1660 1661 1662 1663 1664 1665 0
-1666 151 0
-1666 181 0
-151 -181 1666 0
-1667 152 0
-1667 182 0
-152 -182 1667 0
-1668 153 0
-1668 183 0
-153 -183 1668 0
-1669 154 0
-1669 184 0
-154 -184 1669 0
-1670 155 0
-1670 185 0
-155 -185 1670 0
-1671 156 0
-1671 186 0
-156 -186 1671 0
-1672 157 0
-1672 187 0
-157 -187 1672 0
-1673 158 0
-1673 188 0
-158 -188 1673 0
-1674 159 0
-1674 189 0
-159 -189 1674 0
-1675 160 0
-1675 190 0
-160 -190 1675 0
-1676 161 0
-1676 191 0
-161 -191 1676 0
-1677 162 0
-1677 192 0
-162 -192 1677 0
-1678 163 0
-1678 193 0
-163 -193 1678 0
-1679 164 0
-1679 194 0
-164 -194 1679 0
-1680 165 0
-1680 195 0
-165 -195 1680 0
-1666 12650 0
-12650 12651 0
-1667 -12650 0
-1667 12651 0
-12651 12652 0
-1668 -12651 0
-1668 12652 0
-12652 12653 0
-1669 -12652 0
-1669 12653 0
-12653 12654 0
-1670 -12653 0
-1670 12654 0
-12654 12655 0
-1671 -12654 0
-1671 12655 0
-12655 12656 0
-1672 -12655 0
-1672 12656 0
-12656 12657 0
-1673 -12656 0
-1673 12657 0
-12657 12658 0
-1674 -12657 0
-1674 12658 0
-12658 12659 0
-1675 -12658 0
-1675 12659 0
-12659 12660 0
-1676 -12659 0
-1676 12660 0
-12660 12661 0
-1677 -12660 0
-1677 12661 0
-12661 12662 0
-1678 -12661 0
-1678 12662 0
-12662 12663 0
-1679 -12662 0
-1679 12663 0
-1680 -12663 0
-1666 1897 0
-1667 1897 0
-1668 1897 0
-1669 1897 0
-1670 1897 0
-1671 1897 0
-1672 1897 0
-1673 1897 0
-1674 1897 0
-1675 1897 0
-1676 1897 0
-1677 1897 0
-1678 1897 0
-1679 1897 0
-1680 1897 0
-1897 1666 1667 1668 1669 1670 1671 1672 1673 1674 1675 1676 1677 1678 1679 1680 0
-1681 151 0
-1681 196 0
-151 -196 1681 0
-1682 152 0
-1682 197 0
-152 -197 1682 0
-1683 153 0
-1683 198 0
-153 -198 1683 0
-1684 154 0
-1684 199 0
-154 -199 1684 0
-1685 155 0
-1685 200 0
-155 -200 1685 0
-1686 156 0
-1686 201 0
-156 -201 1686 0
-1687 157 0
-1687 202 0
-157 -202 1687 0
-1688 158 0
-1688 203 0
-158 -203 1688 0
-1689 159 0
-1689 204 0
-159 -204 1689 0
-1690 160 0
-1690 205 0
-160 -205 1690 0
-1691 161 0
-1691 206 0
-161 -206 1691 0
-1692 162 0
-1692 207 0
-162 -207 1692 0
-1693 163 0
-1693 208 0
-163 -208 1693 0
-1694 164 0
-1694 209 0
-164 -209 1694 0
-1695 165 0
-1695 210 0
-165 -210 1695 0
-1681 12664 0
-12664 12665 0
-1682 -12664 0
-1682 12665 0
-12665 12666 0
-1683 -12665 0
-1683 12666 0
-12666 12667 0
-1684 -12666 0
-1684 12667 0
-12667 12668 0
-1685 -12667 0
-1685 12668 0
-12668 12669 0
-1686 -12668 0
-1686 12669 0
-12669 12670 0
-1687 -12669 0
-1687 12670 0
-12670 12671 0
-1688 -12670 0
-1688 12671 0
-12671 12672 0
-1689 -12671 0
-1689 12672 0
-12672 12673 0
-1690 -12672 0
-1690 12673 0
-12673 12674 0
-1691 -12673 0
-1691 12674 0
-12674 12675 0
-1692 -12674 0
-1692 12675 0
-12675 12676 0
-1693 -12675 0
-1693 12676 0
-12676 12677 0
-1694 -12676 0
-1694 12677 0
-1695 -12677 0
-1681 1898 0
-1682 1898 0
-1683 1898 0
-1684 1898 0
-1685 1898 0
-1686 1898 0
-1687 1898 0
-1688 1898 0
-1689 1898 0
-1690 1898 0
-1691 1898 0
-1692 1898 0
-1693 1898 0
-1694 1898 0
-1695 1898 0
-1898 1681 1682 1683 1684 1685 1686 1687 1688 1689 1690 1691 1692 1693 1694 1695 0
-1696 151 0
-1696 211 0
-151 -211 1696 0
-1697 152 0
-1697 212 0
-152 -212 1697 0
-1698 153 0
-1698 213 0
-153 -213 1698 0
-1699 154 0
-1699 214 0
-154 -214 1699 0
-1700 155 0
-1700 215 0
-155 -215 1700 0
-1701 156 0
-1701 216 0
-156 -216 1701 0
-1702 157 0
-1702 217 0
-157 -217 1702 0
-1703 158 0
-1703 218 0
-158 -218 1703 0
-1704 159 0
-1704 219 0
-159 -219 1704 0
-1705 160 0
-1705 220 0
-160 -220 1705 0
-1706 161 0
-1706 221 0
-161 -221 1706 0
-1707 162 0
-1707 222 0
-162 -222 1707 0
-1708 163 0
-1708 223 0
-163 -223 1708 0
-1709 164 0
-1709 224 0
-164 -224 1709 0
-1710 165 0
-1710 225 0
-165 -225 1710 0
-1696 12678 0
-12678 12679 0
-1697 -12678 0
-1697 12679 0
-12679 12680 0
-1698 -12679 0
-1698 12680 0
-12680 12681 0
-1699 -12680 0
-1699 12681 0
-12681 12682 0
-1700 -12681 0
-1700 12682 0
-12682 12683 0
-1701 -12682 0
-1701 12683 0
-12683 12684 0
-1702 -12683 0
-1702 12684 0
-12684 12685 0
-1703 -12684 0
-1703 12685 0
-12685 12686 0
-1704 -12685 0
-1704 12686 0
-12686 12687 0
-1705 -12686 0
-1705 12687 0
-12687 12688 0
-1706 -12687 0
-1706 12688 0
-12688 12689 0
-1707 -12688 0
-1707 12689 0
-12689 12690 0
-1708 -12689 0
-1708 12690 0
-12690 12691 0
-1709 -12690 0
-1709 12691 0
-1710 -12691 0
-1696 1899 0
-1697 1899 0
-1698 1899 0
-1699 1899 0
-1700 1899 0
-1701 1899 0
-1702 1899 0
-1703 1899 0
-1704 1899 0
-1705 1899 0
-1706 1899 0
-1707 1899 0
-1708 1899 0
-1709 1899 0
-1710 1899 0
-1899 1696 1697 1698 1699 1700 1701 1702 1703 1704 1705 1706 1707 1708 1709 1710 0
-1711 166 0
-1711 181 0
-166 -181 1711 0
-1712 167 0
-1712 182 0
-167 -182 1712 0
-1713 168 0
-1713 183 0
-168 -183 1713 0
-1714 169 0
-1714 184 0
-169 -184 1714 0
-1715 170 0
-1715 185 0
-170 -185 1715 0
-1716 171 0
-1716 186 0
-171 -186 1716 0
-1717 172 0
-1717 187 0
-172 -187 1717 0
-1718 173 0
-1718 188 0
-173 -188 1718 0
-1719 174 0
-1719 189 0
-174 -189 1719 0
-1720 175 0
-1720 190 0
-175 -190 1720 0
-1721 176 0
-1721 191 0
-176 -191 1721 0
-1722 177 0
-1722 192 0
-177 -192 1722 0
-1723 178 0
-1723 193 0
-178 -193 1723 0
-1724 179 0
-1724 194 0
-179 -194 1724 0
-1725 180 0
-1725 195 0
-180 -195 1725 0
-1711 12692 0
-12692 12693 0
-1712 -12692 0
-1712 12693 0
-12693 12694 0
-1713 -12693 0
-1713 12694 0
-12694 12695 0
-1714 -12694 0
-1714 12695 0
-12695 12696 0
-1715 -12695 0
-1715 12696 0
-12696 12697 0
-1716 -12696 0
-1716 12697 0
-12697 12698 0
-1717 -12697 0
-1717 12698 0
-12698 12699 0
-1718 -12698 0
-1718 12699 0
-12699 12700 0
-1719 -12699 0
-1719 12700 0
-12700 12701 0
-1720 -12700 0
-1720 12701 0
-12701 12702 0
-1721 -12701 0
-1721 12702 0
-12702 12703 0
-1722 -12702 0
-1722 12703 0
-12703 12704 0
-1723 -12703 0
-1723 12704 0
-12704 12705 0
-1724 -12704 0
-1724 12705 0
-1725 -12705 0
-1711 1900 0
-1712 1900 0
-1713 1900 0
-1714 1900 0
-1715 1900 0
-1716 1900 0
-1717 1900 0
-1718 1900 0
-1719 1900 0
-1720 1900 0
-1721 1900 0
-1722 1900 0
-1723 1900 0
-1724 1900 0
-1725 1900 0
-1900 1711 1712 1713 1714 1715 1716 1717 1718 1719 1720 1721 1722 1723 1724 1725 0
-1726 166 0
-1726 196 0
-166 -196 1726 0
-1727 167 0
-1727 197 0
-167 -197 1727 0
-1728 168 0
-1728 198 0
-168 -198 1728 0
-1729 169 0
-1729 199 0
-169 -199 1729 0
-1730 170 0
-1730 200 0
-170 -200 1730 0
-1731 171 0
-1731 201 0
-171 -201 1731 0
-1732 172 0
-1732 202 0
-172 -202 1732 0
-1733 173 0
-1733 203 0
-173 -203 1733 0
-1734 174 0
-1734 204 0
-174 -204 1734 0
-1735 175 0
-1735 205 0
-175 -205 1735 0
-1736 176 0
-1736 206 0
-176 -206 1736 0
-1737 177 0
-1737 207 0
-177 -207 1737 0
-1738 178 0
-1738 208 0
-178 -208 1738 0
-1739 179 0
-1739 209 0
-179 -209 1739 0
-1740 180 0
-1740 210 0
-180 -210 1740 0
-1726 12706 0
-12706 12707 0
-1727 -12706 0
-1727 12707 0
-12707 12708 0
-1728 -12707 0
-1728 12708 0
-12708 12709 0
-1729 -12708 0
-1729 12709 0
-12709 12710 0
-1730 -12709 0
-1730 12710 0
-12710 12711 0
-1731 -12710 0
-1731 12711 0
-12711 12712 0
-1732 -12711 0
-1732 12712 0
-12712 12713 0
-1733 -12712 0
-1733 12713 0
-12713 12714 0
-1734 -12713 0
-1734 12714 0
-12714 12715 0
-1735 -12714 0
-1735 12715 0
-12715 12716 0
-1736 -12715 0
-1736 12716 0
-12716 12717 0
-1737 -12716 0
-1737 12717 0
-12717 12718 0
-1738 -12717 0
-1738 12718 0
-12718 12719 0
-1739 -12718 0
-1739 12719 0
-1740 -12719 0
-1726 1901 0
-1727 1901 0
-1728 1901 0
-1729 1901 0
-1730 1901 0
-1731 1901 0
-1732 1901 0
-1733 1901 0
-1734 1901 0
-1735 1901 0
-1736 1901 0
-1737 1901 0
-1738 1901 0
-1739 1901 0
-1740 1901 0
-1901 1726 1727 1728 1729 1730 1731 1732 1733 1734 1735 1736 1737 1738 1739 1740 0
-1741 166 0
-1741 211 0
-166 -211 1741 0
-1742 167 0
-1742 212 0
-167 -212 1742 0
-1743 168 0
-1743 213 0
-168 -213 1743 0
-1744 169 0
-1744 214 0
-169 -214 1744 0
-1745 170 0
-1745 215 0
-170 -215 1745 0
-1746 171 0
-1746 216 0
-171 -216 1746 0
-1747 172 0
-1747 217 0
-172 -217 1747 0
-1748 173 0
-1748 218 0
-173 -218 1748 0
-1749 174 0
-1749 219 0
-174 -219 1749 0
-1750 175 0
-1750 220 0
-175 -220 1750 0
-1751 176 0
-1751 221 0
-176 -221 1751 0
-1752 177 0
-1752 222 0
-177 -222 1752 0
-1753 178 0
-1753 223 0
-178 -223 1753 0
-1754 179 0
-1754 224 0
-179 -224 1754 0
-1755 180 0
-1755 225 0
-180 -225 1755 0
-1741 12720 0
-12720 12721 0
-1742 -12720 0
-1742 12721 0
-12721 12722 0
-1743 -12721 0
-1743 12722 0
-12722 12723 0
-1744 -12722 0
-1744 12723 0
-12723 12724 0
-1745 -12723 0
-1745 12724 0
-12724 12725 0
-1746 -12724 0
-1746 12725 0
-12725 12726 0
-1747 -12725 0
-1747 12726 0
-12726 12727 0
-1748 -12726 0
-1748 12727 0
-12727 12728 0
-1749 -12727 0
-1749 12728 0
-12728 12729 0
-1750 -12728 0
-1750 12729 0
-12729 12730 0
-1751 -12729 0
-1751 12730 0
-12730 12731 0
-1752 -12730 0
-1752 12731 0
-12731 12732 0
-1753 -12731 0
-1753 12732 0
-12732 12733 0
-1754 -12732 0
-1754 12733 0
-1755 -12733 0
-1741 1902 0
-1742 1902 0
-1743 1902 0
-1744 1902 0
-1745 1902 0
-1746 1902 0
-1747 1902 0
-1748 1902 0
-1749 1902 0
-1750 1902 0
-1751 1902 0
-1752 1902 0
-1753 1902 0
-1754 1902 0
-1755 1902 0
-1902 1741 1742 1743 1744 1745 1746 1747 1748 1749 1750 1751 1752 1753 1754 1755 0
-1756 181 0
-1756 196 0
-181 -196 1756 0
-1757 182 0
-1757 197 0
-182 -197 1757 0
-1758 183 0
-1758 198 0
-183 -198 1758 0
-1759 184 0
-1759 199 0
-184 -199 1759 0
-1760 185 0
-1760 200 0
-185 -200 1760 0
-1761 186 0
-1761 201 0
-186 -201 1761 0
-1762 187 0
-1762 202 0
-187 -202 1762 0
-1763 188 0
-1763 203 0
-188 -203 1763 0
-1764 189 0
-1764 204 0
-189 -204 1764 0
-1765 190 0
-1765 205 0
-190 -205 1765 0
-1766 191 0
-1766 206 0
-191 -206 1766 0
-1767 192 0
-1767 207 0
-192 -207 1767 0
-1768 193 0
-1768 208 0
-193 -208 1768 0
-1769 194 0
-1769 209 0
-194 -209 1769 0
-1770 195 0
-1770 210 0
-195 -210 1770 0
-1756 12734 0
-12734 12735 0
-1757 -12734 0
-1757 12735 0
-12735 12736 0
-1758 -12735 0
-1758 12736 0
-12736 12737 0
-1759 -12736 0
-1759 12737 0
-12737 12738 0
-1760 -12737 0
-1760 12738 0
-12738 12739 0
-1761 -12738 0
-1761 12739 0
-12739 12740 0
-1762 -12739 0
-1762 12740 0
-12740 12741 0
-1763 -12740 0
-1763 12741 0
-12741 12742 0
-1764 -12741 0
-1764 12742 0
-12742 12743 0
-1765 -12742 0
-1765 12743 0
-12743 12744 0
-1766 -12743 0
-1766 12744 0
-12744 12745 0
-1767 -12744 0
-1767 12745 0
-12745 12746 0
-1768 -12745 0
-1768 12746 0
-12746 12747 0
-1769 -12746 0
-1769 12747 0
-1770 -12747 0
-1756 1903 0
-1757 1903 0
-1758 1903 0
-1759 1903 0
-1760 1903 0
-1761 1903 0
-1762 1903 0
-1763 1903 0
-1764 1903 0
-1765 1903 0
-1766 1903 0
-1767 1903 0
-1768 1903 0
-1769 1903 0
-1770 1903 0
-1903 1756 1757 1758 1759 1760 1761 1762 1763 1764 1765 1766 1767 1768 1769 1770 0
-1771 181 0
-1771 211 0
-181 -211 1771 0
-1772 182 0
-1772 212 0
-182 -212 1772 0
-1773 183 0
-1773 213 0
-183 -213 1773 0
-1774 184 0
-1774 214 0
-184 -214 1774 0
-1775 185 0
-1775 215 0
-185 -215 1775 0
-1776 186 0
-1776 216 0
-186 -216 1776 0
-1777 187 0
-1777 217 0
-187 -217 1777 0
-1778 188 0
-1778 218 0
-188 -218 1778 0
-1779 189 0
-1779 219 0
-189 -219 1779 0
-1780 190 0
-1780 220 0
-190 -220 1780 0
-1781 191 0
-1781 221 0
-191 -221 1781 0
-1782 192 0
-1782 222 0
-192 -222 1782 0
-1783 193 0
-1783 223 0
-193 -223 1783 0
-1784 194 0
-1784 224 0
-194 -224 1784 0
-1785 195 0
-1785 225 0
-195 -225 1785 0
-1771 12748 0
-12748 12749 0
-1772 -12748 0
-1772 12749 0
-12749 12750 0
-1773 -12749 0
-1773 12750 0
-12750 12751 0
-1774 -12750 0
-1774 12751 0
-12751 12752 0
-1775 -12751 0
-1775 12752 0
-12752 12753 0
-1776 -12752 0
-1776 12753 0
-12753 12754 0
-1777 -12753 0
-1777 12754 0
-12754 12755 0
-1778 -12754 0
-1778 12755 0
-12755 12756 0
-1779 -12755 0
-1779 12756 0
-12756 12757 0
-1780 -12756 0
-1780 12757 0
-12757 12758 0
-1781 -12757 0
-1781 12758 0
-12758 12759 0
-1782 -12758 0
-1782 12759 0
-12759 12760 0
-1783 -12759 0
-1783 12760 0
-12760 12761 0
-1784 -12760 0
-1784 12761 0
-1785 -12761 0
-1771 1904 0
-1772 1904 0
-1773 1904 0
-1774 1904 0
-1775 1904 0
-1776 1904 0
-1777 1904 0
-1778 1904 0
-1779 1904 0
-1780 1904 0
-1781 1904 0
-1782 1904 0
-1783 1904 0
-1784 1904 0
-1785 1904 0
-1904 1771 1772 1773 1774 1775 1776 1777 1778 1779 1780 1781 1782 1783 1784 1785 0
-1786 196 0
-1786 211 0
-196 -211 1786 0
-1787 197 0
-1787 212 0
-197 -212 1787 0
-1788 198 0
-1788 213 0
-198 -213 1788 0
-1789 199 0
-1789 214 0
-199 -214 1789 0
-1790 200 0
-1790 215 0
-200 -215 1790 0
-1791 201 0
-1791 216 0
-201 -216 1791 0
-1792 202 0
-1792 217 0
-202 -217 1792 0
-1793 203 0
-1793 218 0
-203 -218 1793 0
-1794 204 0
-1794 219 0
-204 -219 1794 0
-1795 205 0
-1795 220 0
-205 -220 1795 0
-1796 206 0
-1796 221 0
-206 -221 1796 0
-1797 207 0
-1797 222 0
-207 -222 1797 0
-1798 208 0
-1798 223 0
-208 -223 1798 0
-1799 209 0
-1799 224 0
-209 -224 1799 0
-1800 210 0
-1800 225 0
-210 -225 1800 0
-1786 12762 0
-12762 12763 0
-1787 -12762 0
-1787 12763 0
-12763 12764 0
-1788 -12763 0
-1788 12764 0
-12764 12765 0
-1789 -12764 0
-1789 12765 0
-12765 12766 0
-1790 -12765 0
-1790 12766 0
-12766 12767 0
-1791 -12766 0
-1791 12767 0
-12767 12768 0
-1792 -12767 0
-1792 12768 0
-12768 12769 0
-1793 -12768 0
-1793 12769 0
-12769 12770 0
-1794 -12769 0
-1794 12770 0
-12770 12771 0
-1795 -12770 0
-1795 12771 0
-12771 12772 0
-1796 -12771 0
-1796 12772 0
-12772 12773 0
-1797 -12772 0
-1797 12773 0
-12773 12774 0
-1798 -12773 0
-1798 12774 0
-12774 12775 0
-1799 -12774 0
-1799 12775 0
-1800 -12775 0
-1786 1905 0
-1787 1905 0
-1788 1905 0
-1789 1905 0
-1790 1905 0
-1791 1905 0
-1792 1905 0
-1793 1905 0
-1794 1905 0
-1795 1905 0
-1796 1905 0
-1797 1905 0
-1798 1905 0
-1799 1905 0
-1800 1905 0
-1905 1786 1787 1788 1789 1790 1791 1792 1793 1794 1795 1796 1797 1798 1799 1800 0
-1906 1 0
-1906 16 0
-1906 31 0
-1 -16 -31 1906 0
-1907 2 0
-1907 17 0
-1907 32 0
-2 -17 -32 1907 0
-1908 3 0
-1908 18 0
-1908 33 0
-3 -18 -33 1908 0
-1909 4 0
-1909 19 0
-1909 34 0
-4 -19 -34 1909 0
-1910 5 0
-1910 20 0
-1910 35 0
-5 -20 -35 1910 0
-1911 6 0
-1911 21 0
-1911 36 0
-6 -21 -36 1911 0
-1912 7 0
-1912 22 0
-1912 37 0
-7 -22 -37 1912 0
-1913 8 0
-1913 23 0
-1913 38 0
-8 -23 -38 1913 0
-1914 9 0
-1914 24 0
-1914 39 0
-9 -24 -39 1914 0
-1915 10 0
-1915 25 0
-1915 40 0
-10 -25 -40 1915 0
-1916 11 0
-1916 26 0
-1916 41 0
-11 -26 -41 1916 0
-1917 12 0
-1917 27 0
-1917 42 0
-12 -27 -42 1917 0
-1918 13 0
-1918 28 0
-1918 43 0
-13 -28 -43 1918 0
-1919 14 0
-1919 29 0
-1919 44 0
-14 -29 -44 1919 0
-1920 15 0
-1920 30 0
-1920 45 0
-15 -30 -45 1920 0
-1906 8731 0
-1907 8731 0
-1908 8731 0
-1909 8731 0
-1910 8731 0
-1911 8731 0
-1912 8731 0
-1913 8731 0
-1914 8731 0
-1915 8731 0
-1916 8731 0
-1917 8731 0
-1918 8731 0
-1919 8731 0
-1920 8731 0
-8731 1906 1907 1908 1909 1910 1911 1912 1913 1914 1915 1916 1917 1918 1919 1920 0
-1921 1 0
-1921 16 0
-1921 46 0
-1 -16 -46 1921 0
-1922 2 0
-1922 17 0
-1922 47 0
-2 -17 -47 1922 0
-1923 3 0
-1923 18 0
-1923 48 0
-3 -18 -48 1923 0
-1924 4 0
-1924 19 0
-1924 49 0
-4 -19 -49 1924 0
-1925 5 0
-1925 20 0
-1925 50 0
-5 -20 -50 1925 0
-1926 6 0
-1926 21 0
-1926 51 0
-6 -21 -51 1926 0
-1927 7 0
-1927 22 0
-1927 52 0
-7 -22 -52 1927 0
-1928 8 0
-1928 23 0
-1928 53 0
-8 -23 -53 1928 0
-1929 9 0
-1929 24 0
-1929 54 0
-9 -24 -54 1929 0
-1930 10 0
-1930 25 0
-1930 55 0
-10 -25 -55 1930 0
-1931 11 0
-1931 26 0
-1931 56 0
-11 -26 -56 1931 0
-1932 12 0
-1932 27 0
-1932 57 0
-12 -27 -57 1932 0
-1933 13 0
-1933 28 0
-1933 58 0
-13 -28 -58 1933 0
-1934 14 0
-1934 29 0
-1934 59 0
-14 -29 -59 1934 0
-1935 15 0
-1935 30 0
-1935 60 0
-15 -30 -60 1935 0
-1921 8732 0
-1922 8732 0
-1923 8732 0
-1924 8732 0
-1925 8732 0
-1926 8732 0
-1927 8732 0
-1928 8732 0
-1929 8732 0
-1930 8732 0
-1931 8732 0
-1932 8732 0
-1933 8732 0
-1934 8732 0
-1935 8732 0
-8732 1921 1922 1923 1924 1925 1926 1927 1928 1929 1930 1931 1932 1933 1934 1935 0
-1936 1 0
-1936 16 0
-1936 61 0
-1 -16 -61 1936 0
-1937 2 0
-1937 17 0
-1937 62 0
-2 -17 -62 1937 0
-1938 3 0
-1938 18 0
-1938 63 0
-3 -18 -63 1938 0
-1939 4 0
-1939 19 0
-1939 64 0
-4 -19 -64 1939 0
-1940 5 0
-1940 20 0
-1940 65 0
-5 -20 -65 1940 0
-1941 6 0
-1941 21 0
-1941 66 0
-6 -21 -66 1941 0
-1942 7 0
-1942 22 0
-1942 67 0
-7 -22 -67 1942 0
-1943 8 0
-1943 23 0
-1943 68 0
-8 -23 -68 1943 0
-1944 9 0
-1944 24 0
-1944 69 0
-9 -24 -69 1944 0
-1945 10 0
-1945 25 0
-1945 70 0
-10 -25 -70 1945 0
-1946 11 0
-1946 26 0
-1946 71 0
-11 -26 -71 1946 0
-1947 12 0
-1947 27 0
-1947 72 0
-12 -27 -72 1947 0
-1948 13 0
-1948 28 0
-1948 73 0
-13 -28 -73 1948 0
-1949 14 0
-1949 29 0
-1949 74 0
-14 -29 -74 1949 0
-1950 15 0
-1950 30 0
-1950 75 0
-15 -30 -75 1950 0
-1936 8733 0
-1937 8733 0
-1938 8733 0
-1939 8733 0
-1940 8733 0
-1941 8733 0
-1942 8733 0
-1943 8733 0
-1944 8733 0
-1945 8733 0
-1946 8733 0
-1947 8733 0
-1948 8733 0
-1949 8733 0
-1950 8733 0
-8733 1936 1937 1938 1939 1940 1941 1942 1943 1944 1945 1946 1947 1948 1949 1950 0
-1951 1 0
-1951 16 0
-1951 76 0
-1 -16 -76 1951 0
-1952 2 0
-1952 17 0
-1952 77 0
-2 -17 -77 1952 0
-1953 3 0
-1953 18 0
-1953 78 0
-3 -18 -78 1953 0
-1954 4 0
-1954 19 0
-1954 79 0
-4 -19 -79 1954 0
-1955 5 0
-1955 20 0
-1955 80 0
-5 -20 -80 1955 0
-1956 6 0
-1956 21 0
-1956 81 0
-6 -21 -81 1956 0
-1957 7 0
-1957 22 0
-1957 82 0
-7 -22 -82 1957 0
-1958 8 0
-1958 23 0
-1958 83 0
-8 -23 -83 1958 0
-1959 9 0
-1959 24 0
-1959 84 0
-9 -24 -84 1959 0
-1960 10 0
-1960 25 0
-1960 85 0
-10 -25 -85 1960 0
-1961 11 0
-1961 26 0
-1961 86 0
-11 -26 -86 1961 0
-1962 12 0
-1962 27 0
-1962 87 0
-12 -27 -87 1962 0
-1963 13 0
-1963 28 0
-1963 88 0
-13 -28 -88 1963 0
-1964 14 0
-1964 29 0
-1964 89 0
-14 -29 -89 1964 0
-1965 15 0
-1965 30 0
-1965 90 0
-15 -30 -90 1965 0
-1951 8734 0
-1952 8734 0
-1953 8734 0
-1954 8734 0
-1955 8734 0
-1956 8734 0
-1957 8734 0
-1958 8734 0
-1959 8734 0
-1960 8734 0
-1961 8734 0
-1962 8734 0
-1963 8734 0
-1964 8734 0
-1965 8734 0
-8734 1951 1952 1953 1954 1955 1956 1957 1958 1959 1960 1961 1962 1963 1964 1965 0
-1966 1 0
-1966 16 0
-1966 91 0
-1 -16 -91 1966 0
-1967 2 0
-1967 17 0
-1967 92 0
-2 -17 -92 1967 0
-1968 3 0
-1968 18 0
-1968 93 0
-3 -18 -93 1968 0
-1969 4 0
-1969 19 0
-1969 94 0
-4 -19 -94 1969 0
-1970 5 0
-1970 20 0
-1970 95 0
-5 -20 -95 1970 0
-1971 6 0
-1971 21 0
-1971 96 0
-6 -21 -96 1971 0
-1972 7 0
-1972 22 0
-1972 97 0
-7 -22 -97 1972 0
-1973 8 0
-1973 23 0
-1973 98 0
-8 -23 -98 1973 0
-1974 9 0
-1974 24 0
-1974 99 0
-9 -24 -99 1974 0
-1975 10 0
-1975 25 0
-1975 100 0
-10 -25 -100 1975 0
-1976 11 0
-1976 26 0
-1976 101 0
-11 -26 -101 1976 0
-1977 12 0
-1977 27 0
-1977 102 0
-12 -27 -102 1977 0
-1978 13 0
-1978 28 0
-1978 103 0
-13 -28 -103 1978 0
-1979 14 0
-1979 29 0
-1979 104 0
-14 -29 -104 1979 0
-1980 15 0
-1980 30 0
-1980 105 0
-15 -30 -105 1980 0
-1966 8735 0
-1967 8735 0
-1968 8735 0
-1969 8735 0
-1970 8735 0
-1971 8735 0
-1972 8735 0
-1973 8735 0
-1974 8735 0
-1975 8735 0
-1976 8735 0
-1977 8735 0
-1978 8735 0
-1979 8735 0
-1980 8735 0
-8735 1966 1967 1968 1969 1970 1971 1972 1973 1974 1975 1976 1977 1978 1979 1980 0
-1981 1 0
-1981 16 0
-1981 106 0
-1 -16 -106 1981 0
-1982 2 0
-1982 17 0
-1982 107 0
-2 -17 -107 1982 0
-1983 3 0
-1983 18 0
-1983 108 0
-3 -18 -108 1983 0
-1984 4 0
-1984 19 0
-1984 109 0
-4 -19 -109 1984 0
-1985 5 0
-1985 20 0
-1985 110 0
-5 -20 -110 1985 0
-1986 6 0
-1986 21 0
-1986 111 0
-6 -21 -111 1986 0
-1987 7 0
-1987 22 0
-1987 112 0
-7 -22 -112 1987 0
-1988 8 0
-1988 23 0
-1988 113 0
-8 -23 -113 1988 0
-1989 9 0
-1989 24 0
-1989 114 0
-9 -24 -114 1989 0
-1990 10 0
-1990 25 0
-1990 115 0
-10 -25 -115 1990 0
-1991 11 0
-1991 26 0
-1991 116 0
-11 -26 -116 1991 0
-1992 12 0
-1992 27 0
-1992 117 0
-12 -27 -117 1992 0
-1993 13 0
-1993 28 0
-1993 118 0
-13 -28 -118 1993 0
-1994 14 0
-1994 29 0
-1994 119 0
-14 -29 -119 1994 0
-1995 15 0
-1995 30 0
-1995 120 0
-15 -30 -120 1995 0
-1981 8736 0
-1982 8736 0
-1983 8736 0
-1984 8736 0
-1985 8736 0
-1986 8736 0
-1987 8736 0
-1988 8736 0
-1989 8736 0
-1990 8736 0
-1991 8736 0
-1992 8736 0
-1993 8736 0
-1994 8736 0
-1995 8736 0
-8736 1981 1982 1983 1984 1985 1986 1987 1988 1989 1990 1991 1992 1993 1994 1995 0
-1996 1 0
-1996 16 0
-1996 121 0
-1 -16 -121 1996 0
-1997 2 0
-1997 17 0
-1997 122 0
-2 -17 -122 1997 0
-1998 3 0
-1998 18 0
-1998 123 0
-3 -18 -123 1998 0
-1999 4 0
-1999 19 0
-1999 124 0
-4 -19 -124 1999 0
-2000 5 0
-2000 20 0
-2000 125 0
-5 -20 -125 2000 0
-2001 6 0
-2001 21 0
-2001 126 0
-6 -21 -126 2001 0
-2002 7 0
-2002 22 0
-2002 127 0
-7 -22 -127 2002 0
-2003 8 0
-2003 23 0
-2003 128 0
-8 -23 -128 2003 0
-2004 9 0
-2004 24 0
-2004 129 0
-9 -24 -129 2004 0
-2005 10 0
-2005 25 0
-2005 130 0
-10 -25 -130 2005 0
-2006 11 0
-2006 26 0
-2006 131 0
-11 -26 -131 2006 0
-2007 12 0
-2007 27 0
-2007 132 0
-12 -27 -132 2007 0
-2008 13 0
-2008 28 0
-2008 133 0
-13 -28 -133 2008 0
-2009 14 0
-2009 29 0
-2009 134 0
-14 -29 -134 2009 0
-2010 15 0
-2010 30 0
-2010 135 0
-15 -30 -135 2010 0
-1996 8737 0
-1997 8737 0
-1998 8737 0
-1999 8737 0
-2000 8737 0
-2001 8737 0
-2002 8737 0
-2003 8737 0
-2004 8737 0
-2005 8737 0
-2006 8737 0
-2007 8737 0
-2008 8737 0
-2009 8737 0
-2010 8737 0
-8737 1996 1997 1998 1999 2000 2001 2002 2003 2004 2005 2006 2007 2008 2009 2010 0
-2011 1 0
-2011 16 0
-2011 136 0
-1 -16 -136 2011 0
-2012 2 0
-2012 17 0
-2012 137 0
-2 -17 -137 2012 0
-2013 3 0
-2013 18 0
-2013 138 0
-3 -18 -138 2013 0
-2014 4 0
-2014 19 0
-2014 139 0
-4 -19 -139 2014 0
-2015 5 0
-2015 20 0
-2015 140 0
-5 -20 -140 2015 0
-2016 6 0
-2016 21 0
-2016 141 0
-6 -21 -141 2016 0
-2017 7 0
-2017 22 0
-2017 142 0
-7 -22 -142 2017 0
-2018 8 0
-2018 23 0
-2018 143 0
-8 -23 -143 2018 0
-2019 9 0
-2019 24 0
-2019 144 0
-9 -24 -144 2019 0
-2020 10 0
-2020 25 0
-2020 145 0
-10 -25 -145 2020 0
-2021 11 0
-2021 26 0
-2021 146 0
-11 -26 -146 2021 0
-2022 12 0
-2022 27 0
-2022 147 0
-12 -27 -147 2022 0
-2023 13 0
-2023 28 0
-2023 148 0
-13 -28 -148 2023 0
-2024 14 0
-2024 29 0
-2024 149 0
-14 -29 -149 2024 0
-2025 15 0
-2025 30 0
-2025 150 0
-15 -30 -150 2025 0
-2011 8738 0
-2012 8738 0
-2013 8738 0
-2014 8738 0
-2015 8738 0
-2016 8738 0
-2017 8738 0
-2018 8738 0
-2019 8738 0
-2020 8738 0
-2021 8738 0
-2022 8738 0
-2023 8738 0
-2024 8738 0
-2025 8738 0
-8738 2011 2012 2013 2014 2015 2016 2017 2018 2019 2020 2021 2022 2023 2024 2025 0
-2026 1 0
-2026 16 0
-2026 151 0
-1 -16 -151 2026 0
-2027 2 0
-2027 17 0
-2027 152 0
-2 -17 -152 2027 0
-2028 3 0
-2028 18 0
-2028 153 0
-3 -18 -153 2028 0
-2029 4 0
-2029 19 0
-2029 154 0
-4 -19 -154 2029 0
-2030 5 0
-2030 20 0
-2030 155 0
-5 -20 -155 2030 0
-2031 6 0
-2031 21 0
-2031 156 0
-6 -21 -156 2031 0
-2032 7 0
-2032 22 0
-2032 157 0
-7 -22 -157 2032 0
-2033 8 0
-2033 23 0
-2033 158 0
-8 -23 -158 2033 0
-2034 9 0
-2034 24 0
-2034 159 0
-9 -24 -159 2034 0
-2035 10 0
-2035 25 0
-2035 160 0
-10 -25 -160 2035 0
-2036 11 0
-2036 26 0
-2036 161 0
-11 -26 -161 2036 0
-2037 12 0
-2037 27 0
-2037 162 0
-12 -27 -162 2037 0
-2038 13 0
-2038 28 0
-2038 163 0
-13 -28 -163 2038 0
-2039 14 0
-2039 29 0
-2039 164 0
-14 -29 -164 2039 0
-2040 15 0
-2040 30 0
-2040 165 0
-15 -30 -165 2040 0
-2026 8739 0
-2027 8739 0
-2028 8739 0
-2029 8739 0
-2030 8739 0
-2031 8739 0
-2032 8739 0
-2033 8739 0
-2034 8739 0
-2035 8739 0
-2036 8739 0
-2037 8739 0
-2038 8739 0
-2039 8739 0
-2040 8739 0
-8739 2026 2027 2028 2029 2030 2031 2032 2033 2034 2035 2036 2037 2038 2039 2040 0
-2041 1 0
-2041 16 0
-2041 166 0
-1 -16 -166 2041 0
-2042 2 0
-2042 17 0
-2042 167 0
-2 -17 -167 2042 0
-2043 3 0
-2043 18 0
-2043 168 0
-3 -18 -168 2043 0
-2044 4 0
-2044 19 0
-2044 169 0
-4 -19 -169 2044 0
-2045 5 0
-2045 20 0
-2045 170 0
-5 -20 -170 2045 0
-2046 6 0
-2046 21 0
-2046 171 0
-6 -21 -171 2046 0
-2047 7 0
-2047 22 0
-2047 172 0
-7 -22 -172 2047 0
-2048 8 0
-2048 23 0
-2048 173 0
-8 -23 -173 2048 0
-2049 9 0
-2049 24 0
-2049 174 0
-9 -24 -174 2049 0
-2050 10 0
-2050 25 0
-2050 175 0
-10 -25 -175 2050 0
-2051 11 0
-2051 26 0
-2051 176 0
-11 -26 -176 2051 0
-2052 12 0
-2052 27 0
-2052 177 0
-12 -27 -177 2052 0
-2053 13 0
-2053 28 0
-2053 178 0
-13 -28 -178 2053 0
-2054 14 0
-2054 29 0
-2054 179 0
-14 -29 -179 2054 0
-2055 15 0
-2055 30 0
-2055 180 0
-15 -30 -180 2055 0
-2041 8740 0
-2042 8740 0
-2043 8740 0
-2044 8740 0
-2045 8740 0
-2046 8740 0
-2047 8740 0
-2048 8740 0
-2049 8740 0
-2050 8740 0
-2051 8740 0
-2052 8740 0
-2053 8740 0
-2054 8740 0
-2055 8740 0
-8740 2041 2042 2043 2044 2045 2046 2047 2048 2049 2050 2051 2052 2053 2054 2055 0
-2056 1 0
-2056 16 0
-2056 181 0
-1 -16 -181 2056 0
-2057 2 0
-2057 17 0
-2057 182 0
-2 -17 -182 2057 0
-2058 3 0
-2058 18 0
-2058 183 0
-3 -18 -183 2058 0
-2059 4 0
-2059 19 0
-2059 184 0
-4 -19 -184 2059 0
-2060 5 0
-2060 20 0
-2060 185 0
-5 -20 -185 2060 0
-2061 6 0
-2061 21 0
-2061 186 0
-6 -21 -186 2061 0
-2062 7 0
-2062 22 0
-2062 187 0
-7 -22 -187 2062 0
-2063 8 0
-2063 23 0
-2063 188 0
-8 -23 -188 2063 0
-2064 9 0
-2064 24 0
-2064 189 0
-9 -24 -189 2064 0
-2065 10 0
-2065 25 0
-2065 190 0
-10 -25 -190 2065 0
-2066 11 0
-2066 26 0
-2066 191 0
-11 -26 -191 2066 0
-2067 12 0
-2067 27 0
-2067 192 0
-12 -27 -192 2067 0
-2068 13 0
-2068 28 0
-2068 193 0
-13 -28 -193 2068 0
-2069 14 0
-2069 29 0
-2069 194 0
-14 -29 -194 2069 0
-2070 15 0
-2070 30 0
-2070 195 0
-15 -30 -195 2070 0
-2056 8741 0
-2057 8741 0
-2058 8741 0
-2059 8741 0
-2060 8741 0
-2061 8741 0
-2062 8741 0
-2063 8741 0
-2064 8741 0
-2065 8741 0
-2066 8741 0
-2067 8741 0
-2068 8741 0
-2069 8741 0
-2070 8741 0
-8741 2056 2057 2058 2059 2060 2061 2062 2063 2064 2065 2066 2067 2068 2069 2070 0
-2071 1 0
-2071 16 0
-2071 196 0
-1 -16 -196 2071 0
-2072 2 0
-2072 17 0
-2072 197 0
-2 -17 -197 2072 0
-2073 3 0
-2073 18 0
-2073 198 0
-3 -18 -198 2073 0
-2074 4 0
-2074 19 0
-2074 199 0
-4 -19 -199 2074 0
-2075 5 0
-2075 20 0
-2075 200 0
-5 -20 -200 2075 0
-2076 6 0
-2076 21 0
-2076 201 0
-6 -21 -201 2076 0
-2077 7 0
-2077 22 0
-2077 202 0
-7 -22 -202 2077 0
-2078 8 0
-2078 23 0
-2078 203 0
-8 -23 -203 2078 0
-2079 9 0
-2079 24 0
-2079 204 0
-9 -24 -204 2079 0
-2080 10 0
-2080 25 0
-2080 205 0
-10 -25 -205 2080 0
-2081 11 0
-2081 26 0
-2081 206 0
-11 -26 -206 2081 0
-2082 12 0
-2082 27 0
-2082 207 0
-12 -27 -207 2082 0
-2083 13 0
-2083 28 0
-2083 208 0
-13 -28 -208 2083 0
-2084 14 0
-2084 29 0
-2084 209 0
-14 -29 -209 2084 0
-2085 15 0
-2085 30 0
-2085 210 0
-15 -30 -210 2085 0
-2071 8742 0
-2072 8742 0
-2073 8742 0
-2074 8742 0
-2075 8742 0
-2076 8742 0
-2077 8742 0
-2078 8742 0
-2079 8742 0
-2080 8742 0
-2081 8742 0
-2082 8742 0
-2083 8742 0
-2084 8742 0
-2085 8742 0
-8742 2071 2072 2073 2074 2075 2076 2077 2078 2079 2080 2081 2082 2083 2084 2085 0
-2086 1 0
-2086 16 0
-2086 211 0
-1 -16 -211 2086 0
-2087 2 0
-2087 17 0
-2087 212 0
-2 -17 -212 2087 0
-2088 3 0
-2088 18 0
-2088 213 0
-3 -18 -213 2088 0
-2089 4 0
-2089 19 0
-2089 214 0
-4 -19 -214 2089 0
-2090 5 0
-2090 20 0
-2090 215 0
-5 -20 -215 2090 0
-2091 6 0
-2091 21 0
-2091 216 0
-6 -21 -216 2091 0
-2092 7 0
-2092 22 0
-2092 217 0
-7 -22 -217 2092 0
-2093 8 0
-2093 23 0
-2093 218 0
-8 -23 -218 2093 0
-2094 9 0
-2094 24 0
-2094 219 0
-9 -24 -219 2094 0
-2095 10 0
-2095 25 0
-2095 220 0
-10 -25 -220 2095 0
-2096 11 0
-2096 26 0
-2096 221 0
-11 -26 -221 2096 0
-2097 12 0
-2097 27 0
-2097 222 0
-12 -27 -222 2097 0
-2098 13 0
-2098 28 0
-2098 223 0
-13 -28 -223 2098 0
-2099 14 0
-2099 29 0
-2099 224 0
-14 -29 -224 2099 0
-2100 15 0
-2100 30 0
-2100 225 0
-15 -30 -225 2100 0
-2086 8743 0
-2087 8743 0
-2088 8743 0
-2089 8743 0
-2090 8743 0
-2091 8743 0
-2092 8743 0
-2093 8743 0
-2094 8743 0
-2095 8743 0
-2096 8743 0
-2097 8743 0
-2098 8743 0
-2099 8743 0
-2100 8743 0
-8743 2086 2087 2088 2089 2090 2091 2092 2093 2094 2095 2096 2097 2098 2099 2100 0
-2101 1 0
-2101 31 0
-2101 46 0
-1 -31 -46 2101 0
-2102 2 0
-2102 32 0
-2102 47 0
-2 -32 -47 2102 0
-2103 3 0
-2103 33 0
-2103 48 0
-3 -33 -48 2103 0
-2104 4 0
-2104 34 0
-2104 49 0
-4 -34 -49 2104 0
-2105 5 0
-2105 35 0
-2105 50 0
-5 -35 -50 2105 0
-2106 6 0
-2106 36 0
-2106 51 0
-6 -36 -51 2106 0
-2107 7 0
-2107 37 0
-2107 52 0
-7 -37 -52 2107 0
-2108 8 0
-2108 38 0
-2108 53 0
-8 -38 -53 2108 0
-2109 9 0
-2109 39 0
-2109 54 0
-9 -39 -54 2109 0
-2110 10 0
-2110 40 0
-2110 55 0
-10 -40 -55 2110 0
-2111 11 0
-2111 41 0
-2111 56 0
-11 -41 -56 2111 0
-2112 12 0
-2112 42 0
-2112 57 0
-12 -42 -57 2112 0
-2113 13 0
-2113 43 0
-2113 58 0
-13 -43 -58 2113 0
-2114 14 0
-2114 44 0
-2114 59 0
-14 -44 -59 2114 0
-2115 15 0
-2115 45 0
-2115 60 0
-15 -45 -60 2115 0
-2101 8744 0
-2102 8744 0
-2103 8744 0
-2104 8744 0
-2105 8744 0
-2106 8744 0
-2107 8744 0
-2108 8744 0
-2109 8744 0
-2110 8744 0
-2111 8744 0
-2112 8744 0
-2113 8744 0
-2114 8744 0
-2115 8744 0
-8744 2101 2102 2103 2104 2105 2106 2107 2108 2109 2110 2111 2112 2113 2114 2115 0
-2116 1 0
-2116 31 0
-2116 61 0
-1 -31 -61 2116 0
-2117 2 0
-2117 32 0
-2117 62 0
-2 -32 -62 2117 0
-2118 3 0
-2118 33 0
-2118 63 0
-3 -33 -63 2118 0
-2119 4 0
-2119 34 0
-2119 64 0
-4 -34 -64 2119 0
-2120 5 0
-2120 35 0
-2120 65 0
-5 -35 -65 2120 0
-2121 6 0
-2121 36 0
-2121 66 0
-6 -36 -66 2121 0
-2122 7 0
-2122 37 0
-2122 67 0
-7 -37 -67 2122 0
-2123 8 0
-2123 38 0
-2123 68 0
-8 -38 -68 2123 0
-2124 9 0
-2124 39 0
-2124 69 0
-9 -39 -69 2124 0
-2125 10 0
-2125 40 0
-2125 70 0
-10 -40 -70 2125 0
-2126 11 0
-2126 41 0
-2126 71 0
-11 -41 -71 2126 0
-2127 12 0
-2127 42 0
-2127 72 0
-12 -42 -72 2127 0
-2128 13 0
-2128 43 0
-2128 73 0
-13 -43 -73 2128 0
-2129 14 0
-2129 44 0
-2129 74 0
-14 -44 -74 2129 0
-2130 15 0
-2130 45 0
-2130 75 0
-15 -45 -75 2130 0
-2116 8745 0
-2117 8745 0
-2118 8745 0
-2119 8745 0
-2120 8745 0
-2121 8745 0
-2122 8745 0
-2123 8745 0
-2124 8745 0
-2125 8745 0
-2126 8745 0
-2127 8745 0
-2128 8745 0
-2129 8745 0
-2130 8745 0
-8745 2116 2117 2118 2119 2120 2121 2122 2123 2124 2125 2126 2127 2128 2129 2130 0
-2131 1 0
-2131 31 0
-2131 76 0
-1 -31 -76 2131 0
-2132 2 0
-2132 32 0
-2132 77 0
-2 -32 -77 2132 0
-2133 3 0
-2133 33 0
-2133 78 0
-3 -33 -78 2133 0
-2134 4 0
-2134 34 0
-2134 79 0
-4 -34 -79 2134 0
-2135 5 0
-2135 35 0
-2135 80 0
-5 -35 -80 2135 0
-2136 6 0
-2136 36 0
-2136 81 0
-6 -36 -81 2136 0
-2137 7 0
-2137 37 0
-2137 82 0
-7 -37 -82 2137 0
-2138 8 0
-2138 38 0
-2138 83 0
-8 -38 -83 2138 0
-2139 9 0
-2139 39 0
-2139 84 0
-9 -39 -84 2139 0
-2140 10 0
-2140 40 0
-2140 85 0
-10 -40 -85 2140 0
-2141 11 0
-2141 41 0
-2141 86 0
-11 -41 -86 2141 0
-2142 12 0
-2142 42 0
-2142 87 0
-12 -42 -87 2142 0
-2143 13 0
-2143 43 0
-2143 88 0
-13 -43 -88 2143 0
-2144 14 0
-2144 44 0
-2144 89 0
-14 -44 -89 2144 0
-2145 15 0
-2145 45 0
-2145 90 0
-15 -45 -90 2145 0
-2131 8746 0
-2132 8746 0
-2133 8746 0
-2134 8746 0
-2135 8746 0
-2136 8746 0
-2137 8746 0
-2138 8746 0
-2139 8746 0
-2140 8746 0
-2141 8746 0
-2142 8746 0
-2143 8746 0
-2144 8746 0
-2145 8746 0
-8746 2131 2132 2133 2134 2135 2136 2137 2138 2139 2140 2141 2142 2143 2144 2145 0
-2146 1 0
-2146 31 0
-2146 91 0
-1 -31 -91 2146 0
-2147 2 0
-2147 32 0
-2147 92 0
-2 -32 -92 2147 0
-2148 3 0
-2148 33 0
-2148 93 0
-3 -33 -93 2148 0
-2149 4 0
-2149 34 0
-2149 94 0
-4 -34 -94 2149 0
-2150 5 0
-2150 35 0
-2150 95 0
-5 -35 -95 2150 0
-2151 6 0
-2151 36 0
-2151 96 0
-6 -36 -96 2151 0
-2152 7 0
-2152 37 0
-2152 97 0
-7 -37 -97 2152 0
-2153 8 0
-2153 38 0
-2153 98 0
-8 -38 -98 2153 0
-2154 9 0
-2154 39 0
-2154 99 0
-9 -39 -99 2154 0
-2155 10 0
-2155 40 0
-2155 100 0
-10 -40 -100 2155 0
-2156 11 0
-2156 41 0
-2156 101 0
-11 -41 -101 2156 0
-2157 12 0
-2157 42 0
-2157 102 0
-12 -42 -102 2157 0
-2158 13 0
-2158 43 0
-2158 103 0
-13 -43 -103 2158 0
-2159 14 0
-2159 44 0
-2159 104 0
-14 -44 -104 2159 0
-2160 15 0
-2160 45 0
-2160 105 0
-15 -45 -105 2160 0
-2146 8747 0
-2147 8747 0
-2148 8747 0
-2149 8747 0
-2150 8747 0
-2151 8747 0
-2152 8747 0
-2153 8747 0
-2154 8747 0
-2155 8747 0
-2156 8747 0
-2157 8747 0
-2158 8747 0
-2159 8747 0
-2160 8747 0
-8747 2146 2147 2148 2149 2150 2151 2152 2153 2154 2155 2156 2157 2158 2159 2160 0
-2161 1 0
-2161 31 0
-2161 106 0
-1 -31 -106 2161 0
-2162 2 0
-2162 32 0
-2162 107 0
-2 -32 -107 2162 0
-2163 3 0
-2163 33 0
-2163 108 0
-3 -33 -108 2163 0
-2164 4 0
-2164 34 0
-2164 109 0
-4 -34 -109 2164 0
-2165 5 0
-2165 35 0
-2165 110 0
-5 -35 -110 2165 0
-2166 6 0
-2166 36 0
-2166 111 0
-6 -36 -111 2166 0
-2167 7 0
-2167 37 0
-2167 112 0
-7 -37 -112 2167 0
-2168 8 0
-2168 38 0
-2168 113 0
-8 -38 -113 2168 0
-2169 9 0
-2169 39 0
-2169 114 0
-9 -39 -114 2169 0
-2170 10 0
-2170 40 0
-2170 115 0
-10 -40 -115 2170 0
-2171 11 0
-2171 41 0
-2171 116 0
-11 -41 -116 2171 0
-2172 12 0
-2172 42 0
-2172 117 0
-12 -42 -117 2172 0
-2173 13 0
-2173 43 0
-2173 118 0
-13 -43 -118 2173 0
-2174 14 0
-2174 44 0
-2174 119 0
-14 -44 -119 2174 0
-2175 15 0
-2175 45 0
-2175 120 0
-15 -45 -120 2175 0
-2161 8748 0
-2162 8748 0
-2163 8748 0
-2164 8748 0
-2165 8748 0
-2166 8748 0
-2167 8748 0
-2168 8748 0
-2169 8748 0
-2170 8748 0
-2171 8748 0
-2172 8748 0
-2173 8748 0
-2174 8748 0
-2175 8748 0
-8748 2161 2162 2163 2164 2165 2166 2167 2168 2169 2170 2171 2172 2173 2174 2175 0
-2176 1 0
-2176 31 0
-2176 121 0
-1 -31 -121 2176 0
-2177 2 0
-2177 32 0
-2177 122 0
-2 -32 -122 2177 0
-2178 3 0
-2178 33 0
-2178 123 0
-3 -33 -123 2178 0
-2179 4 0
-2179 34 0
-2179 124 0
-4 -34 -124 2179 0
-2180 5 0
-2180 35 0
-2180 125 0
-5 -35 -125 2180 0
-2181 6 0
-2181 36 0
-2181 126 0
-6 -36 -126 2181 0
-2182 7 0
-2182 37 0
-2182 127 0
-7 -37 -127 2182 0
-2183 8 0
-2183 38 0
-2183 128 0
-8 -38 -128 2183 0
-2184 9 0
-2184 39 0
-2184 129 0
-9 -39 -129 2184 0
-2185 10 0
-2185 40 0
-2185 130 0
-10 -40 -130 2185 0
-2186 11 0
-2186 41 0
-2186 131 0
-11 -41 -131 2186 0
-2187 12 0
-2187 42 0
-2187 132 0
-12 -42 -132 2187 0
-2188 13 0
-2188 43 0
-2188 133 0
-13 -43 -133 2188 0
-2189 14 0
-2189 44 0
-2189 134 0
-14 -44 -134 2189 0
-2190 15 0
-2190 45 0
-2190 135 0
-15 -45 -135 2190 0
-2176 8749 0
-2177 8749 0
-2178 8749 0
-2179 8749 0
-2180 8749 0
-2181 8749 0
-2182 8749 0
-2183 8749 0
-2184 8749 0
-2185 8749 0
-2186 8749 0
-2187 8749 0
-2188 8749 0
-2189 8749 0
-2190 8749 0
-8749 2176 2177 2178 2179 2180 2181 2182 2183 2184 2185 2186 2187 2188 2189 2190 0
-2191 1 0
-2191 31 0
-2191 136 0
-1 -31 -136 2191 0
-2192 2 0
-2192 32 0
-2192 137 0
-2 -32 -137 2192 0
-2193 3 0
-2193 33 0
-2193 138 0
-3 -33 -138 2193 0
-2194 4 0
-2194 34 0
-2194 139 0
-4 -34 -139 2194 0
-2195 5 0
-2195 35 0
-2195 140 0
-5 -35 -140 2195 0
-2196 6 0
-2196 36 0
-2196 141 0
-6 -36 -141 2196 0
-2197 7 0
-2197 37 0
-2197 142 0
-7 -37 -142 2197 0
-2198 8 0
-2198 38 0
-2198 143 0
-8 -38 -143 2198 0
-2199 9 0
-2199 39 0
-2199 144 0
-9 -39 -144 2199 0
-2200 10 0
-2200 40 0
-2200 145 0
-10 -40 -145 2200 0
-2201 11 0
-2201 41 0
-2201 146 0
-11 -41 -146 2201 0
-2202 12 0
-2202 42 0
-2202 147 0
-12 -42 -147 2202 0
-2203 13 0
-2203 43 0
-2203 148 0
-13 -43 -148 2203 0
-2204 14 0
-2204 44 0
-2204 149 0
-14 -44 -149 2204 0
-2205 15 0
-2205 45 0
-2205 150 0
-15 -45 -150 2205 0
-2191 8750 0
-2192 8750 0
-2193 8750 0
-2194 8750 0
-2195 8750 0
-2196 8750 0
-2197 8750 0
-2198 8750 0
-2199 8750 0
-2200 8750 0
-2201 8750 0
-2202 8750 0
-2203 8750 0
-2204 8750 0
-2205 8750 0
-8750 2191 2192 2193 2194 2195 2196 2197 2198 2199 2200 2201 2202 2203 2204 2205 0
-2206 1 0
-2206 31 0
-2206 151 0
-1 -31 -151 2206 0
-2207 2 0
-2207 32 0
-2207 152 0
-2 -32 -152 2207 0
-2208 3 0
-2208 33 0
-2208 153 0
-3 -33 -153 2208 0
-2209 4 0
-2209 34 0
-2209 154 0
-4 -34 -154 2209 0
-2210 5 0
-2210 35 0
-2210 155 0
-5 -35 -155 2210 0
-2211 6 0
-2211 36 0
-2211 156 0
-6 -36 -156 2211 0
-2212 7 0
-2212 37 0
-2212 157 0
-7 -37 -157 2212 0
-2213 8 0
-2213 38 0
-2213 158 0
-8 -38 -158 2213 0
-2214 9 0
-2214 39 0
-2214 159 0
-9 -39 -159 2214 0
-2215 10 0
-2215 40 0
-2215 160 0
-10 -40 -160 2215 0
-2216 11 0
-2216 41 0
-2216 161 0
-11 -41 -161 2216 0
-2217 12 0
-2217 42 0
-2217 162 0
-12 -42 -162 2217 0
-2218 13 0
-2218 43 0
-2218 163 0
-13 -43 -163 2218 0
-2219 14 0
-2219 44 0
-2219 164 0
-14 -44 -164 2219 0
-2220 15 0
-2220 45 0
-2220 165 0
-15 -45 -165 2220 0
-2206 8751 0
-2207 8751 0
-2208 8751 0
-2209 8751 0
-2210 8751 0
-2211 8751 0
-2212 8751 0
-2213 8751 0
-2214 8751 0
-2215 8751 0
-2216 8751 0
-2217 8751 0
-2218 8751 0
-2219 8751 0
-2220 8751 0
-8751 2206 2207 2208 2209 2210 2211 2212 2213 2214 2215 2216 2217 2218 2219 2220 0
-2221 1 0
-2221 31 0
-2221 166 0
-1 -31 -166 2221 0
-2222 2 0
-2222 32 0
-2222 167 0
-2 -32 -167 2222 0
-2223 3 0
-2223 33 0
-2223 168 0
-3 -33 -168 2223 0
-2224 4 0
-2224 34 0
-2224 169 0
-4 -34 -169 2224 0
-2225 5 0
-2225 35 0
-2225 170 0
-5 -35 -170 2225 0
-2226 6 0
-2226 36 0
-2226 171 0
-6 -36 -171 2226 0
-2227 7 0
-2227 37 0
-2227 172 0
-7 -37 -172 2227 0
-2228 8 0
-2228 38 0
-2228 173 0
-8 -38 -173 2228 0
-2229 9 0
-2229 39 0
-2229 174 0
-9 -39 -174 2229 0
-2230 10 0
-2230 40 0
-2230 175 0
-10 -40 -175 2230 0
-2231 11 0
-2231 41 0
-2231 176 0
-11 -41 -176 2231 0
-2232 12 0
-2232 42 0
-2232 177 0
-12 -42 -177 2232 0
-2233 13 0
-2233 43 0
-2233 178 0
-13 -43 -178 2233 0
-2234 14 0
-2234 44 0
-2234 179 0
-14 -44 -179 2234 0
-2235 15 0
-2235 45 0
-2235 180 0
-15 -45 -180 2235 0
-2221 8752 0
-2222 8752 0
-2223 8752 0
-2224 8752 0
-2225 8752 0
-2226 8752 0
-2227 8752 0
-2228 8752 0
-2229 8752 0
-2230 8752 0
-2231 8752 0
-2232 8752 0
-2233 8752 0
-2234 8752 0
-2235 8752 0
-8752 2221 2222 2223 2224 2225 2226 2227 2228 2229 2230 2231 2232 2233 2234 2235 0
-2236 1 0
-2236 31 0
-2236 181 0
-1 -31 -181 2236 0
-2237 2 0
-2237 32 0
-2237 182 0
-2 -32 -182 2237 0
-2238 3 0
-2238 33 0
-2238 183 0
-3 -33 -183 2238 0
-2239 4 0
-2239 34 0
-2239 184 0
-4 -34 -184 2239 0
-2240 5 0
-2240 35 0
-2240 185 0
-5 -35 -185 2240 0
-2241 6 0
-2241 36 0
-2241 186 0
-6 -36 -186 2241 0
-2242 7 0
-2242 37 0
-2242 187 0
-7 -37 -187 2242 0
-2243 8 0
-2243 38 0
-2243 188 0
-8 -38 -188 2243 0
-2244 9 0
-2244 39 0
-2244 189 0
-9 -39 -189 2244 0
-2245 10 0
-2245 40 0
-2245 190 0
-10 -40 -190 2245 0
-2246 11 0
-2246 41 0
-2246 191 0
-11 -41 -191 2246 0
-2247 12 0
-2247 42 0
-2247 192 0
-12 -42 -192 2247 0
-2248 13 0
-2248 43 0
-2248 193 0
-13 -43 -193 2248 0
-2249 14 0
-2249 44 0
-2249 194 0
-14 -44 -194 2249 0
-2250 15 0
-2250 45 0
-2250 195 0
-15 -45 -195 2250 0
-2236 8753 0
-2237 8753 0
-2238 8753 0
-2239 8753 0
-2240 8753 0
-2241 8753 0
-2242 8753 0
-2243 8753 0
-2244 8753 0
-2245 8753 0
-2246 8753 0
-2247 8753 0
-2248 8753 0
-2249 8753 0
-2250 8753 0
-8753 2236 2237 2238 2239 2240 2241 2242 2243 2244 2245 2246 2247 2248 2249 2250 0
-2251 1 0
-2251 31 0
-2251 196 0
-1 -31 -196 2251 0
-2252 2 0
-2252 32 0
-2252 197 0
-2 -32 -197 2252 0
-2253 3 0
-2253 33 0
-2253 198 0
-3 -33 -198 2253 0
-2254 4 0
-2254 34 0
-2254 199 0
-4 -34 -199 2254 0
-2255 5 0
-2255 35 0
-2255 200 0
-5 -35 -200 2255 0
-2256 6 0
-2256 36 0
-2256 201 0
-6 -36 -201 2256 0
-2257 7 0
-2257 37 0
-2257 202 0
-7 -37 -202 2257 0
-2258 8 0
-2258 38 0
-2258 203 0
-8 -38 -203 2258 0
-2259 9 0
-2259 39 0
-2259 204 0
-9 -39 -204 2259 0
-2260 10 0
-2260 40 0
-2260 205 0
-10 -40 -205 2260 0
-2261 11 0
-2261 41 0
-2261 206 0
-11 -41 -206 2261 0
-2262 12 0
-2262 42 0
-2262 207 0
-12 -42 -207 2262 0
-2263 13 0
-2263 43 0
-2263 208 0
-13 -43 -208 2263 0
-2264 14 0
-2264 44 0
-2264 209 0
-14 -44 -209 2264 0
-2265 15 0
-2265 45 0
-2265 210 0
-15 -45 -210 2265 0
-2251 8754 0
-2252 8754 0
-2253 8754 0
-2254 8754 0
-2255 8754 0
-2256 8754 0
-2257 8754 0
-2258 8754 0
-2259 8754 0
-2260 8754 0
-2261 8754 0
-2262 8754 0
-2263 8754 0
-2264 8754 0
-2265 8754 0
-8754 2251 2252 2253 2254 2255 2256 2257 2258 2259 2260 2261 2262 2263 2264 2265 0
-2266 1 0
-2266 31 0
-2266 211 0
-1 -31 -211 2266 0
-2267 2 0
-2267 32 0
-2267 212 0
-2 -32 -212 2267 0
-2268 3 0
-2268 33 0
-2268 213 0
-3 -33 -213 2268 0
-2269 4 0
-2269 34 0
-2269 214 0
-4 -34 -214 2269 0
-2270 5 0
-2270 35 0
-2270 215 0
-5 -35 -215 2270 0
-2271 6 0
-2271 36 0
-2271 216 0
-6 -36 -216 2271 0
-2272 7 0
-2272 37 0
-2272 217 0
-7 -37 -217 2272 0
-2273 8 0
-2273 38 0
-2273 218 0
-8 -38 -218 2273 0
-2274 9 0
-2274 39 0
-2274 219 0
-9 -39 -219 2274 0
-2275 10 0
-2275 40 0
-2275 220 0
-10 -40 -220 2275 0
-2276 11 0
-2276 41 0
-2276 221 0
-11 -41 -221 2276 0
-2277 12 0
-2277 42 0
-2277 222 0
-12 -42 -222 2277 0
-2278 13 0
-2278 43 0
-2278 223 0
-13 -43 -223 2278 0
-2279 14 0
-2279 44 0
-2279 224 0
-14 -44 -224 2279 0
-2280 15 0
-2280 45 0
-2280 225 0
-15 -45 -225 2280 0
-2266 8755 0
-2267 8755 0
-2268 8755 0
-2269 8755 0
-2270 8755 0
-2271 8755 0
-2272 8755 0
-2273 8755 0
-2274 8755 0
-2275 8755 0
-2276 8755 0
-2277 8755 0
-2278 8755 0
-2279 8755 0
-2280 8755 0
-8755 2266 2267 2268 2269 2270 2271 2272 2273 2274 2275 2276 2277 2278 2279 2280 0
-2281 1 0
-2281 46 0
-2281 61 0
-1 -46 -61 2281 0
-2282 2 0
-2282 47 0
-2282 62 0
-2 -47 -62 2282 0
-2283 3 0
-2283 48 0
-2283 63 0
-3 -48 -63 2283 0
-2284 4 0
-2284 49 0
-2284 64 0
-4 -49 -64 2284 0
-2285 5 0
-2285 50 0
-2285 65 0
-5 -50 -65 2285 0
-2286 6 0
-2286 51 0
-2286 66 0
-6 -51 -66 2286 0
-2287 7 0
-2287 52 0
-2287 67 0
-7 -52 -67 2287 0
-2288 8 0
-2288 53 0
-2288 68 0
-8 -53 -68 2288 0
-2289 9 0
-2289 54 0
-2289 69 0
-9 -54 -69 2289 0
-2290 10 0
-2290 55 0
-2290 70 0
-10 -55 -70 2290 0
-2291 11 0
-2291 56 0
-2291 71 0
-11 -56 -71 2291 0
-2292 12 0
-2292 57 0
-2292 72 0
-12 -57 -72 2292 0
-2293 13 0
-2293 58 0
-2293 73 0
-13 -58 -73 2293 0
-2294 14 0
-2294 59 0
-2294 74 0
-14 -59 -74 2294 0
-2295 15 0
-2295 60 0
-2295 75 0
-15 -60 -75 2295 0
-2281 8756 0
-2282 8756 0
-2283 8756 0
-2284 8756 0
-2285 8756 0
-2286 8756 0
-2287 8756 0
-2288 8756 0
-2289 8756 0
-2290 8756 0
-2291 8756 0
-2292 8756 0
-2293 8756 0
-2294 8756 0
-2295 8756 0
-8756 2281 2282 2283 2284 2285 2286 2287 2288 2289 2290 2291 2292 2293 2294 2295 0
-2296 1 0
-2296 46 0
-2296 76 0
-1 -46 -76 2296 0
-2297 2 0
-2297 47 0
-2297 77 0
-2 -47 -77 2297 0
-2298 3 0
-2298 48 0
-2298 78 0
-3 -48 -78 2298 0
-2299 4 0
-2299 49 0
-2299 79 0
-4 -49 -79 2299 0
-2300 5 0
-2300 50 0
-2300 80 0
-5 -50 -80 2300 0
-2301 6 0
-2301 51 0
-2301 81 0
-6 -51 -81 2301 0
-2302 7 0
-2302 52 0
-2302 82 0
-7 -52 -82 2302 0
-2303 8 0
-2303 53 0
-2303 83 0
-8 -53 -83 2303 0
-2304 9 0
-2304 54 0
-2304 84 0
-9 -54 -84 2304 0
-2305 10 0
-2305 55 0
-2305 85 0
-10 -55 -85 2305 0
-2306 11 0
-2306 56 0
-2306 86 0
-11 -56 -86 2306 0
-2307 12 0
-2307 57 0
-2307 87 0
-12 -57 -87 2307 0
-2308 13 0
-2308 58 0
-2308 88 0
-13 -58 -88 2308 0
-2309 14 0
-2309 59 0
-2309 89 0
-14 -59 -89 2309 0
-2310 15 0
-2310 60 0
-2310 90 0
-15 -60 -90 2310 0
-2296 8757 0
-2297 8757 0
-2298 8757 0
-2299 8757 0
-2300 8757 0
-2301 8757 0
-2302 8757 0
-2303 8757 0
-2304 8757 0
-2305 8757 0
-2306 8757 0
-2307 8757 0
-2308 8757 0
-2309 8757 0
-2310 8757 0
-8757 2296 2297 2298 2299 2300 2301 2302 2303 2304 2305 2306 2307 2308 2309 2310 0
-2311 1 0
-2311 46 0
-2311 91 0
-1 -46 -91 2311 0
-2312 2 0
-2312 47 0
-2312 92 0
-2 -47 -92 2312 0
-2313 3 0
-2313 48 0
-2313 93 0
-3 -48 -93 2313 0
-2314 4 0
-2314 49 0
-2314 94 0
-4 -49 -94 2314 0
-2315 5 0
-2315 50 0
-2315 95 0
-5 -50 -95 2315 0
-2316 6 0
-2316 51 0
-2316 96 0
-6 -51 -96 2316 0
-2317 7 0
-2317 52 0
-2317 97 0
-7 -52 -97 2317 0
-2318 8 0
-2318 53 0
-2318 98 0
-8 -53 -98 2318 0
-2319 9 0
-2319 54 0
-2319 99 0
-9 -54 -99 2319 0
-2320 10 0
-2320 55 0
-2320 100 0
-10 -55 -100 2320 0
-2321 11 0
-2321 56 0
-2321 101 0
-11 -56 -101 2321 0
-2322 12 0
-2322 57 0
-2322 102 0
-12 -57 -102 2322 0
-2323 13 0
-2323 58 0
-2323 103 0
-13 -58 -103 2323 0
-2324 14 0
-2324 59 0
-2324 104 0
-14 -59 -104 2324 0
-2325 15 0
-2325 60 0
-2325 105 0
-15 -60 -105 2325 0
-2311 8758 0
-2312 8758 0
-2313 8758 0
-2314 8758 0
-2315 8758 0
-2316 8758 0
-2317 8758 0
-2318 8758 0
-2319 8758 0
-2320 8758 0
-2321 8758 0
-2322 8758 0
-2323 8758 0
-2324 8758 0
-2325 8758 0
-8758 2311 2312 2313 2314 2315 2316 2317 2318 2319 2320 2321 2322 2323 2324 2325 0
-2326 1 0
-2326 46 0
-2326 106 0
-1 -46 -106 2326 0
-2327 2 0
-2327 47 0
-2327 107 0
-2 -47 -107 2327 0
-2328 3 0
-2328 48 0
-2328 108 0
-3 -48 -108 2328 0
-2329 4 0
-2329 49 0
-2329 109 0
-4 -49 -109 2329 0
-2330 5 0
-2330 50 0
-2330 110 0
-5 -50 -110 2330 0
-2331 6 0
-2331 51 0
-2331 111 0
-6 -51 -111 2331 0
-2332 7 0
-2332 52 0
-2332 112 0
-7 -52 -112 2332 0
-2333 8 0
-2333 53 0
-2333 113 0
-8 -53 -113 2333 0
-2334 9 0
-2334 54 0
-2334 114 0
-9 -54 -114 2334 0
-2335 10 0
-2335 55 0
-2335 115 0
-10 -55 -115 2335 0
-2336 11 0
-2336 56 0
-2336 116 0
-11 -56 -116 2336 0
-2337 12 0
-2337 57 0
-2337 117 0
-12 -57 -117 2337 0
-2338 13 0
-2338 58 0
-2338 118 0
-13 -58 -118 2338 0
-2339 14 0
-2339 59 0
-2339 119 0
-14 -59 -119 2339 0
-2340 15 0
-2340 60 0
-2340 120 0
-15 -60 -120 2340 0
-2326 8759 0
-2327 8759 0
-2328 8759 0
-2329 8759 0
-2330 8759 0
-2331 8759 0
-2332 8759 0
-2333 8759 0
-2334 8759 0
-2335 8759 0
-2336 8759 0
-2337 8759 0
-2338 8759 0
-2339 8759 0
-2340 8759 0
-8759 2326 2327 2328 2329 2330 2331 2332 2333 2334 2335 2336 2337 2338 2339 2340 0
-2341 1 0
-2341 46 0
-2341 121 0
-1 -46 -121 2341 0
-2342 2 0
-2342 47 0
-2342 122 0
-2 -47 -122 2342 0
-2343 3 0
-2343 48 0
-2343 123 0
-3 -48 -123 2343 0
-2344 4 0
-2344 49 0
-2344 124 0
-4 -49 -124 2344 0
-2345 5 0
-2345 50 0
-2345 125 0
-5 -50 -125 2345 0
-2346 6 0
-2346 51 0
-2346 126 0
-6 -51 -126 2346 0
-2347 7 0
-2347 52 0
-2347 127 0
-7 -52 -127 2347 0
-2348 8 0
-2348 53 0
-2348 128 0
-8 -53 -128 2348 0
-2349 9 0
-2349 54 0
-2349 129 0
-9 -54 -129 2349 0
-2350 10 0
-2350 55 0
-2350 130 0
-10 -55 -130 2350 0
-2351 11 0
-2351 56 0
-2351 131 0
-11 -56 -131 2351 0
-2352 12 0
-2352 57 0
-2352 132 0
-12 -57 -132 2352 0
-2353 13 0
-2353 58 0
-2353 133 0
-13 -58 -133 2353 0
-2354 14 0
-2354 59 0
-2354 134 0
-14 -59 -134 2354 0
-2355 15 0
-2355 60 0
-2355 135 0
-15 -60 -135 2355 0
-2341 8760 0
-2342 8760 0
-2343 8760 0
-2344 8760 0
-2345 8760 0
-2346 8760 0
-2347 8760 0
-2348 8760 0
-2349 8760 0
-2350 8760 0
-2351 8760 0
-2352 8760 0
-2353 8760 0
-2354 8760 0
-2355 8760 0
-8760 2341 2342 2343 2344 2345 2346 2347 2348 2349 2350 2351 2352 2353 2354 2355 0
-2356 1 0
-2356 46 0
-2356 136 0
-1 -46 -136 2356 0
-2357 2 0
-2357 47 0
-2357 137 0
-2 -47 -137 2357 0
-2358 3 0
-2358 48 0
-2358 138 0
-3 -48 -138 2358 0
-2359 4 0
-2359 49 0
-2359 139 0
-4 -49 -139 2359 0
-2360 5 0
-2360 50 0
-2360 140 0
-5 -50 -140 2360 0
-2361 6 0
-2361 51 0
-2361 141 0
-6 -51 -141 2361 0
-2362 7 0
-2362 52 0
-2362 142 0
-7 -52 -142 2362 0
-2363 8 0
-2363 53 0
-2363 143 0
-8 -53 -143 2363 0
-2364 9 0
-2364 54 0
-2364 144 0
-9 -54 -144 2364 0
-2365 10 0
-2365 55 0
-2365 145 0
-10 -55 -145 2365 0
-2366 11 0
-2366 56 0
-2366 146 0
-11 -56 -146 2366 0
-2367 12 0
-2367 57 0
-2367 147 0
-12 -57 -147 2367 0
-2368 13 0
-2368 58 0
-2368 148 0
-13 -58 -148 2368 0
-2369 14 0
-2369 59 0
-2369 149 0
-14 -59 -149 2369 0
-2370 15 0
-2370 60 0
-2370 150 0
-15 -60 -150 2370 0
-2356 8761 0
-2357 8761 0
-2358 8761 0
-2359 8761 0
-2360 8761 0
-2361 8761 0
-2362 8761 0
-2363 8761 0
-2364 8761 0
-2365 8761 0
-2366 8761 0
-2367 8761 0
-2368 8761 0
-2369 8761 0
-2370 8761 0
-8761 2356 2357 2358 2359 2360 2361 2362 2363 2364 2365 2366 2367 2368 2369 2370 0
-2371 1 0
-2371 46 0
-2371 151 0
-1 -46 -151 2371 0
-2372 2 0
-2372 47 0
-2372 152 0
-2 -47 -152 2372 0
-2373 3 0
-2373 48 0
-2373 153 0
-3 -48 -153 2373 0
-2374 4 0
-2374 49 0
-2374 154 0
-4 -49 -154 2374 0
-2375 5 0
-2375 50 0
-2375 155 0
-5 -50 -155 2375 0
-2376 6 0
-2376 51 0
-2376 156 0
-6 -51 -156 2376 0
-2377 7 0
-2377 52 0
-2377 157 0
-7 -52 -157 2377 0
-2378 8 0
-2378 53 0
-2378 158 0
-8 -53 -158 2378 0
-2379 9 0
-2379 54 0
-2379 159 0
-9 -54 -159 2379 0
-2380 10 0
-2380 55 0
-2380 160 0
-10 -55 -160 2380 0
-2381 11 0
-2381 56 0
-2381 161 0
-11 -56 -161 2381 0
-2382 12 0
-2382 57 0
-2382 162 0
-12 -57 -162 2382 0
-2383 13 0
-2383 58 0
-2383 163 0
-13 -58 -163 2383 0
-2384 14 0
-2384 59 0
-2384 164 0
-14 -59 -164 2384 0
-2385 15 0
-2385 60 0
-2385 165 0
-15 -60 -165 2385 0
-2371 8762 0
-2372 8762 0
-2373 8762 0
-2374 8762 0
-2375 8762 0
-2376 8762 0
-2377 8762 0
-2378 8762 0
-2379 8762 0
-2380 8762 0
-2381 8762 0
-2382 8762 0
-2383 8762 0
-2384 8762 0
-2385 8762 0
-8762 2371 2372 2373 2374 2375 2376 2377 2378 2379 2380 2381 2382 2383 2384 2385 0
-2386 1 0
-2386 46 0
-2386 166 0
-1 -46 -166 2386 0
-2387 2 0
-2387 47 0
-2387 167 0
-2 -47 -167 2387 0
-2388 3 0
-2388 48 0
-2388 168 0
-3 -48 -168 2388 0
-2389 4 0
-2389 49 0
-2389 169 0
-4 -49 -169 2389 0
-2390 5 0
-2390 50 0
-2390 170 0
-5 -50 -170 2390 0
-2391 6 0
-2391 51 0
-2391 171 0
-6 -51 -171 2391 0
-2392 7 0
-2392 52 0
-2392 172 0
-7 -52 -172 2392 0
-2393 8 0
-2393 53 0
-2393 173 0
-8 -53 -173 2393 0
-2394 9 0
-2394 54 0
-2394 174 0
-9 -54 -174 2394 0
-2395 10 0
-2395 55 0
-2395 175 0
-10 -55 -175 2395 0
-2396 11 0
-2396 56 0
-2396 176 0
-11 -56 -176 2396 0
-2397 12 0
-2397 57 0
-2397 177 0
-12 -57 -177 2397 0
-2398 13 0
-2398 58 0
-2398 178 0
-13 -58 -178 2398 0
-2399 14 0
-2399 59 0
-2399 179 0
-14 -59 -179 2399 0
-2400 15 0
-2400 60 0
-2400 180 0
-15 -60 -180 2400 0
-2386 8763 0
-2387 8763 0
-2388 8763 0
-2389 8763 0
-2390 8763 0
-2391 8763 0
-2392 8763 0
-2393 8763 0
-2394 8763 0
-2395 8763 0
-2396 8763 0
-2397 8763 0
-2398 8763 0
-2399 8763 0
-2400 8763 0
-8763 2386 2387 2388 2389 2390 2391 2392 2393 2394 2395 2396 2397 2398 2399 2400 0
-2401 1 0
-2401 46 0
-2401 181 0
-1 -46 -181 2401 0
-2402 2 0
-2402 47 0
-2402 182 0
-2 -47 -182 2402 0
-2403 3 0
-2403 48 0
-2403 183 0
-3 -48 -183 2403 0
-2404 4 0
-2404 49 0
-2404 184 0
-4 -49 -184 2404 0
-2405 5 0
-2405 50 0
-2405 185 0
-5 -50 -185 2405 0
-2406 6 0
-2406 51 0
-2406 186 0
-6 -51 -186 2406 0
-2407 7 0
-2407 52 0
-2407 187 0
-7 -52 -187 2407 0
-2408 8 0
-2408 53 0
-2408 188 0
-8 -53 -188 2408 0
-2409 9 0
-2409 54 0
-2409 189 0
-9 -54 -189 2409 0
-2410 10 0
-2410 55 0
-2410 190 0
-10 -55 -190 2410 0
-2411 11 0
-2411 56 0
-2411 191 0
-11 -56 -191 2411 0
-2412 12 0
-2412 57 0
-2412 192 0
-12 -57 -192 2412 0
-2413 13 0
-2413 58 0
-2413 193 0
-13 -58 -193 2413 0
-2414 14 0
-2414 59 0
-2414 194 0
-14 -59 -194 2414 0
-2415 15 0
-2415 60 0
-2415 195 0
-15 -60 -195 2415 0
-2401 8764 0
-2402 8764 0
-2403 8764 0
-2404 8764 0
-2405 8764 0
-2406 8764 0
-2407 8764 0
-2408 8764 0
-2409 8764 0
-2410 8764 0
-2411 8764 0
-2412 8764 0
-2413 8764 0
-2414 8764 0
-2415 8764 0
-8764 2401 2402 2403 2404 2405 2406 2407 2408 2409 2410 2411 2412 2413 2414 2415 0
-2416 1 0
-2416 46 0
-2416 196 0
-1 -46 -196 2416 0
-2417 2 0
-2417 47 0
-2417 197 0
-2 -47 -197 2417 0
-2418 3 0
-2418 48 0
-2418 198 0
-3 -48 -198 2418 0
-2419 4 0
-2419 49 0
-2419 199 0
-4 -49 -199 2419 0
-2420 5 0
-2420 50 0
-2420 200 0
-5 -50 -200 2420 0
-2421 6 0
-2421 51 0
-2421 201 0
-6 -51 -201 2421 0
-2422 7 0
-2422 52 0
-2422 202 0
-7 -52 -202 2422 0
-2423 8 0
-2423 53 0
-2423 203 0
-8 -53 -203 2423 0
-2424 9 0
-2424 54 0
-2424 204 0
-9 -54 -204 2424 0
-2425 10 0
-2425 55 0
-2425 205 0
-10 -55 -205 2425 0
-2426 11 0
-2426 56 0
-2426 206 0
-11 -56 -206 2426 0
-2427 12 0
-2427 57 0
-2427 207 0
-12 -57 -207 2427 0
-2428 13 0
-2428 58 0
-2428 208 0
-13 -58 -208 2428 0
-2429 14 0
-2429 59 0
-2429 209 0
-14 -59 -209 2429 0
-2430 15 0
-2430 60 0
-2430 210 0
-15 -60 -210 2430 0
-2416 8765 0
-2417 8765 0
-2418 8765 0
-2419 8765 0
-2420 8765 0
-2421 8765 0
-2422 8765 0
-2423 8765 0
-2424 8765 0
-2425 8765 0
-2426 8765 0
-2427 8765 0
-2428 8765 0
-2429 8765 0
-2430 8765 0
-8765 2416 2417 2418 2419 2420 2421 2422 2423 2424 2425 2426 2427 2428 2429 2430 0
-2431 1 0
-2431 46 0
-2431 211 0
-1 -46 -211 2431 0
-2432 2 0
-2432 47 0
-2432 212 0
-2 -47 -212 2432 0
-2433 3 0
-2433 48 0
-2433 213 0
-3 -48 -213 2433 0
-2434 4 0
-2434 49 0
-2434 214 0
-4 -49 -214 2434 0
-2435 5 0
-2435 50 0
-2435 215 0
-5 -50 -215 2435 0
-2436 6 0
-2436 51 0
-2436 216 0
-6 -51 -216 2436 0
-2437 7 0
-2437 52 0
-2437 217 0
-7 -52 -217 2437 0
-2438 8 0
-2438 53 0
-2438 218 0
-8 -53 -218 2438 0
-2439 9 0
-2439 54 0
-2439 219 0
-9 -54 -219 2439 0
-2440 10 0
-2440 55 0
-2440 220 0
-10 -55 -220 2440 0
-2441 11 0
-2441 56 0
-2441 221 0
-11 -56 -221 2441 0
-2442 12 0
-2442 57 0
-2442 222 0
-12 -57 -222 2442 0
-2443 13 0
-2443 58 0
-2443 223 0
-13 -58 -223 2443 0
-2444 14 0
-2444 59 0
-2444 224 0
-14 -59 -224 2444 0
-2445 15 0
-2445 60 0
-2445 225 0
-15 -60 -225 2445 0
-2431 8766 0
-2432 8766 0
-2433 8766 0
-2434 8766 0
-2435 8766 0
-2436 8766 0
-2437 8766 0
-2438 8766 0
-2439 8766 0
-2440 8766 0
-2441 8766 0
-2442 8766 0
-2443 8766 0
-2444 8766 0
-2445 8766 0
-8766 2431 2432 2433 2434 2435 2436 2437 2438 2439 2440 2441 2442 2443 2444 2445 0
-2446 1 0
-2446 61 0
-2446 76 0
-1 -61 -76 2446 0
-2447 2 0
-2447 62 0
-2447 77 0
-2 -62 -77 2447 0
-2448 3 0
-2448 63 0
-2448 78 0
-3 -63 -78 2448 0
-2449 4 0
-2449 64 0
-2449 79 0
-4 -64 -79 2449 0
-2450 5 0
-2450 65 0
-2450 80 0
-5 -65 -80 2450 0
-2451 6 0
-2451 66 0
-2451 81 0
-6 -66 -81 2451 0
-2452 7 0
-2452 67 0
-2452 82 0
-7 -67 -82 2452 0
-2453 8 0
-2453 68 0
-2453 83 0
-8 -68 -83 2453 0
-2454 9 0
-2454 69 0
-2454 84 0
-9 -69 -84 2454 0
-2455 10 0
-2455 70 0
-2455 85 0
-10 -70 -85 2455 0
-2456 11 0
-2456 71 0
-2456 86 0
-11 -71 -86 2456 0
-2457 12 0
-2457 72 0
-2457 87 0
-12 -72 -87 2457 0
-2458 13 0
-2458 73 0
-2458 88 0
-13 -73 -88 2458 0
-2459 14 0
-2459 74 0
-2459 89 0
-14 -74 -89 2459 0
-2460 15 0
-2460 75 0
-2460 90 0
-15 -75 -90 2460 0
-2446 8767 0
-2447 8767 0
-2448 8767 0
-2449 8767 0
-2450 8767 0
-2451 8767 0
-2452 8767 0
-2453 8767 0
-2454 8767 0
-2455 8767 0
-2456 8767 0
-2457 8767 0
-2458 8767 0
-2459 8767 0
-2460 8767 0
-8767 2446 2447 2448 2449 2450 2451 2452 2453 2454 2455 2456 2457 2458 2459 2460 0
-2461 1 0
-2461 61 0
-2461 91 0
-1 -61 -91 2461 0
-2462 2 0
-2462 62 0
-2462 92 0
-2 -62 -92 2462 0
-2463 3 0
-2463 63 0
-2463 93 0
-3 -63 -93 2463 0
-2464 4 0
-2464 64 0
-2464 94 0
-4 -64 -94 2464 0
-2465 5 0
-2465 65 0
-2465 95 0
-5 -65 -95 2465 0
-2466 6 0
-2466 66 0
-2466 96 0
-6 -66 -96 2466 0
-2467 7 0
-2467 67 0
-2467 97 0
-7 -67 -97 2467 0
-2468 8 0
-2468 68 0
-2468 98 0
-8 -68 -98 2468 0
-2469 9 0
-2469 69 0
-2469 99 0
-9 -69 -99 2469 0
-2470 10 0
-2470 70 0
-2470 100 0
-10 -70 -100 2470 0
-2471 11 0
-2471 71 0
-2471 101 0
-11 -71 -101 2471 0
-2472 12 0
-2472 72 0
-2472 102 0
-12 -72 -102 2472 0
-2473 13 0
-2473 73 0
-2473 103 0
-13 -73 -103 2473 0
-2474 14 0
-2474 74 0
-2474 104 0
-14 -74 -104 2474 0
-2475 15 0
-2475 75 0
-2475 105 0
-15 -75 -105 2475 0
-2461 8768 0
-2462 8768 0
-2463 8768 0
-2464 8768 0
-2465 8768 0
-2466 8768 0
-2467 8768 0
-2468 8768 0
-2469 8768 0
-2470 8768 0
-2471 8768 0
-2472 8768 0
-2473 8768 0
-2474 8768 0
-2475 8768 0
-8768 2461 2462 2463 2464 2465 2466 2467 2468 2469 2470 2471 2472 2473 2474 2475 0
-2476 1 0
-2476 61 0
-2476 106 0
-1 -61 -106 2476 0
-2477 2 0
-2477 62 0
-2477 107 0
-2 -62 -107 2477 0
-2478 3 0
-2478 63 0
-2478 108 0
-3 -63 -108 2478 0
-2479 4 0
-2479 64 0
-2479 109 0
-4 -64 -109 2479 0
-2480 5 0
-2480 65 0
-2480 110 0
-5 -65 -110 2480 0
-2481 6 0
-2481 66 0
-2481 111 0
-6 -66 -111 2481 0
-2482 7 0
-2482 67 0
-2482 112 0
-7 -67 -112 2482 0
-2483 8 0
-2483 68 0
-2483 113 0
-8 -68 -113 2483 0
-2484 9 0
-2484 69 0
-2484 114 0
-9 -69 -114 2484 0
-2485 10 0
-2485 70 0
-2485 115 0
-10 -70 -115 2485 0
-2486 11 0
-2486 71 0
-2486 116 0
-11 -71 -116 2486 0
-2487 12 0
-2487 72 0
-2487 117 0
-12 -72 -117 2487 0
-2488 13 0
-2488 73 0
-2488 118 0
-13 -73 -118 2488 0
-2489 14 0
-2489 74 0
-2489 119 0
-14 -74 -119 2489 0
-2490 15 0
-2490 75 0
-2490 120 0
-15 -75 -120 2490 0
-2476 8769 0
-2477 8769 0
-2478 8769 0
-2479 8769 0
-2480 8769 0
-2481 8769 0
-2482 8769 0
-2483 8769 0
-2484 8769 0
-2485 8769 0
-2486 8769 0
-2487 8769 0
-2488 8769 0
-2489 8769 0
-2490 8769 0
-8769 2476 2477 2478 2479 2480 2481 2482 2483 2484 2485 2486 2487 2488 2489 2490 0
-2491 1 0
-2491 61 0
-2491 121 0
-1 -61 -121 2491 0
-2492 2 0
-2492 62 0
-2492 122 0
-2 -62 -122 2492 0
-2493 3 0
-2493 63 0
-2493 123 0
-3 -63 -123 2493 0
-2494 4 0
-2494 64 0
-2494 124 0
-4 -64 -124 2494 0
-2495 5 0
-2495 65 0
-2495 125 0
-5 -65 -125 2495 0
-2496 6 0
-2496 66 0
-2496 126 0
-6 -66 -126 2496 0
-2497 7 0
-2497 67 0
-2497 127 0
-7 -67 -127 2497 0
-2498 8 0
-2498 68 0
-2498 128 0
-8 -68 -128 2498 0
-2499 9 0
-2499 69 0
-2499 129 0
-9 -69 -129 2499 0
-2500 10 0
-2500 70 0
-2500 130 0
-10 -70 -130 2500 0
-2501 11 0
-2501 71 0
-2501 131 0
-11 -71 -131 2501 0
-2502 12 0
-2502 72 0
-2502 132 0
-12 -72 -132 2502 0
-2503 13 0
-2503 73 0
-2503 133 0
-13 -73 -133 2503 0
-2504 14 0
-2504 74 0
-2504 134 0
-14 -74 -134 2504 0
-2505 15 0
-2505 75 0
-2505 135 0
-15 -75 -135 2505 0
-2491 8770 0
-2492 8770 0
-2493 8770 0
-2494 8770 0
-2495 8770 0
-2496 8770 0
-2497 8770 0
-2498 8770 0
-2499 8770 0
-2500 8770 0
-2501 8770 0
-2502 8770 0
-2503 8770 0
-2504 8770 0
-2505 8770 0
-8770 2491 2492 2493 2494 2495 2496 2497 2498 2499 2500 2501 2502 2503 2504 2505 0
-2506 1 0
-2506 61 0
-2506 136 0
-1 -61 -136 2506 0
-2507 2 0
-2507 62 0
-2507 137 0
-2 -62 -137 2507 0
-2508 3 0
-2508 63 0
-2508 138 0
-3 -63 -138 2508 0
-2509 4 0
-2509 64 0
-2509 139 0
-4 -64 -139 2509 0
-2510 5 0
-2510 65 0
-2510 140 0
-5 -65 -140 2510 0
-2511 6 0
-2511 66 0
-2511 141 0
-6 -66 -141 2511 0
-2512 7 0
-2512 67 0
-2512 142 0
-7 -67 -142 2512 0
-2513 8 0
-2513 68 0
-2513 143 0
-8 -68 -143 2513 0
-2514 9 0
-2514 69 0
-2514 144 0
-9 -69 -144 2514 0
-2515 10 0
-2515 70 0
-2515 145 0
-10 -70 -145 2515 0
-2516 11 0
-2516 71 0
-2516 146 0
-11 -71 -146 2516 0
-2517 12 0
-2517 72 0
-2517 147 0
-12 -72 -147 2517 0
-2518 13 0
-2518 73 0
-2518 148 0
-13 -73 -148 2518 0
-2519 14 0
-2519 74 0
-2519 149 0
-14 -74 -149 2519 0
-2520 15 0
-2520 75 0
-2520 150 0
-15 -75 -150 2520 0
-2506 8771 0
-2507 8771 0
-2508 8771 0
-2509 8771 0
-2510 8771 0
-2511 8771 0
-2512 8771 0
-2513 8771 0
-2514 8771 0
-2515 8771 0
-2516 8771 0
-2517 8771 0
-2518 8771 0
-2519 8771 0
-2520 8771 0
-8771 2506 2507 2508 2509 2510 2511 2512 2513 2514 2515 2516 2517 2518 2519 2520 0
-2521 1 0
-2521 61 0
-2521 151 0
-1 -61 -151 2521 0
-2522 2 0
-2522 62 0
-2522 152 0
-2 -62 -152 2522 0
-2523 3 0
-2523 63 0
-2523 153 0
-3 -63 -153 2523 0
-2524 4 0
-2524 64 0
-2524 154 0
-4 -64 -154 2524 0
-2525 5 0
-2525 65 0
-2525 155 0
-5 -65 -155 2525 0
-2526 6 0
-2526 66 0
-2526 156 0
-6 -66 -156 2526 0
-2527 7 0
-2527 67 0
-2527 157 0
-7 -67 -157 2527 0
-2528 8 0
-2528 68 0
-2528 158 0
-8 -68 -158 2528 0
-2529 9 0
-2529 69 0
-2529 159 0
-9 -69 -159 2529 0
-2530 10 0
-2530 70 0
-2530 160 0
-10 -70 -160 2530 0
-2531 11 0
-2531 71 0
-2531 161 0
-11 -71 -161 2531 0
-2532 12 0
-2532 72 0
-2532 162 0
-12 -72 -162 2532 0
-2533 13 0
-2533 73 0
-2533 163 0
-13 -73 -163 2533 0
-2534 14 0
-2534 74 0
-2534 164 0
-14 -74 -164 2534 0
-2535 15 0
-2535 75 0
-2535 165 0
-15 -75 -165 2535 0
-2521 8772 0
-2522 8772 0
-2523 8772 0
-2524 8772 0
-2525 8772 0
-2526 8772 0
-2527 8772 0
-2528 8772 0
-2529 8772 0
-2530 8772 0
-2531 8772 0
-2532 8772 0
-2533 8772 0
-2534 8772 0
-2535 8772 0
-8772 2521 2522 2523 2524 2525 2526 2527 2528 2529 2530 2531 2532 2533 2534 2535 0
-2536 1 0
-2536 61 0
-2536 166 0
-1 -61 -166 2536 0
-2537 2 0
-2537 62 0
-2537 167 0
-2 -62 -167 2537 0
-2538 3 0
-2538 63 0
-2538 168 0
-3 -63 -168 2538 0
-2539 4 0
-2539 64 0
-2539 169 0
-4 -64 -169 2539 0
-2540 5 0
-2540 65 0
-2540 170 0
-5 -65 -170 2540 0
-2541 6 0
-2541 66 0
-2541 171 0
-6 -66 -171 2541 0
-2542 7 0
-2542 67 0
-2542 172 0
-7 -67 -172 2542 0
-2543 8 0
-2543 68 0
-2543 173 0
-8 -68 -173 2543 0
-2544 9 0
-2544 69 0
-2544 174 0
-9 -69 -174 2544 0
-2545 10 0
-2545 70 0
-2545 175 0
-10 -70 -175 2545 0
-2546 11 0
-2546 71 0
-2546 176 0
-11 -71 -176 2546 0
-2547 12 0
-2547 72 0
-2547 177 0
-12 -72 -177 2547 0
-2548 13 0
-2548 73 0
-2548 178 0
-13 -73 -178 2548 0
-2549 14 0
-2549 74 0
-2549 179 0
-14 -74 -179 2549 0
-2550 15 0
-2550 75 0
-2550 180 0
-15 -75 -180 2550 0
-2536 8773 0
-2537 8773 0
-2538 8773 0
-2539 8773 0
-2540 8773 0
-2541 8773 0
-2542 8773 0
-2543 8773 0
-2544 8773 0
-2545 8773 0
-2546 8773 0
-2547 8773 0
-2548 8773 0
-2549 8773 0
-2550 8773 0
-8773 2536 2537 2538 2539 2540 2541 2542 2543 2544 2545 2546 2547 2548 2549 2550 0
-2551 1 0
-2551 61 0
-2551 181 0
-1 -61 -181 2551 0
-2552 2 0
-2552 62 0
-2552 182 0
-2 -62 -182 2552 0
-2553 3 0
-2553 63 0
-2553 183 0
-3 -63 -183 2553 0
-2554 4 0
-2554 64 0
-2554 184 0
-4 -64 -184 2554 0
-2555 5 0
-2555 65 0
-2555 185 0
-5 -65 -185 2555 0
-2556 6 0
-2556 66 0
-2556 186 0
-6 -66 -186 2556 0
-2557 7 0
-2557 67 0
-2557 187 0
-7 -67 -187 2557 0
-2558 8 0
-2558 68 0
-2558 188 0
-8 -68 -188 2558 0
-2559 9 0
-2559 69 0
-2559 189 0
-9 -69 -189 2559 0
-2560 10 0
-2560 70 0
-2560 190 0
-10 -70 -190 2560 0
-2561 11 0
-2561 71 0
-2561 191 0
-11 -71 -191 2561 0
-2562 12 0
-2562 72 0
-2562 192 0
-12 -72 -192 2562 0
-2563 13 0
-2563 73 0
-2563 193 0
-13 -73 -193 2563 0
-2564 14 0
-2564 74 0
-2564 194 0
-14 -74 -194 2564 0
-2565 15 0
-2565 75 0
-2565 195 0
-15 -75 -195 2565 0
-2551 8774 0
-2552 8774 0
-2553 8774 0
-2554 8774 0
-2555 8774 0
-2556 8774 0
-2557 8774 0
-2558 8774 0
-2559 8774 0
-2560 8774 0
-2561 8774 0
-2562 8774 0
-2563 8774 0
-2564 8774 0
-2565 8774 0
-8774 2551 2552 2553 2554 2555 2556 2557 2558 2559 2560 2561 2562 2563 2564 2565 0
-2566 1 0
-2566 61 0
-2566 196 0
-1 -61 -196 2566 0
-2567 2 0
-2567 62 0
-2567 197 0
-2 -62 -197 2567 0
-2568 3 0
-2568 63 0
-2568 198 0
-3 -63 -198 2568 0
-2569 4 0
-2569 64 0
-2569 199 0
-4 -64 -199 2569 0
-2570 5 0
-2570 65 0
-2570 200 0
-5 -65 -200 2570 0
-2571 6 0
-2571 66 0
-2571 201 0
-6 -66 -201 2571 0
-2572 7 0
-2572 67 0
-2572 202 0
-7 -67 -202 2572 0
-2573 8 0
-2573 68 0
-2573 203 0
-8 -68 -203 2573 0
-2574 9 0
-2574 69 0
-2574 204 0
-9 -69 -204 2574 0
-2575 10 0
-2575 70 0
-2575 205 0
-10 -70 -205 2575 0
-2576 11 0
-2576 71 0
-2576 206 0
-11 -71 -206 2576 0
-2577 12 0
-2577 72 0
-2577 207 0
-12 -72 -207 2577 0
-2578 13 0
-2578 73 0
-2578 208 0
-13 -73 -208 2578 0
-2579 14 0
-2579 74 0
-2579 209 0
-14 -74 -209 2579 0
-2580 15 0
-2580 75 0
-2580 210 0
-15 -75 -210 2580 0
-2566 8775 0
-2567 8775 0
-2568 8775 0
-2569 8775 0
-2570 8775 0
-2571 8775 0
-2572 8775 0
-2573 8775 0
-2574 8775 0
-2575 8775 0
-2576 8775 0
-2577 8775 0
-2578 8775 0
-2579 8775 0
-2580 8775 0
-8775 2566 2567 2568 2569 2570 2571 2572 2573 2574 2575 2576 2577 2578 2579 2580 0
-2581 1 0
-2581 61 0
-2581 211 0
-1 -61 -211 2581 0
-2582 2 0
-2582 62 0
-2582 212 0
-2 -62 -212 2582 0
-2583 3 0
-2583 63 0
-2583 213 0
-3 -63 -213 2583 0
-2584 4 0
-2584 64 0
-2584 214 0
-4 -64 -214 2584 0
-2585 5 0
-2585 65 0
-2585 215 0
-5 -65 -215 2585 0
-2586 6 0
-2586 66 0
-2586 216 0
-6 -66 -216 2586 0
-2587 7 0
-2587 67 0
-2587 217 0
-7 -67 -217 2587 0
-2588 8 0
-2588 68 0
-2588 218 0
-8 -68 -218 2588 0
-2589 9 0
-2589 69 0
-2589 219 0
-9 -69 -219 2589 0
-2590 10 0
-2590 70 0
-2590 220 0
-10 -70 -220 2590 0
-2591 11 0
-2591 71 0
-2591 221 0
-11 -71 -221 2591 0
-2592 12 0
-2592 72 0
-2592 222 0
-12 -72 -222 2592 0
-2593 13 0
-2593 73 0
-2593 223 0
-13 -73 -223 2593 0
-2594 14 0
-2594 74 0
-2594 224 0
-14 -74 -224 2594 0
-2595 15 0
-2595 75 0
-2595 225 0
-15 -75 -225 2595 0
-2581 8776 0
-2582 8776 0
-2583 8776 0
-2584 8776 0
-2585 8776 0
-2586 8776 0
-2587 8776 0
-2588 8776 0
-2589 8776 0
-2590 8776 0
-2591 8776 0
-2592 8776 0
-2593 8776 0
-2594 8776 0
-2595 8776 0
-8776 2581 2582 2583 2584 2585 2586 2587 2588 2589 2590 2591 2592 2593 2594 2595 0
-2596 1 0
-2596 76 0
-2596 91 0
-1 -76 -91 2596 0
-2597 2 0
-2597 77 0
-2597 92 0
-2 -77 -92 2597 0
-2598 3 0
-2598 78 0
-2598 93 0
-3 -78 -93 2598 0
-2599 4 0
-2599 79 0
-2599 94 0
-4 -79 -94 2599 0
-2600 5 0
-2600 80 0
-2600 95 0
-5 -80 -95 2600 0
-2601 6 0
-2601 81 0
-2601 96 0
-6 -81 -96 2601 0
-2602 7 0
-2602 82 0
-2602 97 0
-7 -82 -97 2602 0
-2603 8 0
-2603 83 0
-2603 98 0
-8 -83 -98 2603 0
-2604 9 0
-2604 84 0
-2604 99 0
-9 -84 -99 2604 0
-2605 10 0
-2605 85 0
-2605 100 0
-10 -85 -100 2605 0
-2606 11 0
-2606 86 0
-2606 101 0
-11 -86 -101 2606 0
-2607 12 0
-2607 87 0
-2607 102 0
-12 -87 -102 2607 0
-2608 13 0
-2608 88 0
-2608 103 0
-13 -88 -103 2608 0
-2609 14 0
-2609 89 0
-2609 104 0
-14 -89 -104 2609 0
-2610 15 0
-2610 90 0
-2610 105 0
-15 -90 -105 2610 0
-2596 8777 0
-2597 8777 0
-2598 8777 0
-2599 8777 0
-2600 8777 0
-2601 8777 0
-2602 8777 0
-2603 8777 0
-2604 8777 0
-2605 8777 0
-2606 8777 0
-2607 8777 0
-2608 8777 0
-2609 8777 0
-2610 8777 0
-8777 2596 2597 2598 2599 2600 2601 2602 2603 2604 2605 2606 2607 2608 2609 2610 0
-2611 1 0
-2611 76 0
-2611 106 0
-1 -76 -106 2611 0
-2612 2 0
-2612 77 0
-2612 107 0
-2 -77 -107 2612 0
-2613 3 0
-2613 78 0
-2613 108 0
-3 -78 -108 2613 0
-2614 4 0
-2614 79 0
-2614 109 0
-4 -79 -109 2614 0
-2615 5 0
-2615 80 0
-2615 110 0
-5 -80 -110 2615 0
-2616 6 0
-2616 81 0
-2616 111 0
-6 -81 -111 2616 0
-2617 7 0
-2617 82 0
-2617 112 0
-7 -82 -112 2617 0
-2618 8 0
-2618 83 0
-2618 113 0
-8 -83 -113 2618 0
-2619 9 0
-2619 84 0
-2619 114 0
-9 -84 -114 2619 0
-2620 10 0
-2620 85 0
-2620 115 0
-10 -85 -115 2620 0
-2621 11 0
-2621 86 0
-2621 116 0
-11 -86 -116 2621 0
-2622 12 0
-2622 87 0
-2622 117 0
-12 -87 -117 2622 0
-2623 13 0
-2623 88 0
-2623 118 0
-13 -88 -118 2623 0
-2624 14 0
-2624 89 0
-2624 119 0
-14 -89 -119 2624 0
-2625 15 0
-2625 90 0
-2625 120 0
-15 -90 -120 2625 0
-2611 8778 0
-2612 8778 0
-2613 8778 0
-2614 8778 0
-2615 8778 0
-2616 8778 0
-2617 8778 0
-2618 8778 0
-2619 8778 0
-2620 8778 0
-2621 8778 0
-2622 8778 0
-2623 8778 0
-2624 8778 0
-2625 8778 0
-8778 2611 2612 2613 2614 2615 2616 2617 2618 2619 2620 2621 2622 2623 2624 2625 0
-2626 1 0
-2626 76 0
-2626 121 0
-1 -76 -121 2626 0
-2627 2 0
-2627 77 0
-2627 122 0
-2 -77 -122 2627 0
-2628 3 0
-2628 78 0
-2628 123 0
-3 -78 -123 2628 0
-2629 4 0
-2629 79 0
-2629 124 0
-4 -79 -124 2629 0
-2630 5 0
-2630 80 0
-2630 125 0
-5 -80 -125 2630 0
-2631 6 0
-2631 81 0
-2631 126 0
-6 -81 -126 2631 0
-2632 7 0
-2632 82 0
-2632 127 0
-7 -82 -127 2632 0
-2633 8 0
-2633 83 0
-2633 128 0
-8 -83 -128 2633 0
-2634 9 0
-2634 84 0
-2634 129 0
-9 -84 -129 2634 0
-2635 10 0
-2635 85 0
-2635 130 0
-10 -85 -130 2635 0
-2636 11 0
-2636 86 0
-2636 131 0
-11 -86 -131 2636 0
-2637 12 0
-2637 87 0
-2637 132 0
-12 -87 -132 2637 0
-2638 13 0
-2638 88 0
-2638 133 0
-13 -88 -133 2638 0
-2639 14 0
-2639 89 0
-2639 134 0
-14 -89 -134 2639 0
-2640 15 0
-2640 90 0
-2640 135 0
-15 -90 -135 2640 0
-2626 8779 0
-2627 8779 0
-2628 8779 0
-2629 8779 0
-2630 8779 0
-2631 8779 0
-2632 8779 0
-2633 8779 0
-2634 8779 0
-2635 8779 0
-2636 8779 0
-2637 8779 0
-2638 8779 0
-2639 8779 0
-2640 8779 0
-8779 2626 2627 2628 2629 2630 2631 2632 2633 2634 2635 2636 2637 2638 2639 2640 0
-2641 1 0
-2641 76 0
-2641 136 0
-1 -76 -136 2641 0
-2642 2 0
-2642 77 0
-2642 137 0
-2 -77 -137 2642 0
-2643 3 0
-2643 78 0
-2643 138 0
-3 -78 -138 2643 0
-2644 4 0
-2644 79 0
-2644 139 0
-4 -79 -139 2644 0
-2645 5 0
-2645 80 0
-2645 140 0
-5 -80 -140 2645 0
-2646 6 0
-2646 81 0
-2646 141 0
-6 -81 -141 2646 0
-2647 7 0
-2647 82 0
-2647 142 0
-7 -82 -142 2647 0
-2648 8 0
-2648 83 0
-2648 143 0
-8 -83 -143 2648 0
-2649 9 0
-2649 84 0
-2649 144 0
-9 -84 -144 2649 0
-2650 10 0
-2650 85 0
-2650 145 0
-10 -85 -145 2650 0
-2651 11 0
-2651 86 0
-2651 146 0
-11 -86 -146 2651 0
-2652 12 0
-2652 87 0
-2652 147 0
-12 -87 -147 2652 0
-2653 13 0
-2653 88 0
-2653 148 0
-13 -88 -148 2653 0
-2654 14 0
-2654 89 0
-2654 149 0
-14 -89 -149 2654 0
-2655 15 0
-2655 90 0
-2655 150 0
-15 -90 -150 2655 0
-2641 8780 0
-2642 8780 0
-2643 8780 0
-2644 8780 0
-2645 8780 0
-2646 8780 0
-2647 8780 0
-2648 8780 0
-2649 8780 0
-2650 8780 0
-2651 8780 0
-2652 8780 0
-2653 8780 0
-2654 8780 0
-2655 8780 0
-8780 2641 2642 2643 2644 2645 2646 2647 2648 2649 2650 2651 2652 2653 2654 2655 0
-2656 1 0
-2656 76 0
-2656 151 0
-1 -76 -151 2656 0
-2657 2 0
-2657 77 0
-2657 152 0
-2 -77 -152 2657 0
-2658 3 0
-2658 78 0
-2658 153 0
-3 -78 -153 2658 0
-2659 4 0
-2659 79 0
-2659 154 0
-4 -79 -154 2659 0
-2660 5 0
-2660 80 0
-2660 155 0
-5 -80 -155 2660 0
-2661 6 0
-2661 81 0
-2661 156 0
-6 -81 -156 2661 0
-2662 7 0
-2662 82 0
-2662 157 0
-7 -82 -157 2662 0
-2663 8 0
-2663 83 0
-2663 158 0
-8 -83 -158 2663 0
-2664 9 0
-2664 84 0
-2664 159 0
-9 -84 -159 2664 0
-2665 10 0
-2665 85 0
-2665 160 0
-10 -85 -160 2665 0
-2666 11 0
-2666 86 0
-2666 161 0
-11 -86 -161 2666 0
-2667 12 0
-2667 87 0
-2667 162 0
-12 -87 -162 2667 0
-2668 13 0
-2668 88 0
-2668 163 0
-13 -88 -163 2668 0
-2669 14 0
-2669 89 0
-2669 164 0
-14 -89 -164 2669 0
-2670 15 0
-2670 90 0
-2670 165 0
-15 -90 -165 2670 0
-2656 8781 0
-2657 8781 0
-2658 8781 0
-2659 8781 0
-2660 8781 0
-2661 8781 0
-2662 8781 0
-2663 8781 0
-2664 8781 0
-2665 8781 0
-2666 8781 0
-2667 8781 0
-2668 8781 0
-2669 8781 0
-2670 8781 0
-8781 2656 2657 2658 2659 2660 2661 2662 2663 2664 2665 2666 2667 2668 2669 2670 0
-2671 1 0
-2671 76 0
-2671 166 0
-1 -76 -166 2671 0
-2672 2 0
-2672 77 0
-2672 167 0
-2 -77 -167 2672 0
-2673 3 0
-2673 78 0
-2673 168 0
-3 -78 -168 2673 0
-2674 4 0
-2674 79 0
-2674 169 0
-4 -79 -169 2674 0
-2675 5 0
-2675 80 0
-2675 170 0
-5 -80 -170 2675 0
-2676 6 0
-2676 81 0
-2676 171 0
-6 -81 -171 2676 0
-2677 7 0
-2677 82 0
-2677 172 0
-7 -82 -172 2677 0
-2678 8 0
-2678 83 0
-2678 173 0
-8 -83 -173 2678 0
-2679 9 0
-2679 84 0
-2679 174 0
-9 -84 -174 2679 0
-2680 10 0
-2680 85 0
-2680 175 0
-10 -85 -175 2680 0
-2681 11 0
-2681 86 0
-2681 176 0
-11 -86 -176 2681 0
-2682 12 0
-2682 87 0
-2682 177 0
-12 -87 -177 2682 0
-2683 13 0
-2683 88 0
-2683 178 0
-13 -88 -178 2683 0
-2684 14 0
-2684 89 0
-2684 179 0
-14 -89 -179 2684 0
-2685 15 0
-2685 90 0
-2685 180 0
-15 -90 -180 2685 0
-2671 8782 0
-2672 8782 0
-2673 8782 0
-2674 8782 0
-2675 8782 0
-2676 8782 0
-2677 8782 0
-2678 8782 0
-2679 8782 0
-2680 8782 0
-2681 8782 0
-2682 8782 0
-2683 8782 0
-2684 8782 0
-2685 8782 0
-8782 2671 2672 2673 2674 2675 2676 2677 2678 2679 2680 2681 2682 2683 2684 2685 0
-2686 1 0
-2686 76 0
-2686 181 0
-1 -76 -181 2686 0
-2687 2 0
-2687 77 0
-2687 182 0
-2 -77 -182 2687 0
-2688 3 0
-2688 78 0
-2688 183 0
-3 -78 -183 2688 0
-2689 4 0
-2689 79 0
-2689 184 0
-4 -79 -184 2689 0
-2690 5 0
-2690 80 0
-2690 185 0
-5 -80 -185 2690 0
-2691 6 0
-2691 81 0
-2691 186 0
-6 -81 -186 2691 0
-2692 7 0
-2692 82 0
-2692 187 0
-7 -82 -187 2692 0
-2693 8 0
-2693 83 0
-2693 188 0
-8 -83 -188 2693 0
-2694 9 0
-2694 84 0
-2694 189 0
-9 -84 -189 2694 0
-2695 10 0
-2695 85 0
-2695 190 0
-10 -85 -190 2695 0
-2696 11 0
-2696 86 0
-2696 191 0
-11 -86 -191 2696 0
-2697 12 0
-2697 87 0
-2697 192 0
-12 -87 -192 2697 0
-2698 13 0
-2698 88 0
-2698 193 0
-13 -88 -193 2698 0
-2699 14 0
-2699 89 0
-2699 194 0
-14 -89 -194 2699 0
-2700 15 0
-2700 90 0
-2700 195 0
-15 -90 -195 2700 0
-2686 8783 0
-2687 8783 0
-2688 8783 0
-2689 8783 0
-2690 8783 0
-2691 8783 0
-2692 8783 0
-2693 8783 0
-2694 8783 0
-2695 8783 0
-2696 8783 0
-2697 8783 0
-2698 8783 0
-2699 8783 0
-2700 8783 0
-8783 2686 2687 2688 2689 2690 2691 2692 2693 2694 2695 2696 2697 2698 2699 2700 0
-2701 1 0
-2701 76 0
-2701 196 0
-1 -76 -196 2701 0
-2702 2 0
-2702 77 0
-2702 197 0
-2 -77 -197 2702 0
-2703 3 0
-2703 78 0
-2703 198 0
-3 -78 -198 2703 0
-2704 4 0
-2704 79 0
-2704 199 0
-4 -79 -199 2704 0
-2705 5 0
-2705 80 0
-2705 200 0
-5 -80 -200 2705 0
-2706 6 0
-2706 81 0
-2706 201 0
-6 -81 -201 2706 0
-2707 7 0
-2707 82 0
-2707 202 0
-7 -82 -202 2707 0
-2708 8 0
-2708 83 0
-2708 203 0
-8 -83 -203 2708 0
-2709 9 0
-2709 84 0
-2709 204 0
-9 -84 -204 2709 0
-2710 10 0
-2710 85 0
-2710 205 0
-10 -85 -205 2710 0
-2711 11 0
-2711 86 0
-2711 206 0
-11 -86 -206 2711 0
-2712 12 0
-2712 87 0
-2712 207 0
-12 -87 -207 2712 0
-2713 13 0
-2713 88 0
-2713 208 0
-13 -88 -208 2713 0
-2714 14 0
-2714 89 0
-2714 209 0
-14 -89 -209 2714 0
-2715 15 0
-2715 90 0
-2715 210 0
-15 -90 -210 2715 0
-2701 8784 0
-2702 8784 0
-2703 8784 0
-2704 8784 0
-2705 8784 0
-2706 8784 0
-2707 8784 0
-2708 8784 0
-2709 8784 0
-2710 8784 0
-2711 8784 0
-2712 8784 0
-2713 8784 0
-2714 8784 0
-2715 8784 0
-8784 2701 2702 2703 2704 2705 2706 2707 2708 2709 2710 2711 2712 2713 2714 2715 0
-2716 1 0
-2716 76 0
-2716 211 0
-1 -76 -211 2716 0
-2717 2 0
-2717 77 0
-2717 212 0
-2 -77 -212 2717 0
-2718 3 0
-2718 78 0
-2718 213 0
-3 -78 -213 2718 0
-2719 4 0
-2719 79 0
-2719 214 0
-4 -79 -214 2719 0
-2720 5 0
-2720 80 0
-2720 215 0
-5 -80 -215 2720 0
-2721 6 0
-2721 81 0
-2721 216 0
-6 -81 -216 2721 0
-2722 7 0
-2722 82 0
-2722 217 0
-7 -82 -217 2722 0
-2723 8 0
-2723 83 0
-2723 218 0
-8 -83 -218 2723 0
-2724 9 0
-2724 84 0
-2724 219 0
-9 -84 -219 2724 0
-2725 10 0
-2725 85 0
-2725 220 0
-10 -85 -220 2725 0
-2726 11 0
-2726 86 0
-2726 221 0
-11 -86 -221 2726 0
-2727 12 0
-2727 87 0
-2727 222 0
-12 -87 -222 2727 0
-2728 13 0
-2728 88 0
-2728 223 0
-13 -88 -223 2728 0
-2729 14 0
-2729 89 0
-2729 224 0
-14 -89 -224 2729 0
-2730 15 0
-2730 90 0
-2730 225 0
-15 -90 -225 2730 0
-2716 8785 0
-2717 8785 0
-2718 8785 0
-2719 8785 0
-2720 8785 0
-2721 8785 0
-2722 8785 0
-2723 8785 0
-2724 8785 0
-2725 8785 0
-2726 8785 0
-2727 8785 0
-2728 8785 0
-2729 8785 0
-2730 8785 0
-8785 2716 2717 2718 2719 2720 2721 2722 2723 2724 2725 2726 2727 2728 2729 2730 0
-2731 1 0
-2731 91 0
-2731 106 0
-1 -91 -106 2731 0
-2732 2 0
-2732 92 0
-2732 107 0
-2 -92 -107 2732 0
-2733 3 0
-2733 93 0
-2733 108 0
-3 -93 -108 2733 0
-2734 4 0
-2734 94 0
-2734 109 0
-4 -94 -109 2734 0
-2735 5 0
-2735 95 0
-2735 110 0
-5 -95 -110 2735 0
-2736 6 0
-2736 96 0
-2736 111 0
-6 -96 -111 2736 0
-2737 7 0
-2737 97 0
-2737 112 0
-7 -97 -112 2737 0
-2738 8 0
-2738 98 0
-2738 113 0
-8 -98 -113 2738 0
-2739 9 0
-2739 99 0
-2739 114 0
-9 -99 -114 2739 0
-2740 10 0
-2740 100 0
-2740 115 0
-10 -100 -115 2740 0
-2741 11 0
-2741 101 0
-2741 116 0
-11 -101 -116 2741 0
-2742 12 0
-2742 102 0
-2742 117 0
-12 -102 -117 2742 0
-2743 13 0
-2743 103 0
-2743 118 0
-13 -103 -118 2743 0
-2744 14 0
-2744 104 0
-2744 119 0
-14 -104 -119 2744 0
-2745 15 0
-2745 105 0
-2745 120 0
-15 -105 -120 2745 0
-2731 8786 0
-2732 8786 0
-2733 8786 0
-2734 8786 0
-2735 8786 0
-2736 8786 0
-2737 8786 0
-2738 8786 0
-2739 8786 0
-2740 8786 0
-2741 8786 0
-2742 8786 0
-2743 8786 0
-2744 8786 0
-2745 8786 0
-8786 2731 2732 2733 2734 2735 2736 2737 2738 2739 2740 2741 2742 2743 2744 2745 0
-2746 1 0
-2746 91 0
-2746 121 0
-1 -91 -121 2746 0
-2747 2 0
-2747 92 0
-2747 122 0
-2 -92 -122 2747 0
-2748 3 0
-2748 93 0
-2748 123 0
-3 -93 -123 2748 0
-2749 4 0
-2749 94 0
-2749 124 0
-4 -94 -124 2749 0
-2750 5 0
-2750 95 0
-2750 125 0
-5 -95 -125 2750 0
-2751 6 0
-2751 96 0
-2751 126 0
-6 -96 -126 2751 0
-2752 7 0
-2752 97 0
-2752 127 0
-7 -97 -127 2752 0
-2753 8 0
-2753 98 0
-2753 128 0
-8 -98 -128 2753 0
-2754 9 0
-2754 99 0
-2754 129 0
-9 -99 -129 2754 0
-2755 10 0
-2755 100 0
-2755 130 0
-10 -100 -130 2755 0
-2756 11 0
-2756 101 0
-2756 131 0
-11 -101 -131 2756 0
-2757 12 0
-2757 102 0
-2757 132 0
-12 -102 -132 2757 0
-2758 13 0
-2758 103 0
-2758 133 0
-13 -103 -133 2758 0
-2759 14 0
-2759 104 0
-2759 134 0
-14 -104 -134 2759 0
-2760 15 0
-2760 105 0
-2760 135 0
-15 -105 -135 2760 0
-2746 8787 0
-2747 8787 0
-2748 8787 0
-2749 8787 0
-2750 8787 0
-2751 8787 0
-2752 8787 0
-2753 8787 0
-2754 8787 0
-2755 8787 0
-2756 8787 0
-2757 8787 0
-2758 8787 0
-2759 8787 0
-2760 8787 0
-8787 2746 2747 2748 2749 2750 2751 2752 2753 2754 2755 2756 2757 2758 2759 2760 0
-2761 1 0
-2761 91 0
-2761 136 0
-1 -91 -136 2761 0
-2762 2 0
-2762 92 0
-2762 137 0
-2 -92 -137 2762 0
-2763 3 0
-2763 93 0
-2763 138 0
-3 -93 -138 2763 0
-2764 4 0
-2764 94 0
-2764 139 0
-4 -94 -139 2764 0
-2765 5 0
-2765 95 0
-2765 140 0
-5 -95 -140 2765 0
-2766 6 0
-2766 96 0
-2766 141 0
-6 -96 -141 2766 0
-2767 7 0
-2767 97 0
-2767 142 0
-7 -97 -142 2767 0
-2768 8 0
-2768 98 0
-2768 143 0
-8 -98 -143 2768 0
-2769 9 0
-2769 99 0
-2769 144 0
-9 -99 -144 2769 0
-2770 10 0
-2770 100 0
-2770 145 0
-10 -100 -145 2770 0
-2771 11 0
-2771 101 0
-2771 146 0
-11 -101 -146 2771 0
-2772 12 0
-2772 102 0
-2772 147 0
-12 -102 -147 2772 0
-2773 13 0
-2773 103 0
-2773 148 0
-13 -103 -148 2773 0
-2774 14 0
-2774 104 0
-2774 149 0
-14 -104 -149 2774 0
-2775 15 0
-2775 105 0
-2775 150 0
-15 -105 -150 2775 0
-2761 8788 0
-2762 8788 0
-2763 8788 0
-2764 8788 0
-2765 8788 0
-2766 8788 0
-2767 8788 0
-2768 8788 0
-2769 8788 0
-2770 8788 0
-2771 8788 0
-2772 8788 0
-2773 8788 0
-2774 8788 0
-2775 8788 0
-8788 2761 2762 2763 2764 2765 2766 2767 2768 2769 2770 2771 2772 2773 2774 2775 0
-2776 1 0
-2776 91 0
-2776 151 0
-1 -91 -151 2776 0
-2777 2 0
-2777 92 0
-2777 152 0
-2 -92 -152 2777 0
-2778 3 0
-2778 93 0
-2778 153 0
-3 -93 -153 2778 0
-2779 4 0
-2779 94 0
-2779 154 0
-4 -94 -154 2779 0
-2780 5 0
-2780 95 0
-2780 155 0
-5 -95 -155 2780 0
-2781 6 0
-2781 96 0
-2781 156 0
-6 -96 -156 2781 0
-2782 7 0
-2782 97 0
-2782 157 0
-7 -97 -157 2782 0
-2783 8 0
-2783 98 0
-2783 158 0
-8 -98 -158 2783 0
-2784 9 0
-2784 99 0
-2784 159 0
-9 -99 -159 2784 0
-2785 10 0
-2785 100 0
-2785 160 0
-10 -100 -160 2785 0
-2786 11 0
-2786 101 0
-2786 161 0
-11 -101 -161 2786 0
-2787 12 0
-2787 102 0
-2787 162 0
-12 -102 -162 2787 0
-2788 13 0
-2788 103 0
-2788 163 0
-13 -103 -163 2788 0
-2789 14 0
-2789 104 0
-2789 164 0
-14 -104 -164 2789 0
-2790 15 0
-2790 105 0
-2790 165 0
-15 -105 -165 2790 0
-2776 8789 0
-2777 8789 0
-2778 8789 0
-2779 8789 0
-2780 8789 0
-2781 8789 0
-2782 8789 0
-2783 8789 0
-2784 8789 0
-2785 8789 0
-2786 8789 0
-2787 8789 0
-2788 8789 0
-2789 8789 0
-2790 8789 0
-8789 2776 2777 2778 2779 2780 2781 2782 2783 2784 2785 2786 2787 2788 2789 2790 0
-2791 1 0
-2791 91 0
-2791 166 0
-1 -91 -166 2791 0
-2792 2 0
-2792 92 0
-2792 167 0
-2 -92 -167 2792 0
-2793 3 0
-2793 93 0
-2793 168 0
-3 -93 -168 2793 0
-2794 4 0
-2794 94 0
-2794 169 0
-4 -94 -169 2794 0
-2795 5 0
-2795 95 0
-2795 170 0
-5 -95 -170 2795 0
-2796 6 0
-2796 96 0
-2796 171 0
-6 -96 -171 2796 0
-2797 7 0
-2797 97 0
-2797 172 0
-7 -97 -172 2797 0
-2798 8 0
-2798 98 0
-2798 173 0
-8 -98 -173 2798 0
-2799 9 0
-2799 99 0
-2799 174 0
-9 -99 -174 2799 0
-2800 10 0
-2800 100 0
-2800 175 0
-10 -100 -175 2800 0
-2801 11 0
-2801 101 0
-2801 176 0
-11 -101 -176 2801 0
-2802 12 0
-2802 102 0
-2802 177 0
-12 -102 -177 2802 0
-2803 13 0
-2803 103 0
-2803 178 0
-13 -103 -178 2803 0
-2804 14 0
-2804 104 0
-2804 179 0
-14 -104 -179 2804 0
-2805 15 0
-2805 105 0
-2805 180 0
-15 -105 -180 2805 0
-2791 8790 0
-2792 8790 0
-2793 8790 0
-2794 8790 0
-2795 8790 0
-2796 8790 0
-2797 8790 0
-2798 8790 0
-2799 8790 0
-2800 8790 0
-2801 8790 0
-2802 8790 0
-2803 8790 0
-2804 8790 0
-2805 8790 0
-8790 2791 2792 2793 2794 2795 2796 2797 2798 2799 2800 2801 2802 2803 2804 2805 0
-2806 1 0
-2806 91 0
-2806 181 0
-1 -91 -181 2806 0
-2807 2 0
-2807 92 0
-2807 182 0
-2 -92 -182 2807 0
-2808 3 0
-2808 93 0
-2808 183 0
-3 -93 -183 2808 0
-2809 4 0
-2809 94 0
-2809 184 0
-4 -94 -184 2809 0
-2810 5 0
-2810 95 0
-2810 185 0
-5 -95 -185 2810 0
-2811 6 0
-2811 96 0
-2811 186 0
-6 -96 -186 2811 0
-2812 7 0
-2812 97 0
-2812 187 0
-7 -97 -187 2812 0
-2813 8 0
-2813 98 0
-2813 188 0
-8 -98 -188 2813 0
-2814 9 0
-2814 99 0
-2814 189 0
-9 -99 -189 2814 0
-2815 10 0
-2815 100 0
-2815 190 0
-10 -100 -190 2815 0
-2816 11 0
-2816 101 0
-2816 191 0
-11 -101 -191 2816 0
-2817 12 0
-2817 102 0
-2817 192 0
-12 -102 -192 2817 0
-2818 13 0
-2818 103 0
-2818 193 0
-13 -103 -193 2818 0
-2819 14 0
-2819 104 0
-2819 194 0
-14 -104 -194 2819 0
-2820 15 0
-2820 105 0
-2820 195 0
-15 -105 -195 2820 0
-2806 8791 0
-2807 8791 0
-2808 8791 0
-2809 8791 0
-2810 8791 0
-2811 8791 0
-2812 8791 0
-2813 8791 0
-2814 8791 0
-2815 8791 0
-2816 8791 0
-2817 8791 0
-2818 8791 0
-2819 8791 0
-2820 8791 0
-8791 2806 2807 2808 2809 2810 2811 2812 2813 2814 2815 2816 2817 2818 2819 2820 0
-2821 1 0
-2821 91 0
-2821 196 0
-1 -91 -196 2821 0
-2822 2 0
-2822 92 0
-2822 197 0
-2 -92 -197 2822 0
-2823 3 0
-2823 93 0
-2823 198 0
-3 -93 -198 2823 0
-2824 4 0
-2824 94 0
-2824 199 0
-4 -94 -199 2824 0
-2825 5 0
-2825 95 0
-2825 200 0
-5 -95 -200 2825 0
-2826 6 0
-2826 96 0
-2826 201 0
-6 -96 -201 2826 0
-2827 7 0
-2827 97 0
-2827 202 0
-7 -97 -202 2827 0
-2828 8 0
-2828 98 0
-2828 203 0
-8 -98 -203 2828 0
-2829 9 0
-2829 99 0
-2829 204 0
-9 -99 -204 2829 0
-2830 10 0
-2830 100 0
-2830 205 0
-10 -100 -205 2830 0
-2831 11 0
-2831 101 0
-2831 206 0
-11 -101 -206 2831 0
-2832 12 0
-2832 102 0
-2832 207 0
-12 -102 -207 2832 0
-2833 13 0
-2833 103 0
-2833 208 0
-13 -103 -208 2833 0
-2834 14 0
-2834 104 0
-2834 209 0
-14 -104 -209 2834 0
-2835 15 0
-2835 105 0
-2835 210 0
-15 -105 -210 2835 0
-2821 8792 0
-2822 8792 0
-2823 8792 0
-2824 8792 0
-2825 8792 0
-2826 8792 0
-2827 8792 0
-2828 8792 0
-2829 8792 0
-2830 8792 0
-2831 8792 0
-2832 8792 0
-2833 8792 0
-2834 8792 0
-2835 8792 0
-8792 2821 2822 2823 2824 2825 2826 2827 2828 2829 2830 2831 2832 2833 2834 2835 0
-2836 1 0
-2836 91 0
-2836 211 0
-1 -91 -211 2836 0
-2837 2 0
-2837 92 0
-2837 212 0
-2 -92 -212 2837 0
-2838 3 0
-2838 93 0
-2838 213 0
-3 -93 -213 2838 0
-2839 4 0
-2839 94 0
-2839 214 0
-4 -94 -214 2839 0
-2840 5 0
-2840 95 0
-2840 215 0
-5 -95 -215 2840 0
-2841 6 0
-2841 96 0
-2841 216 0
-6 -96 -216 2841 0
-2842 7 0
-2842 97 0
-2842 217 0
-7 -97 -217 2842 0
-2843 8 0
-2843 98 0
-2843 218 0
-8 -98 -218 2843 0
-2844 9 0
-2844 99 0
-2844 219 0
-9 -99 -219 2844 0
-2845 10 0
-2845 100 0
-2845 220 0
-10 -100 -220 2845 0
-2846 11 0
-2846 101 0
-2846 221 0
-11 -101 -221 2846 0
-2847 12 0
-2847 102 0
-2847 222 0
-12 -102 -222 2847 0
-2848 13 0
-2848 103 0
-2848 223 0
-13 -103 -223 2848 0
-2849 14 0
-2849 104 0
-2849 224 0
-14 -104 -224 2849 0
-2850 15 0
-2850 105 0
-2850 225 0
-15 -105 -225 2850 0
-2836 8793 0
-2837 8793 0
-2838 8793 0
-2839 8793 0
-2840 8793 0
-2841 8793 0
-2842 8793 0
-2843 8793 0
-2844 8793 0
-2845 8793 0
-2846 8793 0
-2847 8793 0
-2848 8793 0
-2849 8793 0
-2850 8793 0
-8793 2836 2837 2838 2839 2840 2841 2842 2843 2844 2845 2846 2847 2848 2849 2850 0
-2851 1 0
-2851 106 0
-2851 121 0
-1 -106 -121 2851 0
-2852 2 0
-2852 107 0
-2852 122 0
-2 -107 -122 2852 0
-2853 3 0
-2853 108 0
-2853 123 0
-3 -108 -123 2853 0
-2854 4 0
-2854 109 0
-2854 124 0
-4 -109 -124 2854 0
-2855 5 0
-2855 110 0
-2855 125 0
-5 -110 -125 2855 0
-2856 6 0
-2856 111 0
-2856 126 0
-6 -111 -126 2856 0
-2857 7 0
-2857 112 0
-2857 127 0
-7 -112 -127 2857 0
-2858 8 0
-2858 113 0
-2858 128 0
-8 -113 -128 2858 0
-2859 9 0
-2859 114 0
-2859 129 0
-9 -114 -129 2859 0
-2860 10 0
-2860 115 0
-2860 130 0
-10 -115 -130 2860 0
-2861 11 0
-2861 116 0
-2861 131 0
-11 -116 -131 2861 0
-2862 12 0
-2862 117 0
-2862 132 0
-12 -117 -132 2862 0
-2863 13 0
-2863 118 0
-2863 133 0
-13 -118 -133 2863 0
-2864 14 0
-2864 119 0
-2864 134 0
-14 -119 -134 2864 0
-2865 15 0
-2865 120 0
-2865 135 0
-15 -120 -135 2865 0
-2851 8794 0
-2852 8794 0
-2853 8794 0
-2854 8794 0
-2855 8794 0
-2856 8794 0
-2857 8794 0
-2858 8794 0
-2859 8794 0
-2860 8794 0
-2861 8794 0
-2862 8794 0
-2863 8794 0
-2864 8794 0
-2865 8794 0
-8794 2851 2852 2853 2854 2855 2856 2857 2858 2859 2860 2861 2862 2863 2864 2865 0
-2866 1 0
-2866 106 0
-2866 136 0
-1 -106 -136 2866 0
-2867 2 0
-2867 107 0
-2867 137 0
-2 -107 -137 2867 0
-2868 3 0
-2868 108 0
-2868 138 0
-3 -108 -138 2868 0
-2869 4 0
-2869 109 0
-2869 139 0
-4 -109 -139 2869 0
-2870 5 0
-2870 110 0
-2870 140 0
-5 -110 -140 2870 0
-2871 6 0
-2871 111 0
-2871 141 0
-6 -111 -141 2871 0
-2872 7 0
-2872 112 0
-2872 142 0
-7 -112 -142 2872 0
-2873 8 0
-2873 113 0
-2873 143 0
-8 -113 -143 2873 0
-2874 9 0
-2874 114 0
-2874 144 0
-9 -114 -144 2874 0
-2875 10 0
-2875 115 0
-2875 145 0
-10 -115 -145 2875 0
-2876 11 0
-2876 116 0
-2876 146 0
-11 -116 -146 2876 0
-2877 12 0
-2877 117 0
-2877 147 0
-12 -117 -147 2877 0
-2878 13 0
-2878 118 0
-2878 148 0
-13 -118 -148 2878 0
-2879 14 0
-2879 119 0
-2879 149 0
-14 -119 -149 2879 0
-2880 15 0
-2880 120 0
-2880 150 0
-15 -120 -150 2880 0
-2866 8795 0
-2867 8795 0
-2868 8795 0
-2869 8795 0
-2870 8795 0
-2871 8795 0
-2872 8795 0
-2873 8795 0
-2874 8795 0
-2875 8795 0
-2876 8795 0
-2877 8795 0
-2878 8795 0
-2879 8795 0
-2880 8795 0
-8795 2866 2867 2868 2869 2870 2871 2872 2873 2874 2875 2876 2877 2878 2879 2880 0
-2881 1 0
-2881 106 0
-2881 151 0
-1 -106 -151 2881 0
-2882 2 0
-2882 107 0
-2882 152 0
-2 -107 -152 2882 0
-2883 3 0
-2883 108 0
-2883 153 0
-3 -108 -153 2883 0
-2884 4 0
-2884 109 0
-2884 154 0
-4 -109 -154 2884 0
-2885 5 0
-2885 110 0
-2885 155 0
-5 -110 -155 2885 0
-2886 6 0
-2886 111 0
-2886 156 0
-6 -111 -156 2886 0
-2887 7 0
-2887 112 0
-2887 157 0
-7 -112 -157 2887 0
-2888 8 0
-2888 113 0
-2888 158 0
-8 -113 -158 2888 0
-2889 9 0
-2889 114 0
-2889 159 0
-9 -114 -159 2889 0
-2890 10 0
-2890 115 0
-2890 160 0
-10 -115 -160 2890 0
-2891 11 0
-2891 116 0
-2891 161 0
-11 -116 -161 2891 0
-2892 12 0
-2892 117 0
-2892 162 0
-12 -117 -162 2892 0
-2893 13 0
-2893 118 0
-2893 163 0
-13 -118 -163 2893 0
-2894 14 0
-2894 119 0
-2894 164 0
-14 -119 -164 2894 0
-2895 15 0
-2895 120 0
-2895 165 0
-15 -120 -165 2895 0
-2881 8796 0
-2882 8796 0
-2883 8796 0
-2884 8796 0
-2885 8796 0
-2886 8796 0
-2887 8796 0
-2888 8796 0
-2889 8796 0
-2890 8796 0
-2891 8796 0
-2892 8796 0
-2893 8796 0
-2894 8796 0
-2895 8796 0
-8796 2881 2882 2883 2884 2885 2886 2887 2888 2889 2890 2891 2892 2893 2894 2895 0
-2896 1 0
-2896 106 0
-2896 166 0
-1 -106 -166 2896 0
-2897 2 0
-2897 107 0
-2897 167 0
-2 -107 -167 2897 0
-2898 3 0
-2898 108 0
-2898 168 0
-3 -108 -168 2898 0
-2899 4 0
-2899 109 0
-2899 169 0
-4 -109 -169 2899 0
-2900 5 0
-2900 110 0
-2900 170 0
-5 -110 -170 2900 0
-2901 6 0
-2901 111 0
-2901 171 0
-6 -111 -171 2901 0
-2902 7 0
-2902 112 0
-2902 172 0
-7 -112 -172 2902 0
-2903 8 0
-2903 113 0
-2903 173 0
-8 -113 -173 2903 0
-2904 9 0
-2904 114 0
-2904 174 0
-9 -114 -174 2904 0
-2905 10 0
-2905 115 0
-2905 175 0
-10 -115 -175 2905 0
-2906 11 0
-2906 116 0
-2906 176 0
-11 -116 -176 2906 0
-2907 12 0
-2907 117 0
-2907 177 0
-12 -117 -177 2907 0
-2908 13 0
-2908 118 0
-2908 178 0
-13 -118 -178 2908 0
-2909 14 0
-2909 119 0
-2909 179 0
-14 -119 -179 2909 0
-2910 15 0
-2910 120 0
-2910 180 0
-15 -120 -180 2910 0
-2896 8797 0
-2897 8797 0
-2898 8797 0
-2899 8797 0
-2900 8797 0
-2901 8797 0
-2902 8797 0
-2903 8797 0
-2904 8797 0
-2905 8797 0
-2906 8797 0
-2907 8797 0
-2908 8797 0
-2909 8797 0
-2910 8797 0
-8797 2896 2897 2898 2899 2900 2901 2902 2903 2904 2905 2906 2907 2908 2909 2910 0
-2911 1 0
-2911 106 0
-2911 181 0
-1 -106 -181 2911 0
-2912 2 0
-2912 107 0
-2912 182 0
-2 -107 -182 2912 0
-2913 3 0
-2913 108 0
-2913 183 0
-3 -108 -183 2913 0
-2914 4 0
-2914 109 0
-2914 184 0
-4 -109 -184 2914 0
-2915 5 0
-2915 110 0
-2915 185 0
-5 -110 -185 2915 0
-2916 6 0
-2916 111 0
-2916 186 0
-6 -111 -186 2916 0
-2917 7 0
-2917 112 0
-2917 187 0
-7 -112 -187 2917 0
-2918 8 0
-2918 113 0
-2918 188 0
-8 -113 -188 2918 0
-2919 9 0
-2919 114 0
-2919 189 0
-9 -114 -189 2919 0
-2920 10 0
-2920 115 0
-2920 190 0
-10 -115 -190 2920 0
-2921 11 0
-2921 116 0
-2921 191 0
-11 -116 -191 2921 0
-2922 12 0
-2922 117 0
-2922 192 0
-12 -117 -192 2922 0
-2923 13 0
-2923 118 0
-2923 193 0
-13 -118 -193 2923 0
-2924 14 0
-2924 119 0
-2924 194 0
-14 -119 -194 2924 0
-2925 15 0
-2925 120 0
-2925 195 0
-15 -120 -195 2925 0
-2911 8798 0
-2912 8798 0
-2913 8798 0
-2914 8798 0
-2915 8798 0
-2916 8798 0
-2917 8798 0
-2918 8798 0
-2919 8798 0
-2920 8798 0
-2921 8798 0
-2922 8798 0
-2923 8798 0
-2924 8798 0
-2925 8798 0
-8798 2911 2912 2913 2914 2915 2916 2917 2918 2919 2920 2921 2922 2923 2924 2925 0
-2926 1 0
-2926 106 0
-2926 196 0
-1 -106 -196 2926 0
-2927 2 0
-2927 107 0
-2927 197 0
-2 -107 -197 2927 0
-2928 3 0
-2928 108 0
-2928 198 0
-3 -108 -198 2928 0
-2929 4 0
-2929 109 0
-2929 199 0
-4 -109 -199 2929 0
-2930 5 0
-2930 110 0
-2930 200 0
-5 -110 -200 2930 0
-2931 6 0
-2931 111 0
-2931 201 0
-6 -111 -201 2931 0
-2932 7 0
-2932 112 0
-2932 202 0
-7 -112 -202 2932 0
-2933 8 0
-2933 113 0
-2933 203 0
-8 -113 -203 2933 0
-2934 9 0
-2934 114 0
-2934 204 0
-9 -114 -204 2934 0
-2935 10 0
-2935 115 0
-2935 205 0
-10 -115 -205 2935 0
-2936 11 0
-2936 116 0
-2936 206 0
-11 -116 -206 2936 0
-2937 12 0
-2937 117 0
-2937 207 0
-12 -117 -207 2937 0
-2938 13 0
-2938 118 0
-2938 208 0
-13 -118 -208 2938 0
-2939 14 0
-2939 119 0
-2939 209 0
-14 -119 -209 2939 0
-2940 15 0
-2940 120 0
-2940 210 0
-15 -120 -210 2940 0
-2926 8799 0
-2927 8799 0
-2928 8799 0
-2929 8799 0
-2930 8799 0
-2931 8799 0
-2932 8799 0
-2933 8799 0
-2934 8799 0
-2935 8799 0
-2936 8799 0
-2937 8799 0
-2938 8799 0
-2939 8799 0
-2940 8799 0
-8799 2926 2927 2928 2929 2930 2931 2932 2933 2934 2935 2936 2937 2938 2939 2940 0
-2941 1 0
-2941 106 0
-2941 211 0
-1 -106 -211 2941 0
-2942 2 0
-2942 107 0
-2942 212 0
-2 -107 -212 2942 0
-2943 3 0
-2943 108 0
-2943 213 0
-3 -108 -213 2943 0
-2944 4 0
-2944 109 0
-2944 214 0
-4 -109 -214 2944 0
-2945 5 0
-2945 110 0
-2945 215 0
-5 -110 -215 2945 0
-2946 6 0
-2946 111 0
-2946 216 0
-6 -111 -216 2946 0
-2947 7 0
-2947 112 0
-2947 217 0
-7 -112 -217 2947 0
-2948 8 0
-2948 113 0
-2948 218 0
-8 -113 -218 2948 0
-2949 9 0
-2949 114 0
-2949 219 0
-9 -114 -219 2949 0
-2950 10 0
-2950 115 0
-2950 220 0
-10 -115 -220 2950 0
-2951 11 0
-2951 116 0
-2951 221 0
-11 -116 -221 2951 0
-2952 12 0
-2952 117 0
-2952 222 0
-12 -117 -222 2952 0
-2953 13 0
-2953 118 0
-2953 223 0
-13 -118 -223 2953 0
-2954 14 0
-2954 119 0
-2954 224 0
-14 -119 -224 2954 0
-2955 15 0
-2955 120 0
-2955 225 0
-15 -120 -225 2955 0
-2941 8800 0
-2942 8800 0
-2943 8800 0
-2944 8800 0
-2945 8800 0
-2946 8800 0
-2947 8800 0
-2948 8800 0
-2949 8800 0
-2950 8800 0
-2951 8800 0
-2952 8800 0
-2953 8800 0
-2954 8800 0
-2955 8800 0
-8800 2941 2942 2943 2944 2945 2946 2947 2948 2949 2950 2951 2952 2953 2954 2955 0
-2956 1 0
-2956 121 0
-2956 136 0
-1 -121 -136 2956 0
-2957 2 0
-2957 122 0
-2957 137 0
-2 -122 -137 2957 0
-2958 3 0
-2958 123 0
-2958 138 0
-3 -123 -138 2958 0
-2959 4 0
-2959 124 0
-2959 139 0
-4 -124 -139 2959 0
-2960 5 0
-2960 125 0
-2960 140 0
-5 -125 -140 2960 0
-2961 6 0
-2961 126 0
-2961 141 0
-6 -126 -141 2961 0
-2962 7 0
-2962 127 0
-2962 142 0
-7 -127 -142 2962 0
-2963 8 0
-2963 128 0
-2963 143 0
-8 -128 -143 2963 0
-2964 9 0
-2964 129 0
-2964 144 0
-9 -129 -144 2964 0
-2965 10 0
-2965 130 0
-2965 145 0
-10 -130 -145 2965 0
-2966 11 0
-2966 131 0
-2966 146 0
-11 -131 -146 2966 0
-2967 12 0
-2967 132 0
-2967 147 0
-12 -132 -147 2967 0
-2968 13 0
-2968 133 0
-2968 148 0
-13 -133 -148 2968 0
-2969 14 0
-2969 134 0
-2969 149 0
-14 -134 -149 2969 0
-2970 15 0
-2970 135 0
-2970 150 0
-15 -135 -150 2970 0
-2956 8801 0
-2957 8801 0
-2958 8801 0
-2959 8801 0
-2960 8801 0
-2961 8801 0
-2962 8801 0
-2963 8801 0
-2964 8801 0
-2965 8801 0
-2966 8801 0
-2967 8801 0
-2968 8801 0
-2969 8801 0
-2970 8801 0
-8801 2956 2957 2958 2959 2960 2961 2962 2963 2964 2965 2966 2967 2968 2969 2970 0
-2971 1 0
-2971 121 0
-2971 151 0
-1 -121 -151 2971 0
-2972 2 0
-2972 122 0
-2972 152 0
-2 -122 -152 2972 0
-2973 3 0
-2973 123 0
-2973 153 0
-3 -123 -153 2973 0
-2974 4 0
-2974 124 0
-2974 154 0
-4 -124 -154 2974 0
-2975 5 0
-2975 125 0
-2975 155 0
-5 -125 -155 2975 0
-2976 6 0
-2976 126 0
-2976 156 0
-6 -126 -156 2976 0
-2977 7 0
-2977 127 0
-2977 157 0
-7 -127 -157 2977 0
-2978 8 0
-2978 128 0
-2978 158 0
-8 -128 -158 2978 0
-2979 9 0
-2979 129 0
-2979 159 0
-9 -129 -159 2979 0
-2980 10 0
-2980 130 0
-2980 160 0
-10 -130 -160 2980 0
-2981 11 0
-2981 131 0
-2981 161 0
-11 -131 -161 2981 0
-2982 12 0
-2982 132 0
-2982 162 0
-12 -132 -162 2982 0
-2983 13 0
-2983 133 0
-2983 163 0
-13 -133 -163 2983 0
-2984 14 0
-2984 134 0
-2984 164 0
-14 -134 -164 2984 0
-2985 15 0
-2985 135 0
-2985 165 0
-15 -135 -165 2985 0
-2971 8802 0
-2972 8802 0
-2973 8802 0
-2974 8802 0
-2975 8802 0
-2976 8802 0
-2977 8802 0
-2978 8802 0
-2979 8802 0
-2980 8802 0
-2981 8802 0
-2982 8802 0
-2983 8802 0
-2984 8802 0
-2985 8802 0
-8802 2971 2972 2973 2974 2975 2976 2977 2978 2979 2980 2981 2982 2983 2984 2985 0
-2986 1 0
-2986 121 0
-2986 166 0
-1 -121 -166 2986 0
-2987 2 0
-2987 122 0
-2987 167 0
-2 -122 -167 2987 0
-2988 3 0
-2988 123 0
-2988 168 0
-3 -123 -168 2988 0
-2989 4 0
-2989 124 0
-2989 169 0
-4 -124 -169 2989 0
-2990 5 0
-2990 125 0
-2990 170 0
-5 -125 -170 2990 0
-2991 6 0
-2991 126 0
-2991 171 0
-6 -126 -171 2991 0
-2992 7 0
-2992 127 0
-2992 172 0
-7 -127 -172 2992 0
-2993 8 0
-2993 128 0
-2993 173 0
-8 -128 -173 2993 0
-2994 9 0
-2994 129 0
-2994 174 0
-9 -129 -174 2994 0
-2995 10 0
-2995 130 0
-2995 175 0
-10 -130 -175 2995 0
-2996 11 0
-2996 131 0
-2996 176 0
-11 -131 -176 2996 0
-2997 12 0
-2997 132 0
-2997 177 0
-12 -132 -177 2997 0
-2998 13 0
-2998 133 0
-2998 178 0
-13 -133 -178 2998 0
-2999 14 0
-2999 134 0
-2999 179 0
-14 -134 -179 2999 0
-3000 15 0
-3000 135 0
-3000 180 0
-15 -135 -180 3000 0
-2986 8803 0
-2987 8803 0
-2988 8803 0
-2989 8803 0
-2990 8803 0
-2991 8803 0
-2992 8803 0
-2993 8803 0
-2994 8803 0
-2995 8803 0
-2996 8803 0
-2997 8803 0
-2998 8803 0
-2999 8803 0
-3000 8803 0
-8803 2986 2987 2988 2989 2990 2991 2992 2993 2994 2995 2996 2997 2998 2999 3000 0
-3001 1 0
-3001 121 0
-3001 181 0
-1 -121 -181 3001 0
-3002 2 0
-3002 122 0
-3002 182 0
-2 -122 -182 3002 0
-3003 3 0
-3003 123 0
-3003 183 0
-3 -123 -183 3003 0
-3004 4 0
-3004 124 0
-3004 184 0
-4 -124 -184 3004 0
-3005 5 0
-3005 125 0
-3005 185 0
-5 -125 -185 3005 0
-3006 6 0
-3006 126 0
-3006 186 0
-6 -126 -186 3006 0
-3007 7 0
-3007 127 0
-3007 187 0
-7 -127 -187 3007 0
-3008 8 0
-3008 128 0
-3008 188 0
-8 -128 -188 3008 0
-3009 9 0
-3009 129 0
-3009 189 0
-9 -129 -189 3009 0
-3010 10 0
-3010 130 0
-3010 190 0
-10 -130 -190 3010 0
-3011 11 0
-3011 131 0
-3011 191 0
-11 -131 -191 3011 0
-3012 12 0
-3012 132 0
-3012 192 0
-12 -132 -192 3012 0
-3013 13 0
-3013 133 0
-3013 193 0
-13 -133 -193 3013 0
-3014 14 0
-3014 134 0
-3014 194 0
-14 -134 -194 3014 0
-3015 15 0
-3015 135 0
-3015 195 0
-15 -135 -195 3015 0
-3001 8804 0
-3002 8804 0
-3003 8804 0
-3004 8804 0
-3005 8804 0
-3006 8804 0
-3007 8804 0
-3008 8804 0
-3009 8804 0
-3010 8804 0
-3011 8804 0
-3012 8804 0
-3013 8804 0
-3014 8804 0
-3015 8804 0
-8804 3001 3002 3003 3004 3005 3006 3007 3008 3009 3010 3011 3012 3013 3014 3015 0
-3016 1 0
-3016 121 0
-3016 196 0
-1 -121 -196 3016 0
-3017 2 0
-3017 122 0
-3017 197 0
-2 -122 -197 3017 0
-3018 3 0
-3018 123 0
-3018 198 0
-3 -123 -198 3018 0
-3019 4 0
-3019 124 0
-3019 199 0
-4 -124 -199 3019 0
-3020 5 0
-3020 125 0
-3020 200 0
-5 -125 -200 3020 0
-3021 6 0
-3021 126 0
-3021 201 0
-6 -126 -201 3021 0
-3022 7 0
-3022 127 0
-3022 202 0
-7 -127 -202 3022 0
-3023 8 0
-3023 128 0
-3023 203 0
-8 -128 -203 3023 0
-3024 9 0
-3024 129 0
-3024 204 0
-9 -129 -204 3024 0
-3025 10 0
-3025 130 0
-3025 205 0
-10 -130 -205 3025 0
-3026 11 0
-3026 131 0
-3026 206 0
-11 -131 -206 3026 0
-3027 12 0
-3027 132 0
-3027 207 0
-12 -132 -207 3027 0
-3028 13 0
-3028 133 0
-3028 208 0
-13 -133 -208 3028 0
-3029 14 0
-3029 134 0
-3029 209 0
-14 -134 -209 3029 0
-3030 15 0
-3030 135 0
-3030 210 0
-15 -135 -210 3030 0
-3016 8805 0
-3017 8805 0
-3018 8805 0
-3019 8805 0
-3020 8805 0
-3021 8805 0
-3022 8805 0
-3023 8805 0
-3024 8805 0
-3025 8805 0
-3026 8805 0
-3027 8805 0
-3028 8805 0
-3029 8805 0
-3030 8805 0
-8805 3016 3017 3018 3019 3020 3021 3022 3023 3024 3025 3026 3027 3028 3029 3030 0
-3031 1 0
-3031 121 0
-3031 211 0
-1 -121 -211 3031 0
-3032 2 0
-3032 122 0
-3032 212 0
-2 -122 -212 3032 0
-3033 3 0
-3033 123 0
-3033 213 0
-3 -123 -213 3033 0
-3034 4 0
-3034 124 0
-3034 214 0
-4 -124 -214 3034 0
-3035 5 0
-3035 125 0
-3035 215 0
-5 -125 -215 3035 0
-3036 6 0
-3036 126 0
-3036 216 0
-6 -126 -216 3036 0
-3037 7 0
-3037 127 0
-3037 217 0
-7 -127 -217 3037 0
-3038 8 0
-3038 128 0
-3038 218 0
-8 -128 -218 3038 0
-3039 9 0
-3039 129 0
-3039 219 0
-9 -129 -219 3039 0
-3040 10 0
-3040 130 0
-3040 220 0
-10 -130 -220 3040 0
-3041 11 0
-3041 131 0
-3041 221 0
-11 -131 -221 3041 0
-3042 12 0
-3042 132 0
-3042 222 0
-12 -132 -222 3042 0
-3043 13 0
-3043 133 0
-3043 223 0
-13 -133 -223 3043 0
-3044 14 0
-3044 134 0
-3044 224 0
-14 -134 -224 3044 0
-3045 15 0
-3045 135 0
-3045 225 0
-15 -135 -225 3045 0
-3031 8806 0
-3032 8806 0
-3033 8806 0
-3034 8806 0
-3035 8806 0
-3036 8806 0
-3037 8806 0
-3038 8806 0
-3039 8806 0
-3040 8806 0
-3041 8806 0
-3042 8806 0
-3043 8806 0
-3044 8806 0
-3045 8806 0
-8806 3031 3032 3033 3034 3035 3036 3037 3038 3039 3040 3041 3042 3043 3044 3045 0
-3046 1 0
-3046 136 0
-3046 151 0
-1 -136 -151 3046 0
-3047 2 0
-3047 137 0
-3047 152 0
-2 -137 -152 3047 0
-3048 3 0
-3048 138 0
-3048 153 0
-3 -138 -153 3048 0
-3049 4 0
-3049 139 0
-3049 154 0
-4 -139 -154 3049 0
-3050 5 0
-3050 140 0
-3050 155 0
-5 -140 -155 3050 0
-3051 6 0
-3051 141 0
-3051 156 0
-6 -141 -156 3051 0
-3052 7 0
-3052 142 0
-3052 157 0
-7 -142 -157 3052 0
-3053 8 0
-3053 143 0
-3053 158 0
-8 -143 -158 3053 0
-3054 9 0
-3054 144 0
-3054 159 0
-9 -144 -159 3054 0
-3055 10 0
-3055 145 0
-3055 160 0
-10 -145 -160 3055 0
-3056 11 0
-3056 146 0
-3056 161 0
-11 -146 -161 3056 0
-3057 12 0
-3057 147 0
-3057 162 0
-12 -147 -162 3057 0
-3058 13 0
-3058 148 0
-3058 163 0
-13 -148 -163 3058 0
-3059 14 0
-3059 149 0
-3059 164 0
-14 -149 -164 3059 0
-3060 15 0
-3060 150 0
-3060 165 0
-15 -150 -165 3060 0
-3046 8807 0
-3047 8807 0
-3048 8807 0
-3049 8807 0
-3050 8807 0
-3051 8807 0
-3052 8807 0
-3053 8807 0
-3054 8807 0
-3055 8807 0
-3056 8807 0
-3057 8807 0
-3058 8807 0
-3059 8807 0
-3060 8807 0
-8807 3046 3047 3048 3049 3050 3051 3052 3053 3054 3055 3056 3057 3058 3059 3060 0
-3061 1 0
-3061 136 0
-3061 166 0
-1 -136 -166 3061 0
-3062 2 0
-3062 137 0
-3062 167 0
-2 -137 -167 3062 0
-3063 3 0
-3063 138 0
-3063 168 0
-3 -138 -168 3063 0
-3064 4 0
-3064 139 0
-3064 169 0
-4 -139 -169 3064 0
-3065 5 0
-3065 140 0
-3065 170 0
-5 -140 -170 3065 0
-3066 6 0
-3066 141 0
-3066 171 0
-6 -141 -171 3066 0
-3067 7 0
-3067 142 0
-3067 172 0
-7 -142 -172 3067 0
-3068 8 0
-3068 143 0
-3068 173 0
-8 -143 -173 3068 0
-3069 9 0
-3069 144 0
-3069 174 0
-9 -144 -174 3069 0
-3070 10 0
-3070 145 0
-3070 175 0
-10 -145 -175 3070 0
-3071 11 0
-3071 146 0
-3071 176 0
-11 -146 -176 3071 0
-3072 12 0
-3072 147 0
-3072 177 0
-12 -147 -177 3072 0
-3073 13 0
-3073 148 0
-3073 178 0
-13 -148 -178 3073 0
-3074 14 0
-3074 149 0
-3074 179 0
-14 -149 -179 3074 0
-3075 15 0
-3075 150 0
-3075 180 0
-15 -150 -180 3075 0
-3061 8808 0
-3062 8808 0
-3063 8808 0
-3064 8808 0
-3065 8808 0
-3066 8808 0
-3067 8808 0
-3068 8808 0
-3069 8808 0
-3070 8808 0
-3071 8808 0
-3072 8808 0
-3073 8808 0
-3074 8808 0
-3075 8808 0
-8808 3061 3062 3063 3064 3065 3066 3067 3068 3069 3070 3071 3072 3073 3074 3075 0
-3076 1 0
-3076 136 0
-3076 181 0
-1 -136 -181 3076 0
-3077 2 0
-3077 137 0
-3077 182 0
-2 -137 -182 3077 0
-3078 3 0
-3078 138 0
-3078 183 0
-3 -138 -183 3078 0
-3079 4 0
-3079 139 0
-3079 184 0
-4 -139 -184 3079 0
-3080 5 0
-3080 140 0
-3080 185 0
-5 -140 -185 3080 0
-3081 6 0
-3081 141 0
-3081 186 0
-6 -141 -186 3081 0
-3082 7 0
-3082 142 0
-3082 187 0
-7 -142 -187 3082 0
-3083 8 0
-3083 143 0
-3083 188 0
-8 -143 -188 3083 0
-3084 9 0
-3084 144 0
-3084 189 0
-9 -144 -189 3084 0
-3085 10 0
-3085 145 0
-3085 190 0
-10 -145 -190 3085 0
-3086 11 0
-3086 146 0
-3086 191 0
-11 -146 -191 3086 0
-3087 12 0
-3087 147 0
-3087 192 0
-12 -147 -192 3087 0
-3088 13 0
-3088 148 0
-3088 193 0
-13 -148 -193 3088 0
-3089 14 0
-3089 149 0
-3089 194 0
-14 -149 -194 3089 0
-3090 15 0
-3090 150 0
-3090 195 0
-15 -150 -195 3090 0
-3076 8809 0
-3077 8809 0
-3078 8809 0
-3079 8809 0
-3080 8809 0
-3081 8809 0
-3082 8809 0
-3083 8809 0
-3084 8809 0
-3085 8809 0
-3086 8809 0
-3087 8809 0
-3088 8809 0
-3089 8809 0
-3090 8809 0
-8809 3076 3077 3078 3079 3080 3081 3082 3083 3084 3085 3086 3087 3088 3089 3090 0
-3091 1 0
-3091 136 0
-3091 196 0
-1 -136 -196 3091 0
-3092 2 0
-3092 137 0
-3092 197 0
-2 -137 -197 3092 0
-3093 3 0
-3093 138 0
-3093 198 0
-3 -138 -198 3093 0
-3094 4 0
-3094 139 0
-3094 199 0
-4 -139 -199 3094 0
-3095 5 0
-3095 140 0
-3095 200 0
-5 -140 -200 3095 0
-3096 6 0
-3096 141 0
-3096 201 0
-6 -141 -201 3096 0
-3097 7 0
-3097 142 0
-3097 202 0
-7 -142 -202 3097 0
-3098 8 0
-3098 143 0
-3098 203 0
-8 -143 -203 3098 0
-3099 9 0
-3099 144 0
-3099 204 0
-9 -144 -204 3099 0
-3100 10 0
-3100 145 0
-3100 205 0
-10 -145 -205 3100 0
-3101 11 0
-3101 146 0
-3101 206 0
-11 -146 -206 3101 0
-3102 12 0
-3102 147 0
-3102 207 0
-12 -147 -207 3102 0
-3103 13 0
-3103 148 0
-3103 208 0
-13 -148 -208 3103 0
-3104 14 0
-3104 149 0
-3104 209 0
-14 -149 -209 3104 0
-3105 15 0
-3105 150 0
-3105 210 0
-15 -150 -210 3105 0
-3091 8810 0
-3092 8810 0
-3093 8810 0
-3094 8810 0
-3095 8810 0
-3096 8810 0
-3097 8810 0
-3098 8810 0
-3099 8810 0
-3100 8810 0
-3101 8810 0
-3102 8810 0
-3103 8810 0
-3104 8810 0
-3105 8810 0
-8810 3091 3092 3093 3094 3095 3096 3097 3098 3099 3100 3101 3102 3103 3104 3105 0
-3106 1 0
-3106 136 0
-3106 211 0
-1 -136 -211 3106 0
-3107 2 0
-3107 137 0
-3107 212 0
-2 -137 -212 3107 0
-3108 3 0
-3108 138 0
-3108 213 0
-3 -138 -213 3108 0
-3109 4 0
-3109 139 0
-3109 214 0
-4 -139 -214 3109 0
-3110 5 0
-3110 140 0
-3110 215 0
-5 -140 -215 3110 0
-3111 6 0
-3111 141 0
-3111 216 0
-6 -141 -216 3111 0
-3112 7 0
-3112 142 0
-3112 217 0
-7 -142 -217 3112 0
-3113 8 0
-3113 143 0
-3113 218 0
-8 -143 -218 3113 0
-3114 9 0
-3114 144 0
-3114 219 0
-9 -144 -219 3114 0
-3115 10 0
-3115 145 0
-3115 220 0
-10 -145 -220 3115 0
-3116 11 0
-3116 146 0
-3116 221 0
-11 -146 -221 3116 0
-3117 12 0
-3117 147 0
-3117 222 0
-12 -147 -222 3117 0
-3118 13 0
-3118 148 0
-3118 223 0
-13 -148 -223 3118 0
-3119 14 0
-3119 149 0
-3119 224 0
-14 -149 -224 3119 0
-3120 15 0
-3120 150 0
-3120 225 0
-15 -150 -225 3120 0
-3106 8811 0
-3107 8811 0
-3108 8811 0
-3109 8811 0
-3110 8811 0
-3111 8811 0
-3112 8811 0
-3113 8811 0
-3114 8811 0
-3115 8811 0
-3116 8811 0
-3117 8811 0
-3118 8811 0
-3119 8811 0
-3120 8811 0
-8811 3106 3107 3108 3109 3110 3111 3112 3113 3114 3115 3116 3117 3118 3119 3120 0
-3121 1 0
-3121 151 0
-3121 166 0
-1 -151 -166 3121 0
-3122 2 0
-3122 152 0
-3122 167 0
-2 -152 -167 3122 0
-3123 3 0
-3123 153 0
-3123 168 0
-3 -153 -168 3123 0
-3124 4 0
-3124 154 0
-3124 169 0
-4 -154 -169 3124 0
-3125 5 0
-3125 155 0
-3125 170 0
-5 -155 -170 3125 0
-3126 6 0
-3126 156 0
-3126 171 0
-6 -156 -171 3126 0
-3127 7 0
-3127 157 0
-3127 172 0
-7 -157 -172 3127 0
-3128 8 0
-3128 158 0
-3128 173 0
-8 -158 -173 3128 0
-3129 9 0
-3129 159 0
-3129 174 0
-9 -159 -174 3129 0
-3130 10 0
-3130 160 0
-3130 175 0
-10 -160 -175 3130 0
-3131 11 0
-3131 161 0
-3131 176 0
-11 -161 -176 3131 0
-3132 12 0
-3132 162 0
-3132 177 0
-12 -162 -177 3132 0
-3133 13 0
-3133 163 0
-3133 178 0
-13 -163 -178 3133 0
-3134 14 0
-3134 164 0
-3134 179 0
-14 -164 -179 3134 0
-3135 15 0
-3135 165 0
-3135 180 0
-15 -165 -180 3135 0
-3121 8812 0
-3122 8812 0
-3123 8812 0
-3124 8812 0
-3125 8812 0
-3126 8812 0
-3127 8812 0
-3128 8812 0
-3129 8812 0
-3130 8812 0
-3131 8812 0
-3132 8812 0
-3133 8812 0
-3134 8812 0
-3135 8812 0
-8812 3121 3122 3123 3124 3125 3126 3127 3128 3129 3130 3131 3132 3133 3134 3135 0
-3136 1 0
-3136 151 0
-3136 181 0
-1 -151 -181 3136 0
-3137 2 0
-3137 152 0
-3137 182 0
-2 -152 -182 3137 0
-3138 3 0
-3138 153 0
-3138 183 0
-3 -153 -183 3138 0
-3139 4 0
-3139 154 0
-3139 184 0
-4 -154 -184 3139 0
-3140 5 0
-3140 155 0
-3140 185 0
-5 -155 -185 3140 0
-3141 6 0
-3141 156 0
-3141 186 0
-6 -156 -186 3141 0
-3142 7 0
-3142 157 0
-3142 187 0
-7 -157 -187 3142 0
-3143 8 0
-3143 158 0
-3143 188 0
-8 -158 -188 3143 0
-3144 9 0
-3144 159 0
-3144 189 0
-9 -159 -189 3144 0
-3145 10 0
-3145 160 0
-3145 190 0
-10 -160 -190 3145 0
-3146 11 0
-3146 161 0
-3146 191 0
-11 -161 -191 3146 0
-3147 12 0
-3147 162 0
-3147 192 0
-12 -162 -192 3147 0
-3148 13 0
-3148 163 0
-3148 193 0
-13 -163 -193 3148 0
-3149 14 0
-3149 164 0
-3149 194 0
-14 -164 -194 3149 0
-3150 15 0
-3150 165 0
-3150 195 0
-15 -165 -195 3150 0
-3136 8813 0
-3137 8813 0
-3138 8813 0
-3139 8813 0
-3140 8813 0
-3141 8813 0
-3142 8813 0
-3143 8813 0
-3144 8813 0
-3145 8813 0
-3146 8813 0
-3147 8813 0
-3148 8813 0
-3149 8813 0
-3150 8813 0
-8813 3136 3137 3138 3139 3140 3141 3142 3143 3144 3145 3146 3147 3148 3149 3150 0
-3151 1 0
-3151 151 0
-3151 196 0
-1 -151 -196 3151 0
-3152 2 0
-3152 152 0
-3152 197 0
-2 -152 -197 3152 0
-3153 3 0
-3153 153 0
-3153 198 0
-3 -153 -198 3153 0
-3154 4 0
-3154 154 0
-3154 199 0
-4 -154 -199 3154 0
-3155 5 0
-3155 155 0
-3155 200 0
-5 -155 -200 3155 0
-3156 6 0
-3156 156 0
-3156 201 0
-6 -156 -201 3156 0
-3157 7 0
-3157 157 0
-3157 202 0
-7 -157 -202 3157 0
-3158 8 0
-3158 158 0
-3158 203 0
-8 -158 -203 3158 0
-3159 9 0
-3159 159 0
-3159 204 0
-9 -159 -204 3159 0
-3160 10 0
-3160 160 0
-3160 205 0
-10 -160 -205 3160 0
-3161 11 0
-3161 161 0
-3161 206 0
-11 -161 -206 3161 0
-3162 12 0
-3162 162 0
-3162 207 0
-12 -162 -207 3162 0
-3163 13 0
-3163 163 0
-3163 208 0
-13 -163 -208 3163 0
-3164 14 0
-3164 164 0
-3164 209 0
-14 -164 -209 3164 0
-3165 15 0
-3165 165 0
-3165 210 0
-15 -165 -210 3165 0
-3151 8814 0
-3152 8814 0
-3153 8814 0
-3154 8814 0
-3155 8814 0
-3156 8814 0
-3157 8814 0
-3158 8814 0
-3159 8814 0
-3160 8814 0
-3161 8814 0
-3162 8814 0
-3163 8814 0
-3164 8814 0
-3165 8814 0
-8814 3151 3152 3153 3154 3155 3156 3157 3158 3159 3160 3161 3162 3163 3164 3165 0
-3166 1 0
-3166 151 0
-3166 211 0
-1 -151 -211 3166 0
-3167 2 0
-3167 152 0
-3167 212 0
-2 -152 -212 3167 0
-3168 3 0
-3168 153 0
-3168 213 0
-3 -153 -213 3168 0
-3169 4 0
-3169 154 0
-3169 214 0
-4 -154 -214 3169 0
-3170 5 0
-3170 155 0
-3170 215 0
-5 -155 -215 3170 0
-3171 6 0
-3171 156 0
-3171 216 0
-6 -156 -216 3171 0
-3172 7 0
-3172 157 0
-3172 217 0
-7 -157 -217 3172 0
-3173 8 0
-3173 158 0
-3173 218 0
-8 -158 -218 3173 0
-3174 9 0
-3174 159 0
-3174 219 0
-9 -159 -219 3174 0
-3175 10 0
-3175 160 0
-3175 220 0
-10 -160 -220 3175 0
-3176 11 0
-3176 161 0
-3176 221 0
-11 -161 -221 3176 0
-3177 12 0
-3177 162 0
-3177 222 0
-12 -162 -222 3177 0
-3178 13 0
-3178 163 0
-3178 223 0
-13 -163 -223 3178 0
-3179 14 0
-3179 164 0
-3179 224 0
-14 -164 -224 3179 0
-3180 15 0
-3180 165 0
-3180 225 0
-15 -165 -225 3180 0
-3166 8815 0
-3167 8815 0
-3168 8815 0
-3169 8815 0
-3170 8815 0
-3171 8815 0
-3172 8815 0
-3173 8815 0
-3174 8815 0
-3175 8815 0
-3176 8815 0
-3177 8815 0
-3178 8815 0
-3179 8815 0
-3180 8815 0
-8815 3166 3167 3168 3169 3170 3171 3172 3173 3174 3175 3176 3177 3178 3179 3180 0
-3181 1 0
-3181 166 0
-3181 181 0
-1 -166 -181 3181 0
-3182 2 0
-3182 167 0
-3182 182 0
-2 -167 -182 3182 0
-3183 3 0
-3183 168 0
-3183 183 0
-3 -168 -183 3183 0
-3184 4 0
-3184 169 0
-3184 184 0
-4 -169 -184 3184 0
-3185 5 0
-3185 170 0
-3185 185 0
-5 -170 -185 3185 0
-3186 6 0
-3186 171 0
-3186 186 0
-6 -171 -186 3186 0
-3187 7 0
-3187 172 0
-3187 187 0
-7 -172 -187 3187 0
-3188 8 0
-3188 173 0
-3188 188 0
-8 -173 -188 3188 0
-3189 9 0
-3189 174 0
-3189 189 0
-9 -174 -189 3189 0
-3190 10 0
-3190 175 0
-3190 190 0
-10 -175 -190 3190 0
-3191 11 0
-3191 176 0
-3191 191 0
-11 -176 -191 3191 0
-3192 12 0
-3192 177 0
-3192 192 0
-12 -177 -192 3192 0
-3193 13 0
-3193 178 0
-3193 193 0
-13 -178 -193 3193 0
-3194 14 0
-3194 179 0
-3194 194 0
-14 -179 -194 3194 0
-3195 15 0
-3195 180 0
-3195 195 0
-15 -180 -195 3195 0
-3181 8816 0
-3182 8816 0
-3183 8816 0
-3184 8816 0
-3185 8816 0
-3186 8816 0
-3187 8816 0
-3188 8816 0
-3189 8816 0
-3190 8816 0
-3191 8816 0
-3192 8816 0
-3193 8816 0
-3194 8816 0
-3195 8816 0
-8816 3181 3182 3183 3184 3185 3186 3187 3188 3189 3190 3191 3192 3193 3194 3195 0
-3196 1 0
-3196 166 0
-3196 196 0
-1 -166 -196 3196 0
-3197 2 0
-3197 167 0
-3197 197 0
-2 -167 -197 3197 0
-3198 3 0
-3198 168 0
-3198 198 0
-3 -168 -198 3198 0
-3199 4 0
-3199 169 0
-3199 199 0
-4 -169 -199 3199 0
-3200 5 0
-3200 170 0
-3200 200 0
-5 -170 -200 3200 0
-3201 6 0
-3201 171 0
-3201 201 0
-6 -171 -201 3201 0
-3202 7 0
-3202 172 0
-3202 202 0
-7 -172 -202 3202 0
-3203 8 0
-3203 173 0
-3203 203 0
-8 -173 -203 3203 0
-3204 9 0
-3204 174 0
-3204 204 0
-9 -174 -204 3204 0
-3205 10 0
-3205 175 0
-3205 205 0
-10 -175 -205 3205 0
-3206 11 0
-3206 176 0
-3206 206 0
-11 -176 -206 3206 0
-3207 12 0
-3207 177 0
-3207 207 0
-12 -177 -207 3207 0
-3208 13 0
-3208 178 0
-3208 208 0
-13 -178 -208 3208 0
-3209 14 0
-3209 179 0
-3209 209 0
-14 -179 -209 3209 0
-3210 15 0
-3210 180 0
-3210 210 0
-15 -180 -210 3210 0
-3196 8817 0
-3197 8817 0
-3198 8817 0
-3199 8817 0
-3200 8817 0
-3201 8817 0
-3202 8817 0
-3203 8817 0
-3204 8817 0
-3205 8817 0
-3206 8817 0
-3207 8817 0
-3208 8817 0
-3209 8817 0
-3210 8817 0
-8817 3196 3197 3198 3199 3200 3201 3202 3203 3204 3205 3206 3207 3208 3209 3210 0
-3211 1 0
-3211 166 0
-3211 211 0
-1 -166 -211 3211 0
-3212 2 0
-3212 167 0
-3212 212 0
-2 -167 -212 3212 0
-3213 3 0
-3213 168 0
-3213 213 0
-3 -168 -213 3213 0
-3214 4 0
-3214 169 0
-3214 214 0
-4 -169 -214 3214 0
-3215 5 0
-3215 170 0
-3215 215 0
-5 -170 -215 3215 0
-3216 6 0
-3216 171 0
-3216 216 0
-6 -171 -216 3216 0
-3217 7 0
-3217 172 0
-3217 217 0
-7 -172 -217 3217 0
-3218 8 0
-3218 173 0
-3218 218 0
-8 -173 -218 3218 0
-3219 9 0
-3219 174 0
-3219 219 0
-9 -174 -219 3219 0
-3220 10 0
-3220 175 0
-3220 220 0
-10 -175 -220 3220 0
-3221 11 0
-3221 176 0
-3221 221 0
-11 -176 -221 3221 0
-3222 12 0
-3222 177 0
-3222 222 0
-12 -177 -222 3222 0
-3223 13 0
-3223 178 0
-3223 223 0
-13 -178 -223 3223 0
-3224 14 0
-3224 179 0
-3224 224 0
-14 -179 -224 3224 0
-3225 15 0
-3225 180 0
-3225 225 0
-15 -180 -225 3225 0
-3211 8818 0
-3212 8818 0
-3213 8818 0
-3214 8818 0
-3215 8818 0
-3216 8818 0
-3217 8818 0
-3218 8818 0
-3219 8818 0
-3220 8818 0
-3221 8818 0
-3222 8818 0
-3223 8818 0
-3224 8818 0
-3225 8818 0
-8818 3211 3212 3213 3214 3215 3216 3217 3218 3219 3220 3221 3222 3223 3224 3225 0
-3226 1 0
-3226 181 0
-3226 196 0
-1 -181 -196 3226 0
-3227 2 0
-3227 182 0
-3227 197 0
-2 -182 -197 3227 0
-3228 3 0
-3228 183 0
-3228 198 0
-3 -183 -198 3228 0
-3229 4 0
-3229 184 0
-3229 199 0
-4 -184 -199 3229 0
-3230 5 0
-3230 185 0
-3230 200 0
-5 -185 -200 3230 0
-3231 6 0
-3231 186 0
-3231 201 0
-6 -186 -201 3231 0
-3232 7 0
-3232 187 0
-3232 202 0
-7 -187 -202 3232 0
-3233 8 0
-3233 188 0
-3233 203 0
-8 -188 -203 3233 0
-3234 9 0
-3234 189 0
-3234 204 0
-9 -189 -204 3234 0
-3235 10 0
-3235 190 0
-3235 205 0
-10 -190 -205 3235 0
-3236 11 0
-3236 191 0
-3236 206 0
-11 -191 -206 3236 0
-3237 12 0
-3237 192 0
-3237 207 0
-12 -192 -207 3237 0
-3238 13 0
-3238 193 0
-3238 208 0
-13 -193 -208 3238 0
-3239 14 0
-3239 194 0
-3239 209 0
-14 -194 -209 3239 0
-3240 15 0
-3240 195 0
-3240 210 0
-15 -195 -210 3240 0
-3226 8819 0
-3227 8819 0
-3228 8819 0
-3229 8819 0
-3230 8819 0
-3231 8819 0
-3232 8819 0
-3233 8819 0
-3234 8819 0
-3235 8819 0
-3236 8819 0
-3237 8819 0
-3238 8819 0
-3239 8819 0
-3240 8819 0
-8819 3226 3227 3228 3229 3230 3231 3232 3233 3234 3235 3236 3237 3238 3239 3240 0
-3241 1 0
-3241 181 0
-3241 211 0
-1 -181 -211 3241 0
-3242 2 0
-3242 182 0
-3242 212 0
-2 -182 -212 3242 0
-3243 3 0
-3243 183 0
-3243 213 0
-3 -183 -213 3243 0
-3244 4 0
-3244 184 0
-3244 214 0
-4 -184 -214 3244 0
-3245 5 0
-3245 185 0
-3245 215 0
-5 -185 -215 3245 0
-3246 6 0
-3246 186 0
-3246 216 0
-6 -186 -216 3246 0
-3247 7 0
-3247 187 0
-3247 217 0
-7 -187 -217 3247 0
-3248 8 0
-3248 188 0
-3248 218 0
-8 -188 -218 3248 0
-3249 9 0
-3249 189 0
-3249 219 0
-9 -189 -219 3249 0
-3250 10 0
-3250 190 0
-3250 220 0
-10 -190 -220 3250 0
-3251 11 0
-3251 191 0
-3251 221 0
-11 -191 -221 3251 0
-3252 12 0
-3252 192 0
-3252 222 0
-12 -192 -222 3252 0
-3253 13 0
-3253 193 0
-3253 223 0
-13 -193 -223 3253 0
-3254 14 0
-3254 194 0
-3254 224 0
-14 -194 -224 3254 0
-3255 15 0
-3255 195 0
-3255 225 0
-15 -195 -225 3255 0
-3241 8820 0
-3242 8820 0
-3243 8820 0
-3244 8820 0
-3245 8820 0
-3246 8820 0
-3247 8820 0
-3248 8820 0
-3249 8820 0
-3250 8820 0
-3251 8820 0
-3252 8820 0
-3253 8820 0
-3254 8820 0
-3255 8820 0
-8820 3241 3242 3243 3244 3245 3246 3247 3248 3249 3250 3251 3252 3253 3254 3255 0
-3256 1 0
-3256 196 0
-3256 211 0
-1 -196 -211 3256 0
-3257 2 0
-3257 197 0
-3257 212 0
-2 -197 -212 3257 0
-3258 3 0
-3258 198 0
-3258 213 0
-3 -198 -213 3258 0
-3259 4 0
-3259 199 0
-3259 214 0
-4 -199 -214 3259 0
-3260 5 0
-3260 200 0
-3260 215 0
-5 -200 -215 3260 0
-3261 6 0
-3261 201 0
-3261 216 0
-6 -201 -216 3261 0
-3262 7 0
-3262 202 0
-3262 217 0
-7 -202 -217 3262 0
-3263 8 0
-3263 203 0
-3263 218 0
-8 -203 -218 3263 0
-3264 9 0
-3264 204 0
-3264 219 0
-9 -204 -219 3264 0
-3265 10 0
-3265 205 0
-3265 220 0
-10 -205 -220 3265 0
-3266 11 0
-3266 206 0
-3266 221 0
-11 -206 -221 3266 0
-3267 12 0
-3267 207 0
-3267 222 0
-12 -207 -222 3267 0
-3268 13 0
-3268 208 0
-3268 223 0
-13 -208 -223 3268 0
-3269 14 0
-3269 209 0
-3269 224 0
-14 -209 -224 3269 0
-3270 15 0
-3270 210 0
-3270 225 0
-15 -210 -225 3270 0
-3256 8821 0
-3257 8821 0
-3258 8821 0
-3259 8821 0
-3260 8821 0
-3261 8821 0
-3262 8821 0
-3263 8821 0
-3264 8821 0
-3265 8821 0
-3266 8821 0
-3267 8821 0
-3268 8821 0
-3269 8821 0
-3270 8821 0
-8821 3256 3257 3258 3259 3260 3261 3262 3263 3264 3265 3266 3267 3268 3269 3270 0
-3271 16 0
-3271 31 0
-3271 46 0
-16 -31 -46 3271 0
-3272 17 0
-3272 32 0
-3272 47 0
-17 -32 -47 3272 0
-3273 18 0
-3273 33 0
-3273 48 0
-18 -33 -48 3273 0
-3274 19 0
-3274 34 0
-3274 49 0
-19 -34 -49 3274 0
-3275 20 0
-3275 35 0
-3275 50 0
-20 -35 -50 3275 0
-3276 21 0
-3276 36 0
-3276 51 0
-21 -36 -51 3276 0
-3277 22 0
-3277 37 0
-3277 52 0
-22 -37 -52 3277 0
-3278 23 0
-3278 38 0
-3278 53 0
-23 -38 -53 3278 0
-3279 24 0
-3279 39 0
-3279 54 0
-24 -39 -54 3279 0
-3280 25 0
-3280 40 0
-3280 55 0
-25 -40 -55 3280 0
-3281 26 0
-3281 41 0
-3281 56 0
-26 -41 -56 3281 0
-3282 27 0
-3282 42 0
-3282 57 0
-27 -42 -57 3282 0
-3283 28 0
-3283 43 0
-3283 58 0
-28 -43 -58 3283 0
-3284 29 0
-3284 44 0
-3284 59 0
-29 -44 -59 3284 0
-3285 30 0
-3285 45 0
-3285 60 0
-30 -45 -60 3285 0
-3271 8822 0
-3272 8822 0
-3273 8822 0
-3274 8822 0
-3275 8822 0
-3276 8822 0
-3277 8822 0
-3278 8822 0
-3279 8822 0
-3280 8822 0
-3281 8822 0
-3282 8822 0
-3283 8822 0
-3284 8822 0
-3285 8822 0
-8822 3271 3272 3273 3274 3275 3276 3277 3278 3279 3280 3281 3282 3283 3284 3285 0
-3286 16 0
-3286 31 0
-3286 61 0
-16 -31 -61 3286 0
-3287 17 0
-3287 32 0
-3287 62 0
-17 -32 -62 3287 0
-3288 18 0
-3288 33 0
-3288 63 0
-18 -33 -63 3288 0
-3289 19 0
-3289 34 0
-3289 64 0
-19 -34 -64 3289 0
-3290 20 0
-3290 35 0
-3290 65 0
-20 -35 -65 3290 0
-3291 21 0
-3291 36 0
-3291 66 0
-21 -36 -66 3291 0
-3292 22 0
-3292 37 0
-3292 67 0
-22 -37 -67 3292 0
-3293 23 0
-3293 38 0
-3293 68 0
-23 -38 -68 3293 0
-3294 24 0
-3294 39 0
-3294 69 0
-24 -39 -69 3294 0
-3295 25 0
-3295 40 0
-3295 70 0
-25 -40 -70 3295 0
-3296 26 0
-3296 41 0
-3296 71 0
-26 -41 -71 3296 0
-3297 27 0
-3297 42 0
-3297 72 0
-27 -42 -72 3297 0
-3298 28 0
-3298 43 0
-3298 73 0
-28 -43 -73 3298 0
-3299 29 0
-3299 44 0
-3299 74 0
-29 -44 -74 3299 0
-3300 30 0
-3300 45 0
-3300 75 0
-30 -45 -75 3300 0
-3286 8823 0
-3287 8823 0
-3288 8823 0
-3289 8823 0
-3290 8823 0
-3291 8823 0
-3292 8823 0
-3293 8823 0
-3294 8823 0
-3295 8823 0
-3296 8823 0
-3297 8823 0
-3298 8823 0
-3299 8823 0
-3300 8823 0
-8823 3286 3287 3288 3289 3290 3291 3292 3293 3294 3295 3296 3297 3298 3299 3300 0
-3301 16 0
-3301 31 0
-3301 76 0
-16 -31 -76 3301 0
-3302 17 0
-3302 32 0
-3302 77 0
-17 -32 -77 3302 0
-3303 18 0
-3303 33 0
-3303 78 0
-18 -33 -78 3303 0
-3304 19 0
-3304 34 0
-3304 79 0
-19 -34 -79 3304 0
-3305 20 0
-3305 35 0
-3305 80 0
-20 -35 -80 3305 0
-3306 21 0
-3306 36 0
-3306 81 0
-21 -36 -81 3306 0
-3307 22 0
-3307 37 0
-3307 82 0
-22 -37 -82 3307 0
-3308 23 0
-3308 38 0
-3308 83 0
-23 -38 -83 3308 0
-3309 24 0
-3309 39 0
-3309 84 0
-24 -39 -84 3309 0
-3310 25 0
-3310 40 0
-3310 85 0
-25 -40 -85 3310 0
-3311 26 0
-3311 41 0
-3311 86 0
-26 -41 -86 3311 0
-3312 27 0
-3312 42 0
-3312 87 0
-27 -42 -87 3312 0
-3313 28 0
-3313 43 0
-3313 88 0
-28 -43 -88 3313 0
-3314 29 0
-3314 44 0
-3314 89 0
-29 -44 -89 3314 0
-3315 30 0
-3315 45 0
-3315 90 0
-30 -45 -90 3315 0
-3301 8824 0
-3302 8824 0
-3303 8824 0
-3304 8824 0
-3305 8824 0
-3306 8824 0
-3307 8824 0
-3308 8824 0
-3309 8824 0
-3310 8824 0
-3311 8824 0
-3312 8824 0
-3313 8824 0
-3314 8824 0
-3315 8824 0
-8824 3301 3302 3303 3304 3305 3306 3307 3308 3309 3310 3311 3312 3313 3314 3315 0
-3316 16 0
-3316 31 0
-3316 91 0
-16 -31 -91 3316 0
-3317 17 0
-3317 32 0
-3317 92 0
-17 -32 -92 3317 0
-3318 18 0
-3318 33 0
-3318 93 0
-18 -33 -93 3318 0
-3319 19 0
-3319 34 0
-3319 94 0
-19 -34 -94 3319 0
-3320 20 0
-3320 35 0
-3320 95 0
-20 -35 -95 3320 0
-3321 21 0
-3321 36 0
-3321 96 0
-21 -36 -96 3321 0
-3322 22 0
-3322 37 0
-3322 97 0
-22 -37 -97 3322 0
-3323 23 0
-3323 38 0
-3323 98 0
-23 -38 -98 3323 0
-3324 24 0
-3324 39 0
-3324 99 0
-24 -39 -99 3324 0
-3325 25 0
-3325 40 0
-3325 100 0
-25 -40 -100 3325 0
-3326 26 0
-3326 41 0
-3326 101 0
-26 -41 -101 3326 0
-3327 27 0
-3327 42 0
-3327 102 0
-27 -42 -102 3327 0
-3328 28 0
-3328 43 0
-3328 103 0
-28 -43 -103 3328 0
-3329 29 0
-3329 44 0
-3329 104 0
-29 -44 -104 3329 0
-3330 30 0
-3330 45 0
-3330 105 0
-30 -45 -105 3330 0
-3316 8825 0
-3317 8825 0
-3318 8825 0
-3319 8825 0
-3320 8825 0
-3321 8825 0
-3322 8825 0
-3323 8825 0
-3324 8825 0
-3325 8825 0
-3326 8825 0
-3327 8825 0
-3328 8825 0
-3329 8825 0
-3330 8825 0
-8825 3316 3317 3318 3319 3320 3321 3322 3323 3324 3325 3326 3327 3328 3329 3330 0
-3331 16 0
-3331 31 0
-3331 106 0
-16 -31 -106 3331 0
-3332 17 0
-3332 32 0
-3332 107 0
-17 -32 -107 3332 0
-3333 18 0
-3333 33 0
-3333 108 0
-18 -33 -108 3333 0
-3334 19 0
-3334 34 0
-3334 109 0
-19 -34 -109 3334 0
-3335 20 0
-3335 35 0
-3335 110 0
-20 -35 -110 3335 0
-3336 21 0
-3336 36 0
-3336 111 0
-21 -36 -111 3336 0
-3337 22 0
-3337 37 0
-3337 112 0
-22 -37 -112 3337 0
-3338 23 0
-3338 38 0
-3338 113 0
-23 -38 -113 3338 0
-3339 24 0
-3339 39 0
-3339 114 0
-24 -39 -114 3339 0
-3340 25 0
-3340 40 0
-3340 115 0
-25 -40 -115 3340 0
-3341 26 0
-3341 41 0
-3341 116 0
-26 -41 -116 3341 0
-3342 27 0
-3342 42 0
-3342 117 0
-27 -42 -117 3342 0
-3343 28 0
-3343 43 0
-3343 118 0
-28 -43 -118 3343 0
-3344 29 0
-3344 44 0
-3344 119 0
-29 -44 -119 3344 0
-3345 30 0
-3345 45 0
-3345 120 0
-30 -45 -120 3345 0
-3331 8826 0
-3332 8826 0
-3333 8826 0
-3334 8826 0
-3335 8826 0
-3336 8826 0
-3337 8826 0
-3338 8826 0
-3339 8826 0
-3340 8826 0
-3341 8826 0
-3342 8826 0
-3343 8826 0
-3344 8826 0
-3345 8826 0
-8826 3331 3332 3333 3334 3335 3336 3337 3338 3339 3340 3341 3342 3343 3344 3345 0
-3346 16 0
-3346 31 0
-3346 121 0
-16 -31 -121 3346 0
-3347 17 0
-3347 32 0
-3347 122 0
-17 -32 -122 3347 0
-3348 18 0
-3348 33 0
-3348 123 0
-18 -33 -123 3348 0
-3349 19 0
-3349 34 0
-3349 124 0
-19 -34 -124 3349 0
-3350 20 0
-3350 35 0
-3350 125 0
-20 -35 -125 3350 0
-3351 21 0
-3351 36 0
-3351 126 0
-21 -36 -126 3351 0
-3352 22 0
-3352 37 0
-3352 127 0
-22 -37 -127 3352 0
-3353 23 0
-3353 38 0
-3353 128 0
-23 -38 -128 3353 0
-3354 24 0
-3354 39 0
-3354 129 0
-24 -39 -129 3354 0
-3355 25 0
-3355 40 0
-3355 130 0
-25 -40 -130 3355 0
-3356 26 0
-3356 41 0
-3356 131 0
-26 -41 -131 3356 0
-3357 27 0
-3357 42 0
-3357 132 0
-27 -42 -132 3357 0
-3358 28 0
-3358 43 0
-3358 133 0
-28 -43 -133 3358 0
-3359 29 0
-3359 44 0
-3359 134 0
-29 -44 -134 3359 0
-3360 30 0
-3360 45 0
-3360 135 0
-30 -45 -135 3360 0
-3346 8827 0
-3347 8827 0
-3348 8827 0
-3349 8827 0
-3350 8827 0
-3351 8827 0
-3352 8827 0
-3353 8827 0
-3354 8827 0
-3355 8827 0
-3356 8827 0
-3357 8827 0
-3358 8827 0
-3359 8827 0
-3360 8827 0
-8827 3346 3347 3348 3349 3350 3351 3352 3353 3354 3355 3356 3357 3358 3359 3360 0
-3361 16 0
-3361 31 0
-3361 136 0
-16 -31 -136 3361 0
-3362 17 0
-3362 32 0
-3362 137 0
-17 -32 -137 3362 0
-3363 18 0
-3363 33 0
-3363 138 0
-18 -33 -138 3363 0
-3364 19 0
-3364 34 0
-3364 139 0
-19 -34 -139 3364 0
-3365 20 0
-3365 35 0
-3365 140 0
-20 -35 -140 3365 0
-3366 21 0
-3366 36 0
-3366 141 0
-21 -36 -141 3366 0
-3367 22 0
-3367 37 0
-3367 142 0
-22 -37 -142 3367 0
-3368 23 0
-3368 38 0
-3368 143 0
-23 -38 -143 3368 0
-3369 24 0
-3369 39 0
-3369 144 0
-24 -39 -144 3369 0
-3370 25 0
-3370 40 0
-3370 145 0
-25 -40 -145 3370 0
-3371 26 0
-3371 41 0
-3371 146 0
-26 -41 -146 3371 0
-3372 27 0
-3372 42 0
-3372 147 0
-27 -42 -147 3372 0
-3373 28 0
-3373 43 0
-3373 148 0
-28 -43 -148 3373 0
-3374 29 0
-3374 44 0
-3374 149 0
-29 -44 -149 3374 0
-3375 30 0
-3375 45 0
-3375 150 0
-30 -45 -150 3375 0
-3361 8828 0
-3362 8828 0
-3363 8828 0
-3364 8828 0
-3365 8828 0
-3366 8828 0
-3367 8828 0
-3368 8828 0
-3369 8828 0
-3370 8828 0
-3371 8828 0
-3372 8828 0
-3373 8828 0
-3374 8828 0
-3375 8828 0
-8828 3361 3362 3363 3364 3365 3366 3367 3368 3369 3370 3371 3372 3373 3374 3375 0
-3376 16 0
-3376 31 0
-3376 151 0
-16 -31 -151 3376 0
-3377 17 0
-3377 32 0
-3377 152 0
-17 -32 -152 3377 0
-3378 18 0
-3378 33 0
-3378 153 0
-18 -33 -153 3378 0
-3379 19 0
-3379 34 0
-3379 154 0
-19 -34 -154 3379 0
-3380 20 0
-3380 35 0
-3380 155 0
-20 -35 -155 3380 0
-3381 21 0
-3381 36 0
-3381 156 0
-21 -36 -156 3381 0
-3382 22 0
-3382 37 0
-3382 157 0
-22 -37 -157 3382 0
-3383 23 0
-3383 38 0
-3383 158 0
-23 -38 -158 3383 0
-3384 24 0
-3384 39 0
-3384 159 0
-24 -39 -159 3384 0
-3385 25 0
-3385 40 0
-3385 160 0
-25 -40 -160 3385 0
-3386 26 0
-3386 41 0
-3386 161 0
-26 -41 -161 3386 0
-3387 27 0
-3387 42 0
-3387 162 0
-27 -42 -162 3387 0
-3388 28 0
-3388 43 0
-3388 163 0
-28 -43 -163 3388 0
-3389 29 0
-3389 44 0
-3389 164 0
-29 -44 -164 3389 0
-3390 30 0
-3390 45 0
-3390 165 0
-30 -45 -165 3390 0
-3376 8829 0
-3377 8829 0
-3378 8829 0
-3379 8829 0
-3380 8829 0
-3381 8829 0
-3382 8829 0
-3383 8829 0
-3384 8829 0
-3385 8829 0
-3386 8829 0
-3387 8829 0
-3388 8829 0
-3389 8829 0
-3390 8829 0
-8829 3376 3377 3378 3379 3380 3381 3382 3383 3384 3385 3386 3387 3388 3389 3390 0
-3391 16 0
-3391 31 0
-3391 166 0
-16 -31 -166 3391 0
-3392 17 0
-3392 32 0
-3392 167 0
-17 -32 -167 3392 0
-3393 18 0
-3393 33 0
-3393 168 0
-18 -33 -168 3393 0
-3394 19 0
-3394 34 0
-3394 169 0
-19 -34 -169 3394 0
-3395 20 0
-3395 35 0
-3395 170 0
-20 -35 -170 3395 0
-3396 21 0
-3396 36 0
-3396 171 0
-21 -36 -171 3396 0
-3397 22 0
-3397 37 0
-3397 172 0
-22 -37 -172 3397 0
-3398 23 0
-3398 38 0
-3398 173 0
-23 -38 -173 3398 0
-3399 24 0
-3399 39 0
-3399 174 0
-24 -39 -174 3399 0
-3400 25 0
-3400 40 0
-3400 175 0
-25 -40 -175 3400 0
-3401 26 0
-3401 41 0
-3401 176 0
-26 -41 -176 3401 0
-3402 27 0
-3402 42 0
-3402 177 0
-27 -42 -177 3402 0
-3403 28 0
-3403 43 0
-3403 178 0
-28 -43 -178 3403 0
-3404 29 0
-3404 44 0
-3404 179 0
-29 -44 -179 3404 0
-3405 30 0
-3405 45 0
-3405 180 0
-30 -45 -180 3405 0
-3391 8830 0
-3392 8830 0
-3393 8830 0
-3394 8830 0
-3395 8830 0
-3396 8830 0
-3397 8830 0
-3398 8830 0
-3399 8830 0
-3400 8830 0
-3401 8830 0
-3402 8830 0
-3403 8830 0
-3404 8830 0
-3405 8830 0
-8830 3391 3392 3393 3394 3395 3396 3397 3398 3399 3400 3401 3402 3403 3404 3405 0
-3406 16 0
-3406 31 0
-3406 181 0
-16 -31 -181 3406 0
-3407 17 0
-3407 32 0
-3407 182 0
-17 -32 -182 3407 0
-3408 18 0
-3408 33 0
-3408 183 0
-18 -33 -183 3408 0
-3409 19 0
-3409 34 0
-3409 184 0
-19 -34 -184 3409 0
-3410 20 0
-3410 35 0
-3410 185 0
-20 -35 -185 3410 0
-3411 21 0
-3411 36 0
-3411 186 0
-21 -36 -186 3411 0
-3412 22 0
-3412 37 0
-3412 187 0
-22 -37 -187 3412 0
-3413 23 0
-3413 38 0
-3413 188 0
-23 -38 -188 3413 0
-3414 24 0
-3414 39 0
-3414 189 0
-24 -39 -189 3414 0
-3415 25 0
-3415 40 0
-3415 190 0
-25 -40 -190 3415 0
-3416 26 0
-3416 41 0
-3416 191 0
-26 -41 -191 3416 0
-3417 27 0
-3417 42 0
-3417 192 0
-27 -42 -192 3417 0
-3418 28 0
-3418 43 0
-3418 193 0
-28 -43 -193 3418 0
-3419 29 0
-3419 44 0
-3419 194 0
-29 -44 -194 3419 0
-3420 30 0
-3420 45 0
-3420 195 0
-30 -45 -195 3420 0
-3406 8831 0
-3407 8831 0
-3408 8831 0
-3409 8831 0
-3410 8831 0
-3411 8831 0
-3412 8831 0
-3413 8831 0
-3414 8831 0
-3415 8831 0
-3416 8831 0
-3417 8831 0
-3418 8831 0
-3419 8831 0
-3420 8831 0
-8831 3406 3407 3408 3409 3410 3411 3412 3413 3414 3415 3416 3417 3418 3419 3420 0
-3421 16 0
-3421 31 0
-3421 196 0
-16 -31 -196 3421 0
-3422 17 0
-3422 32 0
-3422 197 0
-17 -32 -197 3422 0
-3423 18 0
-3423 33 0
-3423 198 0
-18 -33 -198 3423 0
-3424 19 0
-3424 34 0
-3424 199 0
-19 -34 -199 3424 0
-3425 20 0
-3425 35 0
-3425 200 0
-20 -35 -200 3425 0
-3426 21 0
-3426 36 0
-3426 201 0
-21 -36 -201 3426 0
-3427 22 0
-3427 37 0
-3427 202 0
-22 -37 -202 3427 0
-3428 23 0
-3428 38 0
-3428 203 0
-23 -38 -203 3428 0
-3429 24 0
-3429 39 0
-3429 204 0
-24 -39 -204 3429 0
-3430 25 0
-3430 40 0
-3430 205 0
-25 -40 -205 3430 0
-3431 26 0
-3431 41 0
-3431 206 0
-26 -41 -206 3431 0
-3432 27 0
-3432 42 0
-3432 207 0
-27 -42 -207 3432 0
-3433 28 0
-3433 43 0
-3433 208 0
-28 -43 -208 3433 0
-3434 29 0
-3434 44 0
-3434 209 0
-29 -44 -209 3434 0
-3435 30 0
-3435 45 0
-3435 210 0
-30 -45 -210 3435 0
-3421 8832 0
-3422 8832 0
-3423 8832 0
-3424 8832 0
-3425 8832 0
-3426 8832 0
-3427 8832 0
-3428 8832 0
-3429 8832 0
-3430 8832 0
-3431 8832 0
-3432 8832 0
-3433 8832 0
-3434 8832 0
-3435 8832 0
-8832 3421 3422 3423 3424 3425 3426 3427 3428 3429 3430 3431 3432 3433 3434 3435 0
-3436 16 0
-3436 31 0
-3436 211 0
-16 -31 -211 3436 0
-3437 17 0
-3437 32 0
-3437 212 0
-17 -32 -212 3437 0
-3438 18 0
-3438 33 0
-3438 213 0
-18 -33 -213 3438 0
-3439 19 0
-3439 34 0
-3439 214 0
-19 -34 -214 3439 0
-3440 20 0
-3440 35 0
-3440 215 0
-20 -35 -215 3440 0
-3441 21 0
-3441 36 0
-3441 216 0
-21 -36 -216 3441 0
-3442 22 0
-3442 37 0
-3442 217 0
-22 -37 -217 3442 0
-3443 23 0
-3443 38 0
-3443 218 0
-23 -38 -218 3443 0
-3444 24 0
-3444 39 0
-3444 219 0
-24 -39 -219 3444 0
-3445 25 0
-3445 40 0
-3445 220 0
-25 -40 -220 3445 0
-3446 26 0
-3446 41 0
-3446 221 0
-26 -41 -221 3446 0
-3447 27 0
-3447 42 0
-3447 222 0
-27 -42 -222 3447 0
-3448 28 0
-3448 43 0
-3448 223 0
-28 -43 -223 3448 0
-3449 29 0
-3449 44 0
-3449 224 0
-29 -44 -224 3449 0
-3450 30 0
-3450 45 0
-3450 225 0
-30 -45 -225 3450 0
-3436 8833 0
-3437 8833 0
-3438 8833 0
-3439 8833 0
-3440 8833 0
-3441 8833 0
-3442 8833 0
-3443 8833 0
-3444 8833 0
-3445 8833 0
-3446 8833 0
-3447 8833 0
-3448 8833 0
-3449 8833 0
-3450 8833 0
-8833 3436 3437 3438 3439 3440 3441 3442 3443 3444 3445 3446 3447 3448 3449 3450 0
-3451 16 0
-3451 46 0
-3451 61 0
-16 -46 -61 3451 0
-3452 17 0
-3452 47 0
-3452 62 0
-17 -47 -62 3452 0
-3453 18 0
-3453 48 0
-3453 63 0
-18 -48 -63 3453 0
-3454 19 0
-3454 49 0
-3454 64 0
-19 -49 -64 3454 0
-3455 20 0
-3455 50 0
-3455 65 0
-20 -50 -65 3455 0
-3456 21 0
-3456 51 0
-3456 66 0
-21 -51 -66 3456 0
-3457 22 0
-3457 52 0
-3457 67 0
-22 -52 -67 3457 0
-3458 23 0
-3458 53 0
-3458 68 0
-23 -53 -68 3458 0
-3459 24 0
-3459 54 0
-3459 69 0
-24 -54 -69 3459 0
-3460 25 0
-3460 55 0
-3460 70 0
-25 -55 -70 3460 0
-3461 26 0
-3461 56 0
-3461 71 0
-26 -56 -71 3461 0
-3462 27 0
-3462 57 0
-3462 72 0
-27 -57 -72 3462 0
-3463 28 0
-3463 58 0
-3463 73 0
-28 -58 -73 3463 0
-3464 29 0
-3464 59 0
-3464 74 0
-29 -59 -74 3464 0
-3465 30 0
-3465 60 0
-3465 75 0
-30 -60 -75 3465 0
-3451 8834 0
-3452 8834 0
-3453 8834 0
-3454 8834 0
-3455 8834 0
-3456 8834 0
-3457 8834 0
-3458 8834 0
-3459 8834 0
-3460 8834 0
-3461 8834 0
-3462 8834 0
-3463 8834 0
-3464 8834 0
-3465 8834 0
-8834 3451 3452 3453 3454 3455 3456 3457 3458 3459 3460 3461 3462 3463 3464 3465 0
-3466 16 0
-3466 46 0
-3466 76 0
-16 -46 -76 3466 0
-3467 17 0
-3467 47 0
-3467 77 0
-17 -47 -77 3467 0
-3468 18 0
-3468 48 0
-3468 78 0
-18 -48 -78 3468 0
-3469 19 0
-3469 49 0
-3469 79 0
-19 -49 -79 3469 0
-3470 20 0
-3470 50 0
-3470 80 0
-20 -50 -80 3470 0
-3471 21 0
-3471 51 0
-3471 81 0
-21 -51 -81 3471 0
-3472 22 0
-3472 52 0
-3472 82 0
-22 -52 -82 3472 0
-3473 23 0
-3473 53 0
-3473 83 0
-23 -53 -83 3473 0
-3474 24 0
-3474 54 0
-3474 84 0
-24 -54 -84 3474 0
-3475 25 0
-3475 55 0
-3475 85 0
-25 -55 -85 3475 0
-3476 26 0
-3476 56 0
-3476 86 0
-26 -56 -86 3476 0
-3477 27 0
-3477 57 0
-3477 87 0
-27 -57 -87 3477 0
-3478 28 0
-3478 58 0
-3478 88 0
-28 -58 -88 3478 0
-3479 29 0
-3479 59 0
-3479 89 0
-29 -59 -89 3479 0
-3480 30 0
-3480 60 0
-3480 90 0
-30 -60 -90 3480 0
-3466 8835 0
-3467 8835 0
-3468 8835 0
-3469 8835 0
-3470 8835 0
-3471 8835 0
-3472 8835 0
-3473 8835 0
-3474 8835 0
-3475 8835 0
-3476 8835 0
-3477 8835 0
-3478 8835 0
-3479 8835 0
-3480 8835 0
-8835 3466 3467 3468 3469 3470 3471 3472 3473 3474 3475 3476 3477 3478 3479 3480 0
-3481 16 0
-3481 46 0
-3481 91 0
-16 -46 -91 3481 0
-3482 17 0
-3482 47 0
-3482 92 0
-17 -47 -92 3482 0
-3483 18 0
-3483 48 0
-3483 93 0
-18 -48 -93 3483 0
-3484 19 0
-3484 49 0
-3484 94 0
-19 -49 -94 3484 0
-3485 20 0
-3485 50 0
-3485 95 0
-20 -50 -95 3485 0
-3486 21 0
-3486 51 0
-3486 96 0
-21 -51 -96 3486 0
-3487 22 0
-3487 52 0
-3487 97 0
-22 -52 -97 3487 0
-3488 23 0
-3488 53 0
-3488 98 0
-23 -53 -98 3488 0
-3489 24 0
-3489 54 0
-3489 99 0
-24 -54 -99 3489 0
-3490 25 0
-3490 55 0
-3490 100 0
-25 -55 -100 3490 0
-3491 26 0
-3491 56 0
-3491 101 0
-26 -56 -101 3491 0
-3492 27 0
-3492 57 0
-3492 102 0
-27 -57 -102 3492 0
-3493 28 0
-3493 58 0
-3493 103 0
-28 -58 -103 3493 0
-3494 29 0
-3494 59 0
-3494 104 0
-29 -59 -104 3494 0
-3495 30 0
-3495 60 0
-3495 105 0
-30 -60 -105 3495 0
-3481 8836 0
-3482 8836 0
-3483 8836 0
-3484 8836 0
-3485 8836 0
-3486 8836 0
-3487 8836 0
-3488 8836 0
-3489 8836 0
-3490 8836 0
-3491 8836 0
-3492 8836 0
-3493 8836 0
-3494 8836 0
-3495 8836 0
-8836 3481 3482 3483 3484 3485 3486 3487 3488 3489 3490 3491 3492 3493 3494 3495 0
-3496 16 0
-3496 46 0
-3496 106 0
-16 -46 -106 3496 0
-3497 17 0
-3497 47 0
-3497 107 0
-17 -47 -107 3497 0
-3498 18 0
-3498 48 0
-3498 108 0
-18 -48 -108 3498 0
-3499 19 0
-3499 49 0
-3499 109 0
-19 -49 -109 3499 0
-3500 20 0
-3500 50 0
-3500 110 0
-20 -50 -110 3500 0
-3501 21 0
-3501 51 0
-3501 111 0
-21 -51 -111 3501 0
-3502 22 0
-3502 52 0
-3502 112 0
-22 -52 -112 3502 0
-3503 23 0
-3503 53 0
-3503 113 0
-23 -53 -113 3503 0
-3504 24 0
-3504 54 0
-3504 114 0
-24 -54 -114 3504 0
-3505 25 0
-3505 55 0
-3505 115 0
-25 -55 -115 3505 0
-3506 26 0
-3506 56 0
-3506 116 0
-26 -56 -116 3506 0
-3507 27 0
-3507 57 0
-3507 117 0
-27 -57 -117 3507 0
-3508 28 0
-3508 58 0
-3508 118 0
-28 -58 -118 3508 0
-3509 29 0
-3509 59 0
-3509 119 0
-29 -59 -119 3509 0
-3510 30 0
-3510 60 0
-3510 120 0
-30 -60 -120 3510 0
-3496 8837 0
-3497 8837 0
-3498 8837 0
-3499 8837 0
-3500 8837 0
-3501 8837 0
-3502 8837 0
-3503 8837 0
-3504 8837 0
-3505 8837 0
-3506 8837 0
-3507 8837 0
-3508 8837 0
-3509 8837 0
-3510 8837 0
-8837 3496 3497 3498 3499 3500 3501 3502 3503 3504 3505 3506 3507 3508 3509 3510 0
-3511 16 0
-3511 46 0
-3511 121 0
-16 -46 -121 3511 0
-3512 17 0
-3512 47 0
-3512 122 0
-17 -47 -122 3512 0
-3513 18 0
-3513 48 0
-3513 123 0
-18 -48 -123 3513 0
-3514 19 0
-3514 49 0
-3514 124 0
-19 -49 -124 3514 0
-3515 20 0
-3515 50 0
-3515 125 0
-20 -50 -125 3515 0
-3516 21 0
-3516 51 0
-3516 126 0
-21 -51 -126 3516 0
-3517 22 0
-3517 52 0
-3517 127 0
-22 -52 -127 3517 0
-3518 23 0
-3518 53 0
-3518 128 0
-23 -53 -128 3518 0
-3519 24 0
-3519 54 0
-3519 129 0
-24 -54 -129 3519 0
-3520 25 0
-3520 55 0
-3520 130 0
-25 -55 -130 3520 0
-3521 26 0
-3521 56 0
-3521 131 0
-26 -56 -131 3521 0
-3522 27 0
-3522 57 0
-3522 132 0
-27 -57 -132 3522 0
-3523 28 0
-3523 58 0
-3523 133 0
-28 -58 -133 3523 0
-3524 29 0
-3524 59 0
-3524 134 0
-29 -59 -134 3524 0
-3525 30 0
-3525 60 0
-3525 135 0
-30 -60 -135 3525 0
-3511 8838 0
-3512 8838 0
-3513 8838 0
-3514 8838 0
-3515 8838 0
-3516 8838 0
-3517 8838 0
-3518 8838 0
-3519 8838 0
-3520 8838 0
-3521 8838 0
-3522 8838 0
-3523 8838 0
-3524 8838 0
-3525 8838 0
-8838 3511 3512 3513 3514 3515 3516 3517 3518 3519 3520 3521 3522 3523 3524 3525 0
-3526 16 0
-3526 46 0
-3526 136 0
-16 -46 -136 3526 0
-3527 17 0
-3527 47 0
-3527 137 0
-17 -47 -137 3527 0
-3528 18 0
-3528 48 0
-3528 138 0
-18 -48 -138 3528 0
-3529 19 0
-3529 49 0
-3529 139 0
-19 -49 -139 3529 0
-3530 20 0
-3530 50 0
-3530 140 0
-20 -50 -140 3530 0
-3531 21 0
-3531 51 0
-3531 141 0
-21 -51 -141 3531 0
-3532 22 0
-3532 52 0
-3532 142 0
-22 -52 -142 3532 0
-3533 23 0
-3533 53 0
-3533 143 0
-23 -53 -143 3533 0
-3534 24 0
-3534 54 0
-3534 144 0
-24 -54 -144 3534 0
-3535 25 0
-3535 55 0
-3535 145 0
-25 -55 -145 3535 0
-3536 26 0
-3536 56 0
-3536 146 0
-26 -56 -146 3536 0
-3537 27 0
-3537 57 0
-3537 147 0
-27 -57 -147 3537 0
-3538 28 0
-3538 58 0
-3538 148 0
-28 -58 -148 3538 0
-3539 29 0
-3539 59 0
-3539 149 0
-29 -59 -149 3539 0
-3540 30 0
-3540 60 0
-3540 150 0
-30 -60 -150 3540 0
-3526 8839 0
-3527 8839 0
-3528 8839 0
-3529 8839 0
-3530 8839 0
-3531 8839 0
-3532 8839 0
-3533 8839 0
-3534 8839 0
-3535 8839 0
-3536 8839 0
-3537 8839 0
-3538 8839 0
-3539 8839 0
-3540 8839 0
-8839 3526 3527 3528 3529 3530 3531 3532 3533 3534 3535 3536 3537 3538 3539 3540 0
-3541 16 0
-3541 46 0
-3541 151 0
-16 -46 -151 3541 0
-3542 17 0
-3542 47 0
-3542 152 0
-17 -47 -152 3542 0
-3543 18 0
-3543 48 0
-3543 153 0
-18 -48 -153 3543 0
-3544 19 0
-3544 49 0
-3544 154 0
-19 -49 -154 3544 0
-3545 20 0
-3545 50 0
-3545 155 0
-20 -50 -155 3545 0
-3546 21 0
-3546 51 0
-3546 156 0
-21 -51 -156 3546 0
-3547 22 0
-3547 52 0
-3547 157 0
-22 -52 -157 3547 0
-3548 23 0
-3548 53 0
-3548 158 0
-23 -53 -158 3548 0
-3549 24 0
-3549 54 0
-3549 159 0
-24 -54 -159 3549 0
-3550 25 0
-3550 55 0
-3550 160 0
-25 -55 -160 3550 0
-3551 26 0
-3551 56 0
-3551 161 0
-26 -56 -161 3551 0
-3552 27 0
-3552 57 0
-3552 162 0
-27 -57 -162 3552 0
-3553 28 0
-3553 58 0
-3553 163 0
-28 -58 -163 3553 0
-3554 29 0
-3554 59 0
-3554 164 0
-29 -59 -164 3554 0
-3555 30 0
-3555 60 0
-3555 165 0
-30 -60 -165 3555 0
-3541 8840 0
-3542 8840 0
-3543 8840 0
-3544 8840 0
-3545 8840 0
-3546 8840 0
-3547 8840 0
-3548 8840 0
-3549 8840 0
-3550 8840 0
-3551 8840 0
-3552 8840 0
-3553 8840 0
-3554 8840 0
-3555 8840 0
-8840 3541 3542 3543 3544 3545 3546 3547 3548 3549 3550 3551 3552 3553 3554 3555 0
-3556 16 0
-3556 46 0
-3556 166 0
-16 -46 -166 3556 0
-3557 17 0
-3557 47 0
-3557 167 0
-17 -47 -167 3557 0
-3558 18 0
-3558 48 0
-3558 168 0
-18 -48 -168 3558 0
-3559 19 0
-3559 49 0
-3559 169 0
-19 -49 -169 3559 0
-3560 20 0
-3560 50 0
-3560 170 0
-20 -50 -170 3560 0
-3561 21 0
-3561 51 0
-3561 171 0
-21 -51 -171 3561 0
-3562 22 0
-3562 52 0
-3562 172 0
-22 -52 -172 3562 0
-3563 23 0
-3563 53 0
-3563 173 0
-23 -53 -173 3563 0
-3564 24 0
-3564 54 0
-3564 174 0
-24 -54 -174 3564 0
-3565 25 0
-3565 55 0
-3565 175 0
-25 -55 -175 3565 0
-3566 26 0
-3566 56 0
-3566 176 0
-26 -56 -176 3566 0
-3567 27 0
-3567 57 0
-3567 177 0
-27 -57 -177 3567 0
-3568 28 0
-3568 58 0
-3568 178 0
-28 -58 -178 3568 0
-3569 29 0
-3569 59 0
-3569 179 0
-29 -59 -179 3569 0
-3570 30 0
-3570 60 0
-3570 180 0
-30 -60 -180 3570 0
-3556 8841 0
-3557 8841 0
-3558 8841 0
-3559 8841 0
-3560 8841 0
-3561 8841 0
-3562 8841 0
-3563 8841 0
-3564 8841 0
-3565 8841 0
-3566 8841 0
-3567 8841 0
-3568 8841 0
-3569 8841 0
-3570 8841 0
-8841 3556 3557 3558 3559 3560 3561 3562 3563 3564 3565 3566 3567 3568 3569 3570 0
-3571 16 0
-3571 46 0
-3571 181 0
-16 -46 -181 3571 0
-3572 17 0
-3572 47 0
-3572 182 0
-17 -47 -182 3572 0
-3573 18 0
-3573 48 0
-3573 183 0
-18 -48 -183 3573 0
-3574 19 0
-3574 49 0
-3574 184 0
-19 -49 -184 3574 0
-3575 20 0
-3575 50 0
-3575 185 0
-20 -50 -185 3575 0
-3576 21 0
-3576 51 0
-3576 186 0
-21 -51 -186 3576 0
-3577 22 0
-3577 52 0
-3577 187 0
-22 -52 -187 3577 0
-3578 23 0
-3578 53 0
-3578 188 0
-23 -53 -188 3578 0
-3579 24 0
-3579 54 0
-3579 189 0
-24 -54 -189 3579 0
-3580 25 0
-3580 55 0
-3580 190 0
-25 -55 -190 3580 0
-3581 26 0
-3581 56 0
-3581 191 0
-26 -56 -191 3581 0
-3582 27 0
-3582 57 0
-3582 192 0
-27 -57 -192 3582 0
-3583 28 0
-3583 58 0
-3583 193 0
-28 -58 -193 3583 0
-3584 29 0
-3584 59 0
-3584 194 0
-29 -59 -194 3584 0
-3585 30 0
-3585 60 0
-3585 195 0
-30 -60 -195 3585 0
-3571 8842 0
-3572 8842 0
-3573 8842 0
-3574 8842 0
-3575 8842 0
-3576 8842 0
-3577 8842 0
-3578 8842 0
-3579 8842 0
-3580 8842 0
-3581 8842 0
-3582 8842 0
-3583 8842 0
-3584 8842 0
-3585 8842 0
-8842 3571 3572 3573 3574 3575 3576 3577 3578 3579 3580 3581 3582 3583 3584 3585 0
-3586 16 0
-3586 46 0
-3586 196 0
-16 -46 -196 3586 0
-3587 17 0
-3587 47 0
-3587 197 0
-17 -47 -197 3587 0
-3588 18 0
-3588 48 0
-3588 198 0
-18 -48 -198 3588 0
-3589 19 0
-3589 49 0
-3589 199 0
-19 -49 -199 3589 0
-3590 20 0
-3590 50 0
-3590 200 0
-20 -50 -200 3590 0
-3591 21 0
-3591 51 0
-3591 201 0
-21 -51 -201 3591 0
-3592 22 0
-3592 52 0
-3592 202 0
-22 -52 -202 3592 0
-3593 23 0
-3593 53 0
-3593 203 0
-23 -53 -203 3593 0
-3594 24 0
-3594 54 0
-3594 204 0
-24 -54 -204 3594 0
-3595 25 0
-3595 55 0
-3595 205 0
-25 -55 -205 3595 0
-3596 26 0
-3596 56 0
-3596 206 0
-26 -56 -206 3596 0
-3597 27 0
-3597 57 0
-3597 207 0
-27 -57 -207 3597 0
-3598 28 0
-3598 58 0
-3598 208 0
-28 -58 -208 3598 0
-3599 29 0
-3599 59 0
-3599 209 0
-29 -59 -209 3599 0
-3600 30 0
-3600 60 0
-3600 210 0
-30 -60 -210 3600 0
-3586 8843 0
-3587 8843 0
-3588 8843 0
-3589 8843 0
-3590 8843 0
-3591 8843 0
-3592 8843 0
-3593 8843 0
-3594 8843 0
-3595 8843 0
-3596 8843 0
-3597 8843 0
-3598 8843 0
-3599 8843 0
-3600 8843 0
-8843 3586 3587 3588 3589 3590 3591 3592 3593 3594 3595 3596 3597 3598 3599 3600 0
-3601 16 0
-3601 46 0
-3601 211 0
-16 -46 -211 3601 0
-3602 17 0
-3602 47 0
-3602 212 0
-17 -47 -212 3602 0
-3603 18 0
-3603 48 0
-3603 213 0
-18 -48 -213 3603 0
-3604 19 0
-3604 49 0
-3604 214 0
-19 -49 -214 3604 0
-3605 20 0
-3605 50 0
-3605 215 0
-20 -50 -215 3605 0
-3606 21 0
-3606 51 0
-3606 216 0
-21 -51 -216 3606 0
-3607 22 0
-3607 52 0
-3607 217 0
-22 -52 -217 3607 0
-3608 23 0
-3608 53 0
-3608 218 0
-23 -53 -218 3608 0
-3609 24 0
-3609 54 0
-3609 219 0
-24 -54 -219 3609 0
-3610 25 0
-3610 55 0
-3610 220 0
-25 -55 -220 3610 0
-3611 26 0
-3611 56 0
-3611 221 0
-26 -56 -221 3611 0
-3612 27 0
-3612 57 0
-3612 222 0
-27 -57 -222 3612 0
-3613 28 0
-3613 58 0
-3613 223 0
-28 -58 -223 3613 0
-3614 29 0
-3614 59 0
-3614 224 0
-29 -59 -224 3614 0
-3615 30 0
-3615 60 0
-3615 225 0
-30 -60 -225 3615 0
-3601 8844 0
-3602 8844 0
-3603 8844 0
-3604 8844 0
-3605 8844 0
-3606 8844 0
-3607 8844 0
-3608 8844 0
-3609 8844 0
-3610 8844 0
-3611 8844 0
-3612 8844 0
-3613 8844 0
-3614 8844 0
-3615 8844 0
-8844 3601 3602 3603 3604 3605 3606 3607 3608 3609 3610 3611 3612 3613 3614 3615 0
-3616 16 0
-3616 61 0
-3616 76 0
-16 -61 -76 3616 0
-3617 17 0
-3617 62 0
-3617 77 0
-17 -62 -77 3617 0
-3618 18 0
-3618 63 0
-3618 78 0
-18 -63 -78 3618 0
-3619 19 0
-3619 64 0
-3619 79 0
-19 -64 -79 3619 0
-3620 20 0
-3620 65 0
-3620 80 0
-20 -65 -80 3620 0
-3621 21 0
-3621 66 0
-3621 81 0
-21 -66 -81 3621 0
-3622 22 0
-3622 67 0
-3622 82 0
-22 -67 -82 3622 0
-3623 23 0
-3623 68 0
-3623 83 0
-23 -68 -83 3623 0
-3624 24 0
-3624 69 0
-3624 84 0
-24 -69 -84 3624 0
-3625 25 0
-3625 70 0
-3625 85 0
-25 -70 -85 3625 0
-3626 26 0
-3626 71 0
-3626 86 0
-26 -71 -86 3626 0
-3627 27 0
-3627 72 0
-3627 87 0
-27 -72 -87 3627 0
-3628 28 0
-3628 73 0
-3628 88 0
-28 -73 -88 3628 0
-3629 29 0
-3629 74 0
-3629 89 0
-29 -74 -89 3629 0
-3630 30 0
-3630 75 0
-3630 90 0
-30 -75 -90 3630 0
-3616 8845 0
-3617 8845 0
-3618 8845 0
-3619 8845 0
-3620 8845 0
-3621 8845 0
-3622 8845 0
-3623 8845 0
-3624 8845 0
-3625 8845 0
-3626 8845 0
-3627 8845 0
-3628 8845 0
-3629 8845 0
-3630 8845 0
-8845 3616 3617 3618 3619 3620 3621 3622 3623 3624 3625 3626 3627 3628 3629 3630 0
-3631 16 0
-3631 61 0
-3631 91 0
-16 -61 -91 3631 0
-3632 17 0
-3632 62 0
-3632 92 0
-17 -62 -92 3632 0
-3633 18 0
-3633 63 0
-3633 93 0
-18 -63 -93 3633 0
-3634 19 0
-3634 64 0
-3634 94 0
-19 -64 -94 3634 0
-3635 20 0
-3635 65 0
-3635 95 0
-20 -65 -95 3635 0
-3636 21 0
-3636 66 0
-3636 96 0
-21 -66 -96 3636 0
-3637 22 0
-3637 67 0
-3637 97 0
-22 -67 -97 3637 0
-3638 23 0
-3638 68 0
-3638 98 0
-23 -68 -98 3638 0
-3639 24 0
-3639 69 0
-3639 99 0
-24 -69 -99 3639 0
-3640 25 0
-3640 70 0
-3640 100 0
-25 -70 -100 3640 0
-3641 26 0
-3641 71 0
-3641 101 0
-26 -71 -101 3641 0
-3642 27 0
-3642 72 0
-3642 102 0
-27 -72 -102 3642 0
-3643 28 0
-3643 73 0
-3643 103 0
-28 -73 -103 3643 0
-3644 29 0
-3644 74 0
-3644 104 0
-29 -74 -104 3644 0
-3645 30 0
-3645 75 0
-3645 105 0
-30 -75 -105 3645 0
-3631 8846 0
-3632 8846 0
-3633 8846 0
-3634 8846 0
-3635 8846 0
-3636 8846 0
-3637 8846 0
-3638 8846 0
-3639 8846 0
-3640 8846 0
-3641 8846 0
-3642 8846 0
-3643 8846 0
-3644 8846 0
-3645 8846 0
-8846 3631 3632 3633 3634 3635 3636 3637 3638 3639 3640 3641 3642 3643 3644 3645 0
-3646 16 0
-3646 61 0
-3646 106 0
-16 -61 -106 3646 0
-3647 17 0
-3647 62 0
-3647 107 0
-17 -62 -107 3647 0
-3648 18 0
-3648 63 0
-3648 108 0
-18 -63 -108 3648 0
-3649 19 0
-3649 64 0
-3649 109 0
-19 -64 -109 3649 0
-3650 20 0
-3650 65 0
-3650 110 0
-20 -65 -110 3650 0
-3651 21 0
-3651 66 0
-3651 111 0
-21 -66 -111 3651 0
-3652 22 0
-3652 67 0
-3652 112 0
-22 -67 -112 3652 0
-3653 23 0
-3653 68 0
-3653 113 0
-23 -68 -113 3653 0
-3654 24 0
-3654 69 0
-3654 114 0
-24 -69 -114 3654 0
-3655 25 0
-3655 70 0
-3655 115 0
-25 -70 -115 3655 0
-3656 26 0
-3656 71 0
-3656 116 0
-26 -71 -116 3656 0
-3657 27 0
-3657 72 0
-3657 117 0
-27 -72 -117 3657 0
-3658 28 0
-3658 73 0
-3658 118 0
-28 -73 -118 3658 0
-3659 29 0
-3659 74 0
-3659 119 0
-29 -74 -119 3659 0
-3660 30 0
-3660 75 0
-3660 120 0
-30 -75 -120 3660 0
-3646 8847 0
-3647 8847 0
-3648 8847 0
-3649 8847 0
-3650 8847 0
-3651 8847 0
-3652 8847 0
-3653 8847 0
-3654 8847 0
-3655 8847 0
-3656 8847 0
-3657 8847 0
-3658 8847 0
-3659 8847 0
-3660 8847 0
-8847 3646 3647 3648 3649 3650 3651 3652 3653 3654 3655 3656 3657 3658 3659 3660 0
-3661 16 0
-3661 61 0
-3661 121 0
-16 -61 -121 3661 0
-3662 17 0
-3662 62 0
-3662 122 0
-17 -62 -122 3662 0
-3663 18 0
-3663 63 0
-3663 123 0
-18 -63 -123 3663 0
-3664 19 0
-3664 64 0
-3664 124 0
-19 -64 -124 3664 0
-3665 20 0
-3665 65 0
-3665 125 0
-20 -65 -125 3665 0
-3666 21 0
-3666 66 0
-3666 126 0
-21 -66 -126 3666 0
-3667 22 0
-3667 67 0
-3667 127 0
-22 -67 -127 3667 0
-3668 23 0
-3668 68 0
-3668 128 0
-23 -68 -128 3668 0
-3669 24 0
-3669 69 0
-3669 129 0
-24 -69 -129 3669 0
-3670 25 0
-3670 70 0
-3670 130 0
-25 -70 -130 3670 0
-3671 26 0
-3671 71 0
-3671 131 0
-26 -71 -131 3671 0
-3672 27 0
-3672 72 0
-3672 132 0
-27 -72 -132 3672 0
-3673 28 0
-3673 73 0
-3673 133 0
-28 -73 -133 3673 0
-3674 29 0
-3674 74 0
-3674 134 0
-29 -74 -134 3674 0
-3675 30 0
-3675 75 0
-3675 135 0
-30 -75 -135 3675 0
-3661 8848 0
-3662 8848 0
-3663 8848 0
-3664 8848 0
-3665 8848 0
-3666 8848 0
-3667 8848 0
-3668 8848 0
-3669 8848 0
-3670 8848 0
-3671 8848 0
-3672 8848 0
-3673 8848 0
-3674 8848 0
-3675 8848 0
-8848 3661 3662 3663 3664 3665 3666 3667 3668 3669 3670 3671 3672 3673 3674 3675 0
-3676 16 0
-3676 61 0
-3676 136 0
-16 -61 -136 3676 0
-3677 17 0
-3677 62 0
-3677 137 0
-17 -62 -137 3677 0
-3678 18 0
-3678 63 0
-3678 138 0
-18 -63 -138 3678 0
-3679 19 0
-3679 64 0
-3679 139 0
-19 -64 -139 3679 0
-3680 20 0
-3680 65 0
-3680 140 0
-20 -65 -140 3680 0
-3681 21 0
-3681 66 0
-3681 141 0
-21 -66 -141 3681 0
-3682 22 0
-3682 67 0
-3682 142 0
-22 -67 -142 3682 0
-3683 23 0
-3683 68 0
-3683 143 0
-23 -68 -143 3683 0
-3684 24 0
-3684 69 0
-3684 144 0
-24 -69 -144 3684 0
-3685 25 0
-3685 70 0
-3685 145 0
-25 -70 -145 3685 0
-3686 26 0
-3686 71 0
-3686 146 0
-26 -71 -146 3686 0
-3687 27 0
-3687 72 0
-3687 147 0
-27 -72 -147 3687 0
-3688 28 0
-3688 73 0
-3688 148 0
-28 -73 -148 3688 0
-3689 29 0
-3689 74 0
-3689 149 0
-29 -74 -149 3689 0
-3690 30 0
-3690 75 0
-3690 150 0
-30 -75 -150 3690 0
-3676 8849 0
-3677 8849 0
-3678 8849 0
-3679 8849 0
-3680 8849 0
-3681 8849 0
-3682 8849 0
-3683 8849 0
-3684 8849 0
-3685 8849 0
-3686 8849 0
-3687 8849 0
-3688 8849 0
-3689 8849 0
-3690 8849 0
-8849 3676 3677 3678 3679 3680 3681 3682 3683 3684 3685 3686 3687 3688 3689 3690 0
-3691 16 0
-3691 61 0
-3691 151 0
-16 -61 -151 3691 0
-3692 17 0
-3692 62 0
-3692 152 0
-17 -62 -152 3692 0
-3693 18 0
-3693 63 0
-3693 153 0
-18 -63 -153 3693 0
-3694 19 0
-3694 64 0
-3694 154 0
-19 -64 -154 3694 0
-3695 20 0
-3695 65 0
-3695 155 0
-20 -65 -155 3695 0
-3696 21 0
-3696 66 0
-3696 156 0
-21 -66 -156 3696 0
-3697 22 0
-3697 67 0
-3697 157 0
-22 -67 -157 3697 0
-3698 23 0
-3698 68 0
-3698 158 0
-23 -68 -158 3698 0
-3699 24 0
-3699 69 0
-3699 159 0
-24 -69 -159 3699 0
-3700 25 0
-3700 70 0
-3700 160 0
-25 -70 -160 3700 0
-3701 26 0
-3701 71 0
-3701 161 0
-26 -71 -161 3701 0
-3702 27 0
-3702 72 0
-3702 162 0
-27 -72 -162 3702 0
-3703 28 0
-3703 73 0
-3703 163 0
-28 -73 -163 3703 0
-3704 29 0
-3704 74 0
-3704 164 0
-29 -74 -164 3704 0
-3705 30 0
-3705 75 0
-3705 165 0
-30 -75 -165 3705 0
-3691 8850 0
-3692 8850 0
-3693 8850 0
-3694 8850 0
-3695 8850 0
-3696 8850 0
-3697 8850 0
-3698 8850 0
-3699 8850 0
-3700 8850 0
-3701 8850 0
-3702 8850 0
-3703 8850 0
-3704 8850 0
-3705 8850 0
-8850 3691 3692 3693 3694 3695 3696 3697 3698 3699 3700 3701 3702 3703 3704 3705 0
-3706 16 0
-3706 61 0
-3706 166 0
-16 -61 -166 3706 0
-3707 17 0
-3707 62 0
-3707 167 0
-17 -62 -167 3707 0
-3708 18 0
-3708 63 0
-3708 168 0
-18 -63 -168 3708 0
-3709 19 0
-3709 64 0
-3709 169 0
-19 -64 -169 3709 0
-3710 20 0
-3710 65 0
-3710 170 0
-20 -65 -170 3710 0
-3711 21 0
-3711 66 0
-3711 171 0
-21 -66 -171 3711 0
-3712 22 0
-3712 67 0
-3712 172 0
-22 -67 -172 3712 0
-3713 23 0
-3713 68 0
-3713 173 0
-23 -68 -173 3713 0
-3714 24 0
-3714 69 0
-3714 174 0
-24 -69 -174 3714 0
-3715 25 0
-3715 70 0
-3715 175 0
-25 -70 -175 3715 0
-3716 26 0
-3716 71 0
-3716 176 0
-26 -71 -176 3716 0
-3717 27 0
-3717 72 0
-3717 177 0
-27 -72 -177 3717 0
-3718 28 0
-3718 73 0
-3718 178 0
-28 -73 -178 3718 0
-3719 29 0
-3719 74 0
-3719 179 0
-29 -74 -179 3719 0
-3720 30 0
-3720 75 0
-3720 180 0
-30 -75 -180 3720 0
-3706 8851 0
-3707 8851 0
-3708 8851 0
-3709 8851 0
-3710 8851 0
-3711 8851 0
-3712 8851 0
-3713 8851 0
-3714 8851 0
-3715 8851 0
-3716 8851 0
-3717 8851 0
-3718 8851 0
-3719 8851 0
-3720 8851 0
-8851 3706 3707 3708 3709 3710 3711 3712 3713 3714 3715 3716 3717 3718 3719 3720 0
-3721 16 0
-3721 61 0
-3721 181 0
-16 -61 -181 3721 0
-3722 17 0
-3722 62 0
-3722 182 0
-17 -62 -182 3722 0
-3723 18 0
-3723 63 0
-3723 183 0
-18 -63 -183 3723 0
-3724 19 0
-3724 64 0
-3724 184 0
-19 -64 -184 3724 0
-3725 20 0
-3725 65 0
-3725 185 0
-20 -65 -185 3725 0
-3726 21 0
-3726 66 0
-3726 186 0
-21 -66 -186 3726 0
-3727 22 0
-3727 67 0
-3727 187 0
-22 -67 -187 3727 0
-3728 23 0
-3728 68 0
-3728 188 0
-23 -68 -188 3728 0
-3729 24 0
-3729 69 0
-3729 189 0
-24 -69 -189 3729 0
-3730 25 0
-3730 70 0
-3730 190 0
-25 -70 -190 3730 0
-3731 26 0
-3731 71 0
-3731 191 0
-26 -71 -191 3731 0
-3732 27 0
-3732 72 0
-3732 192 0
-27 -72 -192 3732 0
-3733 28 0
-3733 73 0
-3733 193 0
-28 -73 -193 3733 0
-3734 29 0
-3734 74 0
-3734 194 0
-29 -74 -194 3734 0
-3735 30 0
-3735 75 0
-3735 195 0
-30 -75 -195 3735 0
-3721 8852 0
-3722 8852 0
-3723 8852 0
-3724 8852 0
-3725 8852 0
-3726 8852 0
-3727 8852 0
-3728 8852 0
-3729 8852 0
-3730 8852 0
-3731 8852 0
-3732 8852 0
-3733 8852 0
-3734 8852 0
-3735 8852 0
-8852 3721 3722 3723 3724 3725 3726 3727 3728 3729 3730 3731 3732 3733 3734 3735 0
-3736 16 0
-3736 61 0
-3736 196 0
-16 -61 -196 3736 0
-3737 17 0
-3737 62 0
-3737 197 0
-17 -62 -197 3737 0
-3738 18 0
-3738 63 0
-3738 198 0
-18 -63 -198 3738 0
-3739 19 0
-3739 64 0
-3739 199 0
-19 -64 -199 3739 0
-3740 20 0
-3740 65 0
-3740 200 0
-20 -65 -200 3740 0
-3741 21 0
-3741 66 0
-3741 201 0
-21 -66 -201 3741 0
-3742 22 0
-3742 67 0
-3742 202 0
-22 -67 -202 3742 0
-3743 23 0
-3743 68 0
-3743 203 0
-23 -68 -203 3743 0
-3744 24 0
-3744 69 0
-3744 204 0
-24 -69 -204 3744 0
-3745 25 0
-3745 70 0
-3745 205 0
-25 -70 -205 3745 0
-3746 26 0
-3746 71 0
-3746 206 0
-26 -71 -206 3746 0
-3747 27 0
-3747 72 0
-3747 207 0
-27 -72 -207 3747 0
-3748 28 0
-3748 73 0
-3748 208 0
-28 -73 -208 3748 0
-3749 29 0
-3749 74 0
-3749 209 0
-29 -74 -209 3749 0
-3750 30 0
-3750 75 0
-3750 210 0
-30 -75 -210 3750 0
-3736 8853 0
-3737 8853 0
-3738 8853 0
-3739 8853 0
-3740 8853 0
-3741 8853 0
-3742 8853 0
-3743 8853 0
-3744 8853 0
-3745 8853 0
-3746 8853 0
-3747 8853 0
-3748 8853 0
-3749 8853 0
-3750 8853 0
-8853 3736 3737 3738 3739 3740 3741 3742 3743 3744 3745 3746 3747 3748 3749 3750 0
-3751 16 0
-3751 61 0
-3751 211 0
-16 -61 -211 3751 0
-3752 17 0
-3752 62 0
-3752 212 0
-17 -62 -212 3752 0
-3753 18 0
-3753 63 0
-3753 213 0
-18 -63 -213 3753 0
-3754 19 0
-3754 64 0
-3754 214 0
-19 -64 -214 3754 0
-3755 20 0
-3755 65 0
-3755 215 0
-20 -65 -215 3755 0
-3756 21 0
-3756 66 0
-3756 216 0
-21 -66 -216 3756 0
-3757 22 0
-3757 67 0
-3757 217 0
-22 -67 -217 3757 0
-3758 23 0
-3758 68 0
-3758 218 0
-23 -68 -218 3758 0
-3759 24 0
-3759 69 0
-3759 219 0
-24 -69 -219 3759 0
-3760 25 0
-3760 70 0
-3760 220 0
-25 -70 -220 3760 0
-3761 26 0
-3761 71 0
-3761 221 0
-26 -71 -221 3761 0
-3762 27 0
-3762 72 0
-3762 222 0
-27 -72 -222 3762 0
-3763 28 0
-3763 73 0
-3763 223 0
-28 -73 -223 3763 0
-3764 29 0
-3764 74 0
-3764 224 0
-29 -74 -224 3764 0
-3765 30 0
-3765 75 0
-3765 225 0
-30 -75 -225 3765 0
-3751 8854 0
-3752 8854 0
-3753 8854 0
-3754 8854 0
-3755 8854 0
-3756 8854 0
-3757 8854 0
-3758 8854 0
-3759 8854 0
-3760 8854 0
-3761 8854 0
-3762 8854 0
-3763 8854 0
-3764 8854 0
-3765 8854 0
-8854 3751 3752 3753 3754 3755 3756 3757 3758 3759 3760 3761 3762 3763 3764 3765 0
-3766 16 0
-3766 76 0
-3766 91 0
-16 -76 -91 3766 0
-3767 17 0
-3767 77 0
-3767 92 0
-17 -77 -92 3767 0
-3768 18 0
-3768 78 0
-3768 93 0
-18 -78 -93 3768 0
-3769 19 0
-3769 79 0
-3769 94 0
-19 -79 -94 3769 0
-3770 20 0
-3770 80 0
-3770 95 0
-20 -80 -95 3770 0
-3771 21 0
-3771 81 0
-3771 96 0
-21 -81 -96 3771 0
-3772 22 0
-3772 82 0
-3772 97 0
-22 -82 -97 3772 0
-3773 23 0
-3773 83 0
-3773 98 0
-23 -83 -98 3773 0
-3774 24 0
-3774 84 0
-3774 99 0
-24 -84 -99 3774 0
-3775 25 0
-3775 85 0
-3775 100 0
-25 -85 -100 3775 0
-3776 26 0
-3776 86 0
-3776 101 0
-26 -86 -101 3776 0
-3777 27 0
-3777 87 0
-3777 102 0
-27 -87 -102 3777 0
-3778 28 0
-3778 88 0
-3778 103 0
-28 -88 -103 3778 0
-3779 29 0
-3779 89 0
-3779 104 0
-29 -89 -104 3779 0
-3780 30 0
-3780 90 0
-3780 105 0
-30 -90 -105 3780 0
-3766 8855 0
-3767 8855 0
-3768 8855 0
-3769 8855 0
-3770 8855 0
-3771 8855 0
-3772 8855 0
-3773 8855 0
-3774 8855 0
-3775 8855 0
-3776 8855 0
-3777 8855 0
-3778 8855 0
-3779 8855 0
-3780 8855 0
-8855 3766 3767 3768 3769 3770 3771 3772 3773 3774 3775 3776 3777 3778 3779 3780 0
-3781 16 0
-3781 76 0
-3781 106 0
-16 -76 -106 3781 0
-3782 17 0
-3782 77 0
-3782 107 0
-17 -77 -107 3782 0
-3783 18 0
-3783 78 0
-3783 108 0
-18 -78 -108 3783 0
-3784 19 0
-3784 79 0
-3784 109 0
-19 -79 -109 3784 0
-3785 20 0
-3785 80 0
-3785 110 0
-20 -80 -110 3785 0
-3786 21 0
-3786 81 0
-3786 111 0
-21 -81 -111 3786 0
-3787 22 0
-3787 82 0
-3787 112 0
-22 -82 -112 3787 0
-3788 23 0
-3788 83 0
-3788 113 0
-23 -83 -113 3788 0
-3789 24 0
-3789 84 0
-3789 114 0
-24 -84 -114 3789 0
-3790 25 0
-3790 85 0
-3790 115 0
-25 -85 -115 3790 0
-3791 26 0
-3791 86 0
-3791 116 0
-26 -86 -116 3791 0
-3792 27 0
-3792 87 0
-3792 117 0
-27 -87 -117 3792 0
-3793 28 0
-3793 88 0
-3793 118 0
-28 -88 -118 3793 0
-3794 29 0
-3794 89 0
-3794 119 0
-29 -89 -119 3794 0
-3795 30 0
-3795 90 0
-3795 120 0
-30 -90 -120 3795 0
-3781 8856 0
-3782 8856 0
-3783 8856 0
-3784 8856 0
-3785 8856 0
-3786 8856 0
-3787 8856 0
-3788 8856 0
-3789 8856 0
-3790 8856 0
-3791 8856 0
-3792 8856 0
-3793 8856 0
-3794 8856 0
-3795 8856 0
-8856 3781 3782 3783 3784 3785 3786 3787 3788 3789 3790 3791 3792 3793 3794 3795 0
-3796 16 0
-3796 76 0
-3796 121 0
-16 -76 -121 3796 0
-3797 17 0
-3797 77 0
-3797 122 0
-17 -77 -122 3797 0
-3798 18 0
-3798 78 0
-3798 123 0
-18 -78 -123 3798 0
-3799 19 0
-3799 79 0
-3799 124 0
-19 -79 -124 3799 0
-3800 20 0
-3800 80 0
-3800 125 0
-20 -80 -125 3800 0
-3801 21 0
-3801 81 0
-3801 126 0
-21 -81 -126 3801 0
-3802 22 0
-3802 82 0
-3802 127 0
-22 -82 -127 3802 0
-3803 23 0
-3803 83 0
-3803 128 0
-23 -83 -128 3803 0
-3804 24 0
-3804 84 0
-3804 129 0
-24 -84 -129 3804 0
-3805 25 0
-3805 85 0
-3805 130 0
-25 -85 -130 3805 0
-3806 26 0
-3806 86 0
-3806 131 0
-26 -86 -131 3806 0
-3807 27 0
-3807 87 0
-3807 132 0
-27 -87 -132 3807 0
-3808 28 0
-3808 88 0
-3808 133 0
-28 -88 -133 3808 0
-3809 29 0
-3809 89 0
-3809 134 0
-29 -89 -134 3809 0
-3810 30 0
-3810 90 0
-3810 135 0
-30 -90 -135 3810 0
-3796 8857 0
-3797 8857 0
-3798 8857 0
-3799 8857 0
-3800 8857 0
-3801 8857 0
-3802 8857 0
-3803 8857 0
-3804 8857 0
-3805 8857 0
-3806 8857 0
-3807 8857 0
-3808 8857 0
-3809 8857 0
-3810 8857 0
-8857 3796 3797 3798 3799 3800 3801 3802 3803 3804 3805 3806 3807 3808 3809 3810 0
-3811 16 0
-3811 76 0
-3811 136 0
-16 -76 -136 3811 0
-3812 17 0
-3812 77 0
-3812 137 0
-17 -77 -137 3812 0
-3813 18 0
-3813 78 0
-3813 138 0
-18 -78 -138 3813 0
-3814 19 0
-3814 79 0
-3814 139 0
-19 -79 -139 3814 0
-3815 20 0
-3815 80 0
-3815 140 0
-20 -80 -140 3815 0
-3816 21 0
-3816 81 0
-3816 141 0
-21 -81 -141 3816 0
-3817 22 0
-3817 82 0
-3817 142 0
-22 -82 -142 3817 0
-3818 23 0
-3818 83 0
-3818 143 0
-23 -83 -143 3818 0
-3819 24 0
-3819 84 0
-3819 144 0
-24 -84 -144 3819 0
-3820 25 0
-3820 85 0
-3820 145 0
-25 -85 -145 3820 0
-3821 26 0
-3821 86 0
-3821 146 0
-26 -86 -146 3821 0
-3822 27 0
-3822 87 0
-3822 147 0
-27 -87 -147 3822 0
-3823 28 0
-3823 88 0
-3823 148 0
-28 -88 -148 3823 0
-3824 29 0
-3824 89 0
-3824 149 0
-29 -89 -149 3824 0
-3825 30 0
-3825 90 0
-3825 150 0
-30 -90 -150 3825 0
-3811 8858 0
-3812 8858 0
-3813 8858 0
-3814 8858 0
-3815 8858 0
-3816 8858 0
-3817 8858 0
-3818 8858 0
-3819 8858 0
-3820 8858 0
-3821 8858 0
-3822 8858 0
-3823 8858 0
-3824 8858 0
-3825 8858 0
-8858 3811 3812 3813 3814 3815 3816 3817 3818 3819 3820 3821 3822 3823 3824 3825 0
-3826 16 0
-3826 76 0
-3826 151 0
-16 -76 -151 3826 0
-3827 17 0
-3827 77 0
-3827 152 0
-17 -77 -152 3827 0
-3828 18 0
-3828 78 0
-3828 153 0
-18 -78 -153 3828 0
-3829 19 0
-3829 79 0
-3829 154 0
-19 -79 -154 3829 0
-3830 20 0
-3830 80 0
-3830 155 0
-20 -80 -155 3830 0
-3831 21 0
-3831 81 0
-3831 156 0
-21 -81 -156 3831 0
-3832 22 0
-3832 82 0
-3832 157 0
-22 -82 -157 3832 0
-3833 23 0
-3833 83 0
-3833 158 0
-23 -83 -158 3833 0
-3834 24 0
-3834 84 0
-3834 159 0
-24 -84 -159 3834 0
-3835 25 0
-3835 85 0
-3835 160 0
-25 -85 -160 3835 0
-3836 26 0
-3836 86 0
-3836 161 0
-26 -86 -161 3836 0
-3837 27 0
-3837 87 0
-3837 162 0
-27 -87 -162 3837 0
-3838 28 0
-3838 88 0
-3838 163 0
-28 -88 -163 3838 0
-3839 29 0
-3839 89 0
-3839 164 0
-29 -89 -164 3839 0
-3840 30 0
-3840 90 0
-3840 165 0
-30 -90 -165 3840 0
-3826 8859 0
-3827 8859 0
-3828 8859 0
-3829 8859 0
-3830 8859 0
-3831 8859 0
-3832 8859 0
-3833 8859 0
-3834 8859 0
-3835 8859 0
-3836 8859 0
-3837 8859 0
-3838 8859 0
-3839 8859 0
-3840 8859 0
-8859 3826 3827 3828 3829 3830 3831 3832 3833 3834 3835 3836 3837 3838 3839 3840 0
-3841 16 0
-3841 76 0
-3841 166 0
-16 -76 -166 3841 0
-3842 17 0
-3842 77 0
-3842 167 0
-17 -77 -167 3842 0
-3843 18 0
-3843 78 0
-3843 168 0
-18 -78 -168 3843 0
-3844 19 0
-3844 79 0
-3844 169 0
-19 -79 -169 3844 0
-3845 20 0
-3845 80 0
-3845 170 0
-20 -80 -170 3845 0
-3846 21 0
-3846 81 0
-3846 171 0
-21 -81 -171 3846 0
-3847 22 0
-3847 82 0
-3847 172 0
-22 -82 -172 3847 0
-3848 23 0
-3848 83 0
-3848 173 0
-23 -83 -173 3848 0
-3849 24 0
-3849 84 0
-3849 174 0
-24 -84 -174 3849 0
-3850 25 0
-3850 85 0
-3850 175 0
-25 -85 -175 3850 0
-3851 26 0
-3851 86 0
-3851 176 0
-26 -86 -176 3851 0
-3852 27 0
-3852 87 0
-3852 177 0
-27 -87 -177 3852 0
-3853 28 0
-3853 88 0
-3853 178 0
-28 -88 -178 3853 0
-3854 29 0
-3854 89 0
-3854 179 0
-29 -89 -179 3854 0
-3855 30 0
-3855 90 0
-3855 180 0
-30 -90 -180 3855 0
-3841 8860 0
-3842 8860 0
-3843 8860 0
-3844 8860 0
-3845 8860 0
-3846 8860 0
-3847 8860 0
-3848 8860 0
-3849 8860 0
-3850 8860 0
-3851 8860 0
-3852 8860 0
-3853 8860 0
-3854 8860 0
-3855 8860 0
-8860 3841 3842 3843 3844 3845 3846 3847 3848 3849 3850 3851 3852 3853 3854 3855 0
-3856 16 0
-3856 76 0
-3856 181 0
-16 -76 -181 3856 0
-3857 17 0
-3857 77 0
-3857 182 0
-17 -77 -182 3857 0
-3858 18 0
-3858 78 0
-3858 183 0
-18 -78 -183 3858 0
-3859 19 0
-3859 79 0
-3859 184 0
-19 -79 -184 3859 0
-3860 20 0
-3860 80 0
-3860 185 0
-20 -80 -185 3860 0
-3861 21 0
-3861 81 0
-3861 186 0
-21 -81 -186 3861 0
-3862 22 0
-3862 82 0
-3862 187 0
-22 -82 -187 3862 0
-3863 23 0
-3863 83 0
-3863 188 0
-23 -83 -188 3863 0
-3864 24 0
-3864 84 0
-3864 189 0
-24 -84 -189 3864 0
-3865 25 0
-3865 85 0
-3865 190 0
-25 -85 -190 3865 0
-3866 26 0
-3866 86 0
-3866 191 0
-26 -86 -191 3866 0
-3867 27 0
-3867 87 0
-3867 192 0
-27 -87 -192 3867 0
-3868 28 0
-3868 88 0
-3868 193 0
-28 -88 -193 3868 0
-3869 29 0
-3869 89 0
-3869 194 0
-29 -89 -194 3869 0
-3870 30 0
-3870 90 0
-3870 195 0
-30 -90 -195 3870 0
-3856 8861 0
-3857 8861 0
-3858 8861 0
-3859 8861 0
-3860 8861 0
-3861 8861 0
-3862 8861 0
-3863 8861 0
-3864 8861 0
-3865 8861 0
-3866 8861 0
-3867 8861 0
-3868 8861 0
-3869 8861 0
-3870 8861 0
-8861 3856 3857 3858 3859 3860 3861 3862 3863 3864 3865 3866 3867 3868 3869 3870 0
-3871 16 0
-3871 76 0
-3871 196 0
-16 -76 -196 3871 0
-3872 17 0
-3872 77 0
-3872 197 0
-17 -77 -197 3872 0
-3873 18 0
-3873 78 0
-3873 198 0
-18 -78 -198 3873 0
-3874 19 0
-3874 79 0
-3874 199 0
-19 -79 -199 3874 0
-3875 20 0
-3875 80 0
-3875 200 0
-20 -80 -200 3875 0
-3876 21 0
-3876 81 0
-3876 201 0
-21 -81 -201 3876 0
-3877 22 0
-3877 82 0
-3877 202 0
-22 -82 -202 3877 0
-3878 23 0
-3878 83 0
-3878 203 0
-23 -83 -203 3878 0
-3879 24 0
-3879 84 0
-3879 204 0
-24 -84 -204 3879 0
-3880 25 0
-3880 85 0
-3880 205 0
-25 -85 -205 3880 0
-3881 26 0
-3881 86 0
-3881 206 0
-26 -86 -206 3881 0
-3882 27 0
-3882 87 0
-3882 207 0
-27 -87 -207 3882 0
-3883 28 0
-3883 88 0
-3883 208 0
-28 -88 -208 3883 0
-3884 29 0
-3884 89 0
-3884 209 0
-29 -89 -209 3884 0
-3885 30 0
-3885 90 0
-3885 210 0
-30 -90 -210 3885 0
-3871 8862 0
-3872 8862 0
-3873 8862 0
-3874 8862 0
-3875 8862 0
-3876 8862 0
-3877 8862 0
-3878 8862 0
-3879 8862 0
-3880 8862 0
-3881 8862 0
-3882 8862 0
-3883 8862 0
-3884 8862 0
-3885 8862 0
-8862 3871 3872 3873 3874 3875 3876 3877 3878 3879 3880 3881 3882 3883 3884 3885 0
-3886 16 0
-3886 76 0
-3886 211 0
-16 -76 -211 3886 0
-3887 17 0
-3887 77 0
-3887 212 0
-17 -77 -212 3887 0
-3888 18 0
-3888 78 0
-3888 213 0
-18 -78 -213 3888 0
-3889 19 0
-3889 79 0
-3889 214 0
-19 -79 -214 3889 0
-3890 20 0
-3890 80 0
-3890 215 0
-20 -80 -215 3890 0
-3891 21 0
-3891 81 0
-3891 216 0
-21 -81 -216 3891 0
-3892 22 0
-3892 82 0
-3892 217 0
-22 -82 -217 3892 0
-3893 23 0
-3893 83 0
-3893 218 0
-23 -83 -218 3893 0
-3894 24 0
-3894 84 0
-3894 219 0
-24 -84 -219 3894 0
-3895 25 0
-3895 85 0
-3895 220 0
-25 -85 -220 3895 0
-3896 26 0
-3896 86 0
-3896 221 0
-26 -86 -221 3896 0
-3897 27 0
-3897 87 0
-3897 222 0
-27 -87 -222 3897 0
-3898 28 0
-3898 88 0
-3898 223 0
-28 -88 -223 3898 0
-3899 29 0
-3899 89 0
-3899 224 0
-29 -89 -224 3899 0
-3900 30 0
-3900 90 0
-3900 225 0
-30 -90 -225 3900 0
-3886 8863 0
-3887 8863 0
-3888 8863 0
-3889 8863 0
-3890 8863 0
-3891 8863 0
-3892 8863 0
-3893 8863 0
-3894 8863 0
-3895 8863 0
-3896 8863 0
-3897 8863 0
-3898 8863 0
-3899 8863 0
-3900 8863 0
-8863 3886 3887 3888 3889 3890 3891 3892 3893 3894 3895 3896 3897 3898 3899 3900 0
-3901 16 0
-3901 91 0
-3901 106 0
-16 -91 -106 3901 0
-3902 17 0
-3902 92 0
-3902 107 0
-17 -92 -107 3902 0
-3903 18 0
-3903 93 0
-3903 108 0
-18 -93 -108 3903 0
-3904 19 0
-3904 94 0
-3904 109 0
-19 -94 -109 3904 0
-3905 20 0
-3905 95 0
-3905 110 0
-20 -95 -110 3905 0
-3906 21 0
-3906 96 0
-3906 111 0
-21 -96 -111 3906 0
-3907 22 0
-3907 97 0
-3907 112 0
-22 -97 -112 3907 0
-3908 23 0
-3908 98 0
-3908 113 0
-23 -98 -113 3908 0
-3909 24 0
-3909 99 0
-3909 114 0
-24 -99 -114 3909 0
-3910 25 0
-3910 100 0
-3910 115 0
-25 -100 -115 3910 0
-3911 26 0
-3911 101 0
-3911 116 0
-26 -101 -116 3911 0
-3912 27 0
-3912 102 0
-3912 117 0
-27 -102 -117 3912 0
-3913 28 0
-3913 103 0
-3913 118 0
-28 -103 -118 3913 0
-3914 29 0
-3914 104 0
-3914 119 0
-29 -104 -119 3914 0
-3915 30 0
-3915 105 0
-3915 120 0
-30 -105 -120 3915 0
-3901 8864 0
-3902 8864 0
-3903 8864 0
-3904 8864 0
-3905 8864 0
-3906 8864 0
-3907 8864 0
-3908 8864 0
-3909 8864 0
-3910 8864 0
-3911 8864 0
-3912 8864 0
-3913 8864 0
-3914 8864 0
-3915 8864 0
-8864 3901 3902 3903 3904 3905 3906 3907 3908 3909 3910 3911 3912 3913 3914 3915 0
-3916 16 0
-3916 91 0
-3916 121 0
-16 -91 -121 3916 0
-3917 17 0
-3917 92 0
-3917 122 0
-17 -92 -122 3917 0
-3918 18 0
-3918 93 0
-3918 123 0
-18 -93 -123 3918 0
-3919 19 0
-3919 94 0
-3919 124 0
-19 -94 -124 3919 0
-3920 20 0
-3920 95 0
-3920 125 0
-20 -95 -125 3920 0
-3921 21 0
-3921 96 0
-3921 126 0
-21 -96 -126 3921 0
-3922 22 0
-3922 97 0
-3922 127 0
-22 -97 -127 3922 0
-3923 23 0
-3923 98 0
-3923 128 0
-23 -98 -128 3923 0
-3924 24 0
-3924 99 0
-3924 129 0
-24 -99 -129 3924 0
-3925 25 0
-3925 100 0
-3925 130 0
-25 -100 -130 3925 0
-3926 26 0
-3926 101 0
-3926 131 0
-26 -101 -131 3926 0
-3927 27 0
-3927 102 0
-3927 132 0
-27 -102 -132 3927 0
-3928 28 0
-3928 103 0
-3928 133 0
-28 -103 -133 3928 0
-3929 29 0
-3929 104 0
-3929 134 0
-29 -104 -134 3929 0
-3930 30 0
-3930 105 0
-3930 135 0
-30 -105 -135 3930 0
-3916 8865 0
-3917 8865 0
-3918 8865 0
-3919 8865 0
-3920 8865 0
-3921 8865 0
-3922 8865 0
-3923 8865 0
-3924 8865 0
-3925 8865 0
-3926 8865 0
-3927 8865 0
-3928 8865 0
-3929 8865 0
-3930 8865 0
-8865 3916 3917 3918 3919 3920 3921 3922 3923 3924 3925 3926 3927 3928 3929 3930 0
-3931 16 0
-3931 91 0
-3931 136 0
-16 -91 -136 3931 0
-3932 17 0
-3932 92 0
-3932 137 0
-17 -92 -137 3932 0
-3933 18 0
-3933 93 0
-3933 138 0
-18 -93 -138 3933 0
-3934 19 0
-3934 94 0
-3934 139 0
-19 -94 -139 3934 0
-3935 20 0
-3935 95 0
-3935 140 0
-20 -95 -140 3935 0
-3936 21 0
-3936 96 0
-3936 141 0
-21 -96 -141 3936 0
-3937 22 0
-3937 97 0
-3937 142 0
-22 -97 -142 3937 0
-3938 23 0
-3938 98 0
-3938 143 0
-23 -98 -143 3938 0
-3939 24 0
-3939 99 0
-3939 144 0
-24 -99 -144 3939 0
-3940 25 0
-3940 100 0
-3940 145 0
-25 -100 -145 3940 0
-3941 26 0
-3941 101 0
-3941 146 0
-26 -101 -146 3941 0
-3942 27 0
-3942 102 0
-3942 147 0
-27 -102 -147 3942 0
-3943 28 0
-3943 103 0
-3943 148 0
-28 -103 -148 3943 0
-3944 29 0
-3944 104 0
-3944 149 0
-29 -104 -149 3944 0
-3945 30 0
-3945 105 0
-3945 150 0
-30 -105 -150 3945 0
-3931 8866 0
-3932 8866 0
-3933 8866 0
-3934 8866 0
-3935 8866 0
-3936 8866 0
-3937 8866 0
-3938 8866 0
-3939 8866 0
-3940 8866 0
-3941 8866 0
-3942 8866 0
-3943 8866 0
-3944 8866 0
-3945 8866 0
-8866 3931 3932 3933 3934 3935 3936 3937 3938 3939 3940 3941 3942 3943 3944 3945 0
-3946 16 0
-3946 91 0
-3946 151 0
-16 -91 -151 3946 0
-3947 17 0
-3947 92 0
-3947 152 0
-17 -92 -152 3947 0
-3948 18 0
-3948 93 0
-3948 153 0
-18 -93 -153 3948 0
-3949 19 0
-3949 94 0
-3949 154 0
-19 -94 -154 3949 0
-3950 20 0
-3950 95 0
-3950 155 0
-20 -95 -155 3950 0
-3951 21 0
-3951 96 0
-3951 156 0
-21 -96 -156 3951 0
-3952 22 0
-3952 97 0
-3952 157 0
-22 -97 -157 3952 0
-3953 23 0
-3953 98 0
-3953 158 0
-23 -98 -158 3953 0
-3954 24 0
-3954 99 0
-3954 159 0
-24 -99 -159 3954 0
-3955 25 0
-3955 100 0
-3955 160 0
-25 -100 -160 3955 0
-3956 26 0
-3956 101 0
-3956 161 0
-26 -101 -161 3956 0
-3957 27 0
-3957 102 0
-3957 162 0
-27 -102 -162 3957 0
-3958 28 0
-3958 103 0
-3958 163 0
-28 -103 -163 3958 0
-3959 29 0
-3959 104 0
-3959 164 0
-29 -104 -164 3959 0
-3960 30 0
-3960 105 0
-3960 165 0
-30 -105 -165 3960 0
-3946 8867 0
-3947 8867 0
-3948 8867 0
-3949 8867 0
-3950 8867 0
-3951 8867 0
-3952 8867 0
-3953 8867 0
-3954 8867 0
-3955 8867 0
-3956 8867 0
-3957 8867 0
-3958 8867 0
-3959 8867 0
-3960 8867 0
-8867 3946 3947 3948 3949 3950 3951 3952 3953 3954 3955 3956 3957 3958 3959 3960 0
-3961 16 0
-3961 91 0
-3961 166 0
-16 -91 -166 3961 0
-3962 17 0
-3962 92 0
-3962 167 0
-17 -92 -167 3962 0
-3963 18 0
-3963 93 0
-3963 168 0
-18 -93 -168 3963 0
-3964 19 0
-3964 94 0
-3964 169 0
-19 -94 -169 3964 0
-3965 20 0
-3965 95 0
-3965 170 0
-20 -95 -170 3965 0
-3966 21 0
-3966 96 0
-3966 171 0
-21 -96 -171 3966 0
-3967 22 0
-3967 97 0
-3967 172 0
-22 -97 -172 3967 0
-3968 23 0
-3968 98 0
-3968 173 0
-23 -98 -173 3968 0
-3969 24 0
-3969 99 0
-3969 174 0
-24 -99 -174 3969 0
-3970 25 0
-3970 100 0
-3970 175 0
-25 -100 -175 3970 0
-3971 26 0
-3971 101 0
-3971 176 0
-26 -101 -176 3971 0
-3972 27 0
-3972 102 0
-3972 177 0
-27 -102 -177 3972 0
-3973 28 0
-3973 103 0
-3973 178 0
-28 -103 -178 3973 0
-3974 29 0
-3974 104 0
-3974 179 0
-29 -104 -179 3974 0
-3975 30 0
-3975 105 0
-3975 180 0
-30 -105 -180 3975 0
-3961 8868 0
-3962 8868 0
-3963 8868 0
-3964 8868 0
-3965 8868 0
-3966 8868 0
-3967 8868 0
-3968 8868 0
-3969 8868 0
-3970 8868 0
-3971 8868 0
-3972 8868 0
-3973 8868 0
-3974 8868 0
-3975 8868 0
-8868 3961 3962 3963 3964 3965 3966 3967 3968 3969 3970 3971 3972 3973 3974 3975 0
-3976 16 0
-3976 91 0
-3976 181 0
-16 -91 -181 3976 0
-3977 17 0
-3977 92 0
-3977 182 0
-17 -92 -182 3977 0
-3978 18 0
-3978 93 0
-3978 183 0
-18 -93 -183 3978 0
-3979 19 0
-3979 94 0
-3979 184 0
-19 -94 -184 3979 0
-3980 20 0
-3980 95 0
-3980 185 0
-20 -95 -185 3980 0
-3981 21 0
-3981 96 0
-3981 186 0
-21 -96 -186 3981 0
-3982 22 0
-3982 97 0
-3982 187 0
-22 -97 -187 3982 0
-3983 23 0
-3983 98 0
-3983 188 0
-23 -98 -188 3983 0
-3984 24 0
-3984 99 0
-3984 189 0
-24 -99 -189 3984 0
-3985 25 0
-3985 100 0
-3985 190 0
-25 -100 -190 3985 0
-3986 26 0
-3986 101 0
-3986 191 0
-26 -101 -191 3986 0
-3987 27 0
-3987 102 0
-3987 192 0
-27 -102 -192 3987 0
-3988 28 0
-3988 103 0
-3988 193 0
-28 -103 -193 3988 0
-3989 29 0
-3989 104 0
-3989 194 0
-29 -104 -194 3989 0
-3990 30 0
-3990 105 0
-3990 195 0
-30 -105 -195 3990 0
-3976 8869 0
-3977 8869 0
-3978 8869 0
-3979 8869 0
-3980 8869 0
-3981 8869 0
-3982 8869 0
-3983 8869 0
-3984 8869 0
-3985 8869 0
-3986 8869 0
-3987 8869 0
-3988 8869 0
-3989 8869 0
-3990 8869 0
-8869 3976 3977 3978 3979 3980 3981 3982 3983 3984 3985 3986 3987 3988 3989 3990 0
-3991 16 0
-3991 91 0
-3991 196 0
-16 -91 -196 3991 0
-3992 17 0
-3992 92 0
-3992 197 0
-17 -92 -197 3992 0
-3993 18 0
-3993 93 0
-3993 198 0
-18 -93 -198 3993 0
-3994 19 0
-3994 94 0
-3994 199 0
-19 -94 -199 3994 0
-3995 20 0
-3995 95 0
-3995 200 0
-20 -95 -200 3995 0
-3996 21 0
-3996 96 0
-3996 201 0
-21 -96 -201 3996 0
-3997 22 0
-3997 97 0
-3997 202 0
-22 -97 -202 3997 0
-3998 23 0
-3998 98 0
-3998 203 0
-23 -98 -203 3998 0
-3999 24 0
-3999 99 0
-3999 204 0
-24 -99 -204 3999 0
-4000 25 0
-4000 100 0
-4000 205 0
-25 -100 -205 4000 0
-4001 26 0
-4001 101 0
-4001 206 0
-26 -101 -206 4001 0
-4002 27 0
-4002 102 0
-4002 207 0
-27 -102 -207 4002 0
-4003 28 0
-4003 103 0
-4003 208 0
-28 -103 -208 4003 0
-4004 29 0
-4004 104 0
-4004 209 0
-29 -104 -209 4004 0
-4005 30 0
-4005 105 0
-4005 210 0
-30 -105 -210 4005 0
-3991 8870 0
-3992 8870 0
-3993 8870 0
-3994 8870 0
-3995 8870 0
-3996 8870 0
-3997 8870 0
-3998 8870 0
-3999 8870 0
-4000 8870 0
-4001 8870 0
-4002 8870 0
-4003 8870 0
-4004 8870 0
-4005 8870 0
-8870 3991 3992 3993 3994 3995 3996 3997 3998 3999 4000 4001 4002 4003 4004 4005 0
-4006 16 0
-4006 91 0
-4006 211 0
-16 -91 -211 4006 0
-4007 17 0
-4007 92 0
-4007 212 0
-17 -92 -212 4007 0
-4008 18 0
-4008 93 0
-4008 213 0
-18 -93 -213 4008 0
-4009 19 0
-4009 94 0
-4009 214 0
-19 -94 -214 4009 0
-4010 20 0
-4010 95 0
-4010 215 0
-20 -95 -215 4010 0
-4011 21 0
-4011 96 0
-4011 216 0
-21 -96 -216 4011 0
-4012 22 0
-4012 97 0
-4012 217 0
-22 -97 -217 4012 0
-4013 23 0
-4013 98 0
-4013 218 0
-23 -98 -218 4013 0
-4014 24 0
-4014 99 0
-4014 219 0
-24 -99 -219 4014 0
-4015 25 0
-4015 100 0
-4015 220 0
-25 -100 -220 4015 0
-4016 26 0
-4016 101 0
-4016 221 0
-26 -101 -221 4016 0
-4017 27 0
-4017 102 0
-4017 222 0
-27 -102 -222 4017 0
-4018 28 0
-4018 103 0
-4018 223 0
-28 -103 -223 4018 0
-4019 29 0
-4019 104 0
-4019 224 0
-29 -104 -224 4019 0
-4020 30 0
-4020 105 0
-4020 225 0
-30 -105 -225 4020 0
-4006 8871 0
-4007 8871 0
-4008 8871 0
-4009 8871 0
-4010 8871 0
-4011 8871 0
-4012 8871 0
-4013 8871 0
-4014 8871 0
-4015 8871 0
-4016 8871 0
-4017 8871 0
-4018 8871 0
-4019 8871 0
-4020 8871 0
-8871 4006 4007 4008 4009 4010 4011 4012 4013 4014 4015 4016 4017 4018 4019 4020 0
-4021 16 0
-4021 106 0
-4021 121 0
-16 -106 -121 4021 0
-4022 17 0
-4022 107 0
-4022 122 0
-17 -107 -122 4022 0
-4023 18 0
-4023 108 0
-4023 123 0
-18 -108 -123 4023 0
-4024 19 0
-4024 109 0
-4024 124 0
-19 -109 -124 4024 0
-4025 20 0
-4025 110 0
-4025 125 0
-20 -110 -125 4025 0
-4026 21 0
-4026 111 0
-4026 126 0
-21 -111 -126 4026 0
-4027 22 0
-4027 112 0
-4027 127 0
-22 -112 -127 4027 0
-4028 23 0
-4028 113 0
-4028 128 0
-23 -113 -128 4028 0
-4029 24 0
-4029 114 0
-4029 129 0
-24 -114 -129 4029 0
-4030 25 0
-4030 115 0
-4030 130 0
-25 -115 -130 4030 0
-4031 26 0
-4031 116 0
-4031 131 0
-26 -116 -131 4031 0
-4032 27 0
-4032 117 0
-4032 132 0
-27 -117 -132 4032 0
-4033 28 0
-4033 118 0
-4033 133 0
-28 -118 -133 4033 0
-4034 29 0
-4034 119 0
-4034 134 0
-29 -119 -134 4034 0
-4035 30 0
-4035 120 0
-4035 135 0
-30 -120 -135 4035 0
-4021 8872 0
-4022 8872 0
-4023 8872 0
-4024 8872 0
-4025 8872 0
-4026 8872 0
-4027 8872 0
-4028 8872 0
-4029 8872 0
-4030 8872 0
-4031 8872 0
-4032 8872 0
-4033 8872 0
-4034 8872 0
-4035 8872 0
-8872 4021 4022 4023 4024 4025 4026 4027 4028 4029 4030 4031 4032 4033 4034 4035 0
-4036 16 0
-4036 106 0
-4036 136 0
-16 -106 -136 4036 0
-4037 17 0
-4037 107 0
-4037 137 0
-17 -107 -137 4037 0
-4038 18 0
-4038 108 0
-4038 138 0
-18 -108 -138 4038 0
-4039 19 0
-4039 109 0
-4039 139 0
-19 -109 -139 4039 0
-4040 20 0
-4040 110 0
-4040 140 0
-20 -110 -140 4040 0
-4041 21 0
-4041 111 0
-4041 141 0
-21 -111 -141 4041 0
-4042 22 0
-4042 112 0
-4042 142 0
-22 -112 -142 4042 0
-4043 23 0
-4043 113 0
-4043 143 0
-23 -113 -143 4043 0
-4044 24 0
-4044 114 0
-4044 144 0
-24 -114 -144 4044 0
-4045 25 0
-4045 115 0
-4045 145 0
-25 -115 -145 4045 0
-4046 26 0
-4046 116 0
-4046 146 0
-26 -116 -146 4046 0
-4047 27 0
-4047 117 0
-4047 147 0
-27 -117 -147 4047 0
-4048 28 0
-4048 118 0
-4048 148 0
-28 -118 -148 4048 0
-4049 29 0
-4049 119 0
-4049 149 0
-29 -119 -149 4049 0
-4050 30 0
-4050 120 0
-4050 150 0
-30 -120 -150 4050 0
-4036 8873 0
-4037 8873 0
-4038 8873 0
-4039 8873 0
-4040 8873 0
-4041 8873 0
-4042 8873 0
-4043 8873 0
-4044 8873 0
-4045 8873 0
-4046 8873 0
-4047 8873 0
-4048 8873 0
-4049 8873 0
-4050 8873 0
-8873 4036 4037 4038 4039 4040 4041 4042 4043 4044 4045 4046 4047 4048 4049 4050 0
-4051 16 0
-4051 106 0
-4051 151 0
-16 -106 -151 4051 0
-4052 17 0
-4052 107 0
-4052 152 0
-17 -107 -152 4052 0
-4053 18 0
-4053 108 0
-4053 153 0
-18 -108 -153 4053 0
-4054 19 0
-4054 109 0
-4054 154 0
-19 -109 -154 4054 0
-4055 20 0
-4055 110 0
-4055 155 0
-20 -110 -155 4055 0
-4056 21 0
-4056 111 0
-4056 156 0
-21 -111 -156 4056 0
-4057 22 0
-4057 112 0
-4057 157 0
-22 -112 -157 4057 0
-4058 23 0
-4058 113 0
-4058 158 0
-23 -113 -158 4058 0
-4059 24 0
-4059 114 0
-4059 159 0
-24 -114 -159 4059 0
-4060 25 0
-4060 115 0
-4060 160 0
-25 -115 -160 4060 0
-4061 26 0
-4061 116 0
-4061 161 0
-26 -116 -161 4061 0
-4062 27 0
-4062 117 0
-4062 162 0
-27 -117 -162 4062 0
-4063 28 0
-4063 118 0
-4063 163 0
-28 -118 -163 4063 0
-4064 29 0
-4064 119 0
-4064 164 0
-29 -119 -164 4064 0
-4065 30 0
-4065 120 0
-4065 165 0
-30 -120 -165 4065 0
-4051 8874 0
-4052 8874 0
-4053 8874 0
-4054 8874 0
-4055 8874 0
-4056 8874 0
-4057 8874 0
-4058 8874 0
-4059 8874 0
-4060 8874 0
-4061 8874 0
-4062 8874 0
-4063 8874 0
-4064 8874 0
-4065 8874 0
-8874 4051 4052 4053 4054 4055 4056 4057 4058 4059 4060 4061 4062 4063 4064 4065 0
-4066 16 0
-4066 106 0
-4066 166 0
-16 -106 -166 4066 0
-4067 17 0
-4067 107 0
-4067 167 0
-17 -107 -167 4067 0
-4068 18 0
-4068 108 0
-4068 168 0
-18 -108 -168 4068 0
-4069 19 0
-4069 109 0
-4069 169 0
-19 -109 -169 4069 0
-4070 20 0
-4070 110 0
-4070 170 0
-20 -110 -170 4070 0
-4071 21 0
-4071 111 0
-4071 171 0
-21 -111 -171 4071 0
-4072 22 0
-4072 112 0
-4072 172 0
-22 -112 -172 4072 0
-4073 23 0
-4073 113 0
-4073 173 0
-23 -113 -173 4073 0
-4074 24 0
-4074 114 0
-4074 174 0
-24 -114 -174 4074 0
-4075 25 0
-4075 115 0
-4075 175 0
-25 -115 -175 4075 0
-4076 26 0
-4076 116 0
-4076 176 0
-26 -116 -176 4076 0
-4077 27 0
-4077 117 0
-4077 177 0
-27 -117 -177 4077 0
-4078 28 0
-4078 118 0
-4078 178 0
-28 -118 -178 4078 0
-4079 29 0
-4079 119 0
-4079 179 0
-29 -119 -179 4079 0
-4080 30 0
-4080 120 0
-4080 180 0
-30 -120 -180 4080 0
-4066 8875 0
-4067 8875 0
-4068 8875 0
-4069 8875 0
-4070 8875 0
-4071 8875 0
-4072 8875 0
-4073 8875 0
-4074 8875 0
-4075 8875 0
-4076 8875 0
-4077 8875 0
-4078 8875 0
-4079 8875 0
-4080 8875 0
-8875 4066 4067 4068 4069 4070 4071 4072 4073 4074 4075 4076 4077 4078 4079 4080 0
-4081 16 0
-4081 106 0
-4081 181 0
-16 -106 -181 4081 0
-4082 17 0
-4082 107 0
-4082 182 0
-17 -107 -182 4082 0
-4083 18 0
-4083 108 0
-4083 183 0
-18 -108 -183 4083 0
-4084 19 0
-4084 109 0
-4084 184 0
-19 -109 -184 4084 0
-4085 20 0
-4085 110 0
-4085 185 0
-20 -110 -185 4085 0
-4086 21 0
-4086 111 0
-4086 186 0
-21 -111 -186 4086 0
-4087 22 0
-4087 112 0
-4087 187 0
-22 -112 -187 4087 0
-4088 23 0
-4088 113 0
-4088 188 0
-23 -113 -188 4088 0
-4089 24 0
-4089 114 0
-4089 189 0
-24 -114 -189 4089 0
-4090 25 0
-4090 115 0
-4090 190 0
-25 -115 -190 4090 0
-4091 26 0
-4091 116 0
-4091 191 0
-26 -116 -191 4091 0
-4092 27 0
-4092 117 0
-4092 192 0
-27 -117 -192 4092 0
-4093 28 0
-4093 118 0
-4093 193 0
-28 -118 -193 4093 0
-4094 29 0
-4094 119 0
-4094 194 0
-29 -119 -194 4094 0
-4095 30 0
-4095 120 0
-4095 195 0
-30 -120 -195 4095 0
-4081 8876 0
-4082 8876 0
-4083 8876 0
-4084 8876 0
-4085 8876 0
-4086 8876 0
-4087 8876 0
-4088 8876 0
-4089 8876 0
-4090 8876 0
-4091 8876 0
-4092 8876 0
-4093 8876 0
-4094 8876 0
-4095 8876 0
-8876 4081 4082 4083 4084 4085 4086 4087 4088 4089 4090 4091 4092 4093 4094 4095 0
-4096 16 0
-4096 106 0
-4096 196 0
-16 -106 -196 4096 0
-4097 17 0
-4097 107 0
-4097 197 0
-17 -107 -197 4097 0
-4098 18 0
-4098 108 0
-4098 198 0
-18 -108 -198 4098 0
-4099 19 0
-4099 109 0
-4099 199 0
-19 -109 -199 4099 0
-4100 20 0
-4100 110 0
-4100 200 0
-20 -110 -200 4100 0
-4101 21 0
-4101 111 0
-4101 201 0
-21 -111 -201 4101 0
-4102 22 0
-4102 112 0
-4102 202 0
-22 -112 -202 4102 0
-4103 23 0
-4103 113 0
-4103 203 0
-23 -113 -203 4103 0
-4104 24 0
-4104 114 0
-4104 204 0
-24 -114 -204 4104 0
-4105 25 0
-4105 115 0
-4105 205 0
-25 -115 -205 4105 0
-4106 26 0
-4106 116 0
-4106 206 0
-26 -116 -206 4106 0
-4107 27 0
-4107 117 0
-4107 207 0
-27 -117 -207 4107 0
-4108 28 0
-4108 118 0
-4108 208 0
-28 -118 -208 4108 0
-4109 29 0
-4109 119 0
-4109 209 0
-29 -119 -209 4109 0
-4110 30 0
-4110 120 0
-4110 210 0
-30 -120 -210 4110 0
-4096 8877 0
-4097 8877 0
-4098 8877 0
-4099 8877 0
-4100 8877 0
-4101 8877 0
-4102 8877 0
-4103 8877 0
-4104 8877 0
-4105 8877 0
-4106 8877 0
-4107 8877 0
-4108 8877 0
-4109 8877 0
-4110 8877 0
-8877 4096 4097 4098 4099 4100 4101 4102 4103 4104 4105 4106 4107 4108 4109 4110 0
-4111 16 0
-4111 106 0
-4111 211 0
-16 -106 -211 4111 0
-4112 17 0
-4112 107 0
-4112 212 0
-17 -107 -212 4112 0
-4113 18 0
-4113 108 0
-4113 213 0
-18 -108 -213 4113 0
-4114 19 0
-4114 109 0
-4114 214 0
-19 -109 -214 4114 0
-4115 20 0
-4115 110 0
-4115 215 0
-20 -110 -215 4115 0
-4116 21 0
-4116 111 0
-4116 216 0
-21 -111 -216 4116 0
-4117 22 0
-4117 112 0
-4117 217 0
-22 -112 -217 4117 0
-4118 23 0
-4118 113 0
-4118 218 0
-23 -113 -218 4118 0
-4119 24 0
-4119 114 0
-4119 219 0
-24 -114 -219 4119 0
-4120 25 0
-4120 115 0
-4120 220 0
-25 -115 -220 4120 0
-4121 26 0
-4121 116 0
-4121 221 0
-26 -116 -221 4121 0
-4122 27 0
-4122 117 0
-4122 222 0
-27 -117 -222 4122 0
-4123 28 0
-4123 118 0
-4123 223 0
-28 -118 -223 4123 0
-4124 29 0
-4124 119 0
-4124 224 0
-29 -119 -224 4124 0
-4125 30 0
-4125 120 0
-4125 225 0
-30 -120 -225 4125 0
-4111 8878 0
-4112 8878 0
-4113 8878 0
-4114 8878 0
-4115 8878 0
-4116 8878 0
-4117 8878 0
-4118 8878 0
-4119 8878 0
-4120 8878 0
-4121 8878 0
-4122 8878 0
-4123 8878 0
-4124 8878 0
-4125 8878 0
-8878 4111 4112 4113 4114 4115 4116 4117 4118 4119 4120 4121 4122 4123 4124 4125 0
-4126 16 0
-4126 121 0
-4126 136 0
-16 -121 -136 4126 0
-4127 17 0
-4127 122 0
-4127 137 0
-17 -122 -137 4127 0
-4128 18 0
-4128 123 0
-4128 138 0
-18 -123 -138 4128 0
-4129 19 0
-4129 124 0
-4129 139 0
-19 -124 -139 4129 0
-4130 20 0
-4130 125 0
-4130 140 0
-20 -125 -140 4130 0
-4131 21 0
-4131 126 0
-4131 141 0
-21 -126 -141 4131 0
-4132 22 0
-4132 127 0
-4132 142 0
-22 -127 -142 4132 0
-4133 23 0
-4133 128 0
-4133 143 0
-23 -128 -143 4133 0
-4134 24 0
-4134 129 0
-4134 144 0
-24 -129 -144 4134 0
-4135 25 0
-4135 130 0
-4135 145 0
-25 -130 -145 4135 0
-4136 26 0
-4136 131 0
-4136 146 0
-26 -131 -146 4136 0
-4137 27 0
-4137 132 0
-4137 147 0
-27 -132 -147 4137 0
-4138 28 0
-4138 133 0
-4138 148 0
-28 -133 -148 4138 0
-4139 29 0
-4139 134 0
-4139 149 0
-29 -134 -149 4139 0
-4140 30 0
-4140 135 0
-4140 150 0
-30 -135 -150 4140 0
-4126 8879 0
-4127 8879 0
-4128 8879 0
-4129 8879 0
-4130 8879 0
-4131 8879 0
-4132 8879 0
-4133 8879 0
-4134 8879 0
-4135 8879 0
-4136 8879 0
-4137 8879 0
-4138 8879 0
-4139 8879 0
-4140 8879 0
-8879 4126 4127 4128 4129 4130 4131 4132 4133 4134 4135 4136 4137 4138 4139 4140 0
-4141 16 0
-4141 121 0
-4141 151 0
-16 -121 -151 4141 0
-4142 17 0
-4142 122 0
-4142 152 0
-17 -122 -152 4142 0
-4143 18 0
-4143 123 0
-4143 153 0
-18 -123 -153 4143 0
-4144 19 0
-4144 124 0
-4144 154 0
-19 -124 -154 4144 0
-4145 20 0
-4145 125 0
-4145 155 0
-20 -125 -155 4145 0
-4146 21 0
-4146 126 0
-4146 156 0
-21 -126 -156 4146 0
-4147 22 0
-4147 127 0
-4147 157 0
-22 -127 -157 4147 0
-4148 23 0
-4148 128 0
-4148 158 0
-23 -128 -158 4148 0
-4149 24 0
-4149 129 0
-4149 159 0
-24 -129 -159 4149 0
-4150 25 0
-4150 130 0
-4150 160 0
-25 -130 -160 4150 0
-4151 26 0
-4151 131 0
-4151 161 0
-26 -131 -161 4151 0
-4152 27 0
-4152 132 0
-4152 162 0
-27 -132 -162 4152 0
-4153 28 0
-4153 133 0
-4153 163 0
-28 -133 -163 4153 0
-4154 29 0
-4154 134 0
-4154 164 0
-29 -134 -164 4154 0
-4155 30 0
-4155 135 0
-4155 165 0
-30 -135 -165 4155 0
-4141 8880 0
-4142 8880 0
-4143 8880 0
-4144 8880 0
-4145 8880 0
-4146 8880 0
-4147 8880 0
-4148 8880 0
-4149 8880 0
-4150 8880 0
-4151 8880 0
-4152 8880 0
-4153 8880 0
-4154 8880 0
-4155 8880 0
-8880 4141 4142 4143 4144 4145 4146 4147 4148 4149 4150 4151 4152 4153 4154 4155 0
-4156 16 0
-4156 121 0
-4156 166 0
-16 -121 -166 4156 0
-4157 17 0
-4157 122 0
-4157 167 0
-17 -122 -167 4157 0
-4158 18 0
-4158 123 0
-4158 168 0
-18 -123 -168 4158 0
-4159 19 0
-4159 124 0
-4159 169 0
-19 -124 -169 4159 0
-4160 20 0
-4160 125 0
-4160 170 0
-20 -125 -170 4160 0
-4161 21 0
-4161 126 0
-4161 171 0
-21 -126 -171 4161 0
-4162 22 0
-4162 127 0
-4162 172 0
-22 -127 -172 4162 0
-4163 23 0
-4163 128 0
-4163 173 0
-23 -128 -173 4163 0
-4164 24 0
-4164 129 0
-4164 174 0
-24 -129 -174 4164 0
-4165 25 0
-4165 130 0
-4165 175 0
-25 -130 -175 4165 0
-4166 26 0
-4166 131 0
-4166 176 0
-26 -131 -176 4166 0
-4167 27 0
-4167 132 0
-4167 177 0
-27 -132 -177 4167 0
-4168 28 0
-4168 133 0
-4168 178 0
-28 -133 -178 4168 0
-4169 29 0
-4169 134 0
-4169 179 0
-29 -134 -179 4169 0
-4170 30 0
-4170 135 0
-4170 180 0
-30 -135 -180 4170 0
-4156 8881 0
-4157 8881 0
-4158 8881 0
-4159 8881 0
-4160 8881 0
-4161 8881 0
-4162 8881 0
-4163 8881 0
-4164 8881 0
-4165 8881 0
-4166 8881 0
-4167 8881 0
-4168 8881 0
-4169 8881 0
-4170 8881 0
-8881 4156 4157 4158 4159 4160 4161 4162 4163 4164 4165 4166 4167 4168 4169 4170 0
-4171 16 0
-4171 121 0
-4171 181 0
-16 -121 -181 4171 0
-4172 17 0
-4172 122 0
-4172 182 0
-17 -122 -182 4172 0
-4173 18 0
-4173 123 0
-4173 183 0
-18 -123 -183 4173 0
-4174 19 0
-4174 124 0
-4174 184 0
-19 -124 -184 4174 0
-4175 20 0
-4175 125 0
-4175 185 0
-20 -125 -185 4175 0
-4176 21 0
-4176 126 0
-4176 186 0
-21 -126 -186 4176 0
-4177 22 0
-4177 127 0
-4177 187 0
-22 -127 -187 4177 0
-4178 23 0
-4178 128 0
-4178 188 0
-23 -128 -188 4178 0
-4179 24 0
-4179 129 0
-4179 189 0
-24 -129 -189 4179 0
-4180 25 0
-4180 130 0
-4180 190 0
-25 -130 -190 4180 0
-4181 26 0
-4181 131 0
-4181 191 0
-26 -131 -191 4181 0
-4182 27 0
-4182 132 0
-4182 192 0
-27 -132 -192 4182 0
-4183 28 0
-4183 133 0
-4183 193 0
-28 -133 -193 4183 0
-4184 29 0
-4184 134 0
-4184 194 0
-29 -134 -194 4184 0
-4185 30 0
-4185 135 0
-4185 195 0
-30 -135 -195 4185 0
-4171 8882 0
-4172 8882 0
-4173 8882 0
-4174 8882 0
-4175 8882 0
-4176 8882 0
-4177 8882 0
-4178 8882 0
-4179 8882 0
-4180 8882 0
-4181 8882 0
-4182 8882 0
-4183 8882 0
-4184 8882 0
-4185 8882 0
-8882 4171 4172 4173 4174 4175 4176 4177 4178 4179 4180 4181 4182 4183 4184 4185 0
-4186 16 0
-4186 121 0
-4186 196 0
-16 -121 -196 4186 0
-4187 17 0
-4187 122 0
-4187 197 0
-17 -122 -197 4187 0
-4188 18 0
-4188 123 0
-4188 198 0
-18 -123 -198 4188 0
-4189 19 0
-4189 124 0
-4189 199 0
-19 -124 -199 4189 0
-4190 20 0
-4190 125 0
-4190 200 0
-20 -125 -200 4190 0
-4191 21 0
-4191 126 0
-4191 201 0
-21 -126 -201 4191 0
-4192 22 0
-4192 127 0
-4192 202 0
-22 -127 -202 4192 0
-4193 23 0
-4193 128 0
-4193 203 0
-23 -128 -203 4193 0
-4194 24 0
-4194 129 0
-4194 204 0
-24 -129 -204 4194 0
-4195 25 0
-4195 130 0
-4195 205 0
-25 -130 -205 4195 0
-4196 26 0
-4196 131 0
-4196 206 0
-26 -131 -206 4196 0
-4197 27 0
-4197 132 0
-4197 207 0
-27 -132 -207 4197 0
-4198 28 0
-4198 133 0
-4198 208 0
-28 -133 -208 4198 0
-4199 29 0
-4199 134 0
-4199 209 0
-29 -134 -209 4199 0
-4200 30 0
-4200 135 0
-4200 210 0
-30 -135 -210 4200 0
-4186 8883 0
-4187 8883 0
-4188 8883 0
-4189 8883 0
-4190 8883 0
-4191 8883 0
-4192 8883 0
-4193 8883 0
-4194 8883 0
-4195 8883 0
-4196 8883 0
-4197 8883 0
-4198 8883 0
-4199 8883 0
-4200 8883 0
-8883 4186 4187 4188 4189 4190 4191 4192 4193 4194 4195 4196 4197 4198 4199 4200 0
-4201 16 0
-4201 121 0
-4201 211 0
-16 -121 -211 4201 0
-4202 17 0
-4202 122 0
-4202 212 0
-17 -122 -212 4202 0
-4203 18 0
-4203 123 0
-4203 213 0
-18 -123 -213 4203 0
-4204 19 0
-4204 124 0
-4204 214 0
-19 -124 -214 4204 0
-4205 20 0
-4205 125 0
-4205 215 0
-20 -125 -215 4205 0
-4206 21 0
-4206 126 0
-4206 216 0
-21 -126 -216 4206 0
-4207 22 0
-4207 127 0
-4207 217 0
-22 -127 -217 4207 0
-4208 23 0
-4208 128 0
-4208 218 0
-23 -128 -218 4208 0
-4209 24 0
-4209 129 0
-4209 219 0
-24 -129 -219 4209 0
-4210 25 0
-4210 130 0
-4210 220 0
-25 -130 -220 4210 0
-4211 26 0
-4211 131 0
-4211 221 0
-26 -131 -221 4211 0
-4212 27 0
-4212 132 0
-4212 222 0
-27 -132 -222 4212 0
-4213 28 0
-4213 133 0
-4213 223 0
-28 -133 -223 4213 0
-4214 29 0
-4214 134 0
-4214 224 0
-29 -134 -224 4214 0
-4215 30 0
-4215 135 0
-4215 225 0
-30 -135 -225 4215 0
-4201 8884 0
-4202 8884 0
-4203 8884 0
-4204 8884 0
-4205 8884 0
-4206 8884 0
-4207 8884 0
-4208 8884 0
-4209 8884 0
-4210 8884 0
-4211 8884 0
-4212 8884 0
-4213 8884 0
-4214 8884 0
-4215 8884 0
-8884 4201 4202 4203 4204 4205 4206 4207 4208 4209 4210 4211 4212 4213 4214 4215 0
-4216 16 0
-4216 136 0
-4216 151 0
-16 -136 -151 4216 0
-4217 17 0
-4217 137 0
-4217 152 0
-17 -137 -152 4217 0
-4218 18 0
-4218 138 0
-4218 153 0
-18 -138 -153 4218 0
-4219 19 0
-4219 139 0
-4219 154 0
-19 -139 -154 4219 0
-4220 20 0
-4220 140 0
-4220 155 0
-20 -140 -155 4220 0
-4221 21 0
-4221 141 0
-4221 156 0
-21 -141 -156 4221 0
-4222 22 0
-4222 142 0
-4222 157 0
-22 -142 -157 4222 0
-4223 23 0
-4223 143 0
-4223 158 0
-23 -143 -158 4223 0
-4224 24 0
-4224 144 0
-4224 159 0
-24 -144 -159 4224 0
-4225 25 0
-4225 145 0
-4225 160 0
-25 -145 -160 4225 0
-4226 26 0
-4226 146 0
-4226 161 0
-26 -146 -161 4226 0
-4227 27 0
-4227 147 0
-4227 162 0
-27 -147 -162 4227 0
-4228 28 0
-4228 148 0
-4228 163 0
-28 -148 -163 4228 0
-4229 29 0
-4229 149 0
-4229 164 0
-29 -149 -164 4229 0
-4230 30 0
-4230 150 0
-4230 165 0
-30 -150 -165 4230 0
-4216 8885 0
-4217 8885 0
-4218 8885 0
-4219 8885 0
-4220 8885 0
-4221 8885 0
-4222 8885 0
-4223 8885 0
-4224 8885 0
-4225 8885 0
-4226 8885 0
-4227 8885 0
-4228 8885 0
-4229 8885 0
-4230 8885 0
-8885 4216 4217 4218 4219 4220 4221 4222 4223 4224 4225 4226 4227 4228 4229 4230 0
-4231 16 0
-4231 136 0
-4231 166 0
-16 -136 -166 4231 0
-4232 17 0
-4232 137 0
-4232 167 0
-17 -137 -167 4232 0
-4233 18 0
-4233 138 0
-4233 168 0
-18 -138 -168 4233 0
-4234 19 0
-4234 139 0
-4234 169 0
-19 -139 -169 4234 0
-4235 20 0
-4235 140 0
-4235 170 0
-20 -140 -170 4235 0
-4236 21 0
-4236 141 0
-4236 171 0
-21 -141 -171 4236 0
-4237 22 0
-4237 142 0
-4237 172 0
-22 -142 -172 4237 0
-4238 23 0
-4238 143 0
-4238 173 0
-23 -143 -173 4238 0
-4239 24 0
-4239 144 0
-4239 174 0
-24 -144 -174 4239 0
-4240 25 0
-4240 145 0
-4240 175 0
-25 -145 -175 4240 0
-4241 26 0
-4241 146 0
-4241 176 0
-26 -146 -176 4241 0
-4242 27 0
-4242 147 0
-4242 177 0
-27 -147 -177 4242 0
-4243 28 0
-4243 148 0
-4243 178 0
-28 -148 -178 4243 0
-4244 29 0
-4244 149 0
-4244 179 0
-29 -149 -179 4244 0
-4245 30 0
-4245 150 0
-4245 180 0
-30 -150 -180 4245 0
-4231 8886 0
-4232 8886 0
-4233 8886 0
-4234 8886 0
-4235 8886 0
-4236 8886 0
-4237 8886 0
-4238 8886 0
-4239 8886 0
-4240 8886 0
-4241 8886 0
-4242 8886 0
-4243 8886 0
-4244 8886 0
-4245 8886 0
-8886 4231 4232 4233 4234 4235 4236 4237 4238 4239 4240 4241 4242 4243 4244 4245 0
-4246 16 0
-4246 136 0
-4246 181 0
-16 -136 -181 4246 0
-4247 17 0
-4247 137 0
-4247 182 0
-17 -137 -182 4247 0
-4248 18 0
-4248 138 0
-4248 183 0
-18 -138 -183 4248 0
-4249 19 0
-4249 139 0
-4249 184 0
-19 -139 -184 4249 0
-4250 20 0
-4250 140 0
-4250 185 0
-20 -140 -185 4250 0
-4251 21 0
-4251 141 0
-4251 186 0
-21 -141 -186 4251 0
-4252 22 0
-4252 142 0
-4252 187 0
-22 -142 -187 4252 0
-4253 23 0
-4253 143 0
-4253 188 0
-23 -143 -188 4253 0
-4254 24 0
-4254 144 0
-4254 189 0
-24 -144 -189 4254 0
-4255 25 0
-4255 145 0
-4255 190 0
-25 -145 -190 4255 0
-4256 26 0
-4256 146 0
-4256 191 0
-26 -146 -191 4256 0
-4257 27 0
-4257 147 0
-4257 192 0
-27 -147 -192 4257 0
-4258 28 0
-4258 148 0
-4258 193 0
-28 -148 -193 4258 0
-4259 29 0
-4259 149 0
-4259 194 0
-29 -149 -194 4259 0
-4260 30 0
-4260 150 0
-4260 195 0
-30 -150 -195 4260 0
-4246 8887 0
-4247 8887 0
-4248 8887 0
-4249 8887 0
-4250 8887 0
-4251 8887 0
-4252 8887 0
-4253 8887 0
-4254 8887 0
-4255 8887 0
-4256 8887 0
-4257 8887 0
-4258 8887 0
-4259 8887 0
-4260 8887 0
-8887 4246 4247 4248 4249 4250 4251 4252 4253 4254 4255 4256 4257 4258 4259 4260 0
-4261 16 0
-4261 136 0
-4261 196 0
-16 -136 -196 4261 0
-4262 17 0
-4262 137 0
-4262 197 0
-17 -137 -197 4262 0
-4263 18 0
-4263 138 0
-4263 198 0
-18 -138 -198 4263 0
-4264 19 0
-4264 139 0
-4264 199 0
-19 -139 -199 4264 0
-4265 20 0
-4265 140 0
-4265 200 0
-20 -140 -200 4265 0
-4266 21 0
-4266 141 0
-4266 201 0
-21 -141 -201 4266 0
-4267 22 0
-4267 142 0
-4267 202 0
-22 -142 -202 4267 0
-4268 23 0
-4268 143 0
-4268 203 0
-23 -143 -203 4268 0
-4269 24 0
-4269 144 0
-4269 204 0
-24 -144 -204 4269 0
-4270 25 0
-4270 145 0
-4270 205 0
-25 -145 -205 4270 0
-4271 26 0
-4271 146 0
-4271 206 0
-26 -146 -206 4271 0
-4272 27 0
-4272 147 0
-4272 207 0
-27 -147 -207 4272 0
-4273 28 0
-4273 148 0
-4273 208 0
-28 -148 -208 4273 0
-4274 29 0
-4274 149 0
-4274 209 0
-29 -149 -209 4274 0
-4275 30 0
-4275 150 0
-4275 210 0
-30 -150 -210 4275 0
-4261 8888 0
-4262 8888 0
-4263 8888 0
-4264 8888 0
-4265 8888 0
-4266 8888 0
-4267 8888 0
-4268 8888 0
-4269 8888 0
-4270 8888 0
-4271 8888 0
-4272 8888 0
-4273 8888 0
-4274 8888 0
-4275 8888 0
-8888 4261 4262 4263 4264 4265 4266 4267 4268 4269 4270 4271 4272 4273 4274 4275 0
-4276 16 0
-4276 136 0
-4276 211 0
-16 -136 -211 4276 0
-4277 17 0
-4277 137 0
-4277 212 0
-17 -137 -212 4277 0
-4278 18 0
-4278 138 0
-4278 213 0
-18 -138 -213 4278 0
-4279 19 0
-4279 139 0
-4279 214 0
-19 -139 -214 4279 0
-4280 20 0
-4280 140 0
-4280 215 0
-20 -140 -215 4280 0
-4281 21 0
-4281 141 0
-4281 216 0
-21 -141 -216 4281 0
-4282 22 0
-4282 142 0
-4282 217 0
-22 -142 -217 4282 0
-4283 23 0
-4283 143 0
-4283 218 0
-23 -143 -218 4283 0
-4284 24 0
-4284 144 0
-4284 219 0
-24 -144 -219 4284 0
-4285 25 0
-4285 145 0
-4285 220 0
-25 -145 -220 4285 0
-4286 26 0
-4286 146 0
-4286 221 0
-26 -146 -221 4286 0
-4287 27 0
-4287 147 0
-4287 222 0
-27 -147 -222 4287 0
-4288 28 0
-4288 148 0
-4288 223 0
-28 -148 -223 4288 0
-4289 29 0
-4289 149 0
-4289 224 0
-29 -149 -224 4289 0
-4290 30 0
-4290 150 0
-4290 225 0
-30 -150 -225 4290 0
-4276 8889 0
-4277 8889 0
-4278 8889 0
-4279 8889 0
-4280 8889 0
-4281 8889 0
-4282 8889 0
-4283 8889 0
-4284 8889 0
-4285 8889 0
-4286 8889 0
-4287 8889 0
-4288 8889 0
-4289 8889 0
-4290 8889 0
-8889 4276 4277 4278 4279 4280 4281 4282 4283 4284 4285 4286 4287 4288 4289 4290 0
-4291 16 0
-4291 151 0
-4291 166 0
-16 -151 -166 4291 0
-4292 17 0
-4292 152 0
-4292 167 0
-17 -152 -167 4292 0
-4293 18 0
-4293 153 0
-4293 168 0
-18 -153 -168 4293 0
-4294 19 0
-4294 154 0
-4294 169 0
-19 -154 -169 4294 0
-4295 20 0
-4295 155 0
-4295 170 0
-20 -155 -170 4295 0
-4296 21 0
-4296 156 0
-4296 171 0
-21 -156 -171 4296 0
-4297 22 0
-4297 157 0
-4297 172 0
-22 -157 -172 4297 0
-4298 23 0
-4298 158 0
-4298 173 0
-23 -158 -173 4298 0
-4299 24 0
-4299 159 0
-4299 174 0
-24 -159 -174 4299 0
-4300 25 0
-4300 160 0
-4300 175 0
-25 -160 -175 4300 0
-4301 26 0
-4301 161 0
-4301 176 0
-26 -161 -176 4301 0
-4302 27 0
-4302 162 0
-4302 177 0
-27 -162 -177 4302 0
-4303 28 0
-4303 163 0
-4303 178 0
-28 -163 -178 4303 0
-4304 29 0
-4304 164 0
-4304 179 0
-29 -164 -179 4304 0
-4305 30 0
-4305 165 0
-4305 180 0
-30 -165 -180 4305 0
-4291 8890 0
-4292 8890 0
-4293 8890 0
-4294 8890 0
-4295 8890 0
-4296 8890 0
-4297 8890 0
-4298 8890 0
-4299 8890 0
-4300 8890 0
-4301 8890 0
-4302 8890 0
-4303 8890 0
-4304 8890 0
-4305 8890 0
-8890 4291 4292 4293 4294 4295 4296 4297 4298 4299 4300 4301 4302 4303 4304 4305 0
-4306 16 0
-4306 151 0
-4306 181 0
-16 -151 -181 4306 0
-4307 17 0
-4307 152 0
-4307 182 0
-17 -152 -182 4307 0
-4308 18 0
-4308 153 0
-4308 183 0
-18 -153 -183 4308 0
-4309 19 0
-4309 154 0
-4309 184 0
-19 -154 -184 4309 0
-4310 20 0
-4310 155 0
-4310 185 0
-20 -155 -185 4310 0
-4311 21 0
-4311 156 0
-4311 186 0
-21 -156 -186 4311 0
-4312 22 0
-4312 157 0
-4312 187 0
-22 -157 -187 4312 0
-4313 23 0
-4313 158 0
-4313 188 0
-23 -158 -188 4313 0
-4314 24 0
-4314 159 0
-4314 189 0
-24 -159 -189 4314 0
-4315 25 0
-4315 160 0
-4315 190 0
-25 -160 -190 4315 0
-4316 26 0
-4316 161 0
-4316 191 0
-26 -161 -191 4316 0
-4317 27 0
-4317 162 0
-4317 192 0
-27 -162 -192 4317 0
-4318 28 0
-4318 163 0
-4318 193 0
-28 -163 -193 4318 0
-4319 29 0
-4319 164 0
-4319 194 0
-29 -164 -194 4319 0
-4320 30 0
-4320 165 0
-4320 195 0
-30 -165 -195 4320 0
-4306 8891 0
-4307 8891 0
-4308 8891 0
-4309 8891 0
-4310 8891 0
-4311 8891 0
-4312 8891 0
-4313 8891 0
-4314 8891 0
-4315 8891 0
-4316 8891 0
-4317 8891 0
-4318 8891 0
-4319 8891 0
-4320 8891 0
-8891 4306 4307 4308 4309 4310 4311 4312 4313 4314 4315 4316 4317 4318 4319 4320 0
-4321 16 0
-4321 151 0
-4321 196 0
-16 -151 -196 4321 0
-4322 17 0
-4322 152 0
-4322 197 0
-17 -152 -197 4322 0
-4323 18 0
-4323 153 0
-4323 198 0
-18 -153 -198 4323 0
-4324 19 0
-4324 154 0
-4324 199 0
-19 -154 -199 4324 0
-4325 20 0
-4325 155 0
-4325 200 0
-20 -155 -200 4325 0
-4326 21 0
-4326 156 0
-4326 201 0
-21 -156 -201 4326 0
-4327 22 0
-4327 157 0
-4327 202 0
-22 -157 -202 4327 0
-4328 23 0
-4328 158 0
-4328 203 0
-23 -158 -203 4328 0
-4329 24 0
-4329 159 0
-4329 204 0
-24 -159 -204 4329 0
-4330 25 0
-4330 160 0
-4330 205 0
-25 -160 -205 4330 0
-4331 26 0
-4331 161 0
-4331 206 0
-26 -161 -206 4331 0
-4332 27 0
-4332 162 0
-4332 207 0
-27 -162 -207 4332 0
-4333 28 0
-4333 163 0
-4333 208 0
-28 -163 -208 4333 0
-4334 29 0
-4334 164 0
-4334 209 0
-29 -164 -209 4334 0
-4335 30 0
-4335 165 0
-4335 210 0
-30 -165 -210 4335 0
-4321 8892 0
-4322 8892 0
-4323 8892 0
-4324 8892 0
-4325 8892 0
-4326 8892 0
-4327 8892 0
-4328 8892 0
-4329 8892 0
-4330 8892 0
-4331 8892 0
-4332 8892 0
-4333 8892 0
-4334 8892 0
-4335 8892 0
-8892 4321 4322 4323 4324 4325 4326 4327 4328 4329 4330 4331 4332 4333 4334 4335 0
-4336 16 0
-4336 151 0
-4336 211 0
-16 -151 -211 4336 0
-4337 17 0
-4337 152 0
-4337 212 0
-17 -152 -212 4337 0
-4338 18 0
-4338 153 0
-4338 213 0
-18 -153 -213 4338 0
-4339 19 0
-4339 154 0
-4339 214 0
-19 -154 -214 4339 0
-4340 20 0
-4340 155 0
-4340 215 0
-20 -155 -215 4340 0
-4341 21 0
-4341 156 0
-4341 216 0
-21 -156 -216 4341 0
-4342 22 0
-4342 157 0
-4342 217 0
-22 -157 -217 4342 0
-4343 23 0
-4343 158 0
-4343 218 0
-23 -158 -218 4343 0
-4344 24 0
-4344 159 0
-4344 219 0
-24 -159 -219 4344 0
-4345 25 0
-4345 160 0
-4345 220 0
-25 -160 -220 4345 0
-4346 26 0
-4346 161 0
-4346 221 0
-26 -161 -221 4346 0
-4347 27 0
-4347 162 0
-4347 222 0
-27 -162 -222 4347 0
-4348 28 0
-4348 163 0
-4348 223 0
-28 -163 -223 4348 0
-4349 29 0
-4349 164 0
-4349 224 0
-29 -164 -224 4349 0
-4350 30 0
-4350 165 0
-4350 225 0
-30 -165 -225 4350 0
-4336 8893 0
-4337 8893 0
-4338 8893 0
-4339 8893 0
-4340 8893 0
-4341 8893 0
-4342 8893 0
-4343 8893 0
-4344 8893 0
-4345 8893 0
-4346 8893 0
-4347 8893 0
-4348 8893 0
-4349 8893 0
-4350 8893 0
-8893 4336 4337 4338 4339 4340 4341 4342 4343 4344 4345 4346 4347 4348 4349 4350 0
-4351 16 0
-4351 166 0
-4351 181 0
-16 -166 -181 4351 0
-4352 17 0
-4352 167 0
-4352 182 0
-17 -167 -182 4352 0
-4353 18 0
-4353 168 0
-4353 183 0
-18 -168 -183 4353 0
-4354 19 0
-4354 169 0
-4354 184 0
-19 -169 -184 4354 0
-4355 20 0
-4355 170 0
-4355 185 0
-20 -170 -185 4355 0
-4356 21 0
-4356 171 0
-4356 186 0
-21 -171 -186 4356 0
-4357 22 0
-4357 172 0
-4357 187 0
-22 -172 -187 4357 0
-4358 23 0
-4358 173 0
-4358 188 0
-23 -173 -188 4358 0
-4359 24 0
-4359 174 0
-4359 189 0
-24 -174 -189 4359 0
-4360 25 0
-4360 175 0
-4360 190 0
-25 -175 -190 4360 0
-4361 26 0
-4361 176 0
-4361 191 0
-26 -176 -191 4361 0
-4362 27 0
-4362 177 0
-4362 192 0
-27 -177 -192 4362 0
-4363 28 0
-4363 178 0
-4363 193 0
-28 -178 -193 4363 0
-4364 29 0
-4364 179 0
-4364 194 0
-29 -179 -194 4364 0
-4365 30 0
-4365 180 0
-4365 195 0
-30 -180 -195 4365 0
-4351 8894 0
-4352 8894 0
-4353 8894 0
-4354 8894 0
-4355 8894 0
-4356 8894 0
-4357 8894 0
-4358 8894 0
-4359 8894 0
-4360 8894 0
-4361 8894 0
-4362 8894 0
-4363 8894 0
-4364 8894 0
-4365 8894 0
-8894 4351 4352 4353 4354 4355 4356 4357 4358 4359 4360 4361 4362 4363 4364 4365 0
-4366 16 0
-4366 166 0
-4366 196 0
-16 -166 -196 4366 0
-4367 17 0
-4367 167 0
-4367 197 0
-17 -167 -197 4367 0
-4368 18 0
-4368 168 0
-4368 198 0
-18 -168 -198 4368 0
-4369 19 0
-4369 169 0
-4369 199 0
-19 -169 -199 4369 0
-4370 20 0
-4370 170 0
-4370 200 0
-20 -170 -200 4370 0
-4371 21 0
-4371 171 0
-4371 201 0
-21 -171 -201 4371 0
-4372 22 0
-4372 172 0
-4372 202 0
-22 -172 -202 4372 0
-4373 23 0
-4373 173 0
-4373 203 0
-23 -173 -203 4373 0
-4374 24 0
-4374 174 0
-4374 204 0
-24 -174 -204 4374 0
-4375 25 0
-4375 175 0
-4375 205 0
-25 -175 -205 4375 0
-4376 26 0
-4376 176 0
-4376 206 0
-26 -176 -206 4376 0
-4377 27 0
-4377 177 0
-4377 207 0
-27 -177 -207 4377 0
-4378 28 0
-4378 178 0
-4378 208 0
-28 -178 -208 4378 0
-4379 29 0
-4379 179 0
-4379 209 0
-29 -179 -209 4379 0
-4380 30 0
-4380 180 0
-4380 210 0
-30 -180 -210 4380 0
-4366 8895 0
-4367 8895 0
-4368 8895 0
-4369 8895 0
-4370 8895 0
-4371 8895 0
-4372 8895 0
-4373 8895 0
-4374 8895 0
-4375 8895 0
-4376 8895 0
-4377 8895 0
-4378 8895 0
-4379 8895 0
-4380 8895 0
-8895 4366 4367 4368 4369 4370 4371 4372 4373 4374 4375 4376 4377 4378 4379 4380 0
-4381 16 0
-4381 166 0
-4381 211 0
-16 -166 -211 4381 0
-4382 17 0
-4382 167 0
-4382 212 0
-17 -167 -212 4382 0
-4383 18 0
-4383 168 0
-4383 213 0
-18 -168 -213 4383 0
-4384 19 0
-4384 169 0
-4384 214 0
-19 -169 -214 4384 0
-4385 20 0
-4385 170 0
-4385 215 0
-20 -170 -215 4385 0
-4386 21 0
-4386 171 0
-4386 216 0
-21 -171 -216 4386 0
-4387 22 0
-4387 172 0
-4387 217 0
-22 -172 -217 4387 0
-4388 23 0
-4388 173 0
-4388 218 0
-23 -173 -218 4388 0
-4389 24 0
-4389 174 0
-4389 219 0
-24 -174 -219 4389 0
-4390 25 0
-4390 175 0
-4390 220 0
-25 -175 -220 4390 0
-4391 26 0
-4391 176 0
-4391 221 0
-26 -176 -221 4391 0
-4392 27 0
-4392 177 0
-4392 222 0
-27 -177 -222 4392 0
-4393 28 0
-4393 178 0
-4393 223 0
-28 -178 -223 4393 0
-4394 29 0
-4394 179 0
-4394 224 0
-29 -179 -224 4394 0
-4395 30 0
-4395 180 0
-4395 225 0
-30 -180 -225 4395 0
-4381 8896 0
-4382 8896 0
-4383 8896 0
-4384 8896 0
-4385 8896 0
-4386 8896 0
-4387 8896 0
-4388 8896 0
-4389 8896 0
-4390 8896 0
-4391 8896 0
-4392 8896 0
-4393 8896 0
-4394 8896 0
-4395 8896 0
-8896 4381 4382 4383 4384 4385 4386 4387 4388 4389 4390 4391 4392 4393 4394 4395 0
-4396 16 0
-4396 181 0
-4396 196 0
-16 -181 -196 4396 0
-4397 17 0
-4397 182 0
-4397 197 0
-17 -182 -197 4397 0
-4398 18 0
-4398 183 0
-4398 198 0
-18 -183 -198 4398 0
-4399 19 0
-4399 184 0
-4399 199 0
-19 -184 -199 4399 0
-4400 20 0
-4400 185 0
-4400 200 0
-20 -185 -200 4400 0
-4401 21 0
-4401 186 0
-4401 201 0
-21 -186 -201 4401 0
-4402 22 0
-4402 187 0
-4402 202 0
-22 -187 -202 4402 0
-4403 23 0
-4403 188 0
-4403 203 0
-23 -188 -203 4403 0
-4404 24 0
-4404 189 0
-4404 204 0
-24 -189 -204 4404 0
-4405 25 0
-4405 190 0
-4405 205 0
-25 -190 -205 4405 0
-4406 26 0
-4406 191 0
-4406 206 0
-26 -191 -206 4406 0
-4407 27 0
-4407 192 0
-4407 207 0
-27 -192 -207 4407 0
-4408 28 0
-4408 193 0
-4408 208 0
-28 -193 -208 4408 0
-4409 29 0
-4409 194 0
-4409 209 0
-29 -194 -209 4409 0
-4410 30 0
-4410 195 0
-4410 210 0
-30 -195 -210 4410 0
-4396 8897 0
-4397 8897 0
-4398 8897 0
-4399 8897 0
-4400 8897 0
-4401 8897 0
-4402 8897 0
-4403 8897 0
-4404 8897 0
-4405 8897 0
-4406 8897 0
-4407 8897 0
-4408 8897 0
-4409 8897 0
-4410 8897 0
-8897 4396 4397 4398 4399 4400 4401 4402 4403 4404 4405 4406 4407 4408 4409 4410 0
-4411 16 0
-4411 181 0
-4411 211 0
-16 -181 -211 4411 0
-4412 17 0
-4412 182 0
-4412 212 0
-17 -182 -212 4412 0
-4413 18 0
-4413 183 0
-4413 213 0
-18 -183 -213 4413 0
-4414 19 0
-4414 184 0
-4414 214 0
-19 -184 -214 4414 0
-4415 20 0
-4415 185 0
-4415 215 0
-20 -185 -215 4415 0
-4416 21 0
-4416 186 0
-4416 216 0
-21 -186 -216 4416 0
-4417 22 0
-4417 187 0
-4417 217 0
-22 -187 -217 4417 0
-4418 23 0
-4418 188 0
-4418 218 0
-23 -188 -218 4418 0
-4419 24 0
-4419 189 0
-4419 219 0
-24 -189 -219 4419 0
-4420 25 0
-4420 190 0
-4420 220 0
-25 -190 -220 4420 0
-4421 26 0
-4421 191 0
-4421 221 0
-26 -191 -221 4421 0
-4422 27 0
-4422 192 0
-4422 222 0
-27 -192 -222 4422 0
-4423 28 0
-4423 193 0
-4423 223 0
-28 -193 -223 4423 0
-4424 29 0
-4424 194 0
-4424 224 0
-29 -194 -224 4424 0
-4425 30 0
-4425 195 0
-4425 225 0
-30 -195 -225 4425 0
-4411 8898 0
-4412 8898 0
-4413 8898 0
-4414 8898 0
-4415 8898 0
-4416 8898 0
-4417 8898 0
-4418 8898 0
-4419 8898 0
-4420 8898 0
-4421 8898 0
-4422 8898 0
-4423 8898 0
-4424 8898 0
-4425 8898 0
-8898 4411 4412 4413 4414 4415 4416 4417 4418 4419 4420 4421 4422 4423 4424 4425 0
-4426 16 0
-4426 196 0
-4426 211 0
-16 -196 -211 4426 0
-4427 17 0
-4427 197 0
-4427 212 0
-17 -197 -212 4427 0
-4428 18 0
-4428 198 0
-4428 213 0
-18 -198 -213 4428 0
-4429 19 0
-4429 199 0
-4429 214 0
-19 -199 -214 4429 0
-4430 20 0
-4430 200 0
-4430 215 0
-20 -200 -215 4430 0
-4431 21 0
-4431 201 0
-4431 216 0
-21 -201 -216 4431 0
-4432 22 0
-4432 202 0
-4432 217 0
-22 -202 -217 4432 0
-4433 23 0
-4433 203 0
-4433 218 0
-23 -203 -218 4433 0
-4434 24 0
-4434 204 0
-4434 219 0
-24 -204 -219 4434 0
-4435 25 0
-4435 205 0
-4435 220 0
-25 -205 -220 4435 0
-4436 26 0
-4436 206 0
-4436 221 0
-26 -206 -221 4436 0
-4437 27 0
-4437 207 0
-4437 222 0
-27 -207 -222 4437 0
-4438 28 0
-4438 208 0
-4438 223 0
-28 -208 -223 4438 0
-4439 29 0
-4439 209 0
-4439 224 0
-29 -209 -224 4439 0
-4440 30 0
-4440 210 0
-4440 225 0
-30 -210 -225 4440 0
-4426 8899 0
-4427 8899 0
-4428 8899 0
-4429 8899 0
-4430 8899 0
-4431 8899 0
-4432 8899 0
-4433 8899 0
-4434 8899 0
-4435 8899 0
-4436 8899 0
-4437 8899 0
-4438 8899 0
-4439 8899 0
-4440 8899 0
-8899 4426 4427 4428 4429 4430 4431 4432 4433 4434 4435 4436 4437 4438 4439 4440 0
-4441 31 0
-4441 46 0
-4441 61 0
-31 -46 -61 4441 0
-4442 32 0
-4442 47 0
-4442 62 0
-32 -47 -62 4442 0
-4443 33 0
-4443 48 0
-4443 63 0
-33 -48 -63 4443 0
-4444 34 0
-4444 49 0
-4444 64 0
-34 -49 -64 4444 0
-4445 35 0
-4445 50 0
-4445 65 0
-35 -50 -65 4445 0
-4446 36 0
-4446 51 0
-4446 66 0
-36 -51 -66 4446 0
-4447 37 0
-4447 52 0
-4447 67 0
-37 -52 -67 4447 0
-4448 38 0
-4448 53 0
-4448 68 0
-38 -53 -68 4448 0
-4449 39 0
-4449 54 0
-4449 69 0
-39 -54 -69 4449 0
-4450 40 0
-4450 55 0
-4450 70 0
-40 -55 -70 4450 0
-4451 41 0
-4451 56 0
-4451 71 0
-41 -56 -71 4451 0
-4452 42 0
-4452 57 0
-4452 72 0
-42 -57 -72 4452 0
-4453 43 0
-4453 58 0
-4453 73 0
-43 -58 -73 4453 0
-4454 44 0
-4454 59 0
-4454 74 0
-44 -59 -74 4454 0
-4455 45 0
-4455 60 0
-4455 75 0
-45 -60 -75 4455 0
-4441 8900 0
-4442 8900 0
-4443 8900 0
-4444 8900 0
-4445 8900 0
-4446 8900 0
-4447 8900 0
-4448 8900 0
-4449 8900 0
-4450 8900 0
-4451 8900 0
-4452 8900 0
-4453 8900 0
-4454 8900 0
-4455 8900 0
-8900 4441 4442 4443 4444 4445 4446 4447 4448 4449 4450 4451 4452 4453 4454 4455 0
-4456 31 0
-4456 46 0
-4456 76 0
-31 -46 -76 4456 0
-4457 32 0
-4457 47 0
-4457 77 0
-32 -47 -77 4457 0
-4458 33 0
-4458 48 0
-4458 78 0
-33 -48 -78 4458 0
-4459 34 0
-4459 49 0
-4459 79 0
-34 -49 -79 4459 0
-4460 35 0
-4460 50 0
-4460 80 0
-35 -50 -80 4460 0
-4461 36 0
-4461 51 0
-4461 81 0
-36 -51 -81 4461 0
-4462 37 0
-4462 52 0
-4462 82 0
-37 -52 -82 4462 0
-4463 38 0
-4463 53 0
-4463 83 0
-38 -53 -83 4463 0
-4464 39 0
-4464 54 0
-4464 84 0
-39 -54 -84 4464 0
-4465 40 0
-4465 55 0
-4465 85 0
-40 -55 -85 4465 0
-4466 41 0
-4466 56 0
-4466 86 0
-41 -56 -86 4466 0
-4467 42 0
-4467 57 0
-4467 87 0
-42 -57 -87 4467 0
-4468 43 0
-4468 58 0
-4468 88 0
-43 -58 -88 4468 0
-4469 44 0
-4469 59 0
-4469 89 0
-44 -59 -89 4469 0
-4470 45 0
-4470 60 0
-4470 90 0
-45 -60 -90 4470 0
-4456 8901 0
-4457 8901 0
-4458 8901 0
-4459 8901 0
-4460 8901 0
-4461 8901 0
-4462 8901 0
-4463 8901 0
-4464 8901 0
-4465 8901 0
-4466 8901 0
-4467 8901 0
-4468 8901 0
-4469 8901 0
-4470 8901 0
-8901 4456 4457 4458 4459 4460 4461 4462 4463 4464 4465 4466 4467 4468 4469 4470 0
-4471 31 0
-4471 46 0
-4471 91 0
-31 -46 -91 4471 0
-4472 32 0
-4472 47 0
-4472 92 0
-32 -47 -92 4472 0
-4473 33 0
-4473 48 0
-4473 93 0
-33 -48 -93 4473 0
-4474 34 0
-4474 49 0
-4474 94 0
-34 -49 -94 4474 0
-4475 35 0
-4475 50 0
-4475 95 0
-35 -50 -95 4475 0
-4476 36 0
-4476 51 0
-4476 96 0
-36 -51 -96 4476 0
-4477 37 0
-4477 52 0
-4477 97 0
-37 -52 -97 4477 0
-4478 38 0
-4478 53 0
-4478 98 0
-38 -53 -98 4478 0
-4479 39 0
-4479 54 0
-4479 99 0
-39 -54 -99 4479 0
-4480 40 0
-4480 55 0
-4480 100 0
-40 -55 -100 4480 0
-4481 41 0
-4481 56 0
-4481 101 0
-41 -56 -101 4481 0
-4482 42 0
-4482 57 0
-4482 102 0
-42 -57 -102 4482 0
-4483 43 0
-4483 58 0
-4483 103 0
-43 -58 -103 4483 0
-4484 44 0
-4484 59 0
-4484 104 0
-44 -59 -104 4484 0
-4485 45 0
-4485 60 0
-4485 105 0
-45 -60 -105 4485 0
-4471 8902 0
-4472 8902 0
-4473 8902 0
-4474 8902 0
-4475 8902 0
-4476 8902 0
-4477 8902 0
-4478 8902 0
-4479 8902 0
-4480 8902 0
-4481 8902 0
-4482 8902 0
-4483 8902 0
-4484 8902 0
-4485 8902 0
-8902 4471 4472 4473 4474 4475 4476 4477 4478 4479 4480 4481 4482 4483 4484 4485 0
-4486 31 0
-4486 46 0
-4486 106 0
-31 -46 -106 4486 0
-4487 32 0
-4487 47 0
-4487 107 0
-32 -47 -107 4487 0
-4488 33 0
-4488 48 0
-4488 108 0
-33 -48 -108 4488 0
-4489 34 0
-4489 49 0
-4489 109 0
-34 -49 -109 4489 0
-4490 35 0
-4490 50 0
-4490 110 0
-35 -50 -110 4490 0
-4491 36 0
-4491 51 0
-4491 111 0
-36 -51 -111 4491 0
-4492 37 0
-4492 52 0
-4492 112 0
-37 -52 -112 4492 0
-4493 38 0
-4493 53 0
-4493 113 0
-38 -53 -113 4493 0
-4494 39 0
-4494 54 0
-4494 114 0
-39 -54 -114 4494 0
-4495 40 0
-4495 55 0
-4495 115 0
-40 -55 -115 4495 0
-4496 41 0
-4496 56 0
-4496 116 0
-41 -56 -116 4496 0
-4497 42 0
-4497 57 0
-4497 117 0
-42 -57 -117 4497 0
-4498 43 0
-4498 58 0
-4498 118 0
-43 -58 -118 4498 0
-4499 44 0
-4499 59 0
-4499 119 0
-44 -59 -119 4499 0
-4500 45 0
-4500 60 0
-4500 120 0
-45 -60 -120 4500 0
-4486 8903 0
-4487 8903 0
-4488 8903 0
-4489 8903 0
-4490 8903 0
-4491 8903 0
-4492 8903 0
-4493 8903 0
-4494 8903 0
-4495 8903 0
-4496 8903 0
-4497 8903 0
-4498 8903 0
-4499 8903 0
-4500 8903 0
-8903 4486 4487 4488 4489 4490 4491 4492 4493 4494 4495 4496 4497 4498 4499 4500 0
-4501 31 0
-4501 46 0
-4501 121 0
-31 -46 -121 4501 0
-4502 32 0
-4502 47 0
-4502 122 0
-32 -47 -122 4502 0
-4503 33 0
-4503 48 0
-4503 123 0
-33 -48 -123 4503 0
-4504 34 0
-4504 49 0
-4504 124 0
-34 -49 -124 4504 0
-4505 35 0
-4505 50 0
-4505 125 0
-35 -50 -125 4505 0
-4506 36 0
-4506 51 0
-4506 126 0
-36 -51 -126 4506 0
-4507 37 0
-4507 52 0
-4507 127 0
-37 -52 -127 4507 0
-4508 38 0
-4508 53 0
-4508 128 0
-38 -53 -128 4508 0
-4509 39 0
-4509 54 0
-4509 129 0
-39 -54 -129 4509 0
-4510 40 0
-4510 55 0
-4510 130 0
-40 -55 -130 4510 0
-4511 41 0
-4511 56 0
-4511 131 0
-41 -56 -131 4511 0
-4512 42 0
-4512 57 0
-4512 132 0
-42 -57 -132 4512 0
-4513 43 0
-4513 58 0
-4513 133 0
-43 -58 -133 4513 0
-4514 44 0
-4514 59 0
-4514 134 0
-44 -59 -134 4514 0
-4515 45 0
-4515 60 0
-4515 135 0
-45 -60 -135 4515 0
-4501 8904 0
-4502 8904 0
-4503 8904 0
-4504 8904 0
-4505 8904 0
-4506 8904 0
-4507 8904 0
-4508 8904 0
-4509 8904 0
-4510 8904 0
-4511 8904 0
-4512 8904 0
-4513 8904 0
-4514 8904 0
-4515 8904 0
-8904 4501 4502 4503 4504 4505 4506 4507 4508 4509 4510 4511 4512 4513 4514 4515 0
-4516 31 0
-4516 46 0
-4516 136 0
-31 -46 -136 4516 0
-4517 32 0
-4517 47 0
-4517 137 0
-32 -47 -137 4517 0
-4518 33 0
-4518 48 0
-4518 138 0
-33 -48 -138 4518 0
-4519 34 0
-4519 49 0
-4519 139 0
-34 -49 -139 4519 0
-4520 35 0
-4520 50 0
-4520 140 0
-35 -50 -140 4520 0
-4521 36 0
-4521 51 0
-4521 141 0
-36 -51 -141 4521 0
-4522 37 0
-4522 52 0
-4522 142 0
-37 -52 -142 4522 0
-4523 38 0
-4523 53 0
-4523 143 0
-38 -53 -143 4523 0
-4524 39 0
-4524 54 0
-4524 144 0
-39 -54 -144 4524 0
-4525 40 0
-4525 55 0
-4525 145 0
-40 -55 -145 4525 0
-4526 41 0
-4526 56 0
-4526 146 0
-41 -56 -146 4526 0
-4527 42 0
-4527 57 0
-4527 147 0
-42 -57 -147 4527 0
-4528 43 0
-4528 58 0
-4528 148 0
-43 -58 -148 4528 0
-4529 44 0
-4529 59 0
-4529 149 0
-44 -59 -149 4529 0
-4530 45 0
-4530 60 0
-4530 150 0
-45 -60 -150 4530 0
-4516 8905 0
-4517 8905 0
-4518 8905 0
-4519 8905 0
-4520 8905 0
-4521 8905 0
-4522 8905 0
-4523 8905 0
-4524 8905 0
-4525 8905 0
-4526 8905 0
-4527 8905 0
-4528 8905 0
-4529 8905 0
-4530 8905 0
-8905 4516 4517 4518 4519 4520 4521 4522 4523 4524 4525 4526 4527 4528 4529 4530 0
-4531 31 0
-4531 46 0
-4531 151 0
-31 -46 -151 4531 0
-4532 32 0
-4532 47 0
-4532 152 0
-32 -47 -152 4532 0
-4533 33 0
-4533 48 0
-4533 153 0
-33 -48 -153 4533 0
-4534 34 0
-4534 49 0
-4534 154 0
-34 -49 -154 4534 0
-4535 35 0
-4535 50 0
-4535 155 0
-35 -50 -155 4535 0
-4536 36 0
-4536 51 0
-4536 156 0
-36 -51 -156 4536 0
-4537 37 0
-4537 52 0
-4537 157 0
-37 -52 -157 4537 0
-4538 38 0
-4538 53 0
-4538 158 0
-38 -53 -158 4538 0
-4539 39 0
-4539 54 0
-4539 159 0
-39 -54 -159 4539 0
-4540 40 0
-4540 55 0
-4540 160 0
-40 -55 -160 4540 0
-4541 41 0
-4541 56 0
-4541 161 0
-41 -56 -161 4541 0
-4542 42 0
-4542 57 0
-4542 162 0
-42 -57 -162 4542 0
-4543 43 0
-4543 58 0
-4543 163 0
-43 -58 -163 4543 0
-4544 44 0
-4544 59 0
-4544 164 0
-44 -59 -164 4544 0
-4545 45 0
-4545 60 0
-4545 165 0
-45 -60 -165 4545 0
-4531 8906 0
-4532 8906 0
-4533 8906 0
-4534 8906 0
-4535 8906 0
-4536 8906 0
-4537 8906 0
-4538 8906 0
-4539 8906 0
-4540 8906 0
-4541 8906 0
-4542 8906 0
-4543 8906 0
-4544 8906 0
-4545 8906 0
-8906 4531 4532 4533 4534 4535 4536 4537 4538 4539 4540 4541 4542 4543 4544 4545 0
-4546 31 0
-4546 46 0
-4546 166 0
-31 -46 -166 4546 0
-4547 32 0
-4547 47 0
-4547 167 0
-32 -47 -167 4547 0
-4548 33 0
-4548 48 0
-4548 168 0
-33 -48 -168 4548 0
-4549 34 0
-4549 49 0
-4549 169 0
-34 -49 -169 4549 0
-4550 35 0
-4550 50 0
-4550 170 0
-35 -50 -170 4550 0
-4551 36 0
-4551 51 0
-4551 171 0
-36 -51 -171 4551 0
-4552 37 0
-4552 52 0
-4552 172 0
-37 -52 -172 4552 0
-4553 38 0
-4553 53 0
-4553 173 0
-38 -53 -173 4553 0
-4554 39 0
-4554 54 0
-4554 174 0
-39 -54 -174 4554 0
-4555 40 0
-4555 55 0
-4555 175 0
-40 -55 -175 4555 0
-4556 41 0
-4556 56 0
-4556 176 0
-41 -56 -176 4556 0
-4557 42 0
-4557 57 0
-4557 177 0
-42 -57 -177 4557 0
-4558 43 0
-4558 58 0
-4558 178 0
-43 -58 -178 4558 0
-4559 44 0
-4559 59 0
-4559 179 0
-44 -59 -179 4559 0
-4560 45 0
-4560 60 0
-4560 180 0
-45 -60 -180 4560 0
-4546 8907 0
-4547 8907 0
-4548 8907 0
-4549 8907 0
-4550 8907 0
-4551 8907 0
-4552 8907 0
-4553 8907 0
-4554 8907 0
-4555 8907 0
-4556 8907 0
-4557 8907 0
-4558 8907 0
-4559 8907 0
-4560 8907 0
-8907 4546 4547 4548 4549 4550 4551 4552 4553 4554 4555 4556 4557 4558 4559 4560 0
-4561 31 0
-4561 46 0
-4561 181 0
-31 -46 -181 4561 0
-4562 32 0
-4562 47 0
-4562 182 0
-32 -47 -182 4562 0
-4563 33 0
-4563 48 0
-4563 183 0
-33 -48 -183 4563 0
-4564 34 0
-4564 49 0
-4564 184 0
-34 -49 -184 4564 0
-4565 35 0
-4565 50 0
-4565 185 0
-35 -50 -185 4565 0
-4566 36 0
-4566 51 0
-4566 186 0
-36 -51 -186 4566 0
-4567 37 0
-4567 52 0
-4567 187 0
-37 -52 -187 4567 0
-4568 38 0
-4568 53 0
-4568 188 0
-38 -53 -188 4568 0
-4569 39 0
-4569 54 0
-4569 189 0
-39 -54 -189 4569 0
-4570 40 0
-4570 55 0
-4570 190 0
-40 -55 -190 4570 0
-4571 41 0
-4571 56 0
-4571 191 0
-41 -56 -191 4571 0
-4572 42 0
-4572 57 0
-4572 192 0
-42 -57 -192 4572 0
-4573 43 0
-4573 58 0
-4573 193 0
-43 -58 -193 4573 0
-4574 44 0
-4574 59 0
-4574 194 0
-44 -59 -194 4574 0
-4575 45 0
-4575 60 0
-4575 195 0
-45 -60 -195 4575 0
-4561 8908 0
-4562 8908 0
-4563 8908 0
-4564 8908 0
-4565 8908 0
-4566 8908 0
-4567 8908 0
-4568 8908 0
-4569 8908 0
-4570 8908 0
-4571 8908 0
-4572 8908 0
-4573 8908 0
-4574 8908 0
-4575 8908 0
-8908 4561 4562 4563 4564 4565 4566 4567 4568 4569 4570 4571 4572 4573 4574 4575 0
-4576 31 0
-4576 46 0
-4576 196 0
-31 -46 -196 4576 0
-4577 32 0
-4577 47 0
-4577 197 0
-32 -47 -197 4577 0
-4578 33 0
-4578 48 0
-4578 198 0
-33 -48 -198 4578 0
-4579 34 0
-4579 49 0
-4579 199 0
-34 -49 -199 4579 0
-4580 35 0
-4580 50 0
-4580 200 0
-35 -50 -200 4580 0
-4581 36 0
-4581 51 0
-4581 201 0
-36 -51 -201 4581 0
-4582 37 0
-4582 52 0
-4582 202 0
-37 -52 -202 4582 0
-4583 38 0
-4583 53 0
-4583 203 0
-38 -53 -203 4583 0
-4584 39 0
-4584 54 0
-4584 204 0
-39 -54 -204 4584 0
-4585 40 0
-4585 55 0
-4585 205 0
-40 -55 -205 4585 0
-4586 41 0
-4586 56 0
-4586 206 0
-41 -56 -206 4586 0
-4587 42 0
-4587 57 0
-4587 207 0
-42 -57 -207 4587 0
-4588 43 0
-4588 58 0
-4588 208 0
-43 -58 -208 4588 0
-4589 44 0
-4589 59 0
-4589 209 0
-44 -59 -209 4589 0
-4590 45 0
-4590 60 0
-4590 210 0
-45 -60 -210 4590 0
-4576 8909 0
-4577 8909 0
-4578 8909 0
-4579 8909 0
-4580 8909 0
-4581 8909 0
-4582 8909 0
-4583 8909 0
-4584 8909 0
-4585 8909 0
-4586 8909 0
-4587 8909 0
-4588 8909 0
-4589 8909 0
-4590 8909 0
-8909 4576 4577 4578 4579 4580 4581 4582 4583 4584 4585 4586 4587 4588 4589 4590 0
-4591 31 0
-4591 46 0
-4591 211 0
-31 -46 -211 4591 0
-4592 32 0
-4592 47 0
-4592 212 0
-32 -47 -212 4592 0
-4593 33 0
-4593 48 0
-4593 213 0
-33 -48 -213 4593 0
-4594 34 0
-4594 49 0
-4594 214 0
-34 -49 -214 4594 0
-4595 35 0
-4595 50 0
-4595 215 0
-35 -50 -215 4595 0
-4596 36 0
-4596 51 0
-4596 216 0
-36 -51 -216 4596 0
-4597 37 0
-4597 52 0
-4597 217 0
-37 -52 -217 4597 0
-4598 38 0
-4598 53 0
-4598 218 0
-38 -53 -218 4598 0
-4599 39 0
-4599 54 0
-4599 219 0
-39 -54 -219 4599 0
-4600 40 0
-4600 55 0
-4600 220 0
-40 -55 -220 4600 0
-4601 41 0
-4601 56 0
-4601 221 0
-41 -56 -221 4601 0
-4602 42 0
-4602 57 0
-4602 222 0
-42 -57 -222 4602 0
-4603 43 0
-4603 58 0
-4603 223 0
-43 -58 -223 4603 0
-4604 44 0
-4604 59 0
-4604 224 0
-44 -59 -224 4604 0
-4605 45 0
-4605 60 0
-4605 225 0
-45 -60 -225 4605 0
-4591 8910 0
-4592 8910 0
-4593 8910 0
-4594 8910 0
-4595 8910 0
-4596 8910 0
-4597 8910 0
-4598 8910 0
-4599 8910 0
-4600 8910 0
-4601 8910 0
-4602 8910 0
-4603 8910 0
-4604 8910 0
-4605 8910 0
-8910 4591 4592 4593 4594 4595 4596 4597 4598 4599 4600 4601 4602 4603 4604 4605 0
-4606 31 0
-4606 61 0
-4606 76 0
-31 -61 -76 4606 0
-4607 32 0
-4607 62 0
-4607 77 0
-32 -62 -77 4607 0
-4608 33 0
-4608 63 0
-4608 78 0
-33 -63 -78 4608 0
-4609 34 0
-4609 64 0
-4609 79 0
-34 -64 -79 4609 0
-4610 35 0
-4610 65 0
-4610 80 0
-35 -65 -80 4610 0
-4611 36 0
-4611 66 0
-4611 81 0
-36 -66 -81 4611 0
-4612 37 0
-4612 67 0
-4612 82 0
-37 -67 -82 4612 0
-4613 38 0
-4613 68 0
-4613 83 0
-38 -68 -83 4613 0
-4614 39 0
-4614 69 0
-4614 84 0
-39 -69 -84 4614 0
-4615 40 0
-4615 70 0
-4615 85 0
-40 -70 -85 4615 0
-4616 41 0
-4616 71 0
-4616 86 0
-41 -71 -86 4616 0
-4617 42 0
-4617 72 0
-4617 87 0
-42 -72 -87 4617 0
-4618 43 0
-4618 73 0
-4618 88 0
-43 -73 -88 4618 0
-4619 44 0
-4619 74 0
-4619 89 0
-44 -74 -89 4619 0
-4620 45 0
-4620 75 0
-4620 90 0
-45 -75 -90 4620 0
-4606 8911 0
-4607 8911 0
-4608 8911 0
-4609 8911 0
-4610 8911 0
-4611 8911 0
-4612 8911 0
-4613 8911 0
-4614 8911 0
-4615 8911 0
-4616 8911 0
-4617 8911 0
-4618 8911 0
-4619 8911 0
-4620 8911 0
-8911 4606 4607 4608 4609 4610 4611 4612 4613 4614 4615 4616 4617 4618 4619 4620 0
-4621 31 0
-4621 61 0
-4621 91 0
-31 -61 -91 4621 0
-4622 32 0
-4622 62 0
-4622 92 0
-32 -62 -92 4622 0
-4623 33 0
-4623 63 0
-4623 93 0
-33 -63 -93 4623 0
-4624 34 0
-4624 64 0
-4624 94 0
-34 -64 -94 4624 0
-4625 35 0
-4625 65 0
-4625 95 0
-35 -65 -95 4625 0
-4626 36 0
-4626 66 0
-4626 96 0
-36 -66 -96 4626 0
-4627 37 0
-4627 67 0
-4627 97 0
-37 -67 -97 4627 0
-4628 38 0
-4628 68 0
-4628 98 0
-38 -68 -98 4628 0
-4629 39 0
-4629 69 0
-4629 99 0
-39 -69 -99 4629 0
-4630 40 0
-4630 70 0
-4630 100 0
-40 -70 -100 4630 0
-4631 41 0
-4631 71 0
-4631 101 0
-41 -71 -101 4631 0
-4632 42 0
-4632 72 0
-4632 102 0
-42 -72 -102 4632 0
-4633 43 0
-4633 73 0
-4633 103 0
-43 -73 -103 4633 0
-4634 44 0
-4634 74 0
-4634 104 0
-44 -74 -104 4634 0
-4635 45 0
-4635 75 0
-4635 105 0
-45 -75 -105 4635 0
-4621 8912 0
-4622 8912 0
-4623 8912 0
-4624 8912 0
-4625 8912 0
-4626 8912 0
-4627 8912 0
-4628 8912 0
-4629 8912 0
-4630 8912 0
-4631 8912 0
-4632 8912 0
-4633 8912 0
-4634 8912 0
-4635 8912 0
-8912 4621 4622 4623 4624 4625 4626 4627 4628 4629 4630 4631 4632 4633 4634 4635 0
-4636 31 0
-4636 61 0
-4636 106 0
-31 -61 -106 4636 0
-4637 32 0
-4637 62 0
-4637 107 0
-32 -62 -107 4637 0
-4638 33 0
-4638 63 0
-4638 108 0
-33 -63 -108 4638 0
-4639 34 0
-4639 64 0
-4639 109 0
-34 -64 -109 4639 0
-4640 35 0
-4640 65 0
-4640 110 0
-35 -65 -110 4640 0
-4641 36 0
-4641 66 0
-4641 111 0
-36 -66 -111 4641 0
-4642 37 0
-4642 67 0
-4642 112 0
-37 -67 -112 4642 0
-4643 38 0
-4643 68 0
-4643 113 0
-38 -68 -113 4643 0
-4644 39 0
-4644 69 0
-4644 114 0
-39 -69 -114 4644 0
-4645 40 0
-4645 70 0
-4645 115 0
-40 -70 -115 4645 0
-4646 41 0
-4646 71 0
-4646 116 0
-41 -71 -116 4646 0
-4647 42 0
-4647 72 0
-4647 117 0
-42 -72 -117 4647 0
-4648 43 0
-4648 73 0
-4648 118 0
-43 -73 -118 4648 0
-4649 44 0
-4649 74 0
-4649 119 0
-44 -74 -119 4649 0
-4650 45 0
-4650 75 0
-4650 120 0
-45 -75 -120 4650 0
-4636 8913 0
-4637 8913 0
-4638 8913 0
-4639 8913 0
-4640 8913 0
-4641 8913 0
-4642 8913 0
-4643 8913 0
-4644 8913 0
-4645 8913 0
-4646 8913 0
-4647 8913 0
-4648 8913 0
-4649 8913 0
-4650 8913 0
-8913 4636 4637 4638 4639 4640 4641 4642 4643 4644 4645 4646 4647 4648 4649 4650 0
-4651 31 0
-4651 61 0
-4651 121 0
-31 -61 -121 4651 0
-4652 32 0
-4652 62 0
-4652 122 0
-32 -62 -122 4652 0
-4653 33 0
-4653 63 0
-4653 123 0
-33 -63 -123 4653 0
-4654 34 0
-4654 64 0
-4654 124 0
-34 -64 -124 4654 0
-4655 35 0
-4655 65 0
-4655 125 0
-35 -65 -125 4655 0
-4656 36 0
-4656 66 0
-4656 126 0
-36 -66 -126 4656 0
-4657 37 0
-4657 67 0
-4657 127 0
-37 -67 -127 4657 0
-4658 38 0
-4658 68 0
-4658 128 0
-38 -68 -128 4658 0
-4659 39 0
-4659 69 0
-4659 129 0
-39 -69 -129 4659 0
-4660 40 0
-4660 70 0
-4660 130 0
-40 -70 -130 4660 0
-4661 41 0
-4661 71 0
-4661 131 0
-41 -71 -131 4661 0
-4662 42 0
-4662 72 0
-4662 132 0
-42 -72 -132 4662 0
-4663 43 0
-4663 73 0
-4663 133 0
-43 -73 -133 4663 0
-4664 44 0
-4664 74 0
-4664 134 0
-44 -74 -134 4664 0
-4665 45 0
-4665 75 0
-4665 135 0
-45 -75 -135 4665 0
-4651 8914 0
-4652 8914 0
-4653 8914 0
-4654 8914 0
-4655 8914 0
-4656 8914 0
-4657 8914 0
-4658 8914 0
-4659 8914 0
-4660 8914 0
-4661 8914 0
-4662 8914 0
-4663 8914 0
-4664 8914 0
-4665 8914 0
-8914 4651 4652 4653 4654 4655 4656 4657 4658 4659 4660 4661 4662 4663 4664 4665 0
-4666 31 0
-4666 61 0
-4666 136 0
-31 -61 -136 4666 0
-4667 32 0
-4667 62 0
-4667 137 0
-32 -62 -137 4667 0
-4668 33 0
-4668 63 0
-4668 138 0
-33 -63 -138 4668 0
-4669 34 0
-4669 64 0
-4669 139 0
-34 -64 -139 4669 0
-4670 35 0
-4670 65 0
-4670 140 0
-35 -65 -140 4670 0
-4671 36 0
-4671 66 0
-4671 141 0
-36 -66 -141 4671 0
-4672 37 0
-4672 67 0
-4672 142 0
-37 -67 -142 4672 0
-4673 38 0
-4673 68 0
-4673 143 0
-38 -68 -143 4673 0
-4674 39 0
-4674 69 0
-4674 144 0
-39 -69 -144 4674 0
-4675 40 0
-4675 70 0
-4675 145 0
-40 -70 -145 4675 0
-4676 41 0
-4676 71 0
-4676 146 0
-41 -71 -146 4676 0
-4677 42 0
-4677 72 0
-4677 147 0
-42 -72 -147 4677 0
-4678 43 0
-4678 73 0
-4678 148 0
-43 -73 -148 4678 0
-4679 44 0
-4679 74 0
-4679 149 0
-44 -74 -149 4679 0
-4680 45 0
-4680 75 0
-4680 150 0
-45 -75 -150 4680 0
-4666 8915 0
-4667 8915 0
-4668 8915 0
-4669 8915 0
-4670 8915 0
-4671 8915 0
-4672 8915 0
-4673 8915 0
-4674 8915 0
-4675 8915 0
-4676 8915 0
-4677 8915 0
-4678 8915 0
-4679 8915 0
-4680 8915 0
-8915 4666 4667 4668 4669 4670 4671 4672 4673 4674 4675 4676 4677 4678 4679 4680 0
-4681 31 0
-4681 61 0
-4681 151 0
-31 -61 -151 4681 0
-4682 32 0
-4682 62 0
-4682 152 0
-32 -62 -152 4682 0
-4683 33 0
-4683 63 0
-4683 153 0
-33 -63 -153 4683 0
-4684 34 0
-4684 64 0
-4684 154 0
-34 -64 -154 4684 0
-4685 35 0
-4685 65 0
-4685 155 0
-35 -65 -155 4685 0
-4686 36 0
-4686 66 0
-4686 156 0
-36 -66 -156 4686 0
-4687 37 0
-4687 67 0
-4687 157 0
-37 -67 -157 4687 0
-4688 38 0
-4688 68 0
-4688 158 0
-38 -68 -158 4688 0
-4689 39 0
-4689 69 0
-4689 159 0
-39 -69 -159 4689 0
-4690 40 0
-4690 70 0
-4690 160 0
-40 -70 -160 4690 0
-4691 41 0
-4691 71 0
-4691 161 0
-41 -71 -161 4691 0
-4692 42 0
-4692 72 0
-4692 162 0
-42 -72 -162 4692 0
-4693 43 0
-4693 73 0
-4693 163 0
-43 -73 -163 4693 0
-4694 44 0
-4694 74 0
-4694 164 0
-44 -74 -164 4694 0
-4695 45 0
-4695 75 0
-4695 165 0
-45 -75 -165 4695 0
-4681 8916 0
-4682 8916 0
-4683 8916 0
-4684 8916 0
-4685 8916 0
-4686 8916 0
-4687 8916 0
-4688 8916 0
-4689 8916 0
-4690 8916 0
-4691 8916 0
-4692 8916 0
-4693 8916 0
-4694 8916 0
-4695 8916 0
-8916 4681 4682 4683 4684 4685 4686 4687 4688 4689 4690 4691 4692 4693 4694 4695 0
-4696 31 0
-4696 61 0
-4696 166 0
-31 -61 -166 4696 0
-4697 32 0
-4697 62 0
-4697 167 0
-32 -62 -167 4697 0
-4698 33 0
-4698 63 0
-4698 168 0
-33 -63 -168 4698 0
-4699 34 0
-4699 64 0
-4699 169 0
-34 -64 -169 4699 0
-4700 35 0
-4700 65 0
-4700 170 0
-35 -65 -170 4700 0
-4701 36 0
-4701 66 0
-4701 171 0
-36 -66 -171 4701 0
-4702 37 0
-4702 67 0
-4702 172 0
-37 -67 -172 4702 0
-4703 38 0
-4703 68 0
-4703 173 0
-38 -68 -173 4703 0
-4704 39 0
-4704 69 0
-4704 174 0
-39 -69 -174 4704 0
-4705 40 0
-4705 70 0
-4705 175 0
-40 -70 -175 4705 0
-4706 41 0
-4706 71 0
-4706 176 0
-41 -71 -176 4706 0
-4707 42 0
-4707 72 0
-4707 177 0
-42 -72 -177 4707 0
-4708 43 0
-4708 73 0
-4708 178 0
-43 -73 -178 4708 0
-4709 44 0
-4709 74 0
-4709 179 0
-44 -74 -179 4709 0
-4710 45 0
-4710 75 0
-4710 180 0
-45 -75 -180 4710 0
-4696 8917 0
-4697 8917 0
-4698 8917 0
-4699 8917 0
-4700 8917 0
-4701 8917 0
-4702 8917 0
-4703 8917 0
-4704 8917 0
-4705 8917 0
-4706 8917 0
-4707 8917 0
-4708 8917 0
-4709 8917 0
-4710 8917 0
-8917 4696 4697 4698 4699 4700 4701 4702 4703 4704 4705 4706 4707 4708 4709 4710 0
-4711 31 0
-4711 61 0
-4711 181 0
-31 -61 -181 4711 0
-4712 32 0
-4712 62 0
-4712 182 0
-32 -62 -182 4712 0
-4713 33 0
-4713 63 0
-4713 183 0
-33 -63 -183 4713 0
-4714 34 0
-4714 64 0
-4714 184 0
-34 -64 -184 4714 0
-4715 35 0
-4715 65 0
-4715 185 0
-35 -65 -185 4715 0
-4716 36 0
-4716 66 0
-4716 186 0
-36 -66 -186 4716 0
-4717 37 0
-4717 67 0
-4717 187 0
-37 -67 -187 4717 0
-4718 38 0
-4718 68 0
-4718 188 0
-38 -68 -188 4718 0
-4719 39 0
-4719 69 0
-4719 189 0
-39 -69 -189 4719 0
-4720 40 0
-4720 70 0
-4720 190 0
-40 -70 -190 4720 0
-4721 41 0
-4721 71 0
-4721 191 0
-41 -71 -191 4721 0
-4722 42 0
-4722 72 0
-4722 192 0
-42 -72 -192 4722 0
-4723 43 0
-4723 73 0
-4723 193 0
-43 -73 -193 4723 0
-4724 44 0
-4724 74 0
-4724 194 0
-44 -74 -194 4724 0
-4725 45 0
-4725 75 0
-4725 195 0
-45 -75 -195 4725 0
-4711 8918 0
-4712 8918 0
-4713 8918 0
-4714 8918 0
-4715 8918 0
-4716 8918 0
-4717 8918 0
-4718 8918 0
-4719 8918 0
-4720 8918 0
-4721 8918 0
-4722 8918 0
-4723 8918 0
-4724 8918 0
-4725 8918 0
-8918 4711 4712 4713 4714 4715 4716 4717 4718 4719 4720 4721 4722 4723 4724 4725 0
-4726 31 0
-4726 61 0
-4726 196 0
-31 -61 -196 4726 0
-4727 32 0
-4727 62 0
-4727 197 0
-32 -62 -197 4727 0
-4728 33 0
-4728 63 0
-4728 198 0
-33 -63 -198 4728 0
-4729 34 0
-4729 64 0
-4729 199 0
-34 -64 -199 4729 0
-4730 35 0
-4730 65 0
-4730 200 0
-35 -65 -200 4730 0
-4731 36 0
-4731 66 0
-4731 201 0
-36 -66 -201 4731 0
-4732 37 0
-4732 67 0
-4732 202 0
-37 -67 -202 4732 0
-4733 38 0
-4733 68 0
-4733 203 0
-38 -68 -203 4733 0
-4734 39 0
-4734 69 0
-4734 204 0
-39 -69 -204 4734 0
-4735 40 0
-4735 70 0
-4735 205 0
-40 -70 -205 4735 0
-4736 41 0
-4736 71 0
-4736 206 0
-41 -71 -206 4736 0
-4737 42 0
-4737 72 0
-4737 207 0
-42 -72 -207 4737 0
-4738 43 0
-4738 73 0
-4738 208 0
-43 -73 -208 4738 0
-4739 44 0
-4739 74 0
-4739 209 0
-44 -74 -209 4739 0
-4740 45 0
-4740 75 0
-4740 210 0
-45 -75 -210 4740 0
-4726 8919 0
-4727 8919 0
-4728 8919 0
-4729 8919 0
-4730 8919 0
-4731 8919 0
-4732 8919 0
-4733 8919 0
-4734 8919 0
-4735 8919 0
-4736 8919 0
-4737 8919 0
-4738 8919 0
-4739 8919 0
-4740 8919 0
-8919 4726 4727 4728 4729 4730 4731 4732 4733 4734 4735 4736 4737 4738 4739 4740 0
-4741 31 0
-4741 61 0
-4741 211 0
-31 -61 -211 4741 0
-4742 32 0
-4742 62 0
-4742 212 0
-32 -62 -212 4742 0
-4743 33 0
-4743 63 0
-4743 213 0
-33 -63 -213 4743 0
-4744 34 0
-4744 64 0
-4744 214 0
-34 -64 -214 4744 0
-4745 35 0
-4745 65 0
-4745 215 0
-35 -65 -215 4745 0
-4746 36 0
-4746 66 0
-4746 216 0
-36 -66 -216 4746 0
-4747 37 0
-4747 67 0
-4747 217 0
-37 -67 -217 4747 0
-4748 38 0
-4748 68 0
-4748 218 0
-38 -68 -218 4748 0
-4749 39 0
-4749 69 0
-4749 219 0
-39 -69 -219 4749 0
-4750 40 0
-4750 70 0
-4750 220 0
-40 -70 -220 4750 0
-4751 41 0
-4751 71 0
-4751 221 0
-41 -71 -221 4751 0
-4752 42 0
-4752 72 0
-4752 222 0
-42 -72 -222 4752 0
-4753 43 0
-4753 73 0
-4753 223 0
-43 -73 -223 4753 0
-4754 44 0
-4754 74 0
-4754 224 0
-44 -74 -224 4754 0
-4755 45 0
-4755 75 0
-4755 225 0
-45 -75 -225 4755 0
-4741 8920 0
-4742 8920 0
-4743 8920 0
-4744 8920 0
-4745 8920 0
-4746 8920 0
-4747 8920 0
-4748 8920 0
-4749 8920 0
-4750 8920 0
-4751 8920 0
-4752 8920 0
-4753 8920 0
-4754 8920 0
-4755 8920 0
-8920 4741 4742 4743 4744 4745 4746 4747 4748 4749 4750 4751 4752 4753 4754 4755 0
-4756 31 0
-4756 76 0
-4756 91 0
-31 -76 -91 4756 0
-4757 32 0
-4757 77 0
-4757 92 0
-32 -77 -92 4757 0
-4758 33 0
-4758 78 0
-4758 93 0
-33 -78 -93 4758 0
-4759 34 0
-4759 79 0
-4759 94 0
-34 -79 -94 4759 0
-4760 35 0
-4760 80 0
-4760 95 0
-35 -80 -95 4760 0
-4761 36 0
-4761 81 0
-4761 96 0
-36 -81 -96 4761 0
-4762 37 0
-4762 82 0
-4762 97 0
-37 -82 -97 4762 0
-4763 38 0
-4763 83 0
-4763 98 0
-38 -83 -98 4763 0
-4764 39 0
-4764 84 0
-4764 99 0
-39 -84 -99 4764 0
-4765 40 0
-4765 85 0
-4765 100 0
-40 -85 -100 4765 0
-4766 41 0
-4766 86 0
-4766 101 0
-41 -86 -101 4766 0
-4767 42 0
-4767 87 0
-4767 102 0
-42 -87 -102 4767 0
-4768 43 0
-4768 88 0
-4768 103 0
-43 -88 -103 4768 0
-4769 44 0
-4769 89 0
-4769 104 0
-44 -89 -104 4769 0
-4770 45 0
-4770 90 0
-4770 105 0
-45 -90 -105 4770 0
-4756 8921 0
-4757 8921 0
-4758 8921 0
-4759 8921 0
-4760 8921 0
-4761 8921 0
-4762 8921 0
-4763 8921 0
-4764 8921 0
-4765 8921 0
-4766 8921 0
-4767 8921 0
-4768 8921 0
-4769 8921 0
-4770 8921 0
-8921 4756 4757 4758 4759 4760 4761 4762 4763 4764 4765 4766 4767 4768 4769 4770 0
-4771 31 0
-4771 76 0
-4771 106 0
-31 -76 -106 4771 0
-4772 32 0
-4772 77 0
-4772 107 0
-32 -77 -107 4772 0
-4773 33 0
-4773 78 0
-4773 108 0
-33 -78 -108 4773 0
-4774 34 0
-4774 79 0
-4774 109 0
-34 -79 -109 4774 0
-4775 35 0
-4775 80 0
-4775 110 0
-35 -80 -110 4775 0
-4776 36 0
-4776 81 0
-4776 111 0
-36 -81 -111 4776 0
-4777 37 0
-4777 82 0
-4777 112 0
-37 -82 -112 4777 0
-4778 38 0
-4778 83 0
-4778 113 0
-38 -83 -113 4778 0
-4779 39 0
-4779 84 0
-4779 114 0
-39 -84 -114 4779 0
-4780 40 0
-4780 85 0
-4780 115 0
-40 -85 -115 4780 0
-4781 41 0
-4781 86 0
-4781 116 0
-41 -86 -116 4781 0
-4782 42 0
-4782 87 0
-4782 117 0
-42 -87 -117 4782 0
-4783 43 0
-4783 88 0
-4783 118 0
-43 -88 -118 4783 0
-4784 44 0
-4784 89 0
-4784 119 0
-44 -89 -119 4784 0
-4785 45 0
-4785 90 0
-4785 120 0
-45 -90 -120 4785 0
-4771 8922 0
-4772 8922 0
-4773 8922 0
-4774 8922 0
-4775 8922 0
-4776 8922 0
-4777 8922 0
-4778 8922 0
-4779 8922 0
-4780 8922 0
-4781 8922 0
-4782 8922 0
-4783 8922 0
-4784 8922 0
-4785 8922 0
-8922 4771 4772 4773 4774 4775 4776 4777 4778 4779 4780 4781 4782 4783 4784 4785 0
-4786 31 0
-4786 76 0
-4786 121 0
-31 -76 -121 4786 0
-4787 32 0
-4787 77 0
-4787 122 0
-32 -77 -122 4787 0
-4788 33 0
-4788 78 0
-4788 123 0
-33 -78 -123 4788 0
-4789 34 0
-4789 79 0
-4789 124 0
-34 -79 -124 4789 0
-4790 35 0
-4790 80 0
-4790 125 0
-35 -80 -125 4790 0
-4791 36 0
-4791 81 0
-4791 126 0
-36 -81 -126 4791 0
-4792 37 0
-4792 82 0
-4792 127 0
-37 -82 -127 4792 0
-4793 38 0
-4793 83 0
-4793 128 0
-38 -83 -128 4793 0
-4794 39 0
-4794 84 0
-4794 129 0
-39 -84 -129 4794 0
-4795 40 0
-4795 85 0
-4795 130 0
-40 -85 -130 4795 0
-4796 41 0
-4796 86 0
-4796 131 0
-41 -86 -131 4796 0
-4797 42 0
-4797 87 0
-4797 132 0
-42 -87 -132 4797 0
-4798 43 0
-4798 88 0
-4798 133 0
-43 -88 -133 4798 0
-4799 44 0
-4799 89 0
-4799 134 0
-44 -89 -134 4799 0
-4800 45 0
-4800 90 0
-4800 135 0
-45 -90 -135 4800 0
-4786 8923 0
-4787 8923 0
-4788 8923 0
-4789 8923 0
-4790 8923 0
-4791 8923 0
-4792 8923 0
-4793 8923 0
-4794 8923 0
-4795 8923 0
-4796 8923 0
-4797 8923 0
-4798 8923 0
-4799 8923 0
-4800 8923 0
-8923 4786 4787 4788 4789 4790 4791 4792 4793 4794 4795 4796 4797 4798 4799 4800 0
-4801 31 0
-4801 76 0
-4801 136 0
-31 -76 -136 4801 0
-4802 32 0
-4802 77 0
-4802 137 0
-32 -77 -137 4802 0
-4803 33 0
-4803 78 0
-4803 138 0
-33 -78 -138 4803 0
-4804 34 0
-4804 79 0
-4804 139 0
-34 -79 -139 4804 0
-4805 35 0
-4805 80 0
-4805 140 0
-35 -80 -140 4805 0
-4806 36 0
-4806 81 0
-4806 141 0
-36 -81 -141 4806 0
-4807 37 0
-4807 82 0
-4807 142 0
-37 -82 -142 4807 0
-4808 38 0
-4808 83 0
-4808 143 0
-38 -83 -143 4808 0
-4809 39 0
-4809 84 0
-4809 144 0
-39 -84 -144 4809 0
-4810 40 0
-4810 85 0
-4810 145 0
-40 -85 -145 4810 0
-4811 41 0
-4811 86 0
-4811 146 0
-41 -86 -146 4811 0
-4812 42 0
-4812 87 0
-4812 147 0
-42 -87 -147 4812 0
-4813 43 0
-4813 88 0
-4813 148 0
-43 -88 -148 4813 0
-4814 44 0
-4814 89 0
-4814 149 0
-44 -89 -149 4814 0
-4815 45 0
-4815 90 0
-4815 150 0
-45 -90 -150 4815 0
-4801 8924 0
-4802 8924 0
-4803 8924 0
-4804 8924 0
-4805 8924 0
-4806 8924 0
-4807 8924 0
-4808 8924 0
-4809 8924 0
-4810 8924 0
-4811 8924 0
-4812 8924 0
-4813 8924 0
-4814 8924 0
-4815 8924 0
-8924 4801 4802 4803 4804 4805 4806 4807 4808 4809 4810 4811 4812 4813 4814 4815 0
-4816 31 0
-4816 76 0
-4816 151 0
-31 -76 -151 4816 0
-4817 32 0
-4817 77 0
-4817 152 0
-32 -77 -152 4817 0
-4818 33 0
-4818 78 0
-4818 153 0
-33 -78 -153 4818 0
-4819 34 0
-4819 79 0
-4819 154 0
-34 -79 -154 4819 0
-4820 35 0
-4820 80 0
-4820 155 0
-35 -80 -155 4820 0
-4821 36 0
-4821 81 0
-4821 156 0
-36 -81 -156 4821 0
-4822 37 0
-4822 82 0
-4822 157 0
-37 -82 -157 4822 0
-4823 38 0
-4823 83 0
-4823 158 0
-38 -83 -158 4823 0
-4824 39 0
-4824 84 0
-4824 159 0
-39 -84 -159 4824 0
-4825 40 0
-4825 85 0
-4825 160 0
-40 -85 -160 4825 0
-4826 41 0
-4826 86 0
-4826 161 0
-41 -86 -161 4826 0
-4827 42 0
-4827 87 0
-4827 162 0
-42 -87 -162 4827 0
-4828 43 0
-4828 88 0
-4828 163 0
-43 -88 -163 4828 0
-4829 44 0
-4829 89 0
-4829 164 0
-44 -89 -164 4829 0
-4830 45 0
-4830 90 0
-4830 165 0
-45 -90 -165 4830 0
-4816 8925 0
-4817 8925 0
-4818 8925 0
-4819 8925 0
-4820 8925 0
-4821 8925 0
-4822 8925 0
-4823 8925 0
-4824 8925 0
-4825 8925 0
-4826 8925 0
-4827 8925 0
-4828 8925 0
-4829 8925 0
-4830 8925 0
-8925 4816 4817 4818 4819 4820 4821 4822 4823 4824 4825 4826 4827 4828 4829 4830 0
-4831 31 0
-4831 76 0
-4831 166 0
-31 -76 -166 4831 0
-4832 32 0
-4832 77 0
-4832 167 0
-32 -77 -167 4832 0
-4833 33 0
-4833 78 0
-4833 168 0
-33 -78 -168 4833 0
-4834 34 0
-4834 79 0
-4834 169 0
-34 -79 -169 4834 0
-4835 35 0
-4835 80 0
-4835 170 0
-35 -80 -170 4835 0
-4836 36 0
-4836 81 0
-4836 171 0
-36 -81 -171 4836 0
-4837 37 0
-4837 82 0
-4837 172 0
-37 -82 -172 4837 0
-4838 38 0
-4838 83 0
-4838 173 0
-38 -83 -173 4838 0
-4839 39 0
-4839 84 0
-4839 174 0
-39 -84 -174 4839 0
-4840 40 0
-4840 85 0
-4840 175 0
-40 -85 -175 4840 0
-4841 41 0
-4841 86 0
-4841 176 0
-41 -86 -176 4841 0
-4842 42 0
-4842 87 0
-4842 177 0
-42 -87 -177 4842 0
-4843 43 0
-4843 88 0
-4843 178 0
-43 -88 -178 4843 0
-4844 44 0
-4844 89 0
-4844 179 0
-44 -89 -179 4844 0
-4845 45 0
-4845 90 0
-4845 180 0
-45 -90 -180 4845 0
-4831 8926 0
-4832 8926 0
-4833 8926 0
-4834 8926 0
-4835 8926 0
-4836 8926 0
-4837 8926 0
-4838 8926 0
-4839 8926 0
-4840 8926 0
-4841 8926 0
-4842 8926 0
-4843 8926 0
-4844 8926 0
-4845 8926 0
-8926 4831 4832 4833 4834 4835 4836 4837 4838 4839 4840 4841 4842 4843 4844 4845 0
-4846 31 0
-4846 76 0
-4846 181 0
-31 -76 -181 4846 0
-4847 32 0
-4847 77 0
-4847 182 0
-32 -77 -182 4847 0
-4848 33 0
-4848 78 0
-4848 183 0
-33 -78 -183 4848 0
-4849 34 0
-4849 79 0
-4849 184 0
-34 -79 -184 4849 0
-4850 35 0
-4850 80 0
-4850 185 0
-35 -80 -185 4850 0
-4851 36 0
-4851 81 0
-4851 186 0
-36 -81 -186 4851 0
-4852 37 0
-4852 82 0
-4852 187 0
-37 -82 -187 4852 0
-4853 38 0
-4853 83 0
-4853 188 0
-38 -83 -188 4853 0
-4854 39 0
-4854 84 0
-4854 189 0
-39 -84 -189 4854 0
-4855 40 0
-4855 85 0
-4855 190 0
-40 -85 -190 4855 0
-4856 41 0
-4856 86 0
-4856 191 0
-41 -86 -191 4856 0
-4857 42 0
-4857 87 0
-4857 192 0
-42 -87 -192 4857 0
-4858 43 0
-4858 88 0
-4858 193 0
-43 -88 -193 4858 0
-4859 44 0
-4859 89 0
-4859 194 0
-44 -89 -194 4859 0
-4860 45 0
-4860 90 0
-4860 195 0
-45 -90 -195 4860 0
-4846 8927 0
-4847 8927 0
-4848 8927 0
-4849 8927 0
-4850 8927 0
-4851 8927 0
-4852 8927 0
-4853 8927 0
-4854 8927 0
-4855 8927 0
-4856 8927 0
-4857 8927 0
-4858 8927 0
-4859 8927 0
-4860 8927 0
-8927 4846 4847 4848 4849 4850 4851 4852 4853 4854 4855 4856 4857 4858 4859 4860 0
-4861 31 0
-4861 76 0
-4861 196 0
-31 -76 -196 4861 0
-4862 32 0
-4862 77 0
-4862 197 0
-32 -77 -197 4862 0
-4863 33 0
-4863 78 0
-4863 198 0
-33 -78 -198 4863 0
-4864 34 0
-4864 79 0
-4864 199 0
-34 -79 -199 4864 0
-4865 35 0
-4865 80 0
-4865 200 0
-35 -80 -200 4865 0
-4866 36 0
-4866 81 0
-4866 201 0
-36 -81 -201 4866 0
-4867 37 0
-4867 82 0
-4867 202 0
-37 -82 -202 4867 0
-4868 38 0
-4868 83 0
-4868 203 0
-38 -83 -203 4868 0
-4869 39 0
-4869 84 0
-4869 204 0
-39 -84 -204 4869 0
-4870 40 0
-4870 85 0
-4870 205 0
-40 -85 -205 4870 0
-4871 41 0
-4871 86 0
-4871 206 0
-41 -86 -206 4871 0
-4872 42 0
-4872 87 0
-4872 207 0
-42 -87 -207 4872 0
-4873 43 0
-4873 88 0
-4873 208 0
-43 -88 -208 4873 0
-4874 44 0
-4874 89 0
-4874 209 0
-44 -89 -209 4874 0
-4875 45 0
-4875 90 0
-4875 210 0
-45 -90 -210 4875 0
-4861 8928 0
-4862 8928 0
-4863 8928 0
-4864 8928 0
-4865 8928 0
-4866 8928 0
-4867 8928 0
-4868 8928 0
-4869 8928 0
-4870 8928 0
-4871 8928 0
-4872 8928 0
-4873 8928 0
-4874 8928 0
-4875 8928 0
-8928 4861 4862 4863 4864 4865 4866 4867 4868 4869 4870 4871 4872 4873 4874 4875 0
-4876 31 0
-4876 76 0
-4876 211 0
-31 -76 -211 4876 0
-4877 32 0
-4877 77 0
-4877 212 0
-32 -77 -212 4877 0
-4878 33 0
-4878 78 0
-4878 213 0
-33 -78 -213 4878 0
-4879 34 0
-4879 79 0
-4879 214 0
-34 -79 -214 4879 0
-4880 35 0
-4880 80 0
-4880 215 0
-35 -80 -215 4880 0
-4881 36 0
-4881 81 0
-4881 216 0
-36 -81 -216 4881 0
-4882 37 0
-4882 82 0
-4882 217 0
-37 -82 -217 4882 0
-4883 38 0
-4883 83 0
-4883 218 0
-38 -83 -218 4883 0
-4884 39 0
-4884 84 0
-4884 219 0
-39 -84 -219 4884 0
-4885 40 0
-4885 85 0
-4885 220 0
-40 -85 -220 4885 0
-4886 41 0
-4886 86 0
-4886 221 0
-41 -86 -221 4886 0
-4887 42 0
-4887 87 0
-4887 222 0
-42 -87 -222 4887 0
-4888 43 0
-4888 88 0
-4888 223 0
-43 -88 -223 4888 0
-4889 44 0
-4889 89 0
-4889 224 0
-44 -89 -224 4889 0
-4890 45 0
-4890 90 0
-4890 225 0
-45 -90 -225 4890 0
-4876 8929 0
-4877 8929 0
-4878 8929 0
-4879 8929 0
-4880 8929 0
-4881 8929 0
-4882 8929 0
-4883 8929 0
-4884 8929 0
-4885 8929 0
-4886 8929 0
-4887 8929 0
-4888 8929 0
-4889 8929 0
-4890 8929 0
-8929 4876 4877 4878 4879 4880 4881 4882 4883 4884 4885 4886 4887 4888 4889 4890 0
-4891 31 0
-4891 91 0
-4891 106 0
-31 -91 -106 4891 0
-4892 32 0
-4892 92 0
-4892 107 0
-32 -92 -107 4892 0
-4893 33 0
-4893 93 0
-4893 108 0
-33 -93 -108 4893 0
-4894 34 0
-4894 94 0
-4894 109 0
-34 -94 -109 4894 0
-4895 35 0
-4895 95 0
-4895 110 0
-35 -95 -110 4895 0
-4896 36 0
-4896 96 0
-4896 111 0
-36 -96 -111 4896 0
-4897 37 0
-4897 97 0
-4897 112 0
-37 -97 -112 4897 0
-4898 38 0
-4898 98 0
-4898 113 0
-38 -98 -113 4898 0
-4899 39 0
-4899 99 0
-4899 114 0
-39 -99 -114 4899 0
-4900 40 0
-4900 100 0
-4900 115 0
-40 -100 -115 4900 0
-4901 41 0
-4901 101 0
-4901 116 0
-41 -101 -116 4901 0
-4902 42 0
-4902 102 0
-4902 117 0
-42 -102 -117 4902 0
-4903 43 0
-4903 103 0
-4903 118 0
-43 -103 -118 4903 0
-4904 44 0
-4904 104 0
-4904 119 0
-44 -104 -119 4904 0
-4905 45 0
-4905 105 0
-4905 120 0
-45 -105 -120 4905 0
-4891 8930 0
-4892 8930 0
-4893 8930 0
-4894 8930 0
-4895 8930 0
-4896 8930 0
-4897 8930 0
-4898 8930 0
-4899 8930 0
-4900 8930 0
-4901 8930 0
-4902 8930 0
-4903 8930 0
-4904 8930 0
-4905 8930 0
-8930 4891 4892 4893 4894 4895 4896 4897 4898 4899 4900 4901 4902 4903 4904 4905 0
-4906 31 0
-4906 91 0
-4906 121 0
-31 -91 -121 4906 0
-4907 32 0
-4907 92 0
-4907 122 0
-32 -92 -122 4907 0
-4908 33 0
-4908 93 0
-4908 123 0
-33 -93 -123 4908 0
-4909 34 0
-4909 94 0
-4909 124 0
-34 -94 -124 4909 0
-4910 35 0
-4910 95 0
-4910 125 0
-35 -95 -125 4910 0
-4911 36 0
-4911 96 0
-4911 126 0
-36 -96 -126 4911 0
-4912 37 0
-4912 97 0
-4912 127 0
-37 -97 -127 4912 0
-4913 38 0
-4913 98 0
-4913 128 0
-38 -98 -128 4913 0
-4914 39 0
-4914 99 0
-4914 129 0
-39 -99 -129 4914 0
-4915 40 0
-4915 100 0
-4915 130 0
-40 -100 -130 4915 0
-4916 41 0
-4916 101 0
-4916 131 0
-41 -101 -131 4916 0
-4917 42 0
-4917 102 0
-4917 132 0
-42 -102 -132 4917 0
-4918 43 0
-4918 103 0
-4918 133 0
-43 -103 -133 4918 0
-4919 44 0
-4919 104 0
-4919 134 0
-44 -104 -134 4919 0
-4920 45 0
-4920 105 0
-4920 135 0
-45 -105 -135 4920 0
-4906 8931 0
-4907 8931 0
-4908 8931 0
-4909 8931 0
-4910 8931 0
-4911 8931 0
-4912 8931 0
-4913 8931 0
-4914 8931 0
-4915 8931 0
-4916 8931 0
-4917 8931 0
-4918 8931 0
-4919 8931 0
-4920 8931 0
-8931 4906 4907 4908 4909 4910 4911 4912 4913 4914 4915 4916 4917 4918 4919 4920 0
-4921 31 0
-4921 91 0
-4921 136 0
-31 -91 -136 4921 0
-4922 32 0
-4922 92 0
-4922 137 0
-32 -92 -137 4922 0
-4923 33 0
-4923 93 0
-4923 138 0
-33 -93 -138 4923 0
-4924 34 0
-4924 94 0
-4924 139 0
-34 -94 -139 4924 0
-4925 35 0
-4925 95 0
-4925 140 0
-35 -95 -140 4925 0
-4926 36 0
-4926 96 0
-4926 141 0
-36 -96 -141 4926 0
-4927 37 0
-4927 97 0
-4927 142 0
-37 -97 -142 4927 0
-4928 38 0
-4928 98 0
-4928 143 0
-38 -98 -143 4928 0
-4929 39 0
-4929 99 0
-4929 144 0
-39 -99 -144 4929 0
-4930 40 0
-4930 100 0
-4930 145 0
-40 -100 -145 4930 0
-4931 41 0
-4931 101 0
-4931 146 0
-41 -101 -146 4931 0
-4932 42 0
-4932 102 0
-4932 147 0
-42 -102 -147 4932 0
-4933 43 0
-4933 103 0
-4933 148 0
-43 -103 -148 4933 0
-4934 44 0
-4934 104 0
-4934 149 0
-44 -104 -149 4934 0
-4935 45 0
-4935 105 0
-4935 150 0
-45 -105 -150 4935 0
-4921 8932 0
-4922 8932 0
-4923 8932 0
-4924 8932 0
-4925 8932 0
-4926 8932 0
-4927 8932 0
-4928 8932 0
-4929 8932 0
-4930 8932 0
-4931 8932 0
-4932 8932 0
-4933 8932 0
-4934 8932 0
-4935 8932 0
-8932 4921 4922 4923 4924 4925 4926 4927 4928 4929 4930 4931 4932 4933 4934 4935 0
-4936 31 0
-4936 91 0
-4936 151 0
-31 -91 -151 4936 0
-4937 32 0
-4937 92 0
-4937 152 0
-32 -92 -152 4937 0
-4938 33 0
-4938 93 0
-4938 153 0
-33 -93 -153 4938 0
-4939 34 0
-4939 94 0
-4939 154 0
-34 -94 -154 4939 0
-4940 35 0
-4940 95 0
-4940 155 0
-35 -95 -155 4940 0
-4941 36 0
-4941 96 0
-4941 156 0
-36 -96 -156 4941 0
-4942 37 0
-4942 97 0
-4942 157 0
-37 -97 -157 4942 0
-4943 38 0
-4943 98 0
-4943 158 0
-38 -98 -158 4943 0
-4944 39 0
-4944 99 0
-4944 159 0
-39 -99 -159 4944 0
-4945 40 0
-4945 100 0
-4945 160 0
-40 -100 -160 4945 0
-4946 41 0
-4946 101 0
-4946 161 0
-41 -101 -161 4946 0
-4947 42 0
-4947 102 0
-4947 162 0
-42 -102 -162 4947 0
-4948 43 0
-4948 103 0
-4948 163 0
-43 -103 -163 4948 0
-4949 44 0
-4949 104 0
-4949 164 0
-44 -104 -164 4949 0
-4950 45 0
-4950 105 0
-4950 165 0
-45 -105 -165 4950 0
-4936 8933 0
-4937 8933 0
-4938 8933 0
-4939 8933 0
-4940 8933 0
-4941 8933 0
-4942 8933 0
-4943 8933 0
-4944 8933 0
-4945 8933 0
-4946 8933 0
-4947 8933 0
-4948 8933 0
-4949 8933 0
-4950 8933 0
-8933 4936 4937 4938 4939 4940 4941 4942 4943 4944 4945 4946 4947 4948 4949 4950 0
-4951 31 0
-4951 91 0
-4951 166 0
-31 -91 -166 4951 0
-4952 32 0
-4952 92 0
-4952 167 0
-32 -92 -167 4952 0
-4953 33 0
-4953 93 0
-4953 168 0
-33 -93 -168 4953 0
-4954 34 0
-4954 94 0
-4954 169 0
-34 -94 -169 4954 0
-4955 35 0
-4955 95 0
-4955 170 0
-35 -95 -170 4955 0
-4956 36 0
-4956 96 0
-4956 171 0
-36 -96 -171 4956 0
-4957 37 0
-4957 97 0
-4957 172 0
-37 -97 -172 4957 0
-4958 38 0
-4958 98 0
-4958 173 0
-38 -98 -173 4958 0
-4959 39 0
-4959 99 0
-4959 174 0
-39 -99 -174 4959 0
-4960 40 0
-4960 100 0
-4960 175 0
-40 -100 -175 4960 0
-4961 41 0
-4961 101 0
-4961 176 0
-41 -101 -176 4961 0
-4962 42 0
-4962 102 0
-4962 177 0
-42 -102 -177 4962 0
-4963 43 0
-4963 103 0
-4963 178 0
-43 -103 -178 4963 0
-4964 44 0
-4964 104 0
-4964 179 0
-44 -104 -179 4964 0
-4965 45 0
-4965 105 0
-4965 180 0
-45 -105 -180 4965 0
-4951 8934 0
-4952 8934 0
-4953 8934 0
-4954 8934 0
-4955 8934 0
-4956 8934 0
-4957 8934 0
-4958 8934 0
-4959 8934 0
-4960 8934 0
-4961 8934 0
-4962 8934 0
-4963 8934 0
-4964 8934 0
-4965 8934 0
-8934 4951 4952 4953 4954 4955 4956 4957 4958 4959 4960 4961 4962 4963 4964 4965 0
-4966 31 0
-4966 91 0
-4966 181 0
-31 -91 -181 4966 0
-4967 32 0
-4967 92 0
-4967 182 0
-32 -92 -182 4967 0
-4968 33 0
-4968 93 0
-4968 183 0
-33 -93 -183 4968 0
-4969 34 0
-4969 94 0
-4969 184 0
-34 -94 -184 4969 0
-4970 35 0
-4970 95 0
-4970 185 0
-35 -95 -185 4970 0
-4971 36 0
-4971 96 0
-4971 186 0
-36 -96 -186 4971 0
-4972 37 0
-4972 97 0
-4972 187 0
-37 -97 -187 4972 0
-4973 38 0
-4973 98 0
-4973 188 0
-38 -98 -188 4973 0
-4974 39 0
-4974 99 0
-4974 189 0
-39 -99 -189 4974 0
-4975 40 0
-4975 100 0
-4975 190 0
-40 -100 -190 4975 0
-4976 41 0
-4976 101 0
-4976 191 0
-41 -101 -191 4976 0
-4977 42 0
-4977 102 0
-4977 192 0
-42 -102 -192 4977 0
-4978 43 0
-4978 103 0
-4978 193 0
-43 -103 -193 4978 0
-4979 44 0
-4979 104 0
-4979 194 0
-44 -104 -194 4979 0
-4980 45 0
-4980 105 0
-4980 195 0
-45 -105 -195 4980 0
-4966 8935 0
-4967 8935 0
-4968 8935 0
-4969 8935 0
-4970 8935 0
-4971 8935 0
-4972 8935 0
-4973 8935 0
-4974 8935 0
-4975 8935 0
-4976 8935 0
-4977 8935 0
-4978 8935 0
-4979 8935 0
-4980 8935 0
-8935 4966 4967 4968 4969 4970 4971 4972 4973 4974 4975 4976 4977 4978 4979 4980 0
-4981 31 0
-4981 91 0
-4981 196 0
-31 -91 -196 4981 0
-4982 32 0
-4982 92 0
-4982 197 0
-32 -92 -197 4982 0
-4983 33 0
-4983 93 0
-4983 198 0
-33 -93 -198 4983 0
-4984 34 0
-4984 94 0
-4984 199 0
-34 -94 -199 4984 0
-4985 35 0
-4985 95 0
-4985 200 0
-35 -95 -200 4985 0
-4986 36 0
-4986 96 0
-4986 201 0
-36 -96 -201 4986 0
-4987 37 0
-4987 97 0
-4987 202 0
-37 -97 -202 4987 0
-4988 38 0
-4988 98 0
-4988 203 0
-38 -98 -203 4988 0
-4989 39 0
-4989 99 0
-4989 204 0
-39 -99 -204 4989 0
-4990 40 0
-4990 100 0
-4990 205 0
-40 -100 -205 4990 0
-4991 41 0
-4991 101 0
-4991 206 0
-41 -101 -206 4991 0
-4992 42 0
-4992 102 0
-4992 207 0
-42 -102 -207 4992 0
-4993 43 0
-4993 103 0
-4993 208 0
-43 -103 -208 4993 0
-4994 44 0
-4994 104 0
-4994 209 0
-44 -104 -209 4994 0
-4995 45 0
-4995 105 0
-4995 210 0
-45 -105 -210 4995 0
-4981 8936 0
-4982 8936 0
-4983 8936 0
-4984 8936 0
-4985 8936 0
-4986 8936 0
-4987 8936 0
-4988 8936 0
-4989 8936 0
-4990 8936 0
-4991 8936 0
-4992 8936 0
-4993 8936 0
-4994 8936 0
-4995 8936 0
-8936 4981 4982 4983 4984 4985 4986 4987 4988 4989 4990 4991 4992 4993 4994 4995 0
-4996 31 0
-4996 91 0
-4996 211 0
-31 -91 -211 4996 0
-4997 32 0
-4997 92 0
-4997 212 0
-32 -92 -212 4997 0
-4998 33 0
-4998 93 0
-4998 213 0
-33 -93 -213 4998 0
-4999 34 0
-4999 94 0
-4999 214 0
-34 -94 -214 4999 0
-5000 35 0
-5000 95 0
-5000 215 0
-35 -95 -215 5000 0
-5001 36 0
-5001 96 0
-5001 216 0
-36 -96 -216 5001 0
-5002 37 0
-5002 97 0
-5002 217 0
-37 -97 -217 5002 0
-5003 38 0
-5003 98 0
-5003 218 0
-38 -98 -218 5003 0
-5004 39 0
-5004 99 0
-5004 219 0
-39 -99 -219 5004 0
-5005 40 0
-5005 100 0
-5005 220 0
-40 -100 -220 5005 0
-5006 41 0
-5006 101 0
-5006 221 0
-41 -101 -221 5006 0
-5007 42 0
-5007 102 0
-5007 222 0
-42 -102 -222 5007 0
-5008 43 0
-5008 103 0
-5008 223 0
-43 -103 -223 5008 0
-5009 44 0
-5009 104 0
-5009 224 0
-44 -104 -224 5009 0
-5010 45 0
-5010 105 0
-5010 225 0
-45 -105 -225 5010 0
-4996 8937 0
-4997 8937 0
-4998 8937 0
-4999 8937 0
-5000 8937 0
-5001 8937 0
-5002 8937 0
-5003 8937 0
-5004 8937 0
-5005 8937 0
-5006 8937 0
-5007 8937 0
-5008 8937 0
-5009 8937 0
-5010 8937 0
-8937 4996 4997 4998 4999 5000 5001 5002 5003 5004 5005 5006 5007 5008 5009 5010 0
-5011 31 0
-5011 106 0
-5011 121 0
-31 -106 -121 5011 0
-5012 32 0
-5012 107 0
-5012 122 0
-32 -107 -122 5012 0
-5013 33 0
-5013 108 0
-5013 123 0
-33 -108 -123 5013 0
-5014 34 0
-5014 109 0
-5014 124 0
-34 -109 -124 5014 0
-5015 35 0
-5015 110 0
-5015 125 0
-35 -110 -125 5015 0
-5016 36 0
-5016 111 0
-5016 126 0
-36 -111 -126 5016 0
-5017 37 0
-5017 112 0
-5017 127 0
-37 -112 -127 5017 0
-5018 38 0
-5018 113 0
-5018 128 0
-38 -113 -128 5018 0
-5019 39 0
-5019 114 0
-5019 129 0
-39 -114 -129 5019 0
-5020 40 0
-5020 115 0
-5020 130 0
-40 -115 -130 5020 0
-5021 41 0
-5021 116 0
-5021 131 0
-41 -116 -131 5021 0
-5022 42 0
-5022 117 0
-5022 132 0
-42 -117 -132 5022 0
-5023 43 0
-5023 118 0
-5023 133 0
-43 -118 -133 5023 0
-5024 44 0
-5024 119 0
-5024 134 0
-44 -119 -134 5024 0
-5025 45 0
-5025 120 0
-5025 135 0
-45 -120 -135 5025 0
-5011 8938 0
-5012 8938 0
-5013 8938 0
-5014 8938 0
-5015 8938 0
-5016 8938 0
-5017 8938 0
-5018 8938 0
-5019 8938 0
-5020 8938 0
-5021 8938 0
-5022 8938 0
-5023 8938 0
-5024 8938 0
-5025 8938 0
-8938 5011 5012 5013 5014 5015 5016 5017 5018 5019 5020 5021 5022 5023 5024 5025 0
-5026 31 0
-5026 106 0
-5026 136 0
-31 -106 -136 5026 0
-5027 32 0
-5027 107 0
-5027 137 0
-32 -107 -137 5027 0
-5028 33 0
-5028 108 0
-5028 138 0
-33 -108 -138 5028 0
-5029 34 0
-5029 109 0
-5029 139 0
-34 -109 -139 5029 0
-5030 35 0
-5030 110 0
-5030 140 0
-35 -110 -140 5030 0
-5031 36 0
-5031 111 0
-5031 141 0
-36 -111 -141 5031 0
-5032 37 0
-5032 112 0
-5032 142 0
-37 -112 -142 5032 0
-5033 38 0
-5033 113 0
-5033 143 0
-38 -113 -143 5033 0
-5034 39 0
-5034 114 0
-5034 144 0
-39 -114 -144 5034 0
-5035 40 0
-5035 115 0
-5035 145 0
-40 -115 -145 5035 0
-5036 41 0
-5036 116 0
-5036 146 0
-41 -116 -146 5036 0
-5037 42 0
-5037 117 0
-5037 147 0
-42 -117 -147 5037 0
-5038 43 0
-5038 118 0
-5038 148 0
-43 -118 -148 5038 0
-5039 44 0
-5039 119 0
-5039 149 0
-44 -119 -149 5039 0
-5040 45 0
-5040 120 0
-5040 150 0
-45 -120 -150 5040 0
-5026 8939 0
-5027 8939 0
-5028 8939 0
-5029 8939 0
-5030 8939 0
-5031 8939 0
-5032 8939 0
-5033 8939 0
-5034 8939 0
-5035 8939 0
-5036 8939 0
-5037 8939 0
-5038 8939 0
-5039 8939 0
-5040 8939 0
-8939 5026 5027 5028 5029 5030 5031 5032 5033 5034 5035 5036 5037 5038 5039 5040 0
-5041 31 0
-5041 106 0
-5041 151 0
-31 -106 -151 5041 0
-5042 32 0
-5042 107 0
-5042 152 0
-32 -107 -152 5042 0
-5043 33 0
-5043 108 0
-5043 153 0
-33 -108 -153 5043 0
-5044 34 0
-5044 109 0
-5044 154 0
-34 -109 -154 5044 0
-5045 35 0
-5045 110 0
-5045 155 0
-35 -110 -155 5045 0
-5046 36 0
-5046 111 0
-5046 156 0
-36 -111 -156 5046 0
-5047 37 0
-5047 112 0
-5047 157 0
-37 -112 -157 5047 0
-5048 38 0
-5048 113 0
-5048 158 0
-38 -113 -158 5048 0
-5049 39 0
-5049 114 0
-5049 159 0
-39 -114 -159 5049 0
-5050 40 0
-5050 115 0
-5050 160 0
-40 -115 -160 5050 0
-5051 41 0
-5051 116 0
-5051 161 0
-41 -116 -161 5051 0
-5052 42 0
-5052 117 0
-5052 162 0
-42 -117 -162 5052 0
-5053 43 0
-5053 118 0
-5053 163 0
-43 -118 -163 5053 0
-5054 44 0
-5054 119 0
-5054 164 0
-44 -119 -164 5054 0
-5055 45 0
-5055 120 0
-5055 165 0
-45 -120 -165 5055 0
-5041 8940 0
-5042 8940 0
-5043 8940 0
-5044 8940 0
-5045 8940 0
-5046 8940 0
-5047 8940 0
-5048 8940 0
-5049 8940 0
-5050 8940 0
-5051 8940 0
-5052 8940 0
-5053 8940 0
-5054 8940 0
-5055 8940 0
-8940 5041 5042 5043 5044 5045 5046 5047 5048 5049 5050 5051 5052 5053 5054 5055 0
-5056 31 0
-5056 106 0
-5056 166 0
-31 -106 -166 5056 0
-5057 32 0
-5057 107 0
-5057 167 0
-32 -107 -167 5057 0
-5058 33 0
-5058 108 0
-5058 168 0
-33 -108 -168 5058 0
-5059 34 0
-5059 109 0
-5059 169 0
-34 -109 -169 5059 0
-5060 35 0
-5060 110 0
-5060 170 0
-35 -110 -170 5060 0
-5061 36 0
-5061 111 0
-5061 171 0
-36 -111 -171 5061 0
-5062 37 0
-5062 112 0
-5062 172 0
-37 -112 -172 5062 0
-5063 38 0
-5063 113 0
-5063 173 0
-38 -113 -173 5063 0
-5064 39 0
-5064 114 0
-5064 174 0
-39 -114 -174 5064 0
-5065 40 0
-5065 115 0
-5065 175 0
-40 -115 -175 5065 0
-5066 41 0
-5066 116 0
-5066 176 0
-41 -116 -176 5066 0
-5067 42 0
-5067 117 0
-5067 177 0
-42 -117 -177 5067 0
-5068 43 0
-5068 118 0
-5068 178 0
-43 -118 -178 5068 0
-5069 44 0
-5069 119 0
-5069 179 0
-44 -119 -179 5069 0
-5070 45 0
-5070 120 0
-5070 180 0
-45 -120 -180 5070 0
-5056 8941 0
-5057 8941 0
-5058 8941 0
-5059 8941 0
-5060 8941 0
-5061 8941 0
-5062 8941 0
-5063 8941 0
-5064 8941 0
-5065 8941 0
-5066 8941 0
-5067 8941 0
-5068 8941 0
-5069 8941 0
-5070 8941 0
-8941 5056 5057 5058 5059 5060 5061 5062 5063 5064 5065 5066 5067 5068 5069 5070 0
-5071 31 0
-5071 106 0
-5071 181 0
-31 -106 -181 5071 0
-5072 32 0
-5072 107 0
-5072 182 0
-32 -107 -182 5072 0
-5073 33 0
-5073 108 0
-5073 183 0
-33 -108 -183 5073 0
-5074 34 0
-5074 109 0
-5074 184 0
-34 -109 -184 5074 0
-5075 35 0
-5075 110 0
-5075 185 0
-35 -110 -185 5075 0
-5076 36 0
-5076 111 0
-5076 186 0
-36 -111 -186 5076 0
-5077 37 0
-5077 112 0
-5077 187 0
-37 -112 -187 5077 0
-5078 38 0
-5078 113 0
-5078 188 0
-38 -113 -188 5078 0
-5079 39 0
-5079 114 0
-5079 189 0
-39 -114 -189 5079 0
-5080 40 0
-5080 115 0
-5080 190 0
-40 -115 -190 5080 0
-5081 41 0
-5081 116 0
-5081 191 0
-41 -116 -191 5081 0
-5082 42 0
-5082 117 0
-5082 192 0
-42 -117 -192 5082 0
-5083 43 0
-5083 118 0
-5083 193 0
-43 -118 -193 5083 0
-5084 44 0
-5084 119 0
-5084 194 0
-44 -119 -194 5084 0
-5085 45 0
-5085 120 0
-5085 195 0
-45 -120 -195 5085 0
-5071 8942 0
-5072 8942 0
-5073 8942 0
-5074 8942 0
-5075 8942 0
-5076 8942 0
-5077 8942 0
-5078 8942 0
-5079 8942 0
-5080 8942 0
-5081 8942 0
-5082 8942 0
-5083 8942 0
-5084 8942 0
-5085 8942 0
-8942 5071 5072 5073 5074 5075 5076 5077 5078 5079 5080 5081 5082 5083 5084 5085 0
-5086 31 0
-5086 106 0
-5086 196 0
-31 -106 -196 5086 0
-5087 32 0
-5087 107 0
-5087 197 0
-32 -107 -197 5087 0
-5088 33 0
-5088 108 0
-5088 198 0
-33 -108 -198 5088 0
-5089 34 0
-5089 109 0
-5089 199 0
-34 -109 -199 5089 0
-5090 35 0
-5090 110 0
-5090 200 0
-35 -110 -200 5090 0
-5091 36 0
-5091 111 0
-5091 201 0
-36 -111 -201 5091 0
-5092 37 0
-5092 112 0
-5092 202 0
-37 -112 -202 5092 0
-5093 38 0
-5093 113 0
-5093 203 0
-38 -113 -203 5093 0
-5094 39 0
-5094 114 0
-5094 204 0
-39 -114 -204 5094 0
-5095 40 0
-5095 115 0
-5095 205 0
-40 -115 -205 5095 0
-5096 41 0
-5096 116 0
-5096 206 0
-41 -116 -206 5096 0
-5097 42 0
-5097 117 0
-5097 207 0
-42 -117 -207 5097 0
-5098 43 0
-5098 118 0
-5098 208 0
-43 -118 -208 5098 0
-5099 44 0
-5099 119 0
-5099 209 0
-44 -119 -209 5099 0
-5100 45 0
-5100 120 0
-5100 210 0
-45 -120 -210 5100 0
-5086 8943 0
-5087 8943 0
-5088 8943 0
-5089 8943 0
-5090 8943 0
-5091 8943 0
-5092 8943 0
-5093 8943 0
-5094 8943 0
-5095 8943 0
-5096 8943 0
-5097 8943 0
-5098 8943 0
-5099 8943 0
-5100 8943 0
-8943 5086 5087 5088 5089 5090 5091 5092 5093 5094 5095 5096 5097 5098 5099 5100 0
-5101 31 0
-5101 106 0
-5101 211 0
-31 -106 -211 5101 0
-5102 32 0
-5102 107 0
-5102 212 0
-32 -107 -212 5102 0
-5103 33 0
-5103 108 0
-5103 213 0
-33 -108 -213 5103 0
-5104 34 0
-5104 109 0
-5104 214 0
-34 -109 -214 5104 0
-5105 35 0
-5105 110 0
-5105 215 0
-35 -110 -215 5105 0
-5106 36 0
-5106 111 0
-5106 216 0
-36 -111 -216 5106 0
-5107 37 0
-5107 112 0
-5107 217 0
-37 -112 -217 5107 0
-5108 38 0
-5108 113 0
-5108 218 0
-38 -113 -218 5108 0
-5109 39 0
-5109 114 0
-5109 219 0
-39 -114 -219 5109 0
-5110 40 0
-5110 115 0
-5110 220 0
-40 -115 -220 5110 0
-5111 41 0
-5111 116 0
-5111 221 0
-41 -116 -221 5111 0
-5112 42 0
-5112 117 0
-5112 222 0
-42 -117 -222 5112 0
-5113 43 0
-5113 118 0
-5113 223 0
-43 -118 -223 5113 0
-5114 44 0
-5114 119 0
-5114 224 0
-44 -119 -224 5114 0
-5115 45 0
-5115 120 0
-5115 225 0
-45 -120 -225 5115 0
-5101 8944 0
-5102 8944 0
-5103 8944 0
-5104 8944 0
-5105 8944 0
-5106 8944 0
-5107 8944 0
-5108 8944 0
-5109 8944 0
-5110 8944 0
-5111 8944 0
-5112 8944 0
-5113 8944 0
-5114 8944 0
-5115 8944 0
-8944 5101 5102 5103 5104 5105 5106 5107 5108 5109 5110 5111 5112 5113 5114 5115 0
-5116 31 0
-5116 121 0
-5116 136 0
-31 -121 -136 5116 0
-5117 32 0
-5117 122 0
-5117 137 0
-32 -122 -137 5117 0
-5118 33 0
-5118 123 0
-5118 138 0
-33 -123 -138 5118 0
-5119 34 0
-5119 124 0
-5119 139 0
-34 -124 -139 5119 0
-5120 35 0
-5120 125 0
-5120 140 0
-35 -125 -140 5120 0
-5121 36 0
-5121 126 0
-5121 141 0
-36 -126 -141 5121 0
-5122 37 0
-5122 127 0
-5122 142 0
-37 -127 -142 5122 0
-5123 38 0
-5123 128 0
-5123 143 0
-38 -128 -143 5123 0
-5124 39 0
-5124 129 0
-5124 144 0
-39 -129 -144 5124 0
-5125 40 0
-5125 130 0
-5125 145 0
-40 -130 -145 5125 0
-5126 41 0
-5126 131 0
-5126 146 0
-41 -131 -146 5126 0
-5127 42 0
-5127 132 0
-5127 147 0
-42 -132 -147 5127 0
-5128 43 0
-5128 133 0
-5128 148 0
-43 -133 -148 5128 0
-5129 44 0
-5129 134 0
-5129 149 0
-44 -134 -149 5129 0
-5130 45 0
-5130 135 0
-5130 150 0
-45 -135 -150 5130 0
-5116 8945 0
-5117 8945 0
-5118 8945 0
-5119 8945 0
-5120 8945 0
-5121 8945 0
-5122 8945 0
-5123 8945 0
-5124 8945 0
-5125 8945 0
-5126 8945 0
-5127 8945 0
-5128 8945 0
-5129 8945 0
-5130 8945 0
-8945 5116 5117 5118 5119 5120 5121 5122 5123 5124 5125 5126 5127 5128 5129 5130 0
-5131 31 0
-5131 121 0
-5131 151 0
-31 -121 -151 5131 0
-5132 32 0
-5132 122 0
-5132 152 0
-32 -122 -152 5132 0
-5133 33 0
-5133 123 0
-5133 153 0
-33 -123 -153 5133 0
-5134 34 0
-5134 124 0
-5134 154 0
-34 -124 -154 5134 0
-5135 35 0
-5135 125 0
-5135 155 0
-35 -125 -155 5135 0
-5136 36 0
-5136 126 0
-5136 156 0
-36 -126 -156 5136 0
-5137 37 0
-5137 127 0
-5137 157 0
-37 -127 -157 5137 0
-5138 38 0
-5138 128 0
-5138 158 0
-38 -128 -158 5138 0
-5139 39 0
-5139 129 0
-5139 159 0
-39 -129 -159 5139 0
-5140 40 0
-5140 130 0
-5140 160 0
-40 -130 -160 5140 0
-5141 41 0
-5141 131 0
-5141 161 0
-41 -131 -161 5141 0
-5142 42 0
-5142 132 0
-5142 162 0
-42 -132 -162 5142 0
-5143 43 0
-5143 133 0
-5143 163 0
-43 -133 -163 5143 0
-5144 44 0
-5144 134 0
-5144 164 0
-44 -134 -164 5144 0
-5145 45 0
-5145 135 0
-5145 165 0
-45 -135 -165 5145 0
-5131 8946 0
-5132 8946 0
-5133 8946 0
-5134 8946 0
-5135 8946 0
-5136 8946 0
-5137 8946 0
-5138 8946 0
-5139 8946 0
-5140 8946 0
-5141 8946 0
-5142 8946 0
-5143 8946 0
-5144 8946 0
-5145 8946 0
-8946 5131 5132 5133 5134 5135 5136 5137 5138 5139 5140 5141 5142 5143 5144 5145 0
-5146 31 0
-5146 121 0
-5146 166 0
-31 -121 -166 5146 0
-5147 32 0
-5147 122 0
-5147 167 0
-32 -122 -167 5147 0
-5148 33 0
-5148 123 0
-5148 168 0
-33 -123 -168 5148 0
-5149 34 0
-5149 124 0
-5149 169 0
-34 -124 -169 5149 0
-5150 35 0
-5150 125 0
-5150 170 0
-35 -125 -170 5150 0
-5151 36 0
-5151 126 0
-5151 171 0
-36 -126 -171 5151 0
-5152 37 0
-5152 127 0
-5152 172 0
-37 -127 -172 5152 0
-5153 38 0
-5153 128 0
-5153 173 0
-38 -128 -173 5153 0
-5154 39 0
-5154 129 0
-5154 174 0
-39 -129 -174 5154 0
-5155 40 0
-5155 130 0
-5155 175 0
-40 -130 -175 5155 0
-5156 41 0
-5156 131 0
-5156 176 0
-41 -131 -176 5156 0
-5157 42 0
-5157 132 0
-5157 177 0
-42 -132 -177 5157 0
-5158 43 0
-5158 133 0
-5158 178 0
-43 -133 -178 5158 0
-5159 44 0
-5159 134 0
-5159 179 0
-44 -134 -179 5159 0
-5160 45 0
-5160 135 0
-5160 180 0
-45 -135 -180 5160 0
-5146 8947 0
-5147 8947 0
-5148 8947 0
-5149 8947 0
-5150 8947 0
-5151 8947 0
-5152 8947 0
-5153 8947 0
-5154 8947 0
-5155 8947 0
-5156 8947 0
-5157 8947 0
-5158 8947 0
-5159 8947 0
-5160 8947 0
-8947 5146 5147 5148 5149 5150 5151 5152 5153 5154 5155 5156 5157 5158 5159 5160 0
-5161 31 0
-5161 121 0
-5161 181 0
-31 -121 -181 5161 0
-5162 32 0
-5162 122 0
-5162 182 0
-32 -122 -182 5162 0
-5163 33 0
-5163 123 0
-5163 183 0
-33 -123 -183 5163 0
-5164 34 0
-5164 124 0
-5164 184 0
-34 -124 -184 5164 0
-5165 35 0
-5165 125 0
-5165 185 0
-35 -125 -185 5165 0
-5166 36 0
-5166 126 0
-5166 186 0
-36 -126 -186 5166 0
-5167 37 0
-5167 127 0
-5167 187 0
-37 -127 -187 5167 0
-5168 38 0
-5168 128 0
-5168 188 0
-38 -128 -188 5168 0
-5169 39 0
-5169 129 0
-5169 189 0
-39 -129 -189 5169 0
-5170 40 0
-5170 130 0
-5170 190 0
-40 -130 -190 5170 0
-5171 41 0
-5171 131 0
-5171 191 0
-41 -131 -191 5171 0
-5172 42 0
-5172 132 0
-5172 192 0
-42 -132 -192 5172 0
-5173 43 0
-5173 133 0
-5173 193 0
-43 -133 -193 5173 0
-5174 44 0
-5174 134 0
-5174 194 0
-44 -134 -194 5174 0
-5175 45 0
-5175 135 0
-5175 195 0
-45 -135 -195 5175 0
-5161 8948 0
-5162 8948 0
-5163 8948 0
-5164 8948 0
-5165 8948 0
-5166 8948 0
-5167 8948 0
-5168 8948 0
-5169 8948 0
-5170 8948 0
-5171 8948 0
-5172 8948 0
-5173 8948 0
-5174 8948 0
-5175 8948 0
-8948 5161 5162 5163 5164 5165 5166 5167 5168 5169 5170 5171 5172 5173 5174 5175 0
-5176 31 0
-5176 121 0
-5176 196 0
-31 -121 -196 5176 0
-5177 32 0
-5177 122 0
-5177 197 0
-32 -122 -197 5177 0
-5178 33 0
-5178 123 0
-5178 198 0
-33 -123 -198 5178 0
-5179 34 0
-5179 124 0
-5179 199 0
-34 -124 -199 5179 0
-5180 35 0
-5180 125 0
-5180 200 0
-35 -125 -200 5180 0
-5181 36 0
-5181 126 0
-5181 201 0
-36 -126 -201 5181 0
-5182 37 0
-5182 127 0
-5182 202 0
-37 -127 -202 5182 0
-5183 38 0
-5183 128 0
-5183 203 0
-38 -128 -203 5183 0
-5184 39 0
-5184 129 0
-5184 204 0
-39 -129 -204 5184 0
-5185 40 0
-5185 130 0
-5185 205 0
-40 -130 -205 5185 0
-5186 41 0
-5186 131 0
-5186 206 0
-41 -131 -206 5186 0
-5187 42 0
-5187 132 0
-5187 207 0
-42 -132 -207 5187 0
-5188 43 0
-5188 133 0
-5188 208 0
-43 -133 -208 5188 0
-5189 44 0
-5189 134 0
-5189 209 0
-44 -134 -209 5189 0
-5190 45 0
-5190 135 0
-5190 210 0
-45 -135 -210 5190 0
-5176 8949 0
-5177 8949 0
-5178 8949 0
-5179 8949 0
-5180 8949 0
-5181 8949 0
-5182 8949 0
-5183 8949 0
-5184 8949 0
-5185 8949 0
-5186 8949 0
-5187 8949 0
-5188 8949 0
-5189 8949 0
-5190 8949 0
-8949 5176 5177 5178 5179 5180 5181 5182 5183 5184 5185 5186 5187 5188 5189 5190 0
-5191 31 0
-5191 121 0
-5191 211 0
-31 -121 -211 5191 0
-5192 32 0
-5192 122 0
-5192 212 0
-32 -122 -212 5192 0
-5193 33 0
-5193 123 0
-5193 213 0
-33 -123 -213 5193 0
-5194 34 0
-5194 124 0
-5194 214 0
-34 -124 -214 5194 0
-5195 35 0
-5195 125 0
-5195 215 0
-35 -125 -215 5195 0
-5196 36 0
-5196 126 0
-5196 216 0
-36 -126 -216 5196 0
-5197 37 0
-5197 127 0
-5197 217 0
-37 -127 -217 5197 0
-5198 38 0
-5198 128 0
-5198 218 0
-38 -128 -218 5198 0
-5199 39 0
-5199 129 0
-5199 219 0
-39 -129 -219 5199 0
-5200 40 0
-5200 130 0
-5200 220 0
-40 -130 -220 5200 0
-5201 41 0
-5201 131 0
-5201 221 0
-41 -131 -221 5201 0
-5202 42 0
-5202 132 0
-5202 222 0
-42 -132 -222 5202 0
-5203 43 0
-5203 133 0
-5203 223 0
-43 -133 -223 5203 0
-5204 44 0
-5204 134 0
-5204 224 0
-44 -134 -224 5204 0
-5205 45 0
-5205 135 0
-5205 225 0
-45 -135 -225 5205 0
-5191 8950 0
-5192 8950 0
-5193 8950 0
-5194 8950 0
-5195 8950 0
-5196 8950 0
-5197 8950 0
-5198 8950 0
-5199 8950 0
-5200 8950 0
-5201 8950 0
-5202 8950 0
-5203 8950 0
-5204 8950 0
-5205 8950 0
-8950 5191 5192 5193 5194 5195 5196 5197 5198 5199 5200 5201 5202 5203 5204 5205 0
-5206 31 0
-5206 136 0
-5206 151 0
-31 -136 -151 5206 0
-5207 32 0
-5207 137 0
-5207 152 0
-32 -137 -152 5207 0
-5208 33 0
-5208 138 0
-5208 153 0
-33 -138 -153 5208 0
-5209 34 0
-5209 139 0
-5209 154 0
-34 -139 -154 5209 0
-5210 35 0
-5210 140 0
-5210 155 0
-35 -140 -155 5210 0
-5211 36 0
-5211 141 0
-5211 156 0
-36 -141 -156 5211 0
-5212 37 0
-5212 142 0
-5212 157 0
-37 -142 -157 5212 0
-5213 38 0
-5213 143 0
-5213 158 0
-38 -143 -158 5213 0
-5214 39 0
-5214 144 0
-5214 159 0
-39 -144 -159 5214 0
-5215 40 0
-5215 145 0
-5215 160 0
-40 -145 -160 5215 0
-5216 41 0
-5216 146 0
-5216 161 0
-41 -146 -161 5216 0
-5217 42 0
-5217 147 0
-5217 162 0
-42 -147 -162 5217 0
-5218 43 0
-5218 148 0
-5218 163 0
-43 -148 -163 5218 0
-5219 44 0
-5219 149 0
-5219 164 0
-44 -149 -164 5219 0
-5220 45 0
-5220 150 0
-5220 165 0
-45 -150 -165 5220 0
-5206 8951 0
-5207 8951 0
-5208 8951 0
-5209 8951 0
-5210 8951 0
-5211 8951 0
-5212 8951 0
-5213 8951 0
-5214 8951 0
-5215 8951 0
-5216 8951 0
-5217 8951 0
-5218 8951 0
-5219 8951 0
-5220 8951 0
-8951 5206 5207 5208 5209 5210 5211 5212 5213 5214 5215 5216 5217 5218 5219 5220 0
-5221 31 0
-5221 136 0
-5221 166 0
-31 -136 -166 5221 0
-5222 32 0
-5222 137 0
-5222 167 0
-32 -137 -167 5222 0
-5223 33 0
-5223 138 0
-5223 168 0
-33 -138 -168 5223 0
-5224 34 0
-5224 139 0
-5224 169 0
-34 -139 -169 5224 0
-5225 35 0
-5225 140 0
-5225 170 0
-35 -140 -170 5225 0
-5226 36 0
-5226 141 0
-5226 171 0
-36 -141 -171 5226 0
-5227 37 0
-5227 142 0
-5227 172 0
-37 -142 -172 5227 0
-5228 38 0
-5228 143 0
-5228 173 0
-38 -143 -173 5228 0
-5229 39 0
-5229 144 0
-5229 174 0
-39 -144 -174 5229 0
-5230 40 0
-5230 145 0
-5230 175 0
-40 -145 -175 5230 0
-5231 41 0
-5231 146 0
-5231 176 0
-41 -146 -176 5231 0
-5232 42 0
-5232 147 0
-5232 177 0
-42 -147 -177 5232 0
-5233 43 0
-5233 148 0
-5233 178 0
-43 -148 -178 5233 0
-5234 44 0
-5234 149 0
-5234 179 0
-44 -149 -179 5234 0
-5235 45 0
-5235 150 0
-5235 180 0
-45 -150 -180 5235 0
-5221 8952 0
-5222 8952 0
-5223 8952 0
-5224 8952 0
-5225 8952 0
-5226 8952 0
-5227 8952 0
-5228 8952 0
-5229 8952 0
-5230 8952 0
-5231 8952 0
-5232 8952 0
-5233 8952 0
-5234 8952 0
-5235 8952 0
-8952 5221 5222 5223 5224 5225 5226 5227 5228 5229 5230 5231 5232 5233 5234 5235 0
-5236 31 0
-5236 136 0
-5236 181 0
-31 -136 -181 5236 0
-5237 32 0
-5237 137 0
-5237 182 0
-32 -137 -182 5237 0
-5238 33 0
-5238 138 0
-5238 183 0
-33 -138 -183 5238 0
-5239 34 0
-5239 139 0
-5239 184 0
-34 -139 -184 5239 0
-5240 35 0
-5240 140 0
-5240 185 0
-35 -140 -185 5240 0
-5241 36 0
-5241 141 0
-5241 186 0
-36 -141 -186 5241 0
-5242 37 0
-5242 142 0
-5242 187 0
-37 -142 -187 5242 0
-5243 38 0
-5243 143 0
-5243 188 0
-38 -143 -188 5243 0
-5244 39 0
-5244 144 0
-5244 189 0
-39 -144 -189 5244 0
-5245 40 0
-5245 145 0
-5245 190 0
-40 -145 -190 5245 0
-5246 41 0
-5246 146 0
-5246 191 0
-41 -146 -191 5246 0
-5247 42 0
-5247 147 0
-5247 192 0
-42 -147 -192 5247 0
-5248 43 0
-5248 148 0
-5248 193 0
-43 -148 -193 5248 0
-5249 44 0
-5249 149 0
-5249 194 0
-44 -149 -194 5249 0
-5250 45 0
-5250 150 0
-5250 195 0
-45 -150 -195 5250 0
-5236 8953 0
-5237 8953 0
-5238 8953 0
-5239 8953 0
-5240 8953 0
-5241 8953 0
-5242 8953 0
-5243 8953 0
-5244 8953 0
-5245 8953 0
-5246 8953 0
-5247 8953 0
-5248 8953 0
-5249 8953 0
-5250 8953 0
-8953 5236 5237 5238 5239 5240 5241 5242 5243 5244 5245 5246 5247 5248 5249 5250 0
-5251 31 0
-5251 136 0
-5251 196 0
-31 -136 -196 5251 0
-5252 32 0
-5252 137 0
-5252 197 0
-32 -137 -197 5252 0
-5253 33 0
-5253 138 0
-5253 198 0
-33 -138 -198 5253 0
-5254 34 0
-5254 139 0
-5254 199 0
-34 -139 -199 5254 0
-5255 35 0
-5255 140 0
-5255 200 0
-35 -140 -200 5255 0
-5256 36 0
-5256 141 0
-5256 201 0
-36 -141 -201 5256 0
-5257 37 0
-5257 142 0
-5257 202 0
-37 -142 -202 5257 0
-5258 38 0
-5258 143 0
-5258 203 0
-38 -143 -203 5258 0
-5259 39 0
-5259 144 0
-5259 204 0
-39 -144 -204 5259 0
-5260 40 0
-5260 145 0
-5260 205 0
-40 -145 -205 5260 0
-5261 41 0
-5261 146 0
-5261 206 0
-41 -146 -206 5261 0
-5262 42 0
-5262 147 0
-5262 207 0
-42 -147 -207 5262 0
-5263 43 0
-5263 148 0
-5263 208 0
-43 -148 -208 5263 0
-5264 44 0
-5264 149 0
-5264 209 0
-44 -149 -209 5264 0
-5265 45 0
-5265 150 0
-5265 210 0
-45 -150 -210 5265 0
-5251 8954 0
-5252 8954 0
-5253 8954 0
-5254 8954 0
-5255 8954 0
-5256 8954 0
-5257 8954 0
-5258 8954 0
-5259 8954 0
-5260 8954 0
-5261 8954 0
-5262 8954 0
-5263 8954 0
-5264 8954 0
-5265 8954 0
-8954 5251 5252 5253 5254 5255 5256 5257 5258 5259 5260 5261 5262 5263 5264 5265 0
-5266 31 0
-5266 136 0
-5266 211 0
-31 -136 -211 5266 0
-5267 32 0
-5267 137 0
-5267 212 0
-32 -137 -212 5267 0
-5268 33 0
-5268 138 0
-5268 213 0
-33 -138 -213 5268 0
-5269 34 0
-5269 139 0
-5269 214 0
-34 -139 -214 5269 0
-5270 35 0
-5270 140 0
-5270 215 0
-35 -140 -215 5270 0
-5271 36 0
-5271 141 0
-5271 216 0
-36 -141 -216 5271 0
-5272 37 0
-5272 142 0
-5272 217 0
-37 -142 -217 5272 0
-5273 38 0
-5273 143 0
-5273 218 0
-38 -143 -218 5273 0
-5274 39 0
-5274 144 0
-5274 219 0
-39 -144 -219 5274 0
-5275 40 0
-5275 145 0
-5275 220 0
-40 -145 -220 5275 0
-5276 41 0
-5276 146 0
-5276 221 0
-41 -146 -221 5276 0
-5277 42 0
-5277 147 0
-5277 222 0
-42 -147 -222 5277 0
-5278 43 0
-5278 148 0
-5278 223 0
-43 -148 -223 5278 0
-5279 44 0
-5279 149 0
-5279 224 0
-44 -149 -224 5279 0
-5280 45 0
-5280 150 0
-5280 225 0
-45 -150 -225 5280 0
-5266 8955 0
-5267 8955 0
-5268 8955 0
-5269 8955 0
-5270 8955 0
-5271 8955 0
-5272 8955 0
-5273 8955 0
-5274 8955 0
-5275 8955 0
-5276 8955 0
-5277 8955 0
-5278 8955 0
-5279 8955 0
-5280 8955 0
-8955 5266 5267 5268 5269 5270 5271 5272 5273 5274 5275 5276 5277 5278 5279 5280 0
-5281 31 0
-5281 151 0
-5281 166 0
-31 -151 -166 5281 0
-5282 32 0
-5282 152 0
-5282 167 0
-32 -152 -167 5282 0
-5283 33 0
-5283 153 0
-5283 168 0
-33 -153 -168 5283 0
-5284 34 0
-5284 154 0
-5284 169 0
-34 -154 -169 5284 0
-5285 35 0
-5285 155 0
-5285 170 0
-35 -155 -170 5285 0
-5286 36 0
-5286 156 0
-5286 171 0
-36 -156 -171 5286 0
-5287 37 0
-5287 157 0
-5287 172 0
-37 -157 -172 5287 0
-5288 38 0
-5288 158 0
-5288 173 0
-38 -158 -173 5288 0
-5289 39 0
-5289 159 0
-5289 174 0
-39 -159 -174 5289 0
-5290 40 0
-5290 160 0
-5290 175 0
-40 -160 -175 5290 0
-5291 41 0
-5291 161 0
-5291 176 0
-41 -161 -176 5291 0
-5292 42 0
-5292 162 0
-5292 177 0
-42 -162 -177 5292 0
-5293 43 0
-5293 163 0
-5293 178 0
-43 -163 -178 5293 0
-5294 44 0
-5294 164 0
-5294 179 0
-44 -164 -179 5294 0
-5295 45 0
-5295 165 0
-5295 180 0
-45 -165 -180 5295 0
-5281 8956 0
-5282 8956 0
-5283 8956 0
-5284 8956 0
-5285 8956 0
-5286 8956 0
-5287 8956 0
-5288 8956 0
-5289 8956 0
-5290 8956 0
-5291 8956 0
-5292 8956 0
-5293 8956 0
-5294 8956 0
-5295 8956 0
-8956 5281 5282 5283 5284 5285 5286 5287 5288 5289 5290 5291 5292 5293 5294 5295 0
-5296 31 0
-5296 151 0
-5296 181 0
-31 -151 -181 5296 0
-5297 32 0
-5297 152 0
-5297 182 0
-32 -152 -182 5297 0
-5298 33 0
-5298 153 0
-5298 183 0
-33 -153 -183 5298 0
-5299 34 0
-5299 154 0
-5299 184 0
-34 -154 -184 5299 0
-5300 35 0
-5300 155 0
-5300 185 0
-35 -155 -185 5300 0
-5301 36 0
-5301 156 0
-5301 186 0
-36 -156 -186 5301 0
-5302 37 0
-5302 157 0
-5302 187 0
-37 -157 -187 5302 0
-5303 38 0
-5303 158 0
-5303 188 0
-38 -158 -188 5303 0
-5304 39 0
-5304 159 0
-5304 189 0
-39 -159 -189 5304 0
-5305 40 0
-5305 160 0
-5305 190 0
-40 -160 -190 5305 0
-5306 41 0
-5306 161 0
-5306 191 0
-41 -161 -191 5306 0
-5307 42 0
-5307 162 0
-5307 192 0
-42 -162 -192 5307 0
-5308 43 0
-5308 163 0
-5308 193 0
-43 -163 -193 5308 0
-5309 44 0
-5309 164 0
-5309 194 0
-44 -164 -194 5309 0
-5310 45 0
-5310 165 0
-5310 195 0
-45 -165 -195 5310 0
-5296 8957 0
-5297 8957 0
-5298 8957 0
-5299 8957 0
-5300 8957 0
-5301 8957 0
-5302 8957 0
-5303 8957 0
-5304 8957 0
-5305 8957 0
-5306 8957 0
-5307 8957 0
-5308 8957 0
-5309 8957 0
-5310 8957 0
-8957 5296 5297 5298 5299 5300 5301 5302 5303 5304 5305 5306 5307 5308 5309 5310 0
-5311 31 0
-5311 151 0
-5311 196 0
-31 -151 -196 5311 0
-5312 32 0
-5312 152 0
-5312 197 0
-32 -152 -197 5312 0
-5313 33 0
-5313 153 0
-5313 198 0
-33 -153 -198 5313 0
-5314 34 0
-5314 154 0
-5314 199 0
-34 -154 -199 5314 0
-5315 35 0
-5315 155 0
-5315 200 0
-35 -155 -200 5315 0
-5316 36 0
-5316 156 0
-5316 201 0
-36 -156 -201 5316 0
-5317 37 0
-5317 157 0
-5317 202 0
-37 -157 -202 5317 0
-5318 38 0
-5318 158 0
-5318 203 0
-38 -158 -203 5318 0
-5319 39 0
-5319 159 0
-5319 204 0
-39 -159 -204 5319 0
-5320 40 0
-5320 160 0
-5320 205 0
-40 -160 -205 5320 0
-5321 41 0
-5321 161 0
-5321 206 0
-41 -161 -206 5321 0
-5322 42 0
-5322 162 0
-5322 207 0
-42 -162 -207 5322 0
-5323 43 0
-5323 163 0
-5323 208 0
-43 -163 -208 5323 0
-5324 44 0
-5324 164 0
-5324 209 0
-44 -164 -209 5324 0
-5325 45 0
-5325 165 0
-5325 210 0
-45 -165 -210 5325 0
-5311 8958 0
-5312 8958 0
-5313 8958 0
-5314 8958 0
-5315 8958 0
-5316 8958 0
-5317 8958 0
-5318 8958 0
-5319 8958 0
-5320 8958 0
-5321 8958 0
-5322 8958 0
-5323 8958 0
-5324 8958 0
-5325 8958 0
-8958 5311 5312 5313 5314 5315 5316 5317 5318 5319 5320 5321 5322 5323 5324 5325 0
-5326 31 0
-5326 151 0
-5326 211 0
-31 -151 -211 5326 0
-5327 32 0
-5327 152 0
-5327 212 0
-32 -152 -212 5327 0
-5328 33 0
-5328 153 0
-5328 213 0
-33 -153 -213 5328 0
-5329 34 0
-5329 154 0
-5329 214 0
-34 -154 -214 5329 0
-5330 35 0
-5330 155 0
-5330 215 0
-35 -155 -215 5330 0
-5331 36 0
-5331 156 0
-5331 216 0
-36 -156 -216 5331 0
-5332 37 0
-5332 157 0
-5332 217 0
-37 -157 -217 5332 0
-5333 38 0
-5333 158 0
-5333 218 0
-38 -158 -218 5333 0
-5334 39 0
-5334 159 0
-5334 219 0
-39 -159 -219 5334 0
-5335 40 0
-5335 160 0
-5335 220 0
-40 -160 -220 5335 0
-5336 41 0
-5336 161 0
-5336 221 0
-41 -161 -221 5336 0
-5337 42 0
-5337 162 0
-5337 222 0
-42 -162 -222 5337 0
-5338 43 0
-5338 163 0
-5338 223 0
-43 -163 -223 5338 0
-5339 44 0
-5339 164 0
-5339 224 0
-44 -164 -224 5339 0
-5340 45 0
-5340 165 0
-5340 225 0
-45 -165 -225 5340 0
-5326 8959 0
-5327 8959 0
-5328 8959 0
-5329 8959 0
-5330 8959 0
-5331 8959 0
-5332 8959 0
-5333 8959 0
-5334 8959 0
-5335 8959 0
-5336 8959 0
-5337 8959 0
-5338 8959 0
-5339 8959 0
-5340 8959 0
-8959 5326 5327 5328 5329 5330 5331 5332 5333 5334 5335 5336 5337 5338 5339 5340 0
-5341 31 0
-5341 166 0
-5341 181 0
-31 -166 -181 5341 0
-5342 32 0
-5342 167 0
-5342 182 0
-32 -167 -182 5342 0
-5343 33 0
-5343 168 0
-5343 183 0
-33 -168 -183 5343 0
-5344 34 0
-5344 169 0
-5344 184 0
-34 -169 -184 5344 0
-5345 35 0
-5345 170 0
-5345 185 0
-35 -170 -185 5345 0
-5346 36 0
-5346 171 0
-5346 186 0
-36 -171 -186 5346 0
-5347 37 0
-5347 172 0
-5347 187 0
-37 -172 -187 5347 0
-5348 38 0
-5348 173 0
-5348 188 0
-38 -173 -188 5348 0
-5349 39 0
-5349 174 0
-5349 189 0
-39 -174 -189 5349 0
-5350 40 0
-5350 175 0
-5350 190 0
-40 -175 -190 5350 0
-5351 41 0
-5351 176 0
-5351 191 0
-41 -176 -191 5351 0
-5352 42 0
-5352 177 0
-5352 192 0
-42 -177 -192 5352 0
-5353 43 0
-5353 178 0
-5353 193 0
-43 -178 -193 5353 0
-5354 44 0
-5354 179 0
-5354 194 0
-44 -179 -194 5354 0
-5355 45 0
-5355 180 0
-5355 195 0
-45 -180 -195 5355 0
-5341 8960 0
-5342 8960 0
-5343 8960 0
-5344 8960 0
-5345 8960 0
-5346 8960 0
-5347 8960 0
-5348 8960 0
-5349 8960 0
-5350 8960 0
-5351 8960 0
-5352 8960 0
-5353 8960 0
-5354 8960 0
-5355 8960 0
-8960 5341 5342 5343 5344 5345 5346 5347 5348 5349 5350 5351 5352 5353 5354 5355 0
-5356 31 0
-5356 166 0
-5356 196 0
-31 -166 -196 5356 0
-5357 32 0
-5357 167 0
-5357 197 0
-32 -167 -197 5357 0
-5358 33 0
-5358 168 0
-5358 198 0
-33 -168 -198 5358 0
-5359 34 0
-5359 169 0
-5359 199 0
-34 -169 -199 5359 0
-5360 35 0
-5360 170 0
-5360 200 0
-35 -170 -200 5360 0
-5361 36 0
-5361 171 0
-5361 201 0
-36 -171 -201 5361 0
-5362 37 0
-5362 172 0
-5362 202 0
-37 -172 -202 5362 0
-5363 38 0
-5363 173 0
-5363 203 0
-38 -173 -203 5363 0
-5364 39 0
-5364 174 0
-5364 204 0
-39 -174 -204 5364 0
-5365 40 0
-5365 175 0
-5365 205 0
-40 -175 -205 5365 0
-5366 41 0
-5366 176 0
-5366 206 0
-41 -176 -206 5366 0
-5367 42 0
-5367 177 0
-5367 207 0
-42 -177 -207 5367 0
-5368 43 0
-5368 178 0
-5368 208 0
-43 -178 -208 5368 0
-5369 44 0
-5369 179 0
-5369 209 0
-44 -179 -209 5369 0
-5370 45 0
-5370 180 0
-5370 210 0
-45 -180 -210 5370 0
-5356 8961 0
-5357 8961 0
-5358 8961 0
-5359 8961 0
-5360 8961 0
-5361 8961 0
-5362 8961 0
-5363 8961 0
-5364 8961 0
-5365 8961 0
-5366 8961 0
-5367 8961 0
-5368 8961 0
-5369 8961 0
-5370 8961 0
-8961 5356 5357 5358 5359 5360 5361 5362 5363 5364 5365 5366 5367 5368 5369 5370 0
-5371 31 0
-5371 166 0
-5371 211 0
-31 -166 -211 5371 0
-5372 32 0
-5372 167 0
-5372 212 0
-32 -167 -212 5372 0
-5373 33 0
-5373 168 0
-5373 213 0
-33 -168 -213 5373 0
-5374 34 0
-5374 169 0
-5374 214 0
-34 -169 -214 5374 0
-5375 35 0
-5375 170 0
-5375 215 0
-35 -170 -215 5375 0
-5376 36 0
-5376 171 0
-5376 216 0
-36 -171 -216 5376 0
-5377 37 0
-5377 172 0
-5377 217 0
-37 -172 -217 5377 0
-5378 38 0
-5378 173 0
-5378 218 0
-38 -173 -218 5378 0
-5379 39 0
-5379 174 0
-5379 219 0
-39 -174 -219 5379 0
-5380 40 0
-5380 175 0
-5380 220 0
-40 -175 -220 5380 0
-5381 41 0
-5381 176 0
-5381 221 0
-41 -176 -221 5381 0
-5382 42 0
-5382 177 0
-5382 222 0
-42 -177 -222 5382 0
-5383 43 0
-5383 178 0
-5383 223 0
-43 -178 -223 5383 0
-5384 44 0
-5384 179 0
-5384 224 0
-44 -179 -224 5384 0
-5385 45 0
-5385 180 0
-5385 225 0
-45 -180 -225 5385 0
-5371 8962 0
-5372 8962 0
-5373 8962 0
-5374 8962 0
-5375 8962 0
-5376 8962 0
-5377 8962 0
-5378 8962 0
-5379 8962 0
-5380 8962 0
-5381 8962 0
-5382 8962 0
-5383 8962 0
-5384 8962 0
-5385 8962 0
-8962 5371 5372 5373 5374 5375 5376 5377 5378 5379 5380 5381 5382 5383 5384 5385 0
-5386 31 0
-5386 181 0
-5386 196 0
-31 -181 -196 5386 0
-5387 32 0
-5387 182 0
-5387 197 0
-32 -182 -197 5387 0
-5388 33 0
-5388 183 0
-5388 198 0
-33 -183 -198 5388 0
-5389 34 0
-5389 184 0
-5389 199 0
-34 -184 -199 5389 0
-5390 35 0
-5390 185 0
-5390 200 0
-35 -185 -200 5390 0
-5391 36 0
-5391 186 0
-5391 201 0
-36 -186 -201 5391 0
-5392 37 0
-5392 187 0
-5392 202 0
-37 -187 -202 5392 0
-5393 38 0
-5393 188 0
-5393 203 0
-38 -188 -203 5393 0
-5394 39 0
-5394 189 0
-5394 204 0
-39 -189 -204 5394 0
-5395 40 0
-5395 190 0
-5395 205 0
-40 -190 -205 5395 0
-5396 41 0
-5396 191 0
-5396 206 0
-41 -191 -206 5396 0
-5397 42 0
-5397 192 0
-5397 207 0
-42 -192 -207 5397 0
-5398 43 0
-5398 193 0
-5398 208 0
-43 -193 -208 5398 0
-5399 44 0
-5399 194 0
-5399 209 0
-44 -194 -209 5399 0
-5400 45 0
-5400 195 0
-5400 210 0
-45 -195 -210 5400 0
-5386 8963 0
-5387 8963 0
-5388 8963 0
-5389 8963 0
-5390 8963 0
-5391 8963 0
-5392 8963 0
-5393 8963 0
-5394 8963 0
-5395 8963 0
-5396 8963 0
-5397 8963 0
-5398 8963 0
-5399 8963 0
-5400 8963 0
-8963 5386 5387 5388 5389 5390 5391 5392 5393 5394 5395 5396 5397 5398 5399 5400 0
-5401 31 0
-5401 181 0
-5401 211 0
-31 -181 -211 5401 0
-5402 32 0
-5402 182 0
-5402 212 0
-32 -182 -212 5402 0
-5403 33 0
-5403 183 0
-5403 213 0
-33 -183 -213 5403 0
-5404 34 0
-5404 184 0
-5404 214 0
-34 -184 -214 5404 0
-5405 35 0
-5405 185 0
-5405 215 0
-35 -185 -215 5405 0
-5406 36 0
-5406 186 0
-5406 216 0
-36 -186 -216 5406 0
-5407 37 0
-5407 187 0
-5407 217 0
-37 -187 -217 5407 0
-5408 38 0
-5408 188 0
-5408 218 0
-38 -188 -218 5408 0
-5409 39 0
-5409 189 0
-5409 219 0
-39 -189 -219 5409 0
-5410 40 0
-5410 190 0
-5410 220 0
-40 -190 -220 5410 0
-5411 41 0
-5411 191 0
-5411 221 0
-41 -191 -221 5411 0
-5412 42 0
-5412 192 0
-5412 222 0
-42 -192 -222 5412 0
-5413 43 0
-5413 193 0
-5413 223 0
-43 -193 -223 5413 0
-5414 44 0
-5414 194 0
-5414 224 0
-44 -194 -224 5414 0
-5415 45 0
-5415 195 0
-5415 225 0
-45 -195 -225 5415 0
-5401 8964 0
-5402 8964 0
-5403 8964 0
-5404 8964 0
-5405 8964 0
-5406 8964 0
-5407 8964 0
-5408 8964 0
-5409 8964 0
-5410 8964 0
-5411 8964 0
-5412 8964 0
-5413 8964 0
-5414 8964 0
-5415 8964 0
-8964 5401 5402 5403 5404 5405 5406 5407 5408 5409 5410 5411 5412 5413 5414 5415 0
-5416 31 0
-5416 196 0
-5416 211 0
-31 -196 -211 5416 0
-5417 32 0
-5417 197 0
-5417 212 0
-32 -197 -212 5417 0
-5418 33 0
-5418 198 0
-5418 213 0
-33 -198 -213 5418 0
-5419 34 0
-5419 199 0
-5419 214 0
-34 -199 -214 5419 0
-5420 35 0
-5420 200 0
-5420 215 0
-35 -200 -215 5420 0
-5421 36 0
-5421 201 0
-5421 216 0
-36 -201 -216 5421 0
-5422 37 0
-5422 202 0
-5422 217 0
-37 -202 -217 5422 0
-5423 38 0
-5423 203 0
-5423 218 0
-38 -203 -218 5423 0
-5424 39 0
-5424 204 0
-5424 219 0
-39 -204 -219 5424 0
-5425 40 0
-5425 205 0
-5425 220 0
-40 -205 -220 5425 0
-5426 41 0
-5426 206 0
-5426 221 0
-41 -206 -221 5426 0
-5427 42 0
-5427 207 0
-5427 222 0
-42 -207 -222 5427 0
-5428 43 0
-5428 208 0
-5428 223 0
-43 -208 -223 5428 0
-5429 44 0
-5429 209 0
-5429 224 0
-44 -209 -224 5429 0
-5430 45 0
-5430 210 0
-5430 225 0
-45 -210 -225 5430 0
-5416 8965 0
-5417 8965 0
-5418 8965 0
-5419 8965 0
-5420 8965 0
-5421 8965 0
-5422 8965 0
-5423 8965 0
-5424 8965 0
-5425 8965 0
-5426 8965 0
-5427 8965 0
-5428 8965 0
-5429 8965 0
-5430 8965 0
-8965 5416 5417 5418 5419 5420 5421 5422 5423 5424 5425 5426 5427 5428 5429 5430 0
-5431 46 0
-5431 61 0
-5431 76 0
-46 -61 -76 5431 0
-5432 47 0
-5432 62 0
-5432 77 0
-47 -62 -77 5432 0
-5433 48 0
-5433 63 0
-5433 78 0
-48 -63 -78 5433 0
-5434 49 0
-5434 64 0
-5434 79 0
-49 -64 -79 5434 0
-5435 50 0
-5435 65 0
-5435 80 0
-50 -65 -80 5435 0
-5436 51 0
-5436 66 0
-5436 81 0
-51 -66 -81 5436 0
-5437 52 0
-5437 67 0
-5437 82 0
-52 -67 -82 5437 0
-5438 53 0
-5438 68 0
-5438 83 0
-53 -68 -83 5438 0
-5439 54 0
-5439 69 0
-5439 84 0
-54 -69 -84 5439 0
-5440 55 0
-5440 70 0
-5440 85 0
-55 -70 -85 5440 0
-5441 56 0
-5441 71 0
-5441 86 0
-56 -71 -86 5441 0
-5442 57 0
-5442 72 0
-5442 87 0
-57 -72 -87 5442 0
-5443 58 0
-5443 73 0
-5443 88 0
-58 -73 -88 5443 0
-5444 59 0
-5444 74 0
-5444 89 0
-59 -74 -89 5444 0
-5445 60 0
-5445 75 0
-5445 90 0
-60 -75 -90 5445 0
-5431 8966 0
-5432 8966 0
-5433 8966 0
-5434 8966 0
-5435 8966 0
-5436 8966 0
-5437 8966 0
-5438 8966 0
-5439 8966 0
-5440 8966 0
-5441 8966 0
-5442 8966 0
-5443 8966 0
-5444 8966 0
-5445 8966 0
-8966 5431 5432 5433 5434 5435 5436 5437 5438 5439 5440 5441 5442 5443 5444 5445 0
-5446 46 0
-5446 61 0
-5446 91 0
-46 -61 -91 5446 0
-5447 47 0
-5447 62 0
-5447 92 0
-47 -62 -92 5447 0
-5448 48 0
-5448 63 0
-5448 93 0
-48 -63 -93 5448 0
-5449 49 0
-5449 64 0
-5449 94 0
-49 -64 -94 5449 0
-5450 50 0
-5450 65 0
-5450 95 0
-50 -65 -95 5450 0
-5451 51 0
-5451 66 0
-5451 96 0
-51 -66 -96 5451 0
-5452 52 0
-5452 67 0
-5452 97 0
-52 -67 -97 5452 0
-5453 53 0
-5453 68 0
-5453 98 0
-53 -68 -98 5453 0
-5454 54 0
-5454 69 0
-5454 99 0
-54 -69 -99 5454 0
-5455 55 0
-5455 70 0
-5455 100 0
-55 -70 -100 5455 0
-5456 56 0
-5456 71 0
-5456 101 0
-56 -71 -101 5456 0
-5457 57 0
-5457 72 0
-5457 102 0
-57 -72 -102 5457 0
-5458 58 0
-5458 73 0
-5458 103 0
-58 -73 -103 5458 0
-5459 59 0
-5459 74 0
-5459 104 0
-59 -74 -104 5459 0
-5460 60 0
-5460 75 0
-5460 105 0
-60 -75 -105 5460 0
-5446 8967 0
-5447 8967 0
-5448 8967 0
-5449 8967 0
-5450 8967 0
-5451 8967 0
-5452 8967 0
-5453 8967 0
-5454 8967 0
-5455 8967 0
-5456 8967 0
-5457 8967 0
-5458 8967 0
-5459 8967 0
-5460 8967 0
-8967 5446 5447 5448 5449 5450 5451 5452 5453 5454 5455 5456 5457 5458 5459 5460 0
-5461 46 0
-5461 61 0
-5461 106 0
-46 -61 -106 5461 0
-5462 47 0
-5462 62 0
-5462 107 0
-47 -62 -107 5462 0
-5463 48 0
-5463 63 0
-5463 108 0
-48 -63 -108 5463 0
-5464 49 0
-5464 64 0
-5464 109 0
-49 -64 -109 5464 0
-5465 50 0
-5465 65 0
-5465 110 0
-50 -65 -110 5465 0
-5466 51 0
-5466 66 0
-5466 111 0
-51 -66 -111 5466 0
-5467 52 0
-5467 67 0
-5467 112 0
-52 -67 -112 5467 0
-5468 53 0
-5468 68 0
-5468 113 0
-53 -68 -113 5468 0
-5469 54 0
-5469 69 0
-5469 114 0
-54 -69 -114 5469 0
-5470 55 0
-5470 70 0
-5470 115 0
-55 -70 -115 5470 0
-5471 56 0
-5471 71 0
-5471 116 0
-56 -71 -116 5471 0
-5472 57 0
-5472 72 0
-5472 117 0
-57 -72 -117 5472 0
-5473 58 0
-5473 73 0
-5473 118 0
-58 -73 -118 5473 0
-5474 59 0
-5474 74 0
-5474 119 0
-59 -74 -119 5474 0
-5475 60 0
-5475 75 0
-5475 120 0
-60 -75 -120 5475 0
-5461 8968 0
-5462 8968 0
-5463 8968 0
-5464 8968 0
-5465 8968 0
-5466 8968 0
-5467 8968 0
-5468 8968 0
-5469 8968 0
-5470 8968 0
-5471 8968 0
-5472 8968 0
-5473 8968 0
-5474 8968 0
-5475 8968 0
-8968 5461 5462 5463 5464 5465 5466 5467 5468 5469 5470 5471 5472 5473 5474 5475 0
-5476 46 0
-5476 61 0
-5476 121 0
-46 -61 -121 5476 0
-5477 47 0
-5477 62 0
-5477 122 0
-47 -62 -122 5477 0
-5478 48 0
-5478 63 0
-5478 123 0
-48 -63 -123 5478 0
-5479 49 0
-5479 64 0
-5479 124 0
-49 -64 -124 5479 0
-5480 50 0
-5480 65 0
-5480 125 0
-50 -65 -125 5480 0
-5481 51 0
-5481 66 0
-5481 126 0
-51 -66 -126 5481 0
-5482 52 0
-5482 67 0
-5482 127 0
-52 -67 -127 5482 0
-5483 53 0
-5483 68 0
-5483 128 0
-53 -68 -128 5483 0
-5484 54 0
-5484 69 0
-5484 129 0
-54 -69 -129 5484 0
-5485 55 0
-5485 70 0
-5485 130 0
-55 -70 -130 5485 0
-5486 56 0
-5486 71 0
-5486 131 0
-56 -71 -131 5486 0
-5487 57 0
-5487 72 0
-5487 132 0
-57 -72 -132 5487 0
-5488 58 0
-5488 73 0
-5488 133 0
-58 -73 -133 5488 0
-5489 59 0
-5489 74 0
-5489 134 0
-59 -74 -134 5489 0
-5490 60 0
-5490 75 0
-5490 135 0
-60 -75 -135 5490 0
-5476 8969 0
-5477 8969 0
-5478 8969 0
-5479 8969 0
-5480 8969 0
-5481 8969 0
-5482 8969 0
-5483 8969 0
-5484 8969 0
-5485 8969 0
-5486 8969 0
-5487 8969 0
-5488 8969 0
-5489 8969 0
-5490 8969 0
-8969 5476 5477 5478 5479 5480 5481 5482 5483 5484 5485 5486 5487 5488 5489 5490 0
-5491 46 0
-5491 61 0
-5491 136 0
-46 -61 -136 5491 0
-5492 47 0
-5492 62 0
-5492 137 0
-47 -62 -137 5492 0
-5493 48 0
-5493 63 0
-5493 138 0
-48 -63 -138 5493 0
-5494 49 0
-5494 64 0
-5494 139 0
-49 -64 -139 5494 0
-5495 50 0
-5495 65 0
-5495 140 0
-50 -65 -140 5495 0
-5496 51 0
-5496 66 0
-5496 141 0
-51 -66 -141 5496 0
-5497 52 0
-5497 67 0
-5497 142 0
-52 -67 -142 5497 0
-5498 53 0
-5498 68 0
-5498 143 0
-53 -68 -143 5498 0
-5499 54 0
-5499 69 0
-5499 144 0
-54 -69 -144 5499 0
-5500 55 0
-5500 70 0
-5500 145 0
-55 -70 -145 5500 0
-5501 56 0
-5501 71 0
-5501 146 0
-56 -71 -146 5501 0
-5502 57 0
-5502 72 0
-5502 147 0
-57 -72 -147 5502 0
-5503 58 0
-5503 73 0
-5503 148 0
-58 -73 -148 5503 0
-5504 59 0
-5504 74 0
-5504 149 0
-59 -74 -149 5504 0
-5505 60 0
-5505 75 0
-5505 150 0
-60 -75 -150 5505 0
-5491 8970 0
-5492 8970 0
-5493 8970 0
-5494 8970 0
-5495 8970 0
-5496 8970 0
-5497 8970 0
-5498 8970 0
-5499 8970 0
-5500 8970 0
-5501 8970 0
-5502 8970 0
-5503 8970 0
-5504 8970 0
-5505 8970 0
-8970 5491 5492 5493 5494 5495 5496 5497 5498 5499 5500 5501 5502 5503 5504 5505 0
-5506 46 0
-5506 61 0
-5506 151 0
-46 -61 -151 5506 0
-5507 47 0
-5507 62 0
-5507 152 0
-47 -62 -152 5507 0
-5508 48 0
-5508 63 0
-5508 153 0
-48 -63 -153 5508 0
-5509 49 0
-5509 64 0
-5509 154 0
-49 -64 -154 5509 0
-5510 50 0
-5510 65 0
-5510 155 0
-50 -65 -155 5510 0
-5511 51 0
-5511 66 0
-5511 156 0
-51 -66 -156 5511 0
-5512 52 0
-5512 67 0
-5512 157 0
-52 -67 -157 5512 0
-5513 53 0
-5513 68 0
-5513 158 0
-53 -68 -158 5513 0
-5514 54 0
-5514 69 0
-5514 159 0
-54 -69 -159 5514 0
-5515 55 0
-5515 70 0
-5515 160 0
-55 -70 -160 5515 0
-5516 56 0
-5516 71 0
-5516 161 0
-56 -71 -161 5516 0
-5517 57 0
-5517 72 0
-5517 162 0
-57 -72 -162 5517 0
-5518 58 0
-5518 73 0
-5518 163 0
-58 -73 -163 5518 0
-5519 59 0
-5519 74 0
-5519 164 0
-59 -74 -164 5519 0
-5520 60 0
-5520 75 0
-5520 165 0
-60 -75 -165 5520 0
-5506 8971 0
-5507 8971 0
-5508 8971 0
-5509 8971 0
-5510 8971 0
-5511 8971 0
-5512 8971 0
-5513 8971 0
-5514 8971 0
-5515 8971 0
-5516 8971 0
-5517 8971 0
-5518 8971 0
-5519 8971 0
-5520 8971 0
-8971 5506 5507 5508 5509 5510 5511 5512 5513 5514 5515 5516 5517 5518 5519 5520 0
-5521 46 0
-5521 61 0
-5521 166 0
-46 -61 -166 5521 0
-5522 47 0
-5522 62 0
-5522 167 0
-47 -62 -167 5522 0
-5523 48 0
-5523 63 0
-5523 168 0
-48 -63 -168 5523 0
-5524 49 0
-5524 64 0
-5524 169 0
-49 -64 -169 5524 0
-5525 50 0
-5525 65 0
-5525 170 0
-50 -65 -170 5525 0
-5526 51 0
-5526 66 0
-5526 171 0
-51 -66 -171 5526 0
-5527 52 0
-5527 67 0
-5527 172 0
-52 -67 -172 5527 0
-5528 53 0
-5528 68 0
-5528 173 0
-53 -68 -173 5528 0
-5529 54 0
-5529 69 0
-5529 174 0
-54 -69 -174 5529 0
-5530 55 0
-5530 70 0
-5530 175 0
-55 -70 -175 5530 0
-5531 56 0
-5531 71 0
-5531 176 0
-56 -71 -176 5531 0
-5532 57 0
-5532 72 0
-5532 177 0
-57 -72 -177 5532 0
-5533 58 0
-5533 73 0
-5533 178 0
-58 -73 -178 5533 0
-5534 59 0
-5534 74 0
-5534 179 0
-59 -74 -179 5534 0
-5535 60 0
-5535 75 0
-5535 180 0
-60 -75 -180 5535 0
-5521 8972 0
-5522 8972 0
-5523 8972 0
-5524 8972 0
-5525 8972 0
-5526 8972 0
-5527 8972 0
-5528 8972 0
-5529 8972 0
-5530 8972 0
-5531 8972 0
-5532 8972 0
-5533 8972 0
-5534 8972 0
-5535 8972 0
-8972 5521 5522 5523 5524 5525 5526 5527 5528 5529 5530 5531 5532 5533 5534 5535 0
-5536 46 0
-5536 61 0
-5536 181 0
-46 -61 -181 5536 0
-5537 47 0
-5537 62 0
-5537 182 0
-47 -62 -182 5537 0
-5538 48 0
-5538 63 0
-5538 183 0
-48 -63 -183 5538 0
-5539 49 0
-5539 64 0
-5539 184 0
-49 -64 -184 5539 0
-5540 50 0
-5540 65 0
-5540 185 0
-50 -65 -185 5540 0
-5541 51 0
-5541 66 0
-5541 186 0
-51 -66 -186 5541 0
-5542 52 0
-5542 67 0
-5542 187 0
-52 -67 -187 5542 0
-5543 53 0
-5543 68 0
-5543 188 0
-53 -68 -188 5543 0
-5544 54 0
-5544 69 0
-5544 189 0
-54 -69 -189 5544 0
-5545 55 0
-5545 70 0
-5545 190 0
-55 -70 -190 5545 0
-5546 56 0
-5546 71 0
-5546 191 0
-56 -71 -191 5546 0
-5547 57 0
-5547 72 0
-5547 192 0
-57 -72 -192 5547 0
-5548 58 0
-5548 73 0
-5548 193 0
-58 -73 -193 5548 0
-5549 59 0
-5549 74 0
-5549 194 0
-59 -74 -194 5549 0
-5550 60 0
-5550 75 0
-5550 195 0
-60 -75 -195 5550 0
-5536 8973 0
-5537 8973 0
-5538 8973 0
-5539 8973 0
-5540 8973 0
-5541 8973 0
-5542 8973 0
-5543 8973 0
-5544 8973 0
-5545 8973 0
-5546 8973 0
-5547 8973 0
-5548 8973 0
-5549 8973 0
-5550 8973 0
-8973 5536 5537 5538 5539 5540 5541 5542 5543 5544 5545 5546 5547 5548 5549 5550 0
-5551 46 0
-5551 61 0
-5551 196 0
-46 -61 -196 5551 0
-5552 47 0
-5552 62 0
-5552 197 0
-47 -62 -197 5552 0
-5553 48 0
-5553 63 0
-5553 198 0
-48 -63 -198 5553 0
-5554 49 0
-5554 64 0
-5554 199 0
-49 -64 -199 5554 0
-5555 50 0
-5555 65 0
-5555 200 0
-50 -65 -200 5555 0
-5556 51 0
-5556 66 0
-5556 201 0
-51 -66 -201 5556 0
-5557 52 0
-5557 67 0
-5557 202 0
-52 -67 -202 5557 0
-5558 53 0
-5558 68 0
-5558 203 0
-53 -68 -203 5558 0
-5559 54 0
-5559 69 0
-5559 204 0
-54 -69 -204 5559 0
-5560 55 0
-5560 70 0
-5560 205 0
-55 -70 -205 5560 0
-5561 56 0
-5561 71 0
-5561 206 0
-56 -71 -206 5561 0
-5562 57 0
-5562 72 0
-5562 207 0
-57 -72 -207 5562 0
-5563 58 0
-5563 73 0
-5563 208 0
-58 -73 -208 5563 0
-5564 59 0
-5564 74 0
-5564 209 0
-59 -74 -209 5564 0
-5565 60 0
-5565 75 0
-5565 210 0
-60 -75 -210 5565 0
-5551 8974 0
-5552 8974 0
-5553 8974 0
-5554 8974 0
-5555 8974 0
-5556 8974 0
-5557 8974 0
-5558 8974 0
-5559 8974 0
-5560 8974 0
-5561 8974 0
-5562 8974 0
-5563 8974 0
-5564 8974 0
-5565 8974 0
-8974 5551 5552 5553 5554 5555 5556 5557 5558 5559 5560 5561 5562 5563 5564 5565 0
-5566 46 0
-5566 61 0
-5566 211 0
-46 -61 -211 5566 0
-5567 47 0
-5567 62 0
-5567 212 0
-47 -62 -212 5567 0
-5568 48 0
-5568 63 0
-5568 213 0
-48 -63 -213 5568 0
-5569 49 0
-5569 64 0
-5569 214 0
-49 -64 -214 5569 0
-5570 50 0
-5570 65 0
-5570 215 0
-50 -65 -215 5570 0
-5571 51 0
-5571 66 0
-5571 216 0
-51 -66 -216 5571 0
-5572 52 0
-5572 67 0
-5572 217 0
-52 -67 -217 5572 0
-5573 53 0
-5573 68 0
-5573 218 0
-53 -68 -218 5573 0
-5574 54 0
-5574 69 0
-5574 219 0
-54 -69 -219 5574 0
-5575 55 0
-5575 70 0
-5575 220 0
-55 -70 -220 5575 0
-5576 56 0
-5576 71 0
-5576 221 0
-56 -71 -221 5576 0
-5577 57 0
-5577 72 0
-5577 222 0
-57 -72 -222 5577 0
-5578 58 0
-5578 73 0
-5578 223 0
-58 -73 -223 5578 0
-5579 59 0
-5579 74 0
-5579 224 0
-59 -74 -224 5579 0
-5580 60 0
-5580 75 0
-5580 225 0
-60 -75 -225 5580 0
-5566 8975 0
-5567 8975 0
-5568 8975 0
-5569 8975 0
-5570 8975 0
-5571 8975 0
-5572 8975 0
-5573 8975 0
-5574 8975 0
-5575 8975 0
-5576 8975 0
-5577 8975 0
-5578 8975 0
-5579 8975 0
-5580 8975 0
-8975 5566 5567 5568 5569 5570 5571 5572 5573 5574 5575 5576 5577 5578 5579 5580 0
-5581 46 0
-5581 76 0
-5581 91 0
-46 -76 -91 5581 0
-5582 47 0
-5582 77 0
-5582 92 0
-47 -77 -92 5582 0
-5583 48 0
-5583 78 0
-5583 93 0
-48 -78 -93 5583 0
-5584 49 0
-5584 79 0
-5584 94 0
-49 -79 -94 5584 0
-5585 50 0
-5585 80 0
-5585 95 0
-50 -80 -95 5585 0
-5586 51 0
-5586 81 0
-5586 96 0
-51 -81 -96 5586 0
-5587 52 0
-5587 82 0
-5587 97 0
-52 -82 -97 5587 0
-5588 53 0
-5588 83 0
-5588 98 0
-53 -83 -98 5588 0
-5589 54 0
-5589 84 0
-5589 99 0
-54 -84 -99 5589 0
-5590 55 0
-5590 85 0
-5590 100 0
-55 -85 -100 5590 0
-5591 56 0
-5591 86 0
-5591 101 0
-56 -86 -101 5591 0
-5592 57 0
-5592 87 0
-5592 102 0
-57 -87 -102 5592 0
-5593 58 0
-5593 88 0
-5593 103 0
-58 -88 -103 5593 0
-5594 59 0
-5594 89 0
-5594 104 0
-59 -89 -104 5594 0
-5595 60 0
-5595 90 0
-5595 105 0
-60 -90 -105 5595 0
-5581 8976 0
-5582 8976 0
-5583 8976 0
-5584 8976 0
-5585 8976 0
-5586 8976 0
-5587 8976 0
-5588 8976 0
-5589 8976 0
-5590 8976 0
-5591 8976 0
-5592 8976 0
-5593 8976 0
-5594 8976 0
-5595 8976 0
-8976 5581 5582 5583 5584 5585 5586 5587 5588 5589 5590 5591 5592 5593 5594 5595 0
-5596 46 0
-5596 76 0
-5596 106 0
-46 -76 -106 5596 0
-5597 47 0
-5597 77 0
-5597 107 0
-47 -77 -107 5597 0
-5598 48 0
-5598 78 0
-5598 108 0
-48 -78 -108 5598 0
-5599 49 0
-5599 79 0
-5599 109 0
-49 -79 -109 5599 0
-5600 50 0
-5600 80 0
-5600 110 0
-50 -80 -110 5600 0
-5601 51 0
-5601 81 0
-5601 111 0
-51 -81 -111 5601 0
-5602 52 0
-5602 82 0
-5602 112 0
-52 -82 -112 5602 0
-5603 53 0
-5603 83 0
-5603 113 0
-53 -83 -113 5603 0
-5604 54 0
-5604 84 0
-5604 114 0
-54 -84 -114 5604 0
-5605 55 0
-5605 85 0
-5605 115 0
-55 -85 -115 5605 0
-5606 56 0
-5606 86 0
-5606 116 0
-56 -86 -116 5606 0
-5607 57 0
-5607 87 0
-5607 117 0
-57 -87 -117 5607 0
-5608 58 0
-5608 88 0
-5608 118 0
-58 -88 -118 5608 0
-5609 59 0
-5609 89 0
-5609 119 0
-59 -89 -119 5609 0
-5610 60 0
-5610 90 0
-5610 120 0
-60 -90 -120 5610 0
-5596 8977 0
-5597 8977 0
-5598 8977 0
-5599 8977 0
-5600 8977 0
-5601 8977 0
-5602 8977 0
-5603 8977 0
-5604 8977 0
-5605 8977 0
-5606 8977 0
-5607 8977 0
-5608 8977 0
-5609 8977 0
-5610 8977 0
-8977 5596 5597 5598 5599 5600 5601 5602 5603 5604 5605 5606 5607 5608 5609 5610 0
-5611 46 0
-5611 76 0
-5611 121 0
-46 -76 -121 5611 0
-5612 47 0
-5612 77 0
-5612 122 0
-47 -77 -122 5612 0
-5613 48 0
-5613 78 0
-5613 123 0
-48 -78 -123 5613 0
-5614 49 0
-5614 79 0
-5614 124 0
-49 -79 -124 5614 0
-5615 50 0
-5615 80 0
-5615 125 0
-50 -80 -125 5615 0
-5616 51 0
-5616 81 0
-5616 126 0
-51 -81 -126 5616 0
-5617 52 0
-5617 82 0
-5617 127 0
-52 -82 -127 5617 0
-5618 53 0
-5618 83 0
-5618 128 0
-53 -83 -128 5618 0
-5619 54 0
-5619 84 0
-5619 129 0
-54 -84 -129 5619 0
-5620 55 0
-5620 85 0
-5620 130 0
-55 -85 -130 5620 0
-5621 56 0
-5621 86 0
-5621 131 0
-56 -86 -131 5621 0
-5622 57 0
-5622 87 0
-5622 132 0
-57 -87 -132 5622 0
-5623 58 0
-5623 88 0
-5623 133 0
-58 -88 -133 5623 0
-5624 59 0
-5624 89 0
-5624 134 0
-59 -89 -134 5624 0
-5625 60 0
-5625 90 0
-5625 135 0
-60 -90 -135 5625 0
-5611 8978 0
-5612 8978 0
-5613 8978 0
-5614 8978 0
-5615 8978 0
-5616 8978 0
-5617 8978 0
-5618 8978 0
-5619 8978 0
-5620 8978 0
-5621 8978 0
-5622 8978 0
-5623 8978 0
-5624 8978 0
-5625 8978 0
-8978 5611 5612 5613 5614 5615 5616 5617 5618 5619 5620 5621 5622 5623 5624 5625 0
-5626 46 0
-5626 76 0
-5626 136 0
-46 -76 -136 5626 0
-5627 47 0
-5627 77 0
-5627 137 0
-47 -77 -137 5627 0
-5628 48 0
-5628 78 0
-5628 138 0
-48 -78 -138 5628 0
-5629 49 0
-5629 79 0
-5629 139 0
-49 -79 -139 5629 0
-5630 50 0
-5630 80 0
-5630 140 0
-50 -80 -140 5630 0
-5631 51 0
-5631 81 0
-5631 141 0
-51 -81 -141 5631 0
-5632 52 0
-5632 82 0
-5632 142 0
-52 -82 -142 5632 0
-5633 53 0
-5633 83 0
-5633 143 0
-53 -83 -143 5633 0
-5634 54 0
-5634 84 0
-5634 144 0
-54 -84 -144 5634 0
-5635 55 0
-5635 85 0
-5635 145 0
-55 -85 -145 5635 0
-5636 56 0
-5636 86 0
-5636 146 0
-56 -86 -146 5636 0
-5637 57 0
-5637 87 0
-5637 147 0
-57 -87 -147 5637 0
-5638 58 0
-5638 88 0
-5638 148 0
-58 -88 -148 5638 0
-5639 59 0
-5639 89 0
-5639 149 0
-59 -89 -149 5639 0
-5640 60 0
-5640 90 0
-5640 150 0
-60 -90 -150 5640 0
-5626 8979 0
-5627 8979 0
-5628 8979 0
-5629 8979 0
-5630 8979 0
-5631 8979 0
-5632 8979 0
-5633 8979 0
-5634 8979 0
-5635 8979 0
-5636 8979 0
-5637 8979 0
-5638 8979 0
-5639 8979 0
-5640 8979 0
-8979 5626 5627 5628 5629 5630 5631 5632 5633 5634 5635 5636 5637 5638 5639 5640 0
-5641 46 0
-5641 76 0
-5641 151 0
-46 -76 -151 5641 0
-5642 47 0
-5642 77 0
-5642 152 0
-47 -77 -152 5642 0
-5643 48 0
-5643 78 0
-5643 153 0
-48 -78 -153 5643 0
-5644 49 0
-5644 79 0
-5644 154 0
-49 -79 -154 5644 0
-5645 50 0
-5645 80 0
-5645 155 0
-50 -80 -155 5645 0
-5646 51 0
-5646 81 0
-5646 156 0
-51 -81 -156 5646 0
-5647 52 0
-5647 82 0
-5647 157 0
-52 -82 -157 5647 0
-5648 53 0
-5648 83 0
-5648 158 0
-53 -83 -158 5648 0
-5649 54 0
-5649 84 0
-5649 159 0
-54 -84 -159 5649 0
-5650 55 0
-5650 85 0
-5650 160 0
-55 -85 -160 5650 0
-5651 56 0
-5651 86 0
-5651 161 0
-56 -86 -161 5651 0
-5652 57 0
-5652 87 0
-5652 162 0
-57 -87 -162 5652 0
-5653 58 0
-5653 88 0
-5653 163 0
-58 -88 -163 5653 0
-5654 59 0
-5654 89 0
-5654 164 0
-59 -89 -164 5654 0
-5655 60 0
-5655 90 0
-5655 165 0
-60 -90 -165 5655 0
-5641 8980 0
-5642 8980 0
-5643 8980 0
-5644 8980 0
-5645 8980 0
-5646 8980 0
-5647 8980 0
-5648 8980 0
-5649 8980 0
-5650 8980 0
-5651 8980 0
-5652 8980 0
-5653 8980 0
-5654 8980 0
-5655 8980 0
-8980 5641 5642 5643 5644 5645 5646 5647 5648 5649 5650 5651 5652 5653 5654 5655 0
-5656 46 0
-5656 76 0
-5656 166 0
-46 -76 -166 5656 0
-5657 47 0
-5657 77 0
-5657 167 0
-47 -77 -167 5657 0
-5658 48 0
-5658 78 0
-5658 168 0
-48 -78 -168 5658 0
-5659 49 0
-5659 79 0
-5659 169 0
-49 -79 -169 5659 0
-5660 50 0
-5660 80 0
-5660 170 0
-50 -80 -170 5660 0
-5661 51 0
-5661 81 0
-5661 171 0
-51 -81 -171 5661 0
-5662 52 0
-5662 82 0
-5662 172 0
-52 -82 -172 5662 0
-5663 53 0
-5663 83 0
-5663 173 0
-53 -83 -173 5663 0
-5664 54 0
-5664 84 0
-5664 174 0
-54 -84 -174 5664 0
-5665 55 0
-5665 85 0
-5665 175 0
-55 -85 -175 5665 0
-5666 56 0
-5666 86 0
-5666 176 0
-56 -86 -176 5666 0
-5667 57 0
-5667 87 0
-5667 177 0
-57 -87 -177 5667 0
-5668 58 0
-5668 88 0
-5668 178 0
-58 -88 -178 5668 0
-5669 59 0
-5669 89 0
-5669 179 0
-59 -89 -179 5669 0
-5670 60 0
-5670 90 0
-5670 180 0
-60 -90 -180 5670 0
-5656 8981 0
-5657 8981 0
-5658 8981 0
-5659 8981 0
-5660 8981 0
-5661 8981 0
-5662 8981 0
-5663 8981 0
-5664 8981 0
-5665 8981 0
-5666 8981 0
-5667 8981 0
-5668 8981 0
-5669 8981 0
-5670 8981 0
-8981 5656 5657 5658 5659 5660 5661 5662 5663 5664 5665 5666 5667 5668 5669 5670 0
-5671 46 0
-5671 76 0
-5671 181 0
-46 -76 -181 5671 0
-5672 47 0
-5672 77 0
-5672 182 0
-47 -77 -182 5672 0
-5673 48 0
-5673 78 0
-5673 183 0
-48 -78 -183 5673 0
-5674 49 0
-5674 79 0
-5674 184 0
-49 -79 -184 5674 0
-5675 50 0
-5675 80 0
-5675 185 0
-50 -80 -185 5675 0
-5676 51 0
-5676 81 0
-5676 186 0
-51 -81 -186 5676 0
-5677 52 0
-5677 82 0
-5677 187 0
-52 -82 -187 5677 0
-5678 53 0
-5678 83 0
-5678 188 0
-53 -83 -188 5678 0
-5679 54 0
-5679 84 0
-5679 189 0
-54 -84 -189 5679 0
-5680 55 0
-5680 85 0
-5680 190 0
-55 -85 -190 5680 0
-5681 56 0
-5681 86 0
-5681 191 0
-56 -86 -191 5681 0
-5682 57 0
-5682 87 0
-5682 192 0
-57 -87 -192 5682 0
-5683 58 0
-5683 88 0
-5683 193 0
-58 -88 -193 5683 0
-5684 59 0
-5684 89 0
-5684 194 0
-59 -89 -194 5684 0
-5685 60 0
-5685 90 0
-5685 195 0
-60 -90 -195 5685 0
-5671 8982 0
-5672 8982 0
-5673 8982 0
-5674 8982 0
-5675 8982 0
-5676 8982 0
-5677 8982 0
-5678 8982 0
-5679 8982 0
-5680 8982 0
-5681 8982 0
-5682 8982 0
-5683 8982 0
-5684 8982 0
-5685 8982 0
-8982 5671 5672 5673 5674 5675 5676 5677 5678 5679 5680 5681 5682 5683 5684 5685 0
-5686 46 0
-5686 76 0
-5686 196 0
-46 -76 -196 5686 0
-5687 47 0
-5687 77 0
-5687 197 0
-47 -77 -197 5687 0
-5688 48 0
-5688 78 0
-5688 198 0
-48 -78 -198 5688 0
-5689 49 0
-5689 79 0
-5689 199 0
-49 -79 -199 5689 0
-5690 50 0
-5690 80 0
-5690 200 0
-50 -80 -200 5690 0
-5691 51 0
-5691 81 0
-5691 201 0
-51 -81 -201 5691 0
-5692 52 0
-5692 82 0
-5692 202 0
-52 -82 -202 5692 0
-5693 53 0
-5693 83 0
-5693 203 0
-53 -83 -203 5693 0
-5694 54 0
-5694 84 0
-5694 204 0
-54 -84 -204 5694 0
-5695 55 0
-5695 85 0
-5695 205 0
-55 -85 -205 5695 0
-5696 56 0
-5696 86 0
-5696 206 0
-56 -86 -206 5696 0
-5697 57 0
-5697 87 0
-5697 207 0
-57 -87 -207 5697 0
-5698 58 0
-5698 88 0
-5698 208 0
-58 -88 -208 5698 0
-5699 59 0
-5699 89 0
-5699 209 0
-59 -89 -209 5699 0
-5700 60 0
-5700 90 0
-5700 210 0
-60 -90 -210 5700 0
-5686 8983 0
-5687 8983 0
-5688 8983 0
-5689 8983 0
-5690 8983 0
-5691 8983 0
-5692 8983 0
-5693 8983 0
-5694 8983 0
-5695 8983 0
-5696 8983 0
-5697 8983 0
-5698 8983 0
-5699 8983 0
-5700 8983 0
-8983 5686 5687 5688 5689 5690 5691 5692 5693 5694 5695 5696 5697 5698 5699 5700 0
-5701 46 0
-5701 76 0
-5701 211 0
-46 -76 -211 5701 0
-5702 47 0
-5702 77 0
-5702 212 0
-47 -77 -212 5702 0
-5703 48 0
-5703 78 0
-5703 213 0
-48 -78 -213 5703 0
-5704 49 0
-5704 79 0
-5704 214 0
-49 -79 -214 5704 0
-5705 50 0
-5705 80 0
-5705 215 0
-50 -80 -215 5705 0
-5706 51 0
-5706 81 0
-5706 216 0
-51 -81 -216 5706 0
-5707 52 0
-5707 82 0
-5707 217 0
-52 -82 -217 5707 0
-5708 53 0
-5708 83 0
-5708 218 0
-53 -83 -218 5708 0
-5709 54 0
-5709 84 0
-5709 219 0
-54 -84 -219 5709 0
-5710 55 0
-5710 85 0
-5710 220 0
-55 -85 -220 5710 0
-5711 56 0
-5711 86 0
-5711 221 0
-56 -86 -221 5711 0
-5712 57 0
-5712 87 0
-5712 222 0
-57 -87 -222 5712 0
-5713 58 0
-5713 88 0
-5713 223 0
-58 -88 -223 5713 0
-5714 59 0
-5714 89 0
-5714 224 0
-59 -89 -224 5714 0
-5715 60 0
-5715 90 0
-5715 225 0
-60 -90 -225 5715 0
-5701 8984 0
-5702 8984 0
-5703 8984 0
-5704 8984 0
-5705 8984 0
-5706 8984 0
-5707 8984 0
-5708 8984 0
-5709 8984 0
-5710 8984 0
-5711 8984 0
-5712 8984 0
-5713 8984 0
-5714 8984 0
-5715 8984 0
-8984 5701 5702 5703 5704 5705 5706 5707 5708 5709 5710 5711 5712 5713 5714 5715 0
-5716 46 0
-5716 91 0
-5716 106 0
-46 -91 -106 5716 0
-5717 47 0
-5717 92 0
-5717 107 0
-47 -92 -107 5717 0
-5718 48 0
-5718 93 0
-5718 108 0
-48 -93 -108 5718 0
-5719 49 0
-5719 94 0
-5719 109 0
-49 -94 -109 5719 0
-5720 50 0
-5720 95 0
-5720 110 0
-50 -95 -110 5720 0
-5721 51 0
-5721 96 0
-5721 111 0
-51 -96 -111 5721 0
-5722 52 0
-5722 97 0
-5722 112 0
-52 -97 -112 5722 0
-5723 53 0
-5723 98 0
-5723 113 0
-53 -98 -113 5723 0
-5724 54 0
-5724 99 0
-5724 114 0
-54 -99 -114 5724 0
-5725 55 0
-5725 100 0
-5725 115 0
-55 -100 -115 5725 0
-5726 56 0
-5726 101 0
-5726 116 0
-56 -101 -116 5726 0
-5727 57 0
-5727 102 0
-5727 117 0
-57 -102 -117 5727 0
-5728 58 0
-5728 103 0
-5728 118 0
-58 -103 -118 5728 0
-5729 59 0
-5729 104 0
-5729 119 0
-59 -104 -119 5729 0
-5730 60 0
-5730 105 0
-5730 120 0
-60 -105 -120 5730 0
-5716 8985 0
-5717 8985 0
-5718 8985 0
-5719 8985 0
-5720 8985 0
-5721 8985 0
-5722 8985 0
-5723 8985 0
-5724 8985 0
-5725 8985 0
-5726 8985 0
-5727 8985 0
-5728 8985 0
-5729 8985 0
-5730 8985 0
-8985 5716 5717 5718 5719 5720 5721 5722 5723 5724 5725 5726 5727 5728 5729 5730 0
-5731 46 0
-5731 91 0
-5731 121 0
-46 -91 -121 5731 0
-5732 47 0
-5732 92 0
-5732 122 0
-47 -92 -122 5732 0
-5733 48 0
-5733 93 0
-5733 123 0
-48 -93 -123 5733 0
-5734 49 0
-5734 94 0
-5734 124 0
-49 -94 -124 5734 0
-5735 50 0
-5735 95 0
-5735 125 0
-50 -95 -125 5735 0
-5736 51 0
-5736 96 0
-5736 126 0
-51 -96 -126 5736 0
-5737 52 0
-5737 97 0
-5737 127 0
-52 -97 -127 5737 0
-5738 53 0
-5738 98 0
-5738 128 0
-53 -98 -128 5738 0
-5739 54 0
-5739 99 0
-5739 129 0
-54 -99 -129 5739 0
-5740 55 0
-5740 100 0
-5740 130 0
-55 -100 -130 5740 0
-5741 56 0
-5741 101 0
-5741 131 0
-56 -101 -131 5741 0
-5742 57 0
-5742 102 0
-5742 132 0
-57 -102 -132 5742 0
-5743 58 0
-5743 103 0
-5743 133 0
-58 -103 -133 5743 0
-5744 59 0
-5744 104 0
-5744 134 0
-59 -104 -134 5744 0
-5745 60 0
-5745 105 0
-5745 135 0
-60 -105 -135 5745 0
-5731 8986 0
-5732 8986 0
-5733 8986 0
-5734 8986 0
-5735 8986 0
-5736 8986 0
-5737 8986 0
-5738 8986 0
-5739 8986 0
-5740 8986 0
-5741 8986 0
-5742 8986 0
-5743 8986 0
-5744 8986 0
-5745 8986 0
-8986 5731 5732 5733 5734 5735 5736 5737 5738 5739 5740 5741 5742 5743 5744 5745 0
-5746 46 0
-5746 91 0
-5746 136 0
-46 -91 -136 5746 0
-5747 47 0
-5747 92 0
-5747 137 0
-47 -92 -137 5747 0
-5748 48 0
-5748 93 0
-5748 138 0
-48 -93 -138 5748 0
-5749 49 0
-5749 94 0
-5749 139 0
-49 -94 -139 5749 0
-5750 50 0
-5750 95 0
-5750 140 0
-50 -95 -140 5750 0
-5751 51 0
-5751 96 0
-5751 141 0
-51 -96 -141 5751 0
-5752 52 0
-5752 97 0
-5752 142 0
-52 -97 -142 5752 0
-5753 53 0
-5753 98 0
-5753 143 0
-53 -98 -143 5753 0
-5754 54 0
-5754 99 0
-5754 144 0
-54 -99 -144 5754 0
-5755 55 0
-5755 100 0
-5755 145 0
-55 -100 -145 5755 0
-5756 56 0
-5756 101 0
-5756 146 0
-56 -101 -146 5756 0
-5757 57 0
-5757 102 0
-5757 147 0
-57 -102 -147 5757 0
-5758 58 0
-5758 103 0
-5758 148 0
-58 -103 -148 5758 0
-5759 59 0
-5759 104 0
-5759 149 0
-59 -104 -149 5759 0
-5760 60 0
-5760 105 0
-5760 150 0
-60 -105 -150 5760 0
-5746 8987 0
-5747 8987 0
-5748 8987 0
-5749 8987 0
-5750 8987 0
-5751 8987 0
-5752 8987 0
-5753 8987 0
-5754 8987 0
-5755 8987 0
-5756 8987 0
-5757 8987 0
-5758 8987 0
-5759 8987 0
-5760 8987 0
-8987 5746 5747 5748 5749 5750 5751 5752 5753 5754 5755 5756 5757 5758 5759 5760 0
-5761 46 0
-5761 91 0
-5761 151 0
-46 -91 -151 5761 0
-5762 47 0
-5762 92 0
-5762 152 0
-47 -92 -152 5762 0
-5763 48 0
-5763 93 0
-5763 153 0
-48 -93 -153 5763 0
-5764 49 0
-5764 94 0
-5764 154 0
-49 -94 -154 5764 0
-5765 50 0
-5765 95 0
-5765 155 0
-50 -95 -155 5765 0
-5766 51 0
-5766 96 0
-5766 156 0
-51 -96 -156 5766 0
-5767 52 0
-5767 97 0
-5767 157 0
-52 -97 -157 5767 0
-5768 53 0
-5768 98 0
-5768 158 0
-53 -98 -158 5768 0
-5769 54 0
-5769 99 0
-5769 159 0
-54 -99 -159 5769 0
-5770 55 0
-5770 100 0
-5770 160 0
-55 -100 -160 5770 0
-5771 56 0
-5771 101 0
-5771 161 0
-56 -101 -161 5771 0
-5772 57 0
-5772 102 0
-5772 162 0
-57 -102 -162 5772 0
-5773 58 0
-5773 103 0
-5773 163 0
-58 -103 -163 5773 0
-5774 59 0
-5774 104 0
-5774 164 0
-59 -104 -164 5774 0
-5775 60 0
-5775 105 0
-5775 165 0
-60 -105 -165 5775 0
-5761 8988 0
-5762 8988 0
-5763 8988 0
-5764 8988 0
-5765 8988 0
-5766 8988 0
-5767 8988 0
-5768 8988 0
-5769 8988 0
-5770 8988 0
-5771 8988 0
-5772 8988 0
-5773 8988 0
-5774 8988 0
-5775 8988 0
-8988 5761 5762 5763 5764 5765 5766 5767 5768 5769 5770 5771 5772 5773 5774 5775 0
-5776 46 0
-5776 91 0
-5776 166 0
-46 -91 -166 5776 0
-5777 47 0
-5777 92 0
-5777 167 0
-47 -92 -167 5777 0
-5778 48 0
-5778 93 0
-5778 168 0
-48 -93 -168 5778 0
-5779 49 0
-5779 94 0
-5779 169 0
-49 -94 -169 5779 0
-5780 50 0
-5780 95 0
-5780 170 0
-50 -95 -170 5780 0
-5781 51 0
-5781 96 0
-5781 171 0
-51 -96 -171 5781 0
-5782 52 0
-5782 97 0
-5782 172 0
-52 -97 -172 5782 0
-5783 53 0
-5783 98 0
-5783 173 0
-53 -98 -173 5783 0
-5784 54 0
-5784 99 0
-5784 174 0
-54 -99 -174 5784 0
-5785 55 0
-5785 100 0
-5785 175 0
-55 -100 -175 5785 0
-5786 56 0
-5786 101 0
-5786 176 0
-56 -101 -176 5786 0
-5787 57 0
-5787 102 0
-5787 177 0
-57 -102 -177 5787 0
-5788 58 0
-5788 103 0
-5788 178 0
-58 -103 -178 5788 0
-5789 59 0
-5789 104 0
-5789 179 0
-59 -104 -179 5789 0
-5790 60 0
-5790 105 0
-5790 180 0
-60 -105 -180 5790 0
-5776 8989 0
-5777 8989 0
-5778 8989 0
-5779 8989 0
-5780 8989 0
-5781 8989 0
-5782 8989 0
-5783 8989 0
-5784 8989 0
-5785 8989 0
-5786 8989 0
-5787 8989 0
-5788 8989 0
-5789 8989 0
-5790 8989 0
-8989 5776 5777 5778 5779 5780 5781 5782 5783 5784 5785 5786 5787 5788 5789 5790 0
-5791 46 0
-5791 91 0
-5791 181 0
-46 -91 -181 5791 0
-5792 47 0
-5792 92 0
-5792 182 0
-47 -92 -182 5792 0
-5793 48 0
-5793 93 0
-5793 183 0
-48 -93 -183 5793 0
-5794 49 0
-5794 94 0
-5794 184 0
-49 -94 -184 5794 0
-5795 50 0
-5795 95 0
-5795 185 0
-50 -95 -185 5795 0
-5796 51 0
-5796 96 0
-5796 186 0
-51 -96 -186 5796 0
-5797 52 0
-5797 97 0
-5797 187 0
-52 -97 -187 5797 0
-5798 53 0
-5798 98 0
-5798 188 0
-53 -98 -188 5798 0
-5799 54 0
-5799 99 0
-5799 189 0
-54 -99 -189 5799 0
-5800 55 0
-5800 100 0
-5800 190 0
-55 -100 -190 5800 0
-5801 56 0
-5801 101 0
-5801 191 0
-56 -101 -191 5801 0
-5802 57 0
-5802 102 0
-5802 192 0
-57 -102 -192 5802 0
-5803 58 0
-5803 103 0
-5803 193 0
-58 -103 -193 5803 0
-5804 59 0
-5804 104 0
-5804 194 0
-59 -104 -194 5804 0
-5805 60 0
-5805 105 0
-5805 195 0
-60 -105 -195 5805 0
-5791 8990 0
-5792 8990 0
-5793 8990 0
-5794 8990 0
-5795 8990 0
-5796 8990 0
-5797 8990 0
-5798 8990 0
-5799 8990 0
-5800 8990 0
-5801 8990 0
-5802 8990 0
-5803 8990 0
-5804 8990 0
-5805 8990 0
-8990 5791 5792 5793 5794 5795 5796 5797 5798 5799 5800 5801 5802 5803 5804 5805 0
-5806 46 0
-5806 91 0
-5806 196 0
-46 -91 -196 5806 0
-5807 47 0
-5807 92 0
-5807 197 0
-47 -92 -197 5807 0
-5808 48 0
-5808 93 0
-5808 198 0
-48 -93 -198 5808 0
-5809 49 0
-5809 94 0
-5809 199 0
-49 -94 -199 5809 0
-5810 50 0
-5810 95 0
-5810 200 0
-50 -95 -200 5810 0
-5811 51 0
-5811 96 0
-5811 201 0
-51 -96 -201 5811 0
-5812 52 0
-5812 97 0
-5812 202 0
-52 -97 -202 5812 0
-5813 53 0
-5813 98 0
-5813 203 0
-53 -98 -203 5813 0
-5814 54 0
-5814 99 0
-5814 204 0
-54 -99 -204 5814 0
-5815 55 0
-5815 100 0
-5815 205 0
-55 -100 -205 5815 0
-5816 56 0
-5816 101 0
-5816 206 0
-56 -101 -206 5816 0
-5817 57 0
-5817 102 0
-5817 207 0
-57 -102 -207 5817 0
-5818 58 0
-5818 103 0
-5818 208 0
-58 -103 -208 5818 0
-5819 59 0
-5819 104 0
-5819 209 0
-59 -104 -209 5819 0
-5820 60 0
-5820 105 0
-5820 210 0
-60 -105 -210 5820 0
-5806 8991 0
-5807 8991 0
-5808 8991 0
-5809 8991 0
-5810 8991 0
-5811 8991 0
-5812 8991 0
-5813 8991 0
-5814 8991 0
-5815 8991 0
-5816 8991 0
-5817 8991 0
-5818 8991 0
-5819 8991 0
-5820 8991 0
-8991 5806 5807 5808 5809 5810 5811 5812 5813 5814 5815 5816 5817 5818 5819 5820 0
-5821 46 0
-5821 91 0
-5821 211 0
-46 -91 -211 5821 0
-5822 47 0
-5822 92 0
-5822 212 0
-47 -92 -212 5822 0
-5823 48 0
-5823 93 0
-5823 213 0
-48 -93 -213 5823 0
-5824 49 0
-5824 94 0
-5824 214 0
-49 -94 -214 5824 0
-5825 50 0
-5825 95 0
-5825 215 0
-50 -95 -215 5825 0
-5826 51 0
-5826 96 0
-5826 216 0
-51 -96 -216 5826 0
-5827 52 0
-5827 97 0
-5827 217 0
-52 -97 -217 5827 0
-5828 53 0
-5828 98 0
-5828 218 0
-53 -98 -218 5828 0
-5829 54 0
-5829 99 0
-5829 219 0
-54 -99 -219 5829 0
-5830 55 0
-5830 100 0
-5830 220 0
-55 -100 -220 5830 0
-5831 56 0
-5831 101 0
-5831 221 0
-56 -101 -221 5831 0
-5832 57 0
-5832 102 0
-5832 222 0
-57 -102 -222 5832 0
-5833 58 0
-5833 103 0
-5833 223 0
-58 -103 -223 5833 0
-5834 59 0
-5834 104 0
-5834 224 0
-59 -104 -224 5834 0
-5835 60 0
-5835 105 0
-5835 225 0
-60 -105 -225 5835 0
-5821 8992 0
-5822 8992 0
-5823 8992 0
-5824 8992 0
-5825 8992 0
-5826 8992 0
-5827 8992 0
-5828 8992 0
-5829 8992 0
-5830 8992 0
-5831 8992 0
-5832 8992 0
-5833 8992 0
-5834 8992 0
-5835 8992 0
-8992 5821 5822 5823 5824 5825 5826 5827 5828 5829 5830 5831 5832 5833 5834 5835 0
-5836 46 0
-5836 106 0
-5836 121 0
-46 -106 -121 5836 0
-5837 47 0
-5837 107 0
-5837 122 0
-47 -107 -122 5837 0
-5838 48 0
-5838 108 0
-5838 123 0
-48 -108 -123 5838 0
-5839 49 0
-5839 109 0
-5839 124 0
-49 -109 -124 5839 0
-5840 50 0
-5840 110 0
-5840 125 0
-50 -110 -125 5840 0
-5841 51 0
-5841 111 0
-5841 126 0
-51 -111 -126 5841 0
-5842 52 0
-5842 112 0
-5842 127 0
-52 -112 -127 5842 0
-5843 53 0
-5843 113 0
-5843 128 0
-53 -113 -128 5843 0
-5844 54 0
-5844 114 0
-5844 129 0
-54 -114 -129 5844 0
-5845 55 0
-5845 115 0
-5845 130 0
-55 -115 -130 5845 0
-5846 56 0
-5846 116 0
-5846 131 0
-56 -116 -131 5846 0
-5847 57 0
-5847 117 0
-5847 132 0
-57 -117 -132 5847 0
-5848 58 0
-5848 118 0
-5848 133 0
-58 -118 -133 5848 0
-5849 59 0
-5849 119 0
-5849 134 0
-59 -119 -134 5849 0
-5850 60 0
-5850 120 0
-5850 135 0
-60 -120 -135 5850 0
-5836 8993 0
-5837 8993 0
-5838 8993 0
-5839 8993 0
-5840 8993 0
-5841 8993 0
-5842 8993 0
-5843 8993 0
-5844 8993 0
-5845 8993 0
-5846 8993 0
-5847 8993 0
-5848 8993 0
-5849 8993 0
-5850 8993 0
-8993 5836 5837 5838 5839 5840 5841 5842 5843 5844 5845 5846 5847 5848 5849 5850 0
-5851 46 0
-5851 106 0
-5851 136 0
-46 -106 -136 5851 0
-5852 47 0
-5852 107 0
-5852 137 0
-47 -107 -137 5852 0
-5853 48 0
-5853 108 0
-5853 138 0
-48 -108 -138 5853 0
-5854 49 0
-5854 109 0
-5854 139 0
-49 -109 -139 5854 0
-5855 50 0
-5855 110 0
-5855 140 0
-50 -110 -140 5855 0
-5856 51 0
-5856 111 0
-5856 141 0
-51 -111 -141 5856 0
-5857 52 0
-5857 112 0
-5857 142 0
-52 -112 -142 5857 0
-5858 53 0
-5858 113 0
-5858 143 0
-53 -113 -143 5858 0
-5859 54 0
-5859 114 0
-5859 144 0
-54 -114 -144 5859 0
-5860 55 0
-5860 115 0
-5860 145 0
-55 -115 -145 5860 0
-5861 56 0
-5861 116 0
-5861 146 0
-56 -116 -146 5861 0
-5862 57 0
-5862 117 0
-5862 147 0
-57 -117 -147 5862 0
-5863 58 0
-5863 118 0
-5863 148 0
-58 -118 -148 5863 0
-5864 59 0
-5864 119 0
-5864 149 0
-59 -119 -149 5864 0
-5865 60 0
-5865 120 0
-5865 150 0
-60 -120 -150 5865 0
-5851 8994 0
-5852 8994 0
-5853 8994 0
-5854 8994 0
-5855 8994 0
-5856 8994 0
-5857 8994 0
-5858 8994 0
-5859 8994 0
-5860 8994 0
-5861 8994 0
-5862 8994 0
-5863 8994 0
-5864 8994 0
-5865 8994 0
-8994 5851 5852 5853 5854 5855 5856 5857 5858 5859 5860 5861 5862 5863 5864 5865 0
-5866 46 0
-5866 106 0
-5866 151 0
-46 -106 -151 5866 0
-5867 47 0
-5867 107 0
-5867 152 0
-47 -107 -152 5867 0
-5868 48 0
-5868 108 0
-5868 153 0
-48 -108 -153 5868 0
-5869 49 0
-5869 109 0
-5869 154 0
-49 -109 -154 5869 0
-5870 50 0
-5870 110 0
-5870 155 0
-50 -110 -155 5870 0
-5871 51 0
-5871 111 0
-5871 156 0
-51 -111 -156 5871 0
-5872 52 0
-5872 112 0
-5872 157 0
-52 -112 -157 5872 0
-5873 53 0
-5873 113 0
-5873 158 0
-53 -113 -158 5873 0
-5874 54 0
-5874 114 0
-5874 159 0
-54 -114 -159 5874 0
-5875 55 0
-5875 115 0
-5875 160 0
-55 -115 -160 5875 0
-5876 56 0
-5876 116 0
-5876 161 0
-56 -116 -161 5876 0
-5877 57 0
-5877 117 0
-5877 162 0
-57 -117 -162 5877 0
-5878 58 0
-5878 118 0
-5878 163 0
-58 -118 -163 5878 0
-5879 59 0
-5879 119 0
-5879 164 0
-59 -119 -164 5879 0
-5880 60 0
-5880 120 0
-5880 165 0
-60 -120 -165 5880 0
-5866 8995 0
-5867 8995 0
-5868 8995 0
-5869 8995 0
-5870 8995 0
-5871 8995 0
-5872 8995 0
-5873 8995 0
-5874 8995 0
-5875 8995 0
-5876 8995 0
-5877 8995 0
-5878 8995 0
-5879 8995 0
-5880 8995 0
-8995 5866 5867 5868 5869 5870 5871 5872 5873 5874 5875 5876 5877 5878 5879 5880 0
-5881 46 0
-5881 106 0
-5881 166 0
-46 -106 -166 5881 0
-5882 47 0
-5882 107 0
-5882 167 0
-47 -107 -167 5882 0
-5883 48 0
-5883 108 0
-5883 168 0
-48 -108 -168 5883 0
-5884 49 0
-5884 109 0
-5884 169 0
-49 -109 -169 5884 0
-5885 50 0
-5885 110 0
-5885 170 0
-50 -110 -170 5885 0
-5886 51 0
-5886 111 0
-5886 171 0
-51 -111 -171 5886 0
-5887 52 0
-5887 112 0
-5887 172 0
-52 -112 -172 5887 0
-5888 53 0
-5888 113 0
-5888 173 0
-53 -113 -173 5888 0
-5889 54 0
-5889 114 0
-5889 174 0
-54 -114 -174 5889 0
-5890 55 0
-5890 115 0
-5890 175 0
-55 -115 -175 5890 0
-5891 56 0
-5891 116 0
-5891 176 0
-56 -116 -176 5891 0
-5892 57 0
-5892 117 0
-5892 177 0
-57 -117 -177 5892 0
-5893 58 0
-5893 118 0
-5893 178 0
-58 -118 -178 5893 0
-5894 59 0
-5894 119 0
-5894 179 0
-59 -119 -179 5894 0
-5895 60 0
-5895 120 0
-5895 180 0
-60 -120 -180 5895 0
-5881 8996 0
-5882 8996 0
-5883 8996 0
-5884 8996 0
-5885 8996 0
-5886 8996 0
-5887 8996 0
-5888 8996 0
-5889 8996 0
-5890 8996 0
-5891 8996 0
-5892 8996 0
-5893 8996 0
-5894 8996 0
-5895 8996 0
-8996 5881 5882 5883 5884 5885 5886 5887 5888 5889 5890 5891 5892 5893 5894 5895 0
-5896 46 0
-5896 106 0
-5896 181 0
-46 -106 -181 5896 0
-5897 47 0
-5897 107 0
-5897 182 0
-47 -107 -182 5897 0
-5898 48 0
-5898 108 0
-5898 183 0
-48 -108 -183 5898 0
-5899 49 0
-5899 109 0
-5899 184 0
-49 -109 -184 5899 0
-5900 50 0
-5900 110 0
-5900 185 0
-50 -110 -185 5900 0
-5901 51 0
-5901 111 0
-5901 186 0
-51 -111 -186 5901 0
-5902 52 0
-5902 112 0
-5902 187 0
-52 -112 -187 5902 0
-5903 53 0
-5903 113 0
-5903 188 0
-53 -113 -188 5903 0
-5904 54 0
-5904 114 0
-5904 189 0
-54 -114 -189 5904 0
-5905 55 0
-5905 115 0
-5905 190 0
-55 -115 -190 5905 0
-5906 56 0
-5906 116 0
-5906 191 0
-56 -116 -191 5906 0
-5907 57 0
-5907 117 0
-5907 192 0
-57 -117 -192 5907 0
-5908 58 0
-5908 118 0
-5908 193 0
-58 -118 -193 5908 0
-5909 59 0
-5909 119 0
-5909 194 0
-59 -119 -194 5909 0
-5910 60 0
-5910 120 0
-5910 195 0
-60 -120 -195 5910 0
-5896 8997 0
-5897 8997 0
-5898 8997 0
-5899 8997 0
-5900 8997 0
-5901 8997 0
-5902 8997 0
-5903 8997 0
-5904 8997 0
-5905 8997 0
-5906 8997 0
-5907 8997 0
-5908 8997 0
-5909 8997 0
-5910 8997 0
-8997 5896 5897 5898 5899 5900 5901 5902 5903 5904 5905 5906 5907 5908 5909 5910 0
-5911 46 0
-5911 106 0
-5911 196 0
-46 -106 -196 5911 0
-5912 47 0
-5912 107 0
-5912 197 0
-47 -107 -197 5912 0
-5913 48 0
-5913 108 0
-5913 198 0
-48 -108 -198 5913 0
-5914 49 0
-5914 109 0
-5914 199 0
-49 -109 -199 5914 0
-5915 50 0
-5915 110 0
-5915 200 0
-50 -110 -200 5915 0
-5916 51 0
-5916 111 0
-5916 201 0
-51 -111 -201 5916 0
-5917 52 0
-5917 112 0
-5917 202 0
-52 -112 -202 5917 0
-5918 53 0
-5918 113 0
-5918 203 0
-53 -113 -203 5918 0
-5919 54 0
-5919 114 0
-5919 204 0
-54 -114 -204 5919 0
-5920 55 0
-5920 115 0
-5920 205 0
-55 -115 -205 5920 0
-5921 56 0
-5921 116 0
-5921 206 0
-56 -116 -206 5921 0
-5922 57 0
-5922 117 0
-5922 207 0
-57 -117 -207 5922 0
-5923 58 0
-5923 118 0
-5923 208 0
-58 -118 -208 5923 0
-5924 59 0
-5924 119 0
-5924 209 0
-59 -119 -209 5924 0
-5925 60 0
-5925 120 0
-5925 210 0
-60 -120 -210 5925 0
-5911 8998 0
-5912 8998 0
-5913 8998 0
-5914 8998 0
-5915 8998 0
-5916 8998 0
-5917 8998 0
-5918 8998 0
-5919 8998 0
-5920 8998 0
-5921 8998 0
-5922 8998 0
-5923 8998 0
-5924 8998 0
-5925 8998 0
-8998 5911 5912 5913 5914 5915 5916 5917 5918 5919 5920 5921 5922 5923 5924 5925 0
-5926 46 0
-5926 106 0
-5926 211 0
-46 -106 -211 5926 0
-5927 47 0
-5927 107 0
-5927 212 0
-47 -107 -212 5927 0
-5928 48 0
-5928 108 0
-5928 213 0
-48 -108 -213 5928 0
-5929 49 0
-5929 109 0
-5929 214 0
-49 -109 -214 5929 0
-5930 50 0
-5930 110 0
-5930 215 0
-50 -110 -215 5930 0
-5931 51 0
-5931 111 0
-5931 216 0
-51 -111 -216 5931 0
-5932 52 0
-5932 112 0
-5932 217 0
-52 -112 -217 5932 0
-5933 53 0
-5933 113 0
-5933 218 0
-53 -113 -218 5933 0
-5934 54 0
-5934 114 0
-5934 219 0
-54 -114 -219 5934 0
-5935 55 0
-5935 115 0
-5935 220 0
-55 -115 -220 5935 0
-5936 56 0
-5936 116 0
-5936 221 0
-56 -116 -221 5936 0
-5937 57 0
-5937 117 0
-5937 222 0
-57 -117 -222 5937 0
-5938 58 0
-5938 118 0
-5938 223 0
-58 -118 -223 5938 0
-5939 59 0
-5939 119 0
-5939 224 0
-59 -119 -224 5939 0
-5940 60 0
-5940 120 0
-5940 225 0
-60 -120 -225 5940 0
-5926 8999 0
-5927 8999 0
-5928 8999 0
-5929 8999 0
-5930 8999 0
-5931 8999 0
-5932 8999 0
-5933 8999 0
-5934 8999 0
-5935 8999 0
-5936 8999 0
-5937 8999 0
-5938 8999 0
-5939 8999 0
-5940 8999 0
-8999 5926 5927 5928 5929 5930 5931 5932 5933 5934 5935 5936 5937 5938 5939 5940 0
-5941 46 0
-5941 121 0
-5941 136 0
-46 -121 -136 5941 0
-5942 47 0
-5942 122 0
-5942 137 0
-47 -122 -137 5942 0
-5943 48 0
-5943 123 0
-5943 138 0
-48 -123 -138 5943 0
-5944 49 0
-5944 124 0
-5944 139 0
-49 -124 -139 5944 0
-5945 50 0
-5945 125 0
-5945 140 0
-50 -125 -140 5945 0
-5946 51 0
-5946 126 0
-5946 141 0
-51 -126 -141 5946 0
-5947 52 0
-5947 127 0
-5947 142 0
-52 -127 -142 5947 0
-5948 53 0
-5948 128 0
-5948 143 0
-53 -128 -143 5948 0
-5949 54 0
-5949 129 0
-5949 144 0
-54 -129 -144 5949 0
-5950 55 0
-5950 130 0
-5950 145 0
-55 -130 -145 5950 0
-5951 56 0
-5951 131 0
-5951 146 0
-56 -131 -146 5951 0
-5952 57 0
-5952 132 0
-5952 147 0
-57 -132 -147 5952 0
-5953 58 0
-5953 133 0
-5953 148 0
-58 -133 -148 5953 0
-5954 59 0
-5954 134 0
-5954 149 0
-59 -134 -149 5954 0
-5955 60 0
-5955 135 0
-5955 150 0
-60 -135 -150 5955 0
-5941 9000 0
-5942 9000 0
-5943 9000 0
-5944 9000 0
-5945 9000 0
-5946 9000 0
-5947 9000 0
-5948 9000 0
-5949 9000 0
-5950 9000 0
-5951 9000 0
-5952 9000 0
-5953 9000 0
-5954 9000 0
-5955 9000 0
-9000 5941 5942 5943 5944 5945 5946 5947 5948 5949 5950 5951 5952 5953 5954 5955 0
-5956 46 0
-5956 121 0
-5956 151 0
-46 -121 -151 5956 0
-5957 47 0
-5957 122 0
-5957 152 0
-47 -122 -152 5957 0
-5958 48 0
-5958 123 0
-5958 153 0
-48 -123 -153 5958 0
-5959 49 0
-5959 124 0
-5959 154 0
-49 -124 -154 5959 0
-5960 50 0
-5960 125 0
-5960 155 0
-50 -125 -155 5960 0
-5961 51 0
-5961 126 0
-5961 156 0
-51 -126 -156 5961 0
-5962 52 0
-5962 127 0
-5962 157 0
-52 -127 -157 5962 0
-5963 53 0
-5963 128 0
-5963 158 0
-53 -128 -158 5963 0
-5964 54 0
-5964 129 0
-5964 159 0
-54 -129 -159 5964 0
-5965 55 0
-5965 130 0
-5965 160 0
-55 -130 -160 5965 0
-5966 56 0
-5966 131 0
-5966 161 0
-56 -131 -161 5966 0
-5967 57 0
-5967 132 0
-5967 162 0
-57 -132 -162 5967 0
-5968 58 0
-5968 133 0
-5968 163 0
-58 -133 -163 5968 0
-5969 59 0
-5969 134 0
-5969 164 0
-59 -134 -164 5969 0
-5970 60 0
-5970 135 0
-5970 165 0
-60 -135 -165 5970 0
-5956 9001 0
-5957 9001 0
-5958 9001 0
-5959 9001 0
-5960 9001 0
-5961 9001 0
-5962 9001 0
-5963 9001 0
-5964 9001 0
-5965 9001 0
-5966 9001 0
-5967 9001 0
-5968 9001 0
-5969 9001 0
-5970 9001 0
-9001 5956 5957 5958 5959 5960 5961 5962 5963 5964 5965 5966 5967 5968 5969 5970 0
-5971 46 0
-5971 121 0
-5971 166 0
-46 -121 -166 5971 0
-5972 47 0
-5972 122 0
-5972 167 0
-47 -122 -167 5972 0
-5973 48 0
-5973 123 0
-5973 168 0
-48 -123 -168 5973 0
-5974 49 0
-5974 124 0
-5974 169 0
-49 -124 -169 5974 0
-5975 50 0
-5975 125 0
-5975 170 0
-50 -125 -170 5975 0
-5976 51 0
-5976 126 0
-5976 171 0
-51 -126 -171 5976 0
-5977 52 0
-5977 127 0
-5977 172 0
-52 -127 -172 5977 0
-5978 53 0
-5978 128 0
-5978 173 0
-53 -128 -173 5978 0
-5979 54 0
-5979 129 0
-5979 174 0
-54 -129 -174 5979 0
-5980 55 0
-5980 130 0
-5980 175 0
-55 -130 -175 5980 0
-5981 56 0
-5981 131 0
-5981 176 0
-56 -131 -176 5981 0
-5982 57 0
-5982 132 0
-5982 177 0
-57 -132 -177 5982 0
-5983 58 0
-5983 133 0
-5983 178 0
-58 -133 -178 5983 0
-5984 59 0
-5984 134 0
-5984 179 0
-59 -134 -179 5984 0
-5985 60 0
-5985 135 0
-5985 180 0
-60 -135 -180 5985 0
-5971 9002 0
-5972 9002 0
-5973 9002 0
-5974 9002 0
-5975 9002 0
-5976 9002 0
-5977 9002 0
-5978 9002 0
-5979 9002 0
-5980 9002 0
-5981 9002 0
-5982 9002 0
-5983 9002 0
-5984 9002 0
-5985 9002 0
-9002 5971 5972 5973 5974 5975 5976 5977 5978 5979 5980 5981 5982 5983 5984 5985 0
-5986 46 0
-5986 121 0
-5986 181 0
-46 -121 -181 5986 0
-5987 47 0
-5987 122 0
-5987 182 0
-47 -122 -182 5987 0
-5988 48 0
-5988 123 0
-5988 183 0
-48 -123 -183 5988 0
-5989 49 0
-5989 124 0
-5989 184 0
-49 -124 -184 5989 0
-5990 50 0
-5990 125 0
-5990 185 0
-50 -125 -185 5990 0
-5991 51 0
-5991 126 0
-5991 186 0
-51 -126 -186 5991 0
-5992 52 0
-5992 127 0
-5992 187 0
-52 -127 -187 5992 0
-5993 53 0
-5993 128 0
-5993 188 0
-53 -128 -188 5993 0
-5994 54 0
-5994 129 0
-5994 189 0
-54 -129 -189 5994 0
-5995 55 0
-5995 130 0
-5995 190 0
-55 -130 -190 5995 0
-5996 56 0
-5996 131 0
-5996 191 0
-56 -131 -191 5996 0
-5997 57 0
-5997 132 0
-5997 192 0
-57 -132 -192 5997 0
-5998 58 0
-5998 133 0
-5998 193 0
-58 -133 -193 5998 0
-5999 59 0
-5999 134 0
-5999 194 0
-59 -134 -194 5999 0
-6000 60 0
-6000 135 0
-6000 195 0
-60 -135 -195 6000 0
-5986 9003 0
-5987 9003 0
-5988 9003 0
-5989 9003 0
-5990 9003 0
-5991 9003 0
-5992 9003 0
-5993 9003 0
-5994 9003 0
-5995 9003 0
-5996 9003 0
-5997 9003 0
-5998 9003 0
-5999 9003 0
-6000 9003 0
-9003 5986 5987 5988 5989 5990 5991 5992 5993 5994 5995 5996 5997 5998 5999 6000 0
-6001 46 0
-6001 121 0
-6001 196 0
-46 -121 -196 6001 0
-6002 47 0
-6002 122 0
-6002 197 0
-47 -122 -197 6002 0
-6003 48 0
-6003 123 0
-6003 198 0
-48 -123 -198 6003 0
-6004 49 0
-6004 124 0
-6004 199 0
-49 -124 -199 6004 0
-6005 50 0
-6005 125 0
-6005 200 0
-50 -125 -200 6005 0
-6006 51 0
-6006 126 0
-6006 201 0
-51 -126 -201 6006 0
-6007 52 0
-6007 127 0
-6007 202 0
-52 -127 -202 6007 0
-6008 53 0
-6008 128 0
-6008 203 0
-53 -128 -203 6008 0
-6009 54 0
-6009 129 0
-6009 204 0
-54 -129 -204 6009 0
-6010 55 0
-6010 130 0
-6010 205 0
-55 -130 -205 6010 0
-6011 56 0
-6011 131 0
-6011 206 0
-56 -131 -206 6011 0
-6012 57 0
-6012 132 0
-6012 207 0
-57 -132 -207 6012 0
-6013 58 0
-6013 133 0
-6013 208 0
-58 -133 -208 6013 0
-6014 59 0
-6014 134 0
-6014 209 0
-59 -134 -209 6014 0
-6015 60 0
-6015 135 0
-6015 210 0
-60 -135 -210 6015 0
-6001 9004 0
-6002 9004 0
-6003 9004 0
-6004 9004 0
-6005 9004 0
-6006 9004 0
-6007 9004 0
-6008 9004 0
-6009 9004 0
-6010 9004 0
-6011 9004 0
-6012 9004 0
-6013 9004 0
-6014 9004 0
-6015 9004 0
-9004 6001 6002 6003 6004 6005 6006 6007 6008 6009 6010 6011 6012 6013 6014 6015 0
-6016 46 0
-6016 121 0
-6016 211 0
-46 -121 -211 6016 0
-6017 47 0
-6017 122 0
-6017 212 0
-47 -122 -212 6017 0
-6018 48 0
-6018 123 0
-6018 213 0
-48 -123 -213 6018 0
-6019 49 0
-6019 124 0
-6019 214 0
-49 -124 -214 6019 0
-6020 50 0
-6020 125 0
-6020 215 0
-50 -125 -215 6020 0
-6021 51 0
-6021 126 0
-6021 216 0
-51 -126 -216 6021 0
-6022 52 0
-6022 127 0
-6022 217 0
-52 -127 -217 6022 0
-6023 53 0
-6023 128 0
-6023 218 0
-53 -128 -218 6023 0
-6024 54 0
-6024 129 0
-6024 219 0
-54 -129 -219 6024 0
-6025 55 0
-6025 130 0
-6025 220 0
-55 -130 -220 6025 0
-6026 56 0
-6026 131 0
-6026 221 0
-56 -131 -221 6026 0
-6027 57 0
-6027 132 0
-6027 222 0
-57 -132 -222 6027 0
-6028 58 0
-6028 133 0
-6028 223 0
-58 -133 -223 6028 0
-6029 59 0
-6029 134 0
-6029 224 0
-59 -134 -224 6029 0
-6030 60 0
-6030 135 0
-6030 225 0
-60 -135 -225 6030 0
-6016 9005 0
-6017 9005 0
-6018 9005 0
-6019 9005 0
-6020 9005 0
-6021 9005 0
-6022 9005 0
-6023 9005 0
-6024 9005 0
-6025 9005 0
-6026 9005 0
-6027 9005 0
-6028 9005 0
-6029 9005 0
-6030 9005 0
-9005 6016 6017 6018 6019 6020 6021 6022 6023 6024 6025 6026 6027 6028 6029 6030 0
-6031 46 0
-6031 136 0
-6031 151 0
-46 -136 -151 6031 0
-6032 47 0
-6032 137 0
-6032 152 0
-47 -137 -152 6032 0
-6033 48 0
-6033 138 0
-6033 153 0
-48 -138 -153 6033 0
-6034 49 0
-6034 139 0
-6034 154 0
-49 -139 -154 6034 0
-6035 50 0
-6035 140 0
-6035 155 0
-50 -140 -155 6035 0
-6036 51 0
-6036 141 0
-6036 156 0
-51 -141 -156 6036 0
-6037 52 0
-6037 142 0
-6037 157 0
-52 -142 -157 6037 0
-6038 53 0
-6038 143 0
-6038 158 0
-53 -143 -158 6038 0
-6039 54 0
-6039 144 0
-6039 159 0
-54 -144 -159 6039 0
-6040 55 0
-6040 145 0
-6040 160 0
-55 -145 -160 6040 0
-6041 56 0
-6041 146 0
-6041 161 0
-56 -146 -161 6041 0
-6042 57 0
-6042 147 0
-6042 162 0
-57 -147 -162 6042 0
-6043 58 0
-6043 148 0
-6043 163 0
-58 -148 -163 6043 0
-6044 59 0
-6044 149 0
-6044 164 0
-59 -149 -164 6044 0
-6045 60 0
-6045 150 0
-6045 165 0
-60 -150 -165 6045 0
-6031 9006 0
-6032 9006 0
-6033 9006 0
-6034 9006 0
-6035 9006 0
-6036 9006 0
-6037 9006 0
-6038 9006 0
-6039 9006 0
-6040 9006 0
-6041 9006 0
-6042 9006 0
-6043 9006 0
-6044 9006 0
-6045 9006 0
-9006 6031 6032 6033 6034 6035 6036 6037 6038 6039 6040 6041 6042 6043 6044 6045 0
-6046 46 0
-6046 136 0
-6046 166 0
-46 -136 -166 6046 0
-6047 47 0
-6047 137 0
-6047 167 0
-47 -137 -167 6047 0
-6048 48 0
-6048 138 0
-6048 168 0
-48 -138 -168 6048 0
-6049 49 0
-6049 139 0
-6049 169 0
-49 -139 -169 6049 0
-6050 50 0
-6050 140 0
-6050 170 0
-50 -140 -170 6050 0
-6051 51 0
-6051 141 0
-6051 171 0
-51 -141 -171 6051 0
-6052 52 0
-6052 142 0
-6052 172 0
-52 -142 -172 6052 0
-6053 53 0
-6053 143 0
-6053 173 0
-53 -143 -173 6053 0
-6054 54 0
-6054 144 0
-6054 174 0
-54 -144 -174 6054 0
-6055 55 0
-6055 145 0
-6055 175 0
-55 -145 -175 6055 0
-6056 56 0
-6056 146 0
-6056 176 0
-56 -146 -176 6056 0
-6057 57 0
-6057 147 0
-6057 177 0
-57 -147 -177 6057 0
-6058 58 0
-6058 148 0
-6058 178 0
-58 -148 -178 6058 0
-6059 59 0
-6059 149 0
-6059 179 0
-59 -149 -179 6059 0
-6060 60 0
-6060 150 0
-6060 180 0
-60 -150 -180 6060 0
-6046 9007 0
-6047 9007 0
-6048 9007 0
-6049 9007 0
-6050 9007 0
-6051 9007 0
-6052 9007 0
-6053 9007 0
-6054 9007 0
-6055 9007 0
-6056 9007 0
-6057 9007 0
-6058 9007 0
-6059 9007 0
-6060 9007 0
-9007 6046 6047 6048 6049 6050 6051 6052 6053 6054 6055 6056 6057 6058 6059 6060 0
-6061 46 0
-6061 136 0
-6061 181 0
-46 -136 -181 6061 0
-6062 47 0
-6062 137 0
-6062 182 0
-47 -137 -182 6062 0
-6063 48 0
-6063 138 0
-6063 183 0
-48 -138 -183 6063 0
-6064 49 0
-6064 139 0
-6064 184 0
-49 -139 -184 6064 0
-6065 50 0
-6065 140 0
-6065 185 0
-50 -140 -185 6065 0
-6066 51 0
-6066 141 0
-6066 186 0
-51 -141 -186 6066 0
-6067 52 0
-6067 142 0
-6067 187 0
-52 -142 -187 6067 0
-6068 53 0
-6068 143 0
-6068 188 0
-53 -143 -188 6068 0
-6069 54 0
-6069 144 0
-6069 189 0
-54 -144 -189 6069 0
-6070 55 0
-6070 145 0
-6070 190 0
-55 -145 -190 6070 0
-6071 56 0
-6071 146 0
-6071 191 0
-56 -146 -191 6071 0
-6072 57 0
-6072 147 0
-6072 192 0
-57 -147 -192 6072 0
-6073 58 0
-6073 148 0
-6073 193 0
-58 -148 -193 6073 0
-6074 59 0
-6074 149 0
-6074 194 0
-59 -149 -194 6074 0
-6075 60 0
-6075 150 0
-6075 195 0
-60 -150 -195 6075 0
-6061 9008 0
-6062 9008 0
-6063 9008 0
-6064 9008 0
-6065 9008 0
-6066 9008 0
-6067 9008 0
-6068 9008 0
-6069 9008 0
-6070 9008 0
-6071 9008 0
-6072 9008 0
-6073 9008 0
-6074 9008 0
-6075 9008 0
-9008 6061 6062 6063 6064 6065 6066 6067 6068 6069 6070 6071 6072 6073 6074 6075 0
-6076 46 0
-6076 136 0
-6076 196 0
-46 -136 -196 6076 0
-6077 47 0
-6077 137 0
-6077 197 0
-47 -137 -197 6077 0
-6078 48 0
-6078 138 0
-6078 198 0
-48 -138 -198 6078 0
-6079 49 0
-6079 139 0
-6079 199 0
-49 -139 -199 6079 0
-6080 50 0
-6080 140 0
-6080 200 0
-50 -140 -200 6080 0
-6081 51 0
-6081 141 0
-6081 201 0
-51 -141 -201 6081 0
-6082 52 0
-6082 142 0
-6082 202 0
-52 -142 -202 6082 0
-6083 53 0
-6083 143 0
-6083 203 0
-53 -143 -203 6083 0
-6084 54 0
-6084 144 0
-6084 204 0
-54 -144 -204 6084 0
-6085 55 0
-6085 145 0
-6085 205 0
-55 -145 -205 6085 0
-6086 56 0
-6086 146 0
-6086 206 0
-56 -146 -206 6086 0
-6087 57 0
-6087 147 0
-6087 207 0
-57 -147 -207 6087 0
-6088 58 0
-6088 148 0
-6088 208 0
-58 -148 -208 6088 0
-6089 59 0
-6089 149 0
-6089 209 0
-59 -149 -209 6089 0
-6090 60 0
-6090 150 0
-6090 210 0
-60 -150 -210 6090 0
-6076 9009 0
-6077 9009 0
-6078 9009 0
-6079 9009 0
-6080 9009 0
-6081 9009 0
-6082 9009 0
-6083 9009 0
-6084 9009 0
-6085 9009 0
-6086 9009 0
-6087 9009 0
-6088 9009 0
-6089 9009 0
-6090 9009 0
-9009 6076 6077 6078 6079 6080 6081 6082 6083 6084 6085 6086 6087 6088 6089 6090 0
-6091 46 0
-6091 136 0
-6091 211 0
-46 -136 -211 6091 0
-6092 47 0
-6092 137 0
-6092 212 0
-47 -137 -212 6092 0
-6093 48 0
-6093 138 0
-6093 213 0
-48 -138 -213 6093 0
-6094 49 0
-6094 139 0
-6094 214 0
-49 -139 -214 6094 0
-6095 50 0
-6095 140 0
-6095 215 0
-50 -140 -215 6095 0
-6096 51 0
-6096 141 0
-6096 216 0
-51 -141 -216 6096 0
-6097 52 0
-6097 142 0
-6097 217 0
-52 -142 -217 6097 0
-6098 53 0
-6098 143 0
-6098 218 0
-53 -143 -218 6098 0
-6099 54 0
-6099 144 0
-6099 219 0
-54 -144 -219 6099 0
-6100 55 0
-6100 145 0
-6100 220 0
-55 -145 -220 6100 0
-6101 56 0
-6101 146 0
-6101 221 0
-56 -146 -221 6101 0
-6102 57 0
-6102 147 0
-6102 222 0
-57 -147 -222 6102 0
-6103 58 0
-6103 148 0
-6103 223 0
-58 -148 -223 6103 0
-6104 59 0
-6104 149 0
-6104 224 0
-59 -149 -224 6104 0
-6105 60 0
-6105 150 0
-6105 225 0
-60 -150 -225 6105 0
-6091 9010 0
-6092 9010 0
-6093 9010 0
-6094 9010 0
-6095 9010 0
-6096 9010 0
-6097 9010 0
-6098 9010 0
-6099 9010 0
-6100 9010 0
-6101 9010 0
-6102 9010 0
-6103 9010 0
-6104 9010 0
-6105 9010 0
-9010 6091 6092 6093 6094 6095 6096 6097 6098 6099 6100 6101 6102 6103 6104 6105 0
-6106 46 0
-6106 151 0
-6106 166 0
-46 -151 -166 6106 0
-6107 47 0
-6107 152 0
-6107 167 0
-47 -152 -167 6107 0
-6108 48 0
-6108 153 0
-6108 168 0
-48 -153 -168 6108 0
-6109 49 0
-6109 154 0
-6109 169 0
-49 -154 -169 6109 0
-6110 50 0
-6110 155 0
-6110 170 0
-50 -155 -170 6110 0
-6111 51 0
-6111 156 0
-6111 171 0
-51 -156 -171 6111 0
-6112 52 0
-6112 157 0
-6112 172 0
-52 -157 -172 6112 0
-6113 53 0
-6113 158 0
-6113 173 0
-53 -158 -173 6113 0
-6114 54 0
-6114 159 0
-6114 174 0
-54 -159 -174 6114 0
-6115 55 0
-6115 160 0
-6115 175 0
-55 -160 -175 6115 0
-6116 56 0
-6116 161 0
-6116 176 0
-56 -161 -176 6116 0
-6117 57 0
-6117 162 0
-6117 177 0
-57 -162 -177 6117 0
-6118 58 0
-6118 163 0
-6118 178 0
-58 -163 -178 6118 0
-6119 59 0
-6119 164 0
-6119 179 0
-59 -164 -179 6119 0
-6120 60 0
-6120 165 0
-6120 180 0
-60 -165 -180 6120 0
-6106 9011 0
-6107 9011 0
-6108 9011 0
-6109 9011 0
-6110 9011 0
-6111 9011 0
-6112 9011 0
-6113 9011 0
-6114 9011 0
-6115 9011 0
-6116 9011 0
-6117 9011 0
-6118 9011 0
-6119 9011 0
-6120 9011 0
-9011 6106 6107 6108 6109 6110 6111 6112 6113 6114 6115 6116 6117 6118 6119 6120 0
-6121 46 0
-6121 151 0
-6121 181 0
-46 -151 -181 6121 0
-6122 47 0
-6122 152 0
-6122 182 0
-47 -152 -182 6122 0
-6123 48 0
-6123 153 0
-6123 183 0
-48 -153 -183 6123 0
-6124 49 0
-6124 154 0
-6124 184 0
-49 -154 -184 6124 0
-6125 50 0
-6125 155 0
-6125 185 0
-50 -155 -185 6125 0
-6126 51 0
-6126 156 0
-6126 186 0
-51 -156 -186 6126 0
-6127 52 0
-6127 157 0
-6127 187 0
-52 -157 -187 6127 0
-6128 53 0
-6128 158 0
-6128 188 0
-53 -158 -188 6128 0
-6129 54 0
-6129 159 0
-6129 189 0
-54 -159 -189 6129 0
-6130 55 0
-6130 160 0
-6130 190 0
-55 -160 -190 6130 0
-6131 56 0
-6131 161 0
-6131 191 0
-56 -161 -191 6131 0
-6132 57 0
-6132 162 0
-6132 192 0
-57 -162 -192 6132 0
-6133 58 0
-6133 163 0
-6133 193 0
-58 -163 -193 6133 0
-6134 59 0
-6134 164 0
-6134 194 0
-59 -164 -194 6134 0
-6135 60 0
-6135 165 0
-6135 195 0
-60 -165 -195 6135 0
-6121 9012 0
-6122 9012 0
-6123 9012 0
-6124 9012 0
-6125 9012 0
-6126 9012 0
-6127 9012 0
-6128 9012 0
-6129 9012 0
-6130 9012 0
-6131 9012 0
-6132 9012 0
-6133 9012 0
-6134 9012 0
-6135 9012 0
-9012 6121 6122 6123 6124 6125 6126 6127 6128 6129 6130 6131 6132 6133 6134 6135 0
-6136 46 0
-6136 151 0
-6136 196 0
-46 -151 -196 6136 0
-6137 47 0
-6137 152 0
-6137 197 0
-47 -152 -197 6137 0
-6138 48 0
-6138 153 0
-6138 198 0
-48 -153 -198 6138 0
-6139 49 0
-6139 154 0
-6139 199 0
-49 -154 -199 6139 0
-6140 50 0
-6140 155 0
-6140 200 0
-50 -155 -200 6140 0
-6141 51 0
-6141 156 0
-6141 201 0
-51 -156 -201 6141 0
-6142 52 0
-6142 157 0
-6142 202 0
-52 -157 -202 6142 0
-6143 53 0
-6143 158 0
-6143 203 0
-53 -158 -203 6143 0
-6144 54 0
-6144 159 0
-6144 204 0
-54 -159 -204 6144 0
-6145 55 0
-6145 160 0
-6145 205 0
-55 -160 -205 6145 0
-6146 56 0
-6146 161 0
-6146 206 0
-56 -161 -206 6146 0
-6147 57 0
-6147 162 0
-6147 207 0
-57 -162 -207 6147 0
-6148 58 0
-6148 163 0
-6148 208 0
-58 -163 -208 6148 0
-6149 59 0
-6149 164 0
-6149 209 0
-59 -164 -209 6149 0
-6150 60 0
-6150 165 0
-6150 210 0
-60 -165 -210 6150 0
-6136 9013 0
-6137 9013 0
-6138 9013 0
-6139 9013 0
-6140 9013 0
-6141 9013 0
-6142 9013 0
-6143 9013 0
-6144 9013 0
-6145 9013 0
-6146 9013 0
-6147 9013 0
-6148 9013 0
-6149 9013 0
-6150 9013 0
-9013 6136 6137 6138 6139 6140 6141 6142 6143 6144 6145 6146 6147 6148 6149 6150 0
-6151 46 0
-6151 151 0
-6151 211 0
-46 -151 -211 6151 0
-6152 47 0
-6152 152 0
-6152 212 0
-47 -152 -212 6152 0
-6153 48 0
-6153 153 0
-6153 213 0
-48 -153 -213 6153 0
-6154 49 0
-6154 154 0
-6154 214 0
-49 -154 -214 6154 0
-6155 50 0
-6155 155 0
-6155 215 0
-50 -155 -215 6155 0
-6156 51 0
-6156 156 0
-6156 216 0
-51 -156 -216 6156 0
-6157 52 0
-6157 157 0
-6157 217 0
-52 -157 -217 6157 0
-6158 53 0
-6158 158 0
-6158 218 0
-53 -158 -218 6158 0
-6159 54 0
-6159 159 0
-6159 219 0
-54 -159 -219 6159 0
-6160 55 0
-6160 160 0
-6160 220 0
-55 -160 -220 6160 0
-6161 56 0
-6161 161 0
-6161 221 0
-56 -161 -221 6161 0
-6162 57 0
-6162 162 0
-6162 222 0
-57 -162 -222 6162 0
-6163 58 0
-6163 163 0
-6163 223 0
-58 -163 -223 6163 0
-6164 59 0
-6164 164 0
-6164 224 0
-59 -164 -224 6164 0
-6165 60 0
-6165 165 0
-6165 225 0
-60 -165 -225 6165 0
-6151 9014 0
-6152 9014 0
-6153 9014 0
-6154 9014 0
-6155 9014 0
-6156 9014 0
-6157 9014 0
-6158 9014 0
-6159 9014 0
-6160 9014 0
-6161 9014 0
-6162 9014 0
-6163 9014 0
-6164 9014 0
-6165 9014 0
-9014 6151 6152 6153 6154 6155 6156 6157 6158 6159 6160 6161 6162 6163 6164 6165 0
-6166 46 0
-6166 166 0
-6166 181 0
-46 -166 -181 6166 0
-6167 47 0
-6167 167 0
-6167 182 0
-47 -167 -182 6167 0
-6168 48 0
-6168 168 0
-6168 183 0
-48 -168 -183 6168 0
-6169 49 0
-6169 169 0
-6169 184 0
-49 -169 -184 6169 0
-6170 50 0
-6170 170 0
-6170 185 0
-50 -170 -185 6170 0
-6171 51 0
-6171 171 0
-6171 186 0
-51 -171 -186 6171 0
-6172 52 0
-6172 172 0
-6172 187 0
-52 -172 -187 6172 0
-6173 53 0
-6173 173 0
-6173 188 0
-53 -173 -188 6173 0
-6174 54 0
-6174 174 0
-6174 189 0
-54 -174 -189 6174 0
-6175 55 0
-6175 175 0
-6175 190 0
-55 -175 -190 6175 0
-6176 56 0
-6176 176 0
-6176 191 0
-56 -176 -191 6176 0
-6177 57 0
-6177 177 0
-6177 192 0
-57 -177 -192 6177 0
-6178 58 0
-6178 178 0
-6178 193 0
-58 -178 -193 6178 0
-6179 59 0
-6179 179 0
-6179 194 0
-59 -179 -194 6179 0
-6180 60 0
-6180 180 0
-6180 195 0
-60 -180 -195 6180 0
-6166 9015 0
-6167 9015 0
-6168 9015 0
-6169 9015 0
-6170 9015 0
-6171 9015 0
-6172 9015 0
-6173 9015 0
-6174 9015 0
-6175 9015 0
-6176 9015 0
-6177 9015 0
-6178 9015 0
-6179 9015 0
-6180 9015 0
-9015 6166 6167 6168 6169 6170 6171 6172 6173 6174 6175 6176 6177 6178 6179 6180 0
-6181 46 0
-6181 166 0
-6181 196 0
-46 -166 -196 6181 0
-6182 47 0
-6182 167 0
-6182 197 0
-47 -167 -197 6182 0
-6183 48 0
-6183 168 0
-6183 198 0
-48 -168 -198 6183 0
-6184 49 0
-6184 169 0
-6184 199 0
-49 -169 -199 6184 0
-6185 50 0
-6185 170 0
-6185 200 0
-50 -170 -200 6185 0
-6186 51 0
-6186 171 0
-6186 201 0
-51 -171 -201 6186 0
-6187 52 0
-6187 172 0
-6187 202 0
-52 -172 -202 6187 0
-6188 53 0
-6188 173 0
-6188 203 0
-53 -173 -203 6188 0
-6189 54 0
-6189 174 0
-6189 204 0
-54 -174 -204 6189 0
-6190 55 0
-6190 175 0
-6190 205 0
-55 -175 -205 6190 0
-6191 56 0
-6191 176 0
-6191 206 0
-56 -176 -206 6191 0
-6192 57 0
-6192 177 0
-6192 207 0
-57 -177 -207 6192 0
-6193 58 0
-6193 178 0
-6193 208 0
-58 -178 -208 6193 0
-6194 59 0
-6194 179 0
-6194 209 0
-59 -179 -209 6194 0
-6195 60 0
-6195 180 0
-6195 210 0
-60 -180 -210 6195 0
-6181 9016 0
-6182 9016 0
-6183 9016 0
-6184 9016 0
-6185 9016 0
-6186 9016 0
-6187 9016 0
-6188 9016 0
-6189 9016 0
-6190 9016 0
-6191 9016 0
-6192 9016 0
-6193 9016 0
-6194 9016 0
-6195 9016 0
-9016 6181 6182 6183 6184 6185 6186 6187 6188 6189 6190 6191 6192 6193 6194 6195 0
-6196 46 0
-6196 166 0
-6196 211 0
-46 -166 -211 6196 0
-6197 47 0
-6197 167 0
-6197 212 0
-47 -167 -212 6197 0
-6198 48 0
-6198 168 0
-6198 213 0
-48 -168 -213 6198 0
-6199 49 0
-6199 169 0
-6199 214 0
-49 -169 -214 6199 0
-6200 50 0
-6200 170 0
-6200 215 0
-50 -170 -215 6200 0
-6201 51 0
-6201 171 0
-6201 216 0
-51 -171 -216 6201 0
-6202 52 0
-6202 172 0
-6202 217 0
-52 -172 -217 6202 0
-6203 53 0
-6203 173 0
-6203 218 0
-53 -173 -218 6203 0
-6204 54 0
-6204 174 0
-6204 219 0
-54 -174 -219 6204 0
-6205 55 0
-6205 175 0
-6205 220 0
-55 -175 -220 6205 0
-6206 56 0
-6206 176 0
-6206 221 0
-56 -176 -221 6206 0
-6207 57 0
-6207 177 0
-6207 222 0
-57 -177 -222 6207 0
-6208 58 0
-6208 178 0
-6208 223 0
-58 -178 -223 6208 0
-6209 59 0
-6209 179 0
-6209 224 0
-59 -179 -224 6209 0
-6210 60 0
-6210 180 0
-6210 225 0
-60 -180 -225 6210 0
-6196 9017 0
-6197 9017 0
-6198 9017 0
-6199 9017 0
-6200 9017 0
-6201 9017 0
-6202 9017 0
-6203 9017 0
-6204 9017 0
-6205 9017 0
-6206 9017 0
-6207 9017 0
-6208 9017 0
-6209 9017 0
-6210 9017 0
-9017 6196 6197 6198 6199 6200 6201 6202 6203 6204 6205 6206 6207 6208 6209 6210 0
-6211 46 0
-6211 181 0
-6211 196 0
-46 -181 -196 6211 0
-6212 47 0
-6212 182 0
-6212 197 0
-47 -182 -197 6212 0
-6213 48 0
-6213 183 0
-6213 198 0
-48 -183 -198 6213 0
-6214 49 0
-6214 184 0
-6214 199 0
-49 -184 -199 6214 0
-6215 50 0
-6215 185 0
-6215 200 0
-50 -185 -200 6215 0
-6216 51 0
-6216 186 0
-6216 201 0
-51 -186 -201 6216 0
-6217 52 0
-6217 187 0
-6217 202 0
-52 -187 -202 6217 0
-6218 53 0
-6218 188 0
-6218 203 0
-53 -188 -203 6218 0
-6219 54 0
-6219 189 0
-6219 204 0
-54 -189 -204 6219 0
-6220 55 0
-6220 190 0
-6220 205 0
-55 -190 -205 6220 0
-6221 56 0
-6221 191 0
-6221 206 0
-56 -191 -206 6221 0
-6222 57 0
-6222 192 0
-6222 207 0
-57 -192 -207 6222 0
-6223 58 0
-6223 193 0
-6223 208 0
-58 -193 -208 6223 0
-6224 59 0
-6224 194 0
-6224 209 0
-59 -194 -209 6224 0
-6225 60 0
-6225 195 0
-6225 210 0
-60 -195 -210 6225 0
-6211 9018 0
-6212 9018 0
-6213 9018 0
-6214 9018 0
-6215 9018 0
-6216 9018 0
-6217 9018 0
-6218 9018 0
-6219 9018 0
-6220 9018 0
-6221 9018 0
-6222 9018 0
-6223 9018 0
-6224 9018 0
-6225 9018 0
-9018 6211 6212 6213 6214 6215 6216 6217 6218 6219 6220 6221 6222 6223 6224 6225 0
-6226 46 0
-6226 181 0
-6226 211 0
-46 -181 -211 6226 0
-6227 47 0
-6227 182 0
-6227 212 0
-47 -182 -212 6227 0
-6228 48 0
-6228 183 0
-6228 213 0
-48 -183 -213 6228 0
-6229 49 0
-6229 184 0
-6229 214 0
-49 -184 -214 6229 0
-6230 50 0
-6230 185 0
-6230 215 0
-50 -185 -215 6230 0
-6231 51 0
-6231 186 0
-6231 216 0
-51 -186 -216 6231 0
-6232 52 0
-6232 187 0
-6232 217 0
-52 -187 -217 6232 0
-6233 53 0
-6233 188 0
-6233 218 0
-53 -188 -218 6233 0
-6234 54 0
-6234 189 0
-6234 219 0
-54 -189 -219 6234 0
-6235 55 0
-6235 190 0
-6235 220 0
-55 -190 -220 6235 0
-6236 56 0
-6236 191 0
-6236 221 0
-56 -191 -221 6236 0
-6237 57 0
-6237 192 0
-6237 222 0
-57 -192 -222 6237 0
-6238 58 0
-6238 193 0
-6238 223 0
-58 -193 -223 6238 0
-6239 59 0
-6239 194 0
-6239 224 0
-59 -194 -224 6239 0
-6240 60 0
-6240 195 0
-6240 225 0
-60 -195 -225 6240 0
-6226 9019 0
-6227 9019 0
-6228 9019 0
-6229 9019 0
-6230 9019 0
-6231 9019 0
-6232 9019 0
-6233 9019 0
-6234 9019 0
-6235 9019 0
-6236 9019 0
-6237 9019 0
-6238 9019 0
-6239 9019 0
-6240 9019 0
-9019 6226 6227 6228 6229 6230 6231 6232 6233 6234 6235 6236 6237 6238 6239 6240 0
-6241 46 0
-6241 196 0
-6241 211 0
-46 -196 -211 6241 0
-6242 47 0
-6242 197 0
-6242 212 0
-47 -197 -212 6242 0
-6243 48 0
-6243 198 0
-6243 213 0
-48 -198 -213 6243 0
-6244 49 0
-6244 199 0
-6244 214 0
-49 -199 -214 6244 0
-6245 50 0
-6245 200 0
-6245 215 0
-50 -200 -215 6245 0
-6246 51 0
-6246 201 0
-6246 216 0
-51 -201 -216 6246 0
-6247 52 0
-6247 202 0
-6247 217 0
-52 -202 -217 6247 0
-6248 53 0
-6248 203 0
-6248 218 0
-53 -203 -218 6248 0
-6249 54 0
-6249 204 0
-6249 219 0
-54 -204 -219 6249 0
-6250 55 0
-6250 205 0
-6250 220 0
-55 -205 -220 6250 0
-6251 56 0
-6251 206 0
-6251 221 0
-56 -206 -221 6251 0
-6252 57 0
-6252 207 0
-6252 222 0
-57 -207 -222 6252 0
-6253 58 0
-6253 208 0
-6253 223 0
-58 -208 -223 6253 0
-6254 59 0
-6254 209 0
-6254 224 0
-59 -209 -224 6254 0
-6255 60 0
-6255 210 0
-6255 225 0
-60 -210 -225 6255 0
-6241 9020 0
-6242 9020 0
-6243 9020 0
-6244 9020 0
-6245 9020 0
-6246 9020 0
-6247 9020 0
-6248 9020 0
-6249 9020 0
-6250 9020 0
-6251 9020 0
-6252 9020 0
-6253 9020 0
-6254 9020 0
-6255 9020 0
-9020 6241 6242 6243 6244 6245 6246 6247 6248 6249 6250 6251 6252 6253 6254 6255 0
-6256 61 0
-6256 76 0
-6256 91 0
-61 -76 -91 6256 0
-6257 62 0
-6257 77 0
-6257 92 0
-62 -77 -92 6257 0
-6258 63 0
-6258 78 0
-6258 93 0
-63 -78 -93 6258 0
-6259 64 0
-6259 79 0
-6259 94 0
-64 -79 -94 6259 0
-6260 65 0
-6260 80 0
-6260 95 0
-65 -80 -95 6260 0
-6261 66 0
-6261 81 0
-6261 96 0
-66 -81 -96 6261 0
-6262 67 0
-6262 82 0
-6262 97 0
-67 -82 -97 6262 0
-6263 68 0
-6263 83 0
-6263 98 0
-68 -83 -98 6263 0
-6264 69 0
-6264 84 0
-6264 99 0
-69 -84 -99 6264 0
-6265 70 0
-6265 85 0
-6265 100 0
-70 -85 -100 6265 0
-6266 71 0
-6266 86 0
-6266 101 0
-71 -86 -101 6266 0
-6267 72 0
-6267 87 0
-6267 102 0
-72 -87 -102 6267 0
-6268 73 0
-6268 88 0
-6268 103 0
-73 -88 -103 6268 0
-6269 74 0
-6269 89 0
-6269 104 0
-74 -89 -104 6269 0
-6270 75 0
-6270 90 0
-6270 105 0
-75 -90 -105 6270 0
-6256 9021 0
-6257 9021 0
-6258 9021 0
-6259 9021 0
-6260 9021 0
-6261 9021 0
-6262 9021 0
-6263 9021 0
-6264 9021 0
-6265 9021 0
-6266 9021 0
-6267 9021 0
-6268 9021 0
-6269 9021 0
-6270 9021 0
-9021 6256 6257 6258 6259 6260 6261 6262 6263 6264 6265 6266 6267 6268 6269 6270 0
-6271 61 0
-6271 76 0
-6271 106 0
-61 -76 -106 6271 0
-6272 62 0
-6272 77 0
-6272 107 0
-62 -77 -107 6272 0
-6273 63 0
-6273 78 0
-6273 108 0
-63 -78 -108 6273 0
-6274 64 0
-6274 79 0
-6274 109 0
-64 -79 -109 6274 0
-6275 65 0
-6275 80 0
-6275 110 0
-65 -80 -110 6275 0
-6276 66 0
-6276 81 0
-6276 111 0
-66 -81 -111 6276 0
-6277 67 0
-6277 82 0
-6277 112 0
-67 -82 -112 6277 0
-6278 68 0
-6278 83 0
-6278 113 0
-68 -83 -113 6278 0
-6279 69 0
-6279 84 0
-6279 114 0
-69 -84 -114 6279 0
-6280 70 0
-6280 85 0
-6280 115 0
-70 -85 -115 6280 0
-6281 71 0
-6281 86 0
-6281 116 0
-71 -86 -116 6281 0
-6282 72 0
-6282 87 0
-6282 117 0
-72 -87 -117 6282 0
-6283 73 0
-6283 88 0
-6283 118 0
-73 -88 -118 6283 0
-6284 74 0
-6284 89 0
-6284 119 0
-74 -89 -119 6284 0
-6285 75 0
-6285 90 0
-6285 120 0
-75 -90 -120 6285 0
-6271 9022 0
-6272 9022 0
-6273 9022 0
-6274 9022 0
-6275 9022 0
-6276 9022 0
-6277 9022 0
-6278 9022 0
-6279 9022 0
-6280 9022 0
-6281 9022 0
-6282 9022 0
-6283 9022 0
-6284 9022 0
-6285 9022 0
-9022 6271 6272 6273 6274 6275 6276 6277 6278 6279 6280 6281 6282 6283 6284 6285 0
-6286 61 0
-6286 76 0
-6286 121 0
-61 -76 -121 6286 0
-6287 62 0
-6287 77 0
-6287 122 0
-62 -77 -122 6287 0
-6288 63 0
-6288 78 0
-6288 123 0
-63 -78 -123 6288 0
-6289 64 0
-6289 79 0
-6289 124 0
-64 -79 -124 6289 0
-6290 65 0
-6290 80 0
-6290 125 0
-65 -80 -125 6290 0
-6291 66 0
-6291 81 0
-6291 126 0
-66 -81 -126 6291 0
-6292 67 0
-6292 82 0
-6292 127 0
-67 -82 -127 6292 0
-6293 68 0
-6293 83 0
-6293 128 0
-68 -83 -128 6293 0
-6294 69 0
-6294 84 0
-6294 129 0
-69 -84 -129 6294 0
-6295 70 0
-6295 85 0
-6295 130 0
-70 -85 -130 6295 0
-6296 71 0
-6296 86 0
-6296 131 0
-71 -86 -131 6296 0
-6297 72 0
-6297 87 0
-6297 132 0
-72 -87 -132 6297 0
-6298 73 0
-6298 88 0
-6298 133 0
-73 -88 -133 6298 0
-6299 74 0
-6299 89 0
-6299 134 0
-74 -89 -134 6299 0
-6300 75 0
-6300 90 0
-6300 135 0
-75 -90 -135 6300 0
-6286 9023 0
-6287 9023 0
-6288 9023 0
-6289 9023 0
-6290 9023 0
-6291 9023 0
-6292 9023 0
-6293 9023 0
-6294 9023 0
-6295 9023 0
-6296 9023 0
-6297 9023 0
-6298 9023 0
-6299 9023 0
-6300 9023 0
-9023 6286 6287 6288 6289 6290 6291 6292 6293 6294 6295 6296 6297 6298 6299 6300 0
-6301 61 0
-6301 76 0
-6301 136 0
-61 -76 -136 6301 0
-6302 62 0
-6302 77 0
-6302 137 0
-62 -77 -137 6302 0
-6303 63 0
-6303 78 0
-6303 138 0
-63 -78 -138 6303 0
-6304 64 0
-6304 79 0
-6304 139 0
-64 -79 -139 6304 0
-6305 65 0
-6305 80 0
-6305 140 0
-65 -80 -140 6305 0
-6306 66 0
-6306 81 0
-6306 141 0
-66 -81 -141 6306 0
-6307 67 0
-6307 82 0
-6307 142 0
-67 -82 -142 6307 0
-6308 68 0
-6308 83 0
-6308 143 0
-68 -83 -143 6308 0
-6309 69 0
-6309 84 0
-6309 144 0
-69 -84 -144 6309 0
-6310 70 0
-6310 85 0
-6310 145 0
-70 -85 -145 6310 0
-6311 71 0
-6311 86 0
-6311 146 0
-71 -86 -146 6311 0
-6312 72 0
-6312 87 0
-6312 147 0
-72 -87 -147 6312 0
-6313 73 0
-6313 88 0
-6313 148 0
-73 -88 -148 6313 0
-6314 74 0
-6314 89 0
-6314 149 0
-74 -89 -149 6314 0
-6315 75 0
-6315 90 0
-6315 150 0
-75 -90 -150 6315 0
-6301 9024 0
-6302 9024 0
-6303 9024 0
-6304 9024 0
-6305 9024 0
-6306 9024 0
-6307 9024 0
-6308 9024 0
-6309 9024 0
-6310 9024 0
-6311 9024 0
-6312 9024 0
-6313 9024 0
-6314 9024 0
-6315 9024 0
-9024 6301 6302 6303 6304 6305 6306 6307 6308 6309 6310 6311 6312 6313 6314 6315 0
-6316 61 0
-6316 76 0
-6316 151 0
-61 -76 -151 6316 0
-6317 62 0
-6317 77 0
-6317 152 0
-62 -77 -152 6317 0
-6318 63 0
-6318 78 0
-6318 153 0
-63 -78 -153 6318 0
-6319 64 0
-6319 79 0
-6319 154 0
-64 -79 -154 6319 0
-6320 65 0
-6320 80 0
-6320 155 0
-65 -80 -155 6320 0
-6321 66 0
-6321 81 0
-6321 156 0
-66 -81 -156 6321 0
-6322 67 0
-6322 82 0
-6322 157 0
-67 -82 -157 6322 0
-6323 68 0
-6323 83 0
-6323 158 0
-68 -83 -158 6323 0
-6324 69 0
-6324 84 0
-6324 159 0
-69 -84 -159 6324 0
-6325 70 0
-6325 85 0
-6325 160 0
-70 -85 -160 6325 0
-6326 71 0
-6326 86 0
-6326 161 0
-71 -86 -161 6326 0
-6327 72 0
-6327 87 0
-6327 162 0
-72 -87 -162 6327 0
-6328 73 0
-6328 88 0
-6328 163 0
-73 -88 -163 6328 0
-6329 74 0
-6329 89 0
-6329 164 0
-74 -89 -164 6329 0
-6330 75 0
-6330 90 0
-6330 165 0
-75 -90 -165 6330 0
-6316 9025 0
-6317 9025 0
-6318 9025 0
-6319 9025 0
-6320 9025 0
-6321 9025 0
-6322 9025 0
-6323 9025 0
-6324 9025 0
-6325 9025 0
-6326 9025 0
-6327 9025 0
-6328 9025 0
-6329 9025 0
-6330 9025 0
-9025 6316 6317 6318 6319 6320 6321 6322 6323 6324 6325 6326 6327 6328 6329 6330 0
-6331 61 0
-6331 76 0
-6331 166 0
-61 -76 -166 6331 0
-6332 62 0
-6332 77 0
-6332 167 0
-62 -77 -167 6332 0
-6333 63 0
-6333 78 0
-6333 168 0
-63 -78 -168 6333 0
-6334 64 0
-6334 79 0
-6334 169 0
-64 -79 -169 6334 0
-6335 65 0
-6335 80 0
-6335 170 0
-65 -80 -170 6335 0
-6336 66 0
-6336 81 0
-6336 171 0
-66 -81 -171 6336 0
-6337 67 0
-6337 82 0
-6337 172 0
-67 -82 -172 6337 0
-6338 68 0
-6338 83 0
-6338 173 0
-68 -83 -173 6338 0
-6339 69 0
-6339 84 0
-6339 174 0
-69 -84 -174 6339 0
-6340 70 0
-6340 85 0
-6340 175 0
-70 -85 -175 6340 0
-6341 71 0
-6341 86 0
-6341 176 0
-71 -86 -176 6341 0
-6342 72 0
-6342 87 0
-6342 177 0
-72 -87 -177 6342 0
-6343 73 0
-6343 88 0
-6343 178 0
-73 -88 -178 6343 0
-6344 74 0
-6344 89 0
-6344 179 0
-74 -89 -179 6344 0
-6345 75 0
-6345 90 0
-6345 180 0
-75 -90 -180 6345 0
-6331 9026 0
-6332 9026 0
-6333 9026 0
-6334 9026 0
-6335 9026 0
-6336 9026 0
-6337 9026 0
-6338 9026 0
-6339 9026 0
-6340 9026 0
-6341 9026 0
-6342 9026 0
-6343 9026 0
-6344 9026 0
-6345 9026 0
-9026 6331 6332 6333 6334 6335 6336 6337 6338 6339 6340 6341 6342 6343 6344 6345 0
-6346 61 0
-6346 76 0
-6346 181 0
-61 -76 -181 6346 0
-6347 62 0
-6347 77 0
-6347 182 0
-62 -77 -182 6347 0
-6348 63 0
-6348 78 0
-6348 183 0
-63 -78 -183 6348 0
-6349 64 0
-6349 79 0
-6349 184 0
-64 -79 -184 6349 0
-6350 65 0
-6350 80 0
-6350 185 0
-65 -80 -185 6350 0
-6351 66 0
-6351 81 0
-6351 186 0
-66 -81 -186 6351 0
-6352 67 0
-6352 82 0
-6352 187 0
-67 -82 -187 6352 0
-6353 68 0
-6353 83 0
-6353 188 0
-68 -83 -188 6353 0
-6354 69 0
-6354 84 0
-6354 189 0
-69 -84 -189 6354 0
-6355 70 0
-6355 85 0
-6355 190 0
-70 -85 -190 6355 0
-6356 71 0
-6356 86 0
-6356 191 0
-71 -86 -191 6356 0
-6357 72 0
-6357 87 0
-6357 192 0
-72 -87 -192 6357 0
-6358 73 0
-6358 88 0
-6358 193 0
-73 -88 -193 6358 0
-6359 74 0
-6359 89 0
-6359 194 0
-74 -89 -194 6359 0
-6360 75 0
-6360 90 0
-6360 195 0
-75 -90 -195 6360 0
-6346 9027 0
-6347 9027 0
-6348 9027 0
-6349 9027 0
-6350 9027 0
-6351 9027 0
-6352 9027 0
-6353 9027 0
-6354 9027 0
-6355 9027 0
-6356 9027 0
-6357 9027 0
-6358 9027 0
-6359 9027 0
-6360 9027 0
-9027 6346 6347 6348 6349 6350 6351 6352 6353 6354 6355 6356 6357 6358 6359 6360 0
-6361 61 0
-6361 76 0
-6361 196 0
-61 -76 -196 6361 0
-6362 62 0
-6362 77 0
-6362 197 0
-62 -77 -197 6362 0
-6363 63 0
-6363 78 0
-6363 198 0
-63 -78 -198 6363 0
-6364 64 0
-6364 79 0
-6364 199 0
-64 -79 -199 6364 0
-6365 65 0
-6365 80 0
-6365 200 0
-65 -80 -200 6365 0
-6366 66 0
-6366 81 0
-6366 201 0
-66 -81 -201 6366 0
-6367 67 0
-6367 82 0
-6367 202 0
-67 -82 -202 6367 0
-6368 68 0
-6368 83 0
-6368 203 0
-68 -83 -203 6368 0
-6369 69 0
-6369 84 0
-6369 204 0
-69 -84 -204 6369 0
-6370 70 0
-6370 85 0
-6370 205 0
-70 -85 -205 6370 0
-6371 71 0
-6371 86 0
-6371 206 0
-71 -86 -206 6371 0
-6372 72 0
-6372 87 0
-6372 207 0
-72 -87 -207 6372 0
-6373 73 0
-6373 88 0
-6373 208 0
-73 -88 -208 6373 0
-6374 74 0
-6374 89 0
-6374 209 0
-74 -89 -209 6374 0
-6375 75 0
-6375 90 0
-6375 210 0
-75 -90 -210 6375 0
-6361 9028 0
-6362 9028 0
-6363 9028 0
-6364 9028 0
-6365 9028 0
-6366 9028 0
-6367 9028 0
-6368 9028 0
-6369 9028 0
-6370 9028 0
-6371 9028 0
-6372 9028 0
-6373 9028 0
-6374 9028 0
-6375 9028 0
-9028 6361 6362 6363 6364 6365 6366 6367 6368 6369 6370 6371 6372 6373 6374 6375 0
-6376 61 0
-6376 76 0
-6376 211 0
-61 -76 -211 6376 0
-6377 62 0
-6377 77 0
-6377 212 0
-62 -77 -212 6377 0
-6378 63 0
-6378 78 0
-6378 213 0
-63 -78 -213 6378 0
-6379 64 0
-6379 79 0
-6379 214 0
-64 -79 -214 6379 0
-6380 65 0
-6380 80 0
-6380 215 0
-65 -80 -215 6380 0
-6381 66 0
-6381 81 0
-6381 216 0
-66 -81 -216 6381 0
-6382 67 0
-6382 82 0
-6382 217 0
-67 -82 -217 6382 0
-6383 68 0
-6383 83 0
-6383 218 0
-68 -83 -218 6383 0
-6384 69 0
-6384 84 0
-6384 219 0
-69 -84 -219 6384 0
-6385 70 0
-6385 85 0
-6385 220 0
-70 -85 -220 6385 0
-6386 71 0
-6386 86 0
-6386 221 0
-71 -86 -221 6386 0
-6387 72 0
-6387 87 0
-6387 222 0
-72 -87 -222 6387 0
-6388 73 0
-6388 88 0
-6388 223 0
-73 -88 -223 6388 0
-6389 74 0
-6389 89 0
-6389 224 0
-74 -89 -224 6389 0
-6390 75 0
-6390 90 0
-6390 225 0
-75 -90 -225 6390 0
-6376 9029 0
-6377 9029 0
-6378 9029 0
-6379 9029 0
-6380 9029 0
-6381 9029 0
-6382 9029 0
-6383 9029 0
-6384 9029 0
-6385 9029 0
-6386 9029 0
-6387 9029 0
-6388 9029 0
-6389 9029 0
-6390 9029 0
-9029 6376 6377 6378 6379 6380 6381 6382 6383 6384 6385 6386 6387 6388 6389 6390 0
-6391 61 0
-6391 91 0
-6391 106 0
-61 -91 -106 6391 0
-6392 62 0
-6392 92 0
-6392 107 0
-62 -92 -107 6392 0
-6393 63 0
-6393 93 0
-6393 108 0
-63 -93 -108 6393 0
-6394 64 0
-6394 94 0
-6394 109 0
-64 -94 -109 6394 0
-6395 65 0
-6395 95 0
-6395 110 0
-65 -95 -110 6395 0
-6396 66 0
-6396 96 0
-6396 111 0
-66 -96 -111 6396 0
-6397 67 0
-6397 97 0
-6397 112 0
-67 -97 -112 6397 0
-6398 68 0
-6398 98 0
-6398 113 0
-68 -98 -113 6398 0
-6399 69 0
-6399 99 0
-6399 114 0
-69 -99 -114 6399 0
-6400 70 0
-6400 100 0
-6400 115 0
-70 -100 -115 6400 0
-6401 71 0
-6401 101 0
-6401 116 0
-71 -101 -116 6401 0
-6402 72 0
-6402 102 0
-6402 117 0
-72 -102 -117 6402 0
-6403 73 0
-6403 103 0
-6403 118 0
-73 -103 -118 6403 0
-6404 74 0
-6404 104 0
-6404 119 0
-74 -104 -119 6404 0
-6405 75 0
-6405 105 0
-6405 120 0
-75 -105 -120 6405 0
-6391 9030 0
-6392 9030 0
-6393 9030 0
-6394 9030 0
-6395 9030 0
-6396 9030 0
-6397 9030 0
-6398 9030 0
-6399 9030 0
-6400 9030 0
-6401 9030 0
-6402 9030 0
-6403 9030 0
-6404 9030 0
-6405 9030 0
-9030 6391 6392 6393 6394 6395 6396 6397 6398 6399 6400 6401 6402 6403 6404 6405 0
-6406 61 0
-6406 91 0
-6406 121 0
-61 -91 -121 6406 0
-6407 62 0
-6407 92 0
-6407 122 0
-62 -92 -122 6407 0
-6408 63 0
-6408 93 0
-6408 123 0
-63 -93 -123 6408 0
-6409 64 0
-6409 94 0
-6409 124 0
-64 -94 -124 6409 0
-6410 65 0
-6410 95 0
-6410 125 0
-65 -95 -125 6410 0
-6411 66 0
-6411 96 0
-6411 126 0
-66 -96 -126 6411 0
-6412 67 0
-6412 97 0
-6412 127 0
-67 -97 -127 6412 0
-6413 68 0
-6413 98 0
-6413 128 0
-68 -98 -128 6413 0
-6414 69 0
-6414 99 0
-6414 129 0
-69 -99 -129 6414 0
-6415 70 0
-6415 100 0
-6415 130 0
-70 -100 -130 6415 0
-6416 71 0
-6416 101 0
-6416 131 0
-71 -101 -131 6416 0
-6417 72 0
-6417 102 0
-6417 132 0
-72 -102 -132 6417 0
-6418 73 0
-6418 103 0
-6418 133 0
-73 -103 -133 6418 0
-6419 74 0
-6419 104 0
-6419 134 0
-74 -104 -134 6419 0
-6420 75 0
-6420 105 0
-6420 135 0
-75 -105 -135 6420 0
-6406 9031 0
-6407 9031 0
-6408 9031 0
-6409 9031 0
-6410 9031 0
-6411 9031 0
-6412 9031 0
-6413 9031 0
-6414 9031 0
-6415 9031 0
-6416 9031 0
-6417 9031 0
-6418 9031 0
-6419 9031 0
-6420 9031 0
-9031 6406 6407 6408 6409 6410 6411 6412 6413 6414 6415 6416 6417 6418 6419 6420 0
-6421 61 0
-6421 91 0
-6421 136 0
-61 -91 -136 6421 0
-6422 62 0
-6422 92 0
-6422 137 0
-62 -92 -137 6422 0
-6423 63 0
-6423 93 0
-6423 138 0
-63 -93 -138 6423 0
-6424 64 0
-6424 94 0
-6424 139 0
-64 -94 -139 6424 0
-6425 65 0
-6425 95 0
-6425 140 0
-65 -95 -140 6425 0
-6426 66 0
-6426 96 0
-6426 141 0
-66 -96 -141 6426 0
-6427 67 0
-6427 97 0
-6427 142 0
-67 -97 -142 6427 0
-6428 68 0
-6428 98 0
-6428 143 0
-68 -98 -143 6428 0
-6429 69 0
-6429 99 0
-6429 144 0
-69 -99 -144 6429 0
-6430 70 0
-6430 100 0
-6430 145 0
-70 -100 -145 6430 0
-6431 71 0
-6431 101 0
-6431 146 0
-71 -101 -146 6431 0
-6432 72 0
-6432 102 0
-6432 147 0
-72 -102 -147 6432 0
-6433 73 0
-6433 103 0
-6433 148 0
-73 -103 -148 6433 0
-6434 74 0
-6434 104 0
-6434 149 0
-74 -104 -149 6434 0
-6435 75 0
-6435 105 0
-6435 150 0
-75 -105 -150 6435 0
-6421 9032 0
-6422 9032 0
-6423 9032 0
-6424 9032 0
-6425 9032 0
-6426 9032 0
-6427 9032 0
-6428 9032 0
-6429 9032 0
-6430 9032 0
-6431 9032 0
-6432 9032 0
-6433 9032 0
-6434 9032 0
-6435 9032 0
-9032 6421 6422 6423 6424 6425 6426 6427 6428 6429 6430 6431 6432 6433 6434 6435 0
-6436 61 0
-6436 91 0
-6436 151 0
-61 -91 -151 6436 0
-6437 62 0
-6437 92 0
-6437 152 0
-62 -92 -152 6437 0
-6438 63 0
-6438 93 0
-6438 153 0
-63 -93 -153 6438 0
-6439 64 0
-6439 94 0
-6439 154 0
-64 -94 -154 6439 0
-6440 65 0
-6440 95 0
-6440 155 0
-65 -95 -155 6440 0
-6441 66 0
-6441 96 0
-6441 156 0
-66 -96 -156 6441 0
-6442 67 0
-6442 97 0
-6442 157 0
-67 -97 -157 6442 0
-6443 68 0
-6443 98 0
-6443 158 0
-68 -98 -158 6443 0
-6444 69 0
-6444 99 0
-6444 159 0
-69 -99 -159 6444 0
-6445 70 0
-6445 100 0
-6445 160 0
-70 -100 -160 6445 0
-6446 71 0
-6446 101 0
-6446 161 0
-71 -101 -161 6446 0
-6447 72 0
-6447 102 0
-6447 162 0
-72 -102 -162 6447 0
-6448 73 0
-6448 103 0
-6448 163 0
-73 -103 -163 6448 0
-6449 74 0
-6449 104 0
-6449 164 0
-74 -104 -164 6449 0
-6450 75 0
-6450 105 0
-6450 165 0
-75 -105 -165 6450 0
-6436 9033 0
-6437 9033 0
-6438 9033 0
-6439 9033 0
-6440 9033 0
-6441 9033 0
-6442 9033 0
-6443 9033 0
-6444 9033 0
-6445 9033 0
-6446 9033 0
-6447 9033 0
-6448 9033 0
-6449 9033 0
-6450 9033 0
-9033 6436 6437 6438 6439 6440 6441 6442 6443 6444 6445 6446 6447 6448 6449 6450 0
-6451 61 0
-6451 91 0
-6451 166 0
-61 -91 -166 6451 0
-6452 62 0
-6452 92 0
-6452 167 0
-62 -92 -167 6452 0
-6453 63 0
-6453 93 0
-6453 168 0
-63 -93 -168 6453 0
-6454 64 0
-6454 94 0
-6454 169 0
-64 -94 -169 6454 0
-6455 65 0
-6455 95 0
-6455 170 0
-65 -95 -170 6455 0
-6456 66 0
-6456 96 0
-6456 171 0
-66 -96 -171 6456 0
-6457 67 0
-6457 97 0
-6457 172 0
-67 -97 -172 6457 0
-6458 68 0
-6458 98 0
-6458 173 0
-68 -98 -173 6458 0
-6459 69 0
-6459 99 0
-6459 174 0
-69 -99 -174 6459 0
-6460 70 0
-6460 100 0
-6460 175 0
-70 -100 -175 6460 0
-6461 71 0
-6461 101 0
-6461 176 0
-71 -101 -176 6461 0
-6462 72 0
-6462 102 0
-6462 177 0
-72 -102 -177 6462 0
-6463 73 0
-6463 103 0
-6463 178 0
-73 -103 -178 6463 0
-6464 74 0
-6464 104 0
-6464 179 0
-74 -104 -179 6464 0
-6465 75 0
-6465 105 0
-6465 180 0
-75 -105 -180 6465 0
-6451 9034 0
-6452 9034 0
-6453 9034 0
-6454 9034 0
-6455 9034 0
-6456 9034 0
-6457 9034 0
-6458 9034 0
-6459 9034 0
-6460 9034 0
-6461 9034 0
-6462 9034 0
-6463 9034 0
-6464 9034 0
-6465 9034 0
-9034 6451 6452 6453 6454 6455 6456 6457 6458 6459 6460 6461 6462 6463 6464 6465 0
-6466 61 0
-6466 91 0
-6466 181 0
-61 -91 -181 6466 0
-6467 62 0
-6467 92 0
-6467 182 0
-62 -92 -182 6467 0
-6468 63 0
-6468 93 0
-6468 183 0
-63 -93 -183 6468 0
-6469 64 0
-6469 94 0
-6469 184 0
-64 -94 -184 6469 0
-6470 65 0
-6470 95 0
-6470 185 0
-65 -95 -185 6470 0
-6471 66 0
-6471 96 0
-6471 186 0
-66 -96 -186 6471 0
-6472 67 0
-6472 97 0
-6472 187 0
-67 -97 -187 6472 0
-6473 68 0
-6473 98 0
-6473 188 0
-68 -98 -188 6473 0
-6474 69 0
-6474 99 0
-6474 189 0
-69 -99 -189 6474 0
-6475 70 0
-6475 100 0
-6475 190 0
-70 -100 -190 6475 0
-6476 71 0
-6476 101 0
-6476 191 0
-71 -101 -191 6476 0
-6477 72 0
-6477 102 0
-6477 192 0
-72 -102 -192 6477 0
-6478 73 0
-6478 103 0
-6478 193 0
-73 -103 -193 6478 0
-6479 74 0
-6479 104 0
-6479 194 0
-74 -104 -194 6479 0
-6480 75 0
-6480 105 0
-6480 195 0
-75 -105 -195 6480 0
-6466 9035 0
-6467 9035 0
-6468 9035 0
-6469 9035 0
-6470 9035 0
-6471 9035 0
-6472 9035 0
-6473 9035 0
-6474 9035 0
-6475 9035 0
-6476 9035 0
-6477 9035 0
-6478 9035 0
-6479 9035 0
-6480 9035 0
-9035 6466 6467 6468 6469 6470 6471 6472 6473 6474 6475 6476 6477 6478 6479 6480 0
-6481 61 0
-6481 91 0
-6481 196 0
-61 -91 -196 6481 0
-6482 62 0
-6482 92 0
-6482 197 0
-62 -92 -197 6482 0
-6483 63 0
-6483 93 0
-6483 198 0
-63 -93 -198 6483 0
-6484 64 0
-6484 94 0
-6484 199 0
-64 -94 -199 6484 0
-6485 65 0
-6485 95 0
-6485 200 0
-65 -95 -200 6485 0
-6486 66 0
-6486 96 0
-6486 201 0
-66 -96 -201 6486 0
-6487 67 0
-6487 97 0
-6487 202 0
-67 -97 -202 6487 0
-6488 68 0
-6488 98 0
-6488 203 0
-68 -98 -203 6488 0
-6489 69 0
-6489 99 0
-6489 204 0
-69 -99 -204 6489 0
-6490 70 0
-6490 100 0
-6490 205 0
-70 -100 -205 6490 0
-6491 71 0
-6491 101 0
-6491 206 0
-71 -101 -206 6491 0
-6492 72 0
-6492 102 0
-6492 207 0
-72 -102 -207 6492 0
-6493 73 0
-6493 103 0
-6493 208 0
-73 -103 -208 6493 0
-6494 74 0
-6494 104 0
-6494 209 0
-74 -104 -209 6494 0
-6495 75 0
-6495 105 0
-6495 210 0
-75 -105 -210 6495 0
-6481 9036 0
-6482 9036 0
-6483 9036 0
-6484 9036 0
-6485 9036 0
-6486 9036 0
-6487 9036 0
-6488 9036 0
-6489 9036 0
-6490 9036 0
-6491 9036 0
-6492 9036 0
-6493 9036 0
-6494 9036 0
-6495 9036 0
-9036 6481 6482 6483 6484 6485 6486 6487 6488 6489 6490 6491 6492 6493 6494 6495 0
-6496 61 0
-6496 91 0
-6496 211 0
-61 -91 -211 6496 0
-6497 62 0
-6497 92 0
-6497 212 0
-62 -92 -212 6497 0
-6498 63 0
-6498 93 0
-6498 213 0
-63 -93 -213 6498 0
-6499 64 0
-6499 94 0
-6499 214 0
-64 -94 -214 6499 0
-6500 65 0
-6500 95 0
-6500 215 0
-65 -95 -215 6500 0
-6501 66 0
-6501 96 0
-6501 216 0
-66 -96 -216 6501 0
-6502 67 0
-6502 97 0
-6502 217 0
-67 -97 -217 6502 0
-6503 68 0
-6503 98 0
-6503 218 0
-68 -98 -218 6503 0
-6504 69 0
-6504 99 0
-6504 219 0
-69 -99 -219 6504 0
-6505 70 0
-6505 100 0
-6505 220 0
-70 -100 -220 6505 0
-6506 71 0
-6506 101 0
-6506 221 0
-71 -101 -221 6506 0
-6507 72 0
-6507 102 0
-6507 222 0
-72 -102 -222 6507 0
-6508 73 0
-6508 103 0
-6508 223 0
-73 -103 -223 6508 0
-6509 74 0
-6509 104 0
-6509 224 0
-74 -104 -224 6509 0
-6510 75 0
-6510 105 0
-6510 225 0
-75 -105 -225 6510 0
-6496 9037 0
-6497 9037 0
-6498 9037 0
-6499 9037 0
-6500 9037 0
-6501 9037 0
-6502 9037 0
-6503 9037 0
-6504 9037 0
-6505 9037 0
-6506 9037 0
-6507 9037 0
-6508 9037 0
-6509 9037 0
-6510 9037 0
-9037 6496 6497 6498 6499 6500 6501 6502 6503 6504 6505 6506 6507 6508 6509 6510 0
-6511 61 0
-6511 106 0
-6511 121 0
-61 -106 -121 6511 0
-6512 62 0
-6512 107 0
-6512 122 0
-62 -107 -122 6512 0
-6513 63 0
-6513 108 0
-6513 123 0
-63 -108 -123 6513 0
-6514 64 0
-6514 109 0
-6514 124 0
-64 -109 -124 6514 0
-6515 65 0
-6515 110 0
-6515 125 0
-65 -110 -125 6515 0
-6516 66 0
-6516 111 0
-6516 126 0
-66 -111 -126 6516 0
-6517 67 0
-6517 112 0
-6517 127 0
-67 -112 -127 6517 0
-6518 68 0
-6518 113 0
-6518 128 0
-68 -113 -128 6518 0
-6519 69 0
-6519 114 0
-6519 129 0
-69 -114 -129 6519 0
-6520 70 0
-6520 115 0
-6520 130 0
-70 -115 -130 6520 0
-6521 71 0
-6521 116 0
-6521 131 0
-71 -116 -131 6521 0
-6522 72 0
-6522 117 0
-6522 132 0
-72 -117 -132 6522 0
-6523 73 0
-6523 118 0
-6523 133 0
-73 -118 -133 6523 0
-6524 74 0
-6524 119 0
-6524 134 0
-74 -119 -134 6524 0
-6525 75 0
-6525 120 0
-6525 135 0
-75 -120 -135 6525 0
-6511 9038 0
-6512 9038 0
-6513 9038 0
-6514 9038 0
-6515 9038 0
-6516 9038 0
-6517 9038 0
-6518 9038 0
-6519 9038 0
-6520 9038 0
-6521 9038 0
-6522 9038 0
-6523 9038 0
-6524 9038 0
-6525 9038 0
-9038 6511 6512 6513 6514 6515 6516 6517 6518 6519 6520 6521 6522 6523 6524 6525 0
-6526 61 0
-6526 106 0
-6526 136 0
-61 -106 -136 6526 0
-6527 62 0
-6527 107 0
-6527 137 0
-62 -107 -137 6527 0
-6528 63 0
-6528 108 0
-6528 138 0
-63 -108 -138 6528 0
-6529 64 0
-6529 109 0
-6529 139 0
-64 -109 -139 6529 0
-6530 65 0
-6530 110 0
-6530 140 0
-65 -110 -140 6530 0
-6531 66 0
-6531 111 0
-6531 141 0
-66 -111 -141 6531 0
-6532 67 0
-6532 112 0
-6532 142 0
-67 -112 -142 6532 0
-6533 68 0
-6533 113 0
-6533 143 0
-68 -113 -143 6533 0
-6534 69 0
-6534 114 0
-6534 144 0
-69 -114 -144 6534 0
-6535 70 0
-6535 115 0
-6535 145 0
-70 -115 -145 6535 0
-6536 71 0
-6536 116 0
-6536 146 0
-71 -116 -146 6536 0
-6537 72 0
-6537 117 0
-6537 147 0
-72 -117 -147 6537 0
-6538 73 0
-6538 118 0
-6538 148 0
-73 -118 -148 6538 0
-6539 74 0
-6539 119 0
-6539 149 0
-74 -119 -149 6539 0
-6540 75 0
-6540 120 0
-6540 150 0
-75 -120 -150 6540 0
-6526 9039 0
-6527 9039 0
-6528 9039 0
-6529 9039 0
-6530 9039 0
-6531 9039 0
-6532 9039 0
-6533 9039 0
-6534 9039 0
-6535 9039 0
-6536 9039 0
-6537 9039 0
-6538 9039 0
-6539 9039 0
-6540 9039 0
-9039 6526 6527 6528 6529 6530 6531 6532 6533 6534 6535 6536 6537 6538 6539 6540 0
-6541 61 0
-6541 106 0
-6541 151 0
-61 -106 -151 6541 0
-6542 62 0
-6542 107 0
-6542 152 0
-62 -107 -152 6542 0
-6543 63 0
-6543 108 0
-6543 153 0
-63 -108 -153 6543 0
-6544 64 0
-6544 109 0
-6544 154 0
-64 -109 -154 6544 0
-6545 65 0
-6545 110 0
-6545 155 0
-65 -110 -155 6545 0
-6546 66 0
-6546 111 0
-6546 156 0
-66 -111 -156 6546 0
-6547 67 0
-6547 112 0
-6547 157 0
-67 -112 -157 6547 0
-6548 68 0
-6548 113 0
-6548 158 0
-68 -113 -158 6548 0
-6549 69 0
-6549 114 0
-6549 159 0
-69 -114 -159 6549 0
-6550 70 0
-6550 115 0
-6550 160 0
-70 -115 -160 6550 0
-6551 71 0
-6551 116 0
-6551 161 0
-71 -116 -161 6551 0
-6552 72 0
-6552 117 0
-6552 162 0
-72 -117 -162 6552 0
-6553 73 0
-6553 118 0
-6553 163 0
-73 -118 -163 6553 0
-6554 74 0
-6554 119 0
-6554 164 0
-74 -119 -164 6554 0
-6555 75 0
-6555 120 0
-6555 165 0
-75 -120 -165 6555 0
-6541 9040 0
-6542 9040 0
-6543 9040 0
-6544 9040 0
-6545 9040 0
-6546 9040 0
-6547 9040 0
-6548 9040 0
-6549 9040 0
-6550 9040 0
-6551 9040 0
-6552 9040 0
-6553 9040 0
-6554 9040 0
-6555 9040 0
-9040 6541 6542 6543 6544 6545 6546 6547 6548 6549 6550 6551 6552 6553 6554 6555 0
-6556 61 0
-6556 106 0
-6556 166 0
-61 -106 -166 6556 0
-6557 62 0
-6557 107 0
-6557 167 0
-62 -107 -167 6557 0
-6558 63 0
-6558 108 0
-6558 168 0
-63 -108 -168 6558 0
-6559 64 0
-6559 109 0
-6559 169 0
-64 -109 -169 6559 0
-6560 65 0
-6560 110 0
-6560 170 0
-65 -110 -170 6560 0
-6561 66 0
-6561 111 0
-6561 171 0
-66 -111 -171 6561 0
-6562 67 0
-6562 112 0
-6562 172 0
-67 -112 -172 6562 0
-6563 68 0
-6563 113 0
-6563 173 0
-68 -113 -173 6563 0
-6564 69 0
-6564 114 0
-6564 174 0
-69 -114 -174 6564 0
-6565 70 0
-6565 115 0
-6565 175 0
-70 -115 -175 6565 0
-6566 71 0
-6566 116 0
-6566 176 0
-71 -116 -176 6566 0
-6567 72 0
-6567 117 0
-6567 177 0
-72 -117 -177 6567 0
-6568 73 0
-6568 118 0
-6568 178 0
-73 -118 -178 6568 0
-6569 74 0
-6569 119 0
-6569 179 0
-74 -119 -179 6569 0
-6570 75 0
-6570 120 0
-6570 180 0
-75 -120 -180 6570 0
-6556 9041 0
-6557 9041 0
-6558 9041 0
-6559 9041 0
-6560 9041 0
-6561 9041 0
-6562 9041 0
-6563 9041 0
-6564 9041 0
-6565 9041 0
-6566 9041 0
-6567 9041 0
-6568 9041 0
-6569 9041 0
-6570 9041 0
-9041 6556 6557 6558 6559 6560 6561 6562 6563 6564 6565 6566 6567 6568 6569 6570 0
-6571 61 0
-6571 106 0
-6571 181 0
-61 -106 -181 6571 0
-6572 62 0
-6572 107 0
-6572 182 0
-62 -107 -182 6572 0
-6573 63 0
-6573 108 0
-6573 183 0
-63 -108 -183 6573 0
-6574 64 0
-6574 109 0
-6574 184 0
-64 -109 -184 6574 0
-6575 65 0
-6575 110 0
-6575 185 0
-65 -110 -185 6575 0
-6576 66 0
-6576 111 0
-6576 186 0
-66 -111 -186 6576 0
-6577 67 0
-6577 112 0
-6577 187 0
-67 -112 -187 6577 0
-6578 68 0
-6578 113 0
-6578 188 0
-68 -113 -188 6578 0
-6579 69 0
-6579 114 0
-6579 189 0
-69 -114 -189 6579 0
-6580 70 0
-6580 115 0
-6580 190 0
-70 -115 -190 6580 0
-6581 71 0
-6581 116 0
-6581 191 0
-71 -116 -191 6581 0
-6582 72 0
-6582 117 0
-6582 192 0
-72 -117 -192 6582 0
-6583 73 0
-6583 118 0
-6583 193 0
-73 -118 -193 6583 0
-6584 74 0
-6584 119 0
-6584 194 0
-74 -119 -194 6584 0
-6585 75 0
-6585 120 0
-6585 195 0
-75 -120 -195 6585 0
-6571 9042 0
-6572 9042 0
-6573 9042 0
-6574 9042 0
-6575 9042 0
-6576 9042 0
-6577 9042 0
-6578 9042 0
-6579 9042 0
-6580 9042 0
-6581 9042 0
-6582 9042 0
-6583 9042 0
-6584 9042 0
-6585 9042 0
-9042 6571 6572 6573 6574 6575 6576 6577 6578 6579 6580 6581 6582 6583 6584 6585 0
-6586 61 0
-6586 106 0
-6586 196 0
-61 -106 -196 6586 0
-6587 62 0
-6587 107 0
-6587 197 0
-62 -107 -197 6587 0
-6588 63 0
-6588 108 0
-6588 198 0
-63 -108 -198 6588 0
-6589 64 0
-6589 109 0
-6589 199 0
-64 -109 -199 6589 0
-6590 65 0
-6590 110 0
-6590 200 0
-65 -110 -200 6590 0
-6591 66 0
-6591 111 0
-6591 201 0
-66 -111 -201 6591 0
-6592 67 0
-6592 112 0
-6592 202 0
-67 -112 -202 6592 0
-6593 68 0
-6593 113 0
-6593 203 0
-68 -113 -203 6593 0
-6594 69 0
-6594 114 0
-6594 204 0
-69 -114 -204 6594 0
-6595 70 0
-6595 115 0
-6595 205 0
-70 -115 -205 6595 0
-6596 71 0
-6596 116 0
-6596 206 0
-71 -116 -206 6596 0
-6597 72 0
-6597 117 0
-6597 207 0
-72 -117 -207 6597 0
-6598 73 0
-6598 118 0
-6598 208 0
-73 -118 -208 6598 0
-6599 74 0
-6599 119 0
-6599 209 0
-74 -119 -209 6599 0
-6600 75 0
-6600 120 0
-6600 210 0
-75 -120 -210 6600 0
-6586 9043 0
-6587 9043 0
-6588 9043 0
-6589 9043 0
-6590 9043 0
-6591 9043 0
-6592 9043 0
-6593 9043 0
-6594 9043 0
-6595 9043 0
-6596 9043 0
-6597 9043 0
-6598 9043 0
-6599 9043 0
-6600 9043 0
-9043 6586 6587 6588 6589 6590 6591 6592 6593 6594 6595 6596 6597 6598 6599 6600 0
-6601 61 0
-6601 106 0
-6601 211 0
-61 -106 -211 6601 0
-6602 62 0
-6602 107 0
-6602 212 0
-62 -107 -212 6602 0
-6603 63 0
-6603 108 0
-6603 213 0
-63 -108 -213 6603 0
-6604 64 0
-6604 109 0
-6604 214 0
-64 -109 -214 6604 0
-6605 65 0
-6605 110 0
-6605 215 0
-65 -110 -215 6605 0
-6606 66 0
-6606 111 0
-6606 216 0
-66 -111 -216 6606 0
-6607 67 0
-6607 112 0
-6607 217 0
-67 -112 -217 6607 0
-6608 68 0
-6608 113 0
-6608 218 0
-68 -113 -218 6608 0
-6609 69 0
-6609 114 0
-6609 219 0
-69 -114 -219 6609 0
-6610 70 0
-6610 115 0
-6610 220 0
-70 -115 -220 6610 0
-6611 71 0
-6611 116 0
-6611 221 0
-71 -116 -221 6611 0
-6612 72 0
-6612 117 0
-6612 222 0
-72 -117 -222 6612 0
-6613 73 0
-6613 118 0
-6613 223 0
-73 -118 -223 6613 0
-6614 74 0
-6614 119 0
-6614 224 0
-74 -119 -224 6614 0
-6615 75 0
-6615 120 0
-6615 225 0
-75 -120 -225 6615 0
-6601 9044 0
-6602 9044 0
-6603 9044 0
-6604 9044 0
-6605 9044 0
-6606 9044 0
-6607 9044 0
-6608 9044 0
-6609 9044 0
-6610 9044 0
-6611 9044 0
-6612 9044 0
-6613 9044 0
-6614 9044 0
-6615 9044 0
-9044 6601 6602 6603 6604 6605 6606 6607 6608 6609 6610 6611 6612 6613 6614 6615 0
-6616 61 0
-6616 121 0
-6616 136 0
-61 -121 -136 6616 0
-6617 62 0
-6617 122 0
-6617 137 0
-62 -122 -137 6617 0
-6618 63 0
-6618 123 0
-6618 138 0
-63 -123 -138 6618 0
-6619 64 0
-6619 124 0
-6619 139 0
-64 -124 -139 6619 0
-6620 65 0
-6620 125 0
-6620 140 0
-65 -125 -140 6620 0
-6621 66 0
-6621 126 0
-6621 141 0
-66 -126 -141 6621 0
-6622 67 0
-6622 127 0
-6622 142 0
-67 -127 -142 6622 0
-6623 68 0
-6623 128 0
-6623 143 0
-68 -128 -143 6623 0
-6624 69 0
-6624 129 0
-6624 144 0
-69 -129 -144 6624 0
-6625 70 0
-6625 130 0
-6625 145 0
-70 -130 -145 6625 0
-6626 71 0
-6626 131 0
-6626 146 0
-71 -131 -146 6626 0
-6627 72 0
-6627 132 0
-6627 147 0
-72 -132 -147 6627 0
-6628 73 0
-6628 133 0
-6628 148 0
-73 -133 -148 6628 0
-6629 74 0
-6629 134 0
-6629 149 0
-74 -134 -149 6629 0
-6630 75 0
-6630 135 0
-6630 150 0
-75 -135 -150 6630 0
-6616 9045 0
-6617 9045 0
-6618 9045 0
-6619 9045 0
-6620 9045 0
-6621 9045 0
-6622 9045 0
-6623 9045 0
-6624 9045 0
-6625 9045 0
-6626 9045 0
-6627 9045 0
-6628 9045 0
-6629 9045 0
-6630 9045 0
-9045 6616 6617 6618 6619 6620 6621 6622 6623 6624 6625 6626 6627 6628 6629 6630 0
-6631 61 0
-6631 121 0
-6631 151 0
-61 -121 -151 6631 0
-6632 62 0
-6632 122 0
-6632 152 0
-62 -122 -152 6632 0
-6633 63 0
-6633 123 0
-6633 153 0
-63 -123 -153 6633 0
-6634 64 0
-6634 124 0
-6634 154 0
-64 -124 -154 6634 0
-6635 65 0
-6635 125 0
-6635 155 0
-65 -125 -155 6635 0
-6636 66 0
-6636 126 0
-6636 156 0
-66 -126 -156 6636 0
-6637 67 0
-6637 127 0
-6637 157 0
-67 -127 -157 6637 0
-6638 68 0
-6638 128 0
-6638 158 0
-68 -128 -158 6638 0
-6639 69 0
-6639 129 0
-6639 159 0
-69 -129 -159 6639 0
-6640 70 0
-6640 130 0
-6640 160 0
-70 -130 -160 6640 0
-6641 71 0
-6641 131 0
-6641 161 0
-71 -131 -161 6641 0
-6642 72 0
-6642 132 0
-6642 162 0
-72 -132 -162 6642 0
-6643 73 0
-6643 133 0
-6643 163 0
-73 -133 -163 6643 0
-6644 74 0
-6644 134 0
-6644 164 0
-74 -134 -164 6644 0
-6645 75 0
-6645 135 0
-6645 165 0
-75 -135 -165 6645 0
-6631 9046 0
-6632 9046 0
-6633 9046 0
-6634 9046 0
-6635 9046 0
-6636 9046 0
-6637 9046 0
-6638 9046 0
-6639 9046 0
-6640 9046 0
-6641 9046 0
-6642 9046 0
-6643 9046 0
-6644 9046 0
-6645 9046 0
-9046 6631 6632 6633 6634 6635 6636 6637 6638 6639 6640 6641 6642 6643 6644 6645 0
-6646 61 0
-6646 121 0
-6646 166 0
-61 -121 -166 6646 0
-6647 62 0
-6647 122 0
-6647 167 0
-62 -122 -167 6647 0
-6648 63 0
-6648 123 0
-6648 168 0
-63 -123 -168 6648 0
-6649 64 0
-6649 124 0
-6649 169 0
-64 -124 -169 6649 0
-6650 65 0
-6650 125 0
-6650 170 0
-65 -125 -170 6650 0
-6651 66 0
-6651 126 0
-6651 171 0
-66 -126 -171 6651 0
-6652 67 0
-6652 127 0
-6652 172 0
-67 -127 -172 6652 0
-6653 68 0
-6653 128 0
-6653 173 0
-68 -128 -173 6653 0
-6654 69 0
-6654 129 0
-6654 174 0
-69 -129 -174 6654 0
-6655 70 0
-6655 130 0
-6655 175 0
-70 -130 -175 6655 0
-6656 71 0
-6656 131 0
-6656 176 0
-71 -131 -176 6656 0
-6657 72 0
-6657 132 0
-6657 177 0
-72 -132 -177 6657 0
-6658 73 0
-6658 133 0
-6658 178 0
-73 -133 -178 6658 0
-6659 74 0
-6659 134 0
-6659 179 0
-74 -134 -179 6659 0
-6660 75 0
-6660 135 0
-6660 180 0
-75 -135 -180 6660 0
-6646 9047 0
-6647 9047 0
-6648 9047 0
-6649 9047 0
-6650 9047 0
-6651 9047 0
-6652 9047 0
-6653 9047 0
-6654 9047 0
-6655 9047 0
-6656 9047 0
-6657 9047 0
-6658 9047 0
-6659 9047 0
-6660 9047 0
-9047 6646 6647 6648 6649 6650 6651 6652 6653 6654 6655 6656 6657 6658 6659 6660 0
-6661 61 0
-6661 121 0
-6661 181 0
-61 -121 -181 6661 0
-6662 62 0
-6662 122 0
-6662 182 0
-62 -122 -182 6662 0
-6663 63 0
-6663 123 0
-6663 183 0
-63 -123 -183 6663 0
-6664 64 0
-6664 124 0
-6664 184 0
-64 -124 -184 6664 0
-6665 65 0
-6665 125 0
-6665 185 0
-65 -125 -185 6665 0
-6666 66 0
-6666 126 0
-6666 186 0
-66 -126 -186 6666 0
-6667 67 0
-6667 127 0
-6667 187 0
-67 -127 -187 6667 0
-6668 68 0
-6668 128 0
-6668 188 0
-68 -128 -188 6668 0
-6669 69 0
-6669 129 0
-6669 189 0
-69 -129 -189 6669 0
-6670 70 0
-6670 130 0
-6670 190 0
-70 -130 -190 6670 0
-6671 71 0
-6671 131 0
-6671 191 0
-71 -131 -191 6671 0
-6672 72 0
-6672 132 0
-6672 192 0
-72 -132 -192 6672 0
-6673 73 0
-6673 133 0
-6673 193 0
-73 -133 -193 6673 0
-6674 74 0
-6674 134 0
-6674 194 0
-74 -134 -194 6674 0
-6675 75 0
-6675 135 0
-6675 195 0
-75 -135 -195 6675 0
-6661 9048 0
-6662 9048 0
-6663 9048 0
-6664 9048 0
-6665 9048 0
-6666 9048 0
-6667 9048 0
-6668 9048 0
-6669 9048 0
-6670 9048 0
-6671 9048 0
-6672 9048 0
-6673 9048 0
-6674 9048 0
-6675 9048 0
-9048 6661 6662 6663 6664 6665 6666 6667 6668 6669 6670 6671 6672 6673 6674 6675 0
-6676 61 0
-6676 121 0
-6676 196 0
-61 -121 -196 6676 0
-6677 62 0
-6677 122 0
-6677 197 0
-62 -122 -197 6677 0
-6678 63 0
-6678 123 0
-6678 198 0
-63 -123 -198 6678 0
-6679 64 0
-6679 124 0
-6679 199 0
-64 -124 -199 6679 0
-6680 65 0
-6680 125 0
-6680 200 0
-65 -125 -200 6680 0
-6681 66 0
-6681 126 0
-6681 201 0
-66 -126 -201 6681 0
-6682 67 0
-6682 127 0
-6682 202 0
-67 -127 -202 6682 0
-6683 68 0
-6683 128 0
-6683 203 0
-68 -128 -203 6683 0
-6684 69 0
-6684 129 0
-6684 204 0
-69 -129 -204 6684 0
-6685 70 0
-6685 130 0
-6685 205 0
-70 -130 -205 6685 0
-6686 71 0
-6686 131 0
-6686 206 0
-71 -131 -206 6686 0
-6687 72 0
-6687 132 0
-6687 207 0
-72 -132 -207 6687 0
-6688 73 0
-6688 133 0
-6688 208 0
-73 -133 -208 6688 0
-6689 74 0
-6689 134 0
-6689 209 0
-74 -134 -209 6689 0
-6690 75 0
-6690 135 0
-6690 210 0
-75 -135 -210 6690 0
-6676 9049 0
-6677 9049 0
-6678 9049 0
-6679 9049 0
-6680 9049 0
-6681 9049 0
-6682 9049 0
-6683 9049 0
-6684 9049 0
-6685 9049 0
-6686 9049 0
-6687 9049 0
-6688 9049 0
-6689 9049 0
-6690 9049 0
-9049 6676 6677 6678 6679 6680 6681 6682 6683 6684 6685 6686 6687 6688 6689 6690 0
-6691 61 0
-6691 121 0
-6691 211 0
-61 -121 -211 6691 0
-6692 62 0
-6692 122 0
-6692 212 0
-62 -122 -212 6692 0
-6693 63 0
-6693 123 0
-6693 213 0
-63 -123 -213 6693 0
-6694 64 0
-6694 124 0
-6694 214 0
-64 -124 -214 6694 0
-6695 65 0
-6695 125 0
-6695 215 0
-65 -125 -215 6695 0
-6696 66 0
-6696 126 0
-6696 216 0
-66 -126 -216 6696 0
-6697 67 0
-6697 127 0
-6697 217 0
-67 -127 -217 6697 0
-6698 68 0
-6698 128 0
-6698 218 0
-68 -128 -218 6698 0
-6699 69 0
-6699 129 0
-6699 219 0
-69 -129 -219 6699 0
-6700 70 0
-6700 130 0
-6700 220 0
-70 -130 -220 6700 0
-6701 71 0
-6701 131 0
-6701 221 0
-71 -131 -221 6701 0
-6702 72 0
-6702 132 0
-6702 222 0
-72 -132 -222 6702 0
-6703 73 0
-6703 133 0
-6703 223 0
-73 -133 -223 6703 0
-6704 74 0
-6704 134 0
-6704 224 0
-74 -134 -224 6704 0
-6705 75 0
-6705 135 0
-6705 225 0
-75 -135 -225 6705 0
-6691 9050 0
-6692 9050 0
-6693 9050 0
-6694 9050 0
-6695 9050 0
-6696 9050 0
-6697 9050 0
-6698 9050 0
-6699 9050 0
-6700 9050 0
-6701 9050 0
-6702 9050 0
-6703 9050 0
-6704 9050 0
-6705 9050 0
-9050 6691 6692 6693 6694 6695 6696 6697 6698 6699 6700 6701 6702 6703 6704 6705 0
-6706 61 0
-6706 136 0
-6706 151 0
-61 -136 -151 6706 0
-6707 62 0
-6707 137 0
-6707 152 0
-62 -137 -152 6707 0
-6708 63 0
-6708 138 0
-6708 153 0
-63 -138 -153 6708 0
-6709 64 0
-6709 139 0
-6709 154 0
-64 -139 -154 6709 0
-6710 65 0
-6710 140 0
-6710 155 0
-65 -140 -155 6710 0
-6711 66 0
-6711 141 0
-6711 156 0
-66 -141 -156 6711 0
-6712 67 0
-6712 142 0
-6712 157 0
-67 -142 -157 6712 0
-6713 68 0
-6713 143 0
-6713 158 0
-68 -143 -158 6713 0
-6714 69 0
-6714 144 0
-6714 159 0
-69 -144 -159 6714 0
-6715 70 0
-6715 145 0
-6715 160 0
-70 -145 -160 6715 0
-6716 71 0
-6716 146 0
-6716 161 0
-71 -146 -161 6716 0
-6717 72 0
-6717 147 0
-6717 162 0
-72 -147 -162 6717 0
-6718 73 0
-6718 148 0
-6718 163 0
-73 -148 -163 6718 0
-6719 74 0
-6719 149 0
-6719 164 0
-74 -149 -164 6719 0
-6720 75 0
-6720 150 0
-6720 165 0
-75 -150 -165 6720 0
-6706 9051 0
-6707 9051 0
-6708 9051 0
-6709 9051 0
-6710 9051 0
-6711 9051 0
-6712 9051 0
-6713 9051 0
-6714 9051 0
-6715 9051 0
-6716 9051 0
-6717 9051 0
-6718 9051 0
-6719 9051 0
-6720 9051 0
-9051 6706 6707 6708 6709 6710 6711 6712 6713 6714 6715 6716 6717 6718 6719 6720 0
-6721 61 0
-6721 136 0
-6721 166 0
-61 -136 -166 6721 0
-6722 62 0
-6722 137 0
-6722 167 0
-62 -137 -167 6722 0
-6723 63 0
-6723 138 0
-6723 168 0
-63 -138 -168 6723 0
-6724 64 0
-6724 139 0
-6724 169 0
-64 -139 -169 6724 0
-6725 65 0
-6725 140 0
-6725 170 0
-65 -140 -170 6725 0
-6726 66 0
-6726 141 0
-6726 171 0
-66 -141 -171 6726 0
-6727 67 0
-6727 142 0
-6727 172 0
-67 -142 -172 6727 0
-6728 68 0
-6728 143 0
-6728 173 0
-68 -143 -173 6728 0
-6729 69 0
-6729 144 0
-6729 174 0
-69 -144 -174 6729 0
-6730 70 0
-6730 145 0
-6730 175 0
-70 -145 -175 6730 0
-6731 71 0
-6731 146 0
-6731 176 0
-71 -146 -176 6731 0
-6732 72 0
-6732 147 0
-6732 177 0
-72 -147 -177 6732 0
-6733 73 0
-6733 148 0
-6733 178 0
-73 -148 -178 6733 0
-6734 74 0
-6734 149 0
-6734 179 0
-74 -149 -179 6734 0
-6735 75 0
-6735 150 0
-6735 180 0
-75 -150 -180 6735 0
-6721 9052 0
-6722 9052 0
-6723 9052 0
-6724 9052 0
-6725 9052 0
-6726 9052 0
-6727 9052 0
-6728 9052 0
-6729 9052 0
-6730 9052 0
-6731 9052 0
-6732 9052 0
-6733 9052 0
-6734 9052 0
-6735 9052 0
-9052 6721 6722 6723 6724 6725 6726 6727 6728 6729 6730 6731 6732 6733 6734 6735 0
-6736 61 0
-6736 136 0
-6736 181 0
-61 -136 -181 6736 0
-6737 62 0
-6737 137 0
-6737 182 0
-62 -137 -182 6737 0
-6738 63 0
-6738 138 0
-6738 183 0
-63 -138 -183 6738 0
-6739 64 0
-6739 139 0
-6739 184 0
-64 -139 -184 6739 0
-6740 65 0
-6740 140 0
-6740 185 0
-65 -140 -185 6740 0
-6741 66 0
-6741 141 0
-6741 186 0
-66 -141 -186 6741 0
-6742 67 0
-6742 142 0
-6742 187 0
-67 -142 -187 6742 0
-6743 68 0
-6743 143 0
-6743 188 0
-68 -143 -188 6743 0
-6744 69 0
-6744 144 0
-6744 189 0
-69 -144 -189 6744 0
-6745 70 0
-6745 145 0
-6745 190 0
-70 -145 -190 6745 0
-6746 71 0
-6746 146 0
-6746 191 0
-71 -146 -191 6746 0
-6747 72 0
-6747 147 0
-6747 192 0
-72 -147 -192 6747 0
-6748 73 0
-6748 148 0
-6748 193 0
-73 -148 -193 6748 0
-6749 74 0
-6749 149 0
-6749 194 0
-74 -149 -194 6749 0
-6750 75 0
-6750 150 0
-6750 195 0
-75 -150 -195 6750 0
-6736 9053 0
-6737 9053 0
-6738 9053 0
-6739 9053 0
-6740 9053 0
-6741 9053 0
-6742 9053 0
-6743 9053 0
-6744 9053 0
-6745 9053 0
-6746 9053 0
-6747 9053 0
-6748 9053 0
-6749 9053 0
-6750 9053 0
-9053 6736 6737 6738 6739 6740 6741 6742 6743 6744 6745 6746 6747 6748 6749 6750 0
-6751 61 0
-6751 136 0
-6751 196 0
-61 -136 -196 6751 0
-6752 62 0
-6752 137 0
-6752 197 0
-62 -137 -197 6752 0
-6753 63 0
-6753 138 0
-6753 198 0
-63 -138 -198 6753 0
-6754 64 0
-6754 139 0
-6754 199 0
-64 -139 -199 6754 0
-6755 65 0
-6755 140 0
-6755 200 0
-65 -140 -200 6755 0
-6756 66 0
-6756 141 0
-6756 201 0
-66 -141 -201 6756 0
-6757 67 0
-6757 142 0
-6757 202 0
-67 -142 -202 6757 0
-6758 68 0
-6758 143 0
-6758 203 0
-68 -143 -203 6758 0
-6759 69 0
-6759 144 0
-6759 204 0
-69 -144 -204 6759 0
-6760 70 0
-6760 145 0
-6760 205 0
-70 -145 -205 6760 0
-6761 71 0
-6761 146 0
-6761 206 0
-71 -146 -206 6761 0
-6762 72 0
-6762 147 0
-6762 207 0
-72 -147 -207 6762 0
-6763 73 0
-6763 148 0
-6763 208 0
-73 -148 -208 6763 0
-6764 74 0
-6764 149 0
-6764 209 0
-74 -149 -209 6764 0
-6765 75 0
-6765 150 0
-6765 210 0
-75 -150 -210 6765 0
-6751 9054 0
-6752 9054 0
-6753 9054 0
-6754 9054 0
-6755 9054 0
-6756 9054 0
-6757 9054 0
-6758 9054 0
-6759 9054 0
-6760 9054 0
-6761 9054 0
-6762 9054 0
-6763 9054 0
-6764 9054 0
-6765 9054 0
-9054 6751 6752 6753 6754 6755 6756 6757 6758 6759 6760 6761 6762 6763 6764 6765 0
-6766 61 0
-6766 136 0
-6766 211 0
-61 -136 -211 6766 0
-6767 62 0
-6767 137 0
-6767 212 0
-62 -137 -212 6767 0
-6768 63 0
-6768 138 0
-6768 213 0
-63 -138 -213 6768 0
-6769 64 0
-6769 139 0
-6769 214 0
-64 -139 -214 6769 0
-6770 65 0
-6770 140 0
-6770 215 0
-65 -140 -215 6770 0
-6771 66 0
-6771 141 0
-6771 216 0
-66 -141 -216 6771 0
-6772 67 0
-6772 142 0
-6772 217 0
-67 -142 -217 6772 0
-6773 68 0
-6773 143 0
-6773 218 0
-68 -143 -218 6773 0
-6774 69 0
-6774 144 0
-6774 219 0
-69 -144 -219 6774 0
-6775 70 0
-6775 145 0
-6775 220 0
-70 -145 -220 6775 0
-6776 71 0
-6776 146 0
-6776 221 0
-71 -146 -221 6776 0
-6777 72 0
-6777 147 0
-6777 222 0
-72 -147 -222 6777 0
-6778 73 0
-6778 148 0
-6778 223 0
-73 -148 -223 6778 0
-6779 74 0
-6779 149 0
-6779 224 0
-74 -149 -224 6779 0
-6780 75 0
-6780 150 0
-6780 225 0
-75 -150 -225 6780 0
-6766 9055 0
-6767 9055 0
-6768 9055 0
-6769 9055 0
-6770 9055 0
-6771 9055 0
-6772 9055 0
-6773 9055 0
-6774 9055 0
-6775 9055 0
-6776 9055 0
-6777 9055 0
-6778 9055 0
-6779 9055 0
-6780 9055 0
-9055 6766 6767 6768 6769 6770 6771 6772 6773 6774 6775 6776 6777 6778 6779 6780 0
-6781 61 0
-6781 151 0
-6781 166 0
-61 -151 -166 6781 0
-6782 62 0
-6782 152 0
-6782 167 0
-62 -152 -167 6782 0
-6783 63 0
-6783 153 0
-6783 168 0
-63 -153 -168 6783 0
-6784 64 0
-6784 154 0
-6784 169 0
-64 -154 -169 6784 0
-6785 65 0
-6785 155 0
-6785 170 0
-65 -155 -170 6785 0
-6786 66 0
-6786 156 0
-6786 171 0
-66 -156 -171 6786 0
-6787 67 0
-6787 157 0
-6787 172 0
-67 -157 -172 6787 0
-6788 68 0
-6788 158 0
-6788 173 0
-68 -158 -173 6788 0
-6789 69 0
-6789 159 0
-6789 174 0
-69 -159 -174 6789 0
-6790 70 0
-6790 160 0
-6790 175 0
-70 -160 -175 6790 0
-6791 71 0
-6791 161 0
-6791 176 0
-71 -161 -176 6791 0
-6792 72 0
-6792 162 0
-6792 177 0
-72 -162 -177 6792 0
-6793 73 0
-6793 163 0
-6793 178 0
-73 -163 -178 6793 0
-6794 74 0
-6794 164 0
-6794 179 0
-74 -164 -179 6794 0
-6795 75 0
-6795 165 0
-6795 180 0
-75 -165 -180 6795 0
-6781 9056 0
-6782 9056 0
-6783 9056 0
-6784 9056 0
-6785 9056 0
-6786 9056 0
-6787 9056 0
-6788 9056 0
-6789 9056 0
-6790 9056 0
-6791 9056 0
-6792 9056 0
-6793 9056 0
-6794 9056 0
-6795 9056 0
-9056 6781 6782 6783 6784 6785 6786 6787 6788 6789 6790 6791 6792 6793 6794 6795 0
-6796 61 0
-6796 151 0
-6796 181 0
-61 -151 -181 6796 0
-6797 62 0
-6797 152 0
-6797 182 0
-62 -152 -182 6797 0
-6798 63 0
-6798 153 0
-6798 183 0
-63 -153 -183 6798 0
-6799 64 0
-6799 154 0
-6799 184 0
-64 -154 -184 6799 0
-6800 65 0
-6800 155 0
-6800 185 0
-65 -155 -185 6800 0
-6801 66 0
-6801 156 0
-6801 186 0
-66 -156 -186 6801 0
-6802 67 0
-6802 157 0
-6802 187 0
-67 -157 -187 6802 0
-6803 68 0
-6803 158 0
-6803 188 0
-68 -158 -188 6803 0
-6804 69 0
-6804 159 0
-6804 189 0
-69 -159 -189 6804 0
-6805 70 0
-6805 160 0
-6805 190 0
-70 -160 -190 6805 0
-6806 71 0
-6806 161 0
-6806 191 0
-71 -161 -191 6806 0
-6807 72 0
-6807 162 0
-6807 192 0
-72 -162 -192 6807 0
-6808 73 0
-6808 163 0
-6808 193 0
-73 -163 -193 6808 0
-6809 74 0
-6809 164 0
-6809 194 0
-74 -164 -194 6809 0
-6810 75 0
-6810 165 0
-6810 195 0
-75 -165 -195 6810 0
-6796 9057 0
-6797 9057 0
-6798 9057 0
-6799 9057 0
-6800 9057 0
-6801 9057 0
-6802 9057 0
-6803 9057 0
-6804 9057 0
-6805 9057 0
-6806 9057 0
-6807 9057 0
-6808 9057 0
-6809 9057 0
-6810 9057 0
-9057 6796 6797 6798 6799 6800 6801 6802 6803 6804 6805 6806 6807 6808 6809 6810 0
-6811 61 0
-6811 151 0
-6811 196 0
-61 -151 -196 6811 0
-6812 62 0
-6812 152 0
-6812 197 0
-62 -152 -197 6812 0
-6813 63 0
-6813 153 0
-6813 198 0
-63 -153 -198 6813 0
-6814 64 0
-6814 154 0
-6814 199 0
-64 -154 -199 6814 0
-6815 65 0
-6815 155 0
-6815 200 0
-65 -155 -200 6815 0
-6816 66 0
-6816 156 0
-6816 201 0
-66 -156 -201 6816 0
-6817 67 0
-6817 157 0
-6817 202 0
-67 -157 -202 6817 0
-6818 68 0
-6818 158 0
-6818 203 0
-68 -158 -203 6818 0
-6819 69 0
-6819 159 0
-6819 204 0
-69 -159 -204 6819 0
-6820 70 0
-6820 160 0
-6820 205 0
-70 -160 -205 6820 0
-6821 71 0
-6821 161 0
-6821 206 0
-71 -161 -206 6821 0
-6822 72 0
-6822 162 0
-6822 207 0
-72 -162 -207 6822 0
-6823 73 0
-6823 163 0
-6823 208 0
-73 -163 -208 6823 0
-6824 74 0
-6824 164 0
-6824 209 0
-74 -164 -209 6824 0
-6825 75 0
-6825 165 0
-6825 210 0
-75 -165 -210 6825 0
-6811 9058 0
-6812 9058 0
-6813 9058 0
-6814 9058 0
-6815 9058 0
-6816 9058 0
-6817 9058 0
-6818 9058 0
-6819 9058 0
-6820 9058 0
-6821 9058 0
-6822 9058 0
-6823 9058 0
-6824 9058 0
-6825 9058 0
-9058 6811 6812 6813 6814 6815 6816 6817 6818 6819 6820 6821 6822 6823 6824 6825 0
-6826 61 0
-6826 151 0
-6826 211 0
-61 -151 -211 6826 0
-6827 62 0
-6827 152 0
-6827 212 0
-62 -152 -212 6827 0
-6828 63 0
-6828 153 0
-6828 213 0
-63 -153 -213 6828 0
-6829 64 0
-6829 154 0
-6829 214 0
-64 -154 -214 6829 0
-6830 65 0
-6830 155 0
-6830 215 0
-65 -155 -215 6830 0
-6831 66 0
-6831 156 0
-6831 216 0
-66 -156 -216 6831 0
-6832 67 0
-6832 157 0
-6832 217 0
-67 -157 -217 6832 0
-6833 68 0
-6833 158 0
-6833 218 0
-68 -158 -218 6833 0
-6834 69 0
-6834 159 0
-6834 219 0
-69 -159 -219 6834 0
-6835 70 0
-6835 160 0
-6835 220 0
-70 -160 -220 6835 0
-6836 71 0
-6836 161 0
-6836 221 0
-71 -161 -221 6836 0
-6837 72 0
-6837 162 0
-6837 222 0
-72 -162 -222 6837 0
-6838 73 0
-6838 163 0
-6838 223 0
-73 -163 -223 6838 0
-6839 74 0
-6839 164 0
-6839 224 0
-74 -164 -224 6839 0
-6840 75 0
-6840 165 0
-6840 225 0
-75 -165 -225 6840 0
-6826 9059 0
-6827 9059 0
-6828 9059 0
-6829 9059 0
-6830 9059 0
-6831 9059 0
-6832 9059 0
-6833 9059 0
-6834 9059 0
-6835 9059 0
-6836 9059 0
-6837 9059 0
-6838 9059 0
-6839 9059 0
-6840 9059 0
-9059 6826 6827 6828 6829 6830 6831 6832 6833 6834 6835 6836 6837 6838 6839 6840 0
-6841 61 0
-6841 166 0
-6841 181 0
-61 -166 -181 6841 0
-6842 62 0
-6842 167 0
-6842 182 0
-62 -167 -182 6842 0
-6843 63 0
-6843 168 0
-6843 183 0
-63 -168 -183 6843 0
-6844 64 0
-6844 169 0
-6844 184 0
-64 -169 -184 6844 0
-6845 65 0
-6845 170 0
-6845 185 0
-65 -170 -185 6845 0
-6846 66 0
-6846 171 0
-6846 186 0
-66 -171 -186 6846 0
-6847 67 0
-6847 172 0
-6847 187 0
-67 -172 -187 6847 0
-6848 68 0
-6848 173 0
-6848 188 0
-68 -173 -188 6848 0
-6849 69 0
-6849 174 0
-6849 189 0
-69 -174 -189 6849 0
-6850 70 0
-6850 175 0
-6850 190 0
-70 -175 -190 6850 0
-6851 71 0
-6851 176 0
-6851 191 0
-71 -176 -191 6851 0
-6852 72 0
-6852 177 0
-6852 192 0
-72 -177 -192 6852 0
-6853 73 0
-6853 178 0
-6853 193 0
-73 -178 -193 6853 0
-6854 74 0
-6854 179 0
-6854 194 0
-74 -179 -194 6854 0
-6855 75 0
-6855 180 0
-6855 195 0
-75 -180 -195 6855 0
-6841 9060 0
-6842 9060 0
-6843 9060 0
-6844 9060 0
-6845 9060 0
-6846 9060 0
-6847 9060 0
-6848 9060 0
-6849 9060 0
-6850 9060 0
-6851 9060 0
-6852 9060 0
-6853 9060 0
-6854 9060 0
-6855 9060 0
-9060 6841 6842 6843 6844 6845 6846 6847 6848 6849 6850 6851 6852 6853 6854 6855 0
-6856 61 0
-6856 166 0
-6856 196 0
-61 -166 -196 6856 0
-6857 62 0
-6857 167 0
-6857 197 0
-62 -167 -197 6857 0
-6858 63 0
-6858 168 0
-6858 198 0
-63 -168 -198 6858 0
-6859 64 0
-6859 169 0
-6859 199 0
-64 -169 -199 6859 0
-6860 65 0
-6860 170 0
-6860 200 0
-65 -170 -200 6860 0
-6861 66 0
-6861 171 0
-6861 201 0
-66 -171 -201 6861 0
-6862 67 0
-6862 172 0
-6862 202 0
-67 -172 -202 6862 0
-6863 68 0
-6863 173 0
-6863 203 0
-68 -173 -203 6863 0
-6864 69 0
-6864 174 0
-6864 204 0
-69 -174 -204 6864 0
-6865 70 0
-6865 175 0
-6865 205 0
-70 -175 -205 6865 0
-6866 71 0
-6866 176 0
-6866 206 0
-71 -176 -206 6866 0
-6867 72 0
-6867 177 0
-6867 207 0
-72 -177 -207 6867 0
-6868 73 0
-6868 178 0
-6868 208 0
-73 -178 -208 6868 0
-6869 74 0
-6869 179 0
-6869 209 0
-74 -179 -209 6869 0
-6870 75 0
-6870 180 0
-6870 210 0
-75 -180 -210 6870 0
-6856 9061 0
-6857 9061 0
-6858 9061 0
-6859 9061 0
-6860 9061 0
-6861 9061 0
-6862 9061 0
-6863 9061 0
-6864 9061 0
-6865 9061 0
-6866 9061 0
-6867 9061 0
-6868 9061 0
-6869 9061 0
-6870 9061 0
-9061 6856 6857 6858 6859 6860 6861 6862 6863 6864 6865 6866 6867 6868 6869 6870 0
-6871 61 0
-6871 166 0
-6871 211 0
-61 -166 -211 6871 0
-6872 62 0
-6872 167 0
-6872 212 0
-62 -167 -212 6872 0
-6873 63 0
-6873 168 0
-6873 213 0
-63 -168 -213 6873 0
-6874 64 0
-6874 169 0
-6874 214 0
-64 -169 -214 6874 0
-6875 65 0
-6875 170 0
-6875 215 0
-65 -170 -215 6875 0
-6876 66 0
-6876 171 0
-6876 216 0
-66 -171 -216 6876 0
-6877 67 0
-6877 172 0
-6877 217 0
-67 -172 -217 6877 0
-6878 68 0
-6878 173 0
-6878 218 0
-68 -173 -218 6878 0
-6879 69 0
-6879 174 0
-6879 219 0
-69 -174 -219 6879 0
-6880 70 0
-6880 175 0
-6880 220 0
-70 -175 -220 6880 0
-6881 71 0
-6881 176 0
-6881 221 0
-71 -176 -221 6881 0
-6882 72 0
-6882 177 0
-6882 222 0
-72 -177 -222 6882 0
-6883 73 0
-6883 178 0
-6883 223 0
-73 -178 -223 6883 0
-6884 74 0
-6884 179 0
-6884 224 0
-74 -179 -224 6884 0
-6885 75 0
-6885 180 0
-6885 225 0
-75 -180 -225 6885 0
-6871 9062 0
-6872 9062 0
-6873 9062 0
-6874 9062 0
-6875 9062 0
-6876 9062 0
-6877 9062 0
-6878 9062 0
-6879 9062 0
-6880 9062 0
-6881 9062 0
-6882 9062 0
-6883 9062 0
-6884 9062 0
-6885 9062 0
-9062 6871 6872 6873 6874 6875 6876 6877 6878 6879 6880 6881 6882 6883 6884 6885 0
-6886 61 0
-6886 181 0
-6886 196 0
-61 -181 -196 6886 0
-6887 62 0
-6887 182 0
-6887 197 0
-62 -182 -197 6887 0
-6888 63 0
-6888 183 0
-6888 198 0
-63 -183 -198 6888 0
-6889 64 0
-6889 184 0
-6889 199 0
-64 -184 -199 6889 0
-6890 65 0
-6890 185 0
-6890 200 0
-65 -185 -200 6890 0
-6891 66 0
-6891 186 0
-6891 201 0
-66 -186 -201 6891 0
-6892 67 0
-6892 187 0
-6892 202 0
-67 -187 -202 6892 0
-6893 68 0
-6893 188 0
-6893 203 0
-68 -188 -203 6893 0
-6894 69 0
-6894 189 0
-6894 204 0
-69 -189 -204 6894 0
-6895 70 0
-6895 190 0
-6895 205 0
-70 -190 -205 6895 0
-6896 71 0
-6896 191 0
-6896 206 0
-71 -191 -206 6896 0
-6897 72 0
-6897 192 0
-6897 207 0
-72 -192 -207 6897 0
-6898 73 0
-6898 193 0
-6898 208 0
-73 -193 -208 6898 0
-6899 74 0
-6899 194 0
-6899 209 0
-74 -194 -209 6899 0
-6900 75 0
-6900 195 0
-6900 210 0
-75 -195 -210 6900 0
-6886 9063 0
-6887 9063 0
-6888 9063 0
-6889 9063 0
-6890 9063 0
-6891 9063 0
-6892 9063 0
-6893 9063 0
-6894 9063 0
-6895 9063 0
-6896 9063 0
-6897 9063 0
-6898 9063 0
-6899 9063 0
-6900 9063 0
-9063 6886 6887 6888 6889 6890 6891 6892 6893 6894 6895 6896 6897 6898 6899 6900 0
-6901 61 0
-6901 181 0
-6901 211 0
-61 -181 -211 6901 0
-6902 62 0
-6902 182 0
-6902 212 0
-62 -182 -212 6902 0
-6903 63 0
-6903 183 0
-6903 213 0
-63 -183 -213 6903 0
-6904 64 0
-6904 184 0
-6904 214 0
-64 -184 -214 6904 0
-6905 65 0
-6905 185 0
-6905 215 0
-65 -185 -215 6905 0
-6906 66 0
-6906 186 0
-6906 216 0
-66 -186 -216 6906 0
-6907 67 0
-6907 187 0
-6907 217 0
-67 -187 -217 6907 0
-6908 68 0
-6908 188 0
-6908 218 0
-68 -188 -218 6908 0
-6909 69 0
-6909 189 0
-6909 219 0
-69 -189 -219 6909 0
-6910 70 0
-6910 190 0
-6910 220 0
-70 -190 -220 6910 0
-6911 71 0
-6911 191 0
-6911 221 0
-71 -191 -221 6911 0
-6912 72 0
-6912 192 0
-6912 222 0
-72 -192 -222 6912 0
-6913 73 0
-6913 193 0
-6913 223 0
-73 -193 -223 6913 0
-6914 74 0
-6914 194 0
-6914 224 0
-74 -194 -224 6914 0
-6915 75 0
-6915 195 0
-6915 225 0
-75 -195 -225 6915 0
-6901 9064 0
-6902 9064 0
-6903 9064 0
-6904 9064 0
-6905 9064 0
-6906 9064 0
-6907 9064 0
-6908 9064 0
-6909 9064 0
-6910 9064 0
-6911 9064 0
-6912 9064 0
-6913 9064 0
-6914 9064 0
-6915 9064 0
-9064 6901 6902 6903 6904 6905 6906 6907 6908 6909 6910 6911 6912 6913 6914 6915 0
-6916 61 0
-6916 196 0
-6916 211 0
-61 -196 -211 6916 0
-6917 62 0
-6917 197 0
-6917 212 0
-62 -197 -212 6917 0
-6918 63 0
-6918 198 0
-6918 213 0
-63 -198 -213 6918 0
-6919 64 0
-6919 199 0
-6919 214 0
-64 -199 -214 6919 0
-6920 65 0
-6920 200 0
-6920 215 0
-65 -200 -215 6920 0
-6921 66 0
-6921 201 0
-6921 216 0
-66 -201 -216 6921 0
-6922 67 0
-6922 202 0
-6922 217 0
-67 -202 -217 6922 0
-6923 68 0
-6923 203 0
-6923 218 0
-68 -203 -218 6923 0
-6924 69 0
-6924 204 0
-6924 219 0
-69 -204 -219 6924 0
-6925 70 0
-6925 205 0
-6925 220 0
-70 -205 -220 6925 0
-6926 71 0
-6926 206 0
-6926 221 0
-71 -206 -221 6926 0
-6927 72 0
-6927 207 0
-6927 222 0
-72 -207 -222 6927 0
-6928 73 0
-6928 208 0
-6928 223 0
-73 -208 -223 6928 0
-6929 74 0
-6929 209 0
-6929 224 0
-74 -209 -224 6929 0
-6930 75 0
-6930 210 0
-6930 225 0
-75 -210 -225 6930 0
-6916 9065 0
-6917 9065 0
-6918 9065 0
-6919 9065 0
-6920 9065 0
-6921 9065 0
-6922 9065 0
-6923 9065 0
-6924 9065 0
-6925 9065 0
-6926 9065 0
-6927 9065 0
-6928 9065 0
-6929 9065 0
-6930 9065 0
-9065 6916 6917 6918 6919 6920 6921 6922 6923 6924 6925 6926 6927 6928 6929 6930 0
-6931 76 0
-6931 91 0
-6931 106 0
-76 -91 -106 6931 0
-6932 77 0
-6932 92 0
-6932 107 0
-77 -92 -107 6932 0
-6933 78 0
-6933 93 0
-6933 108 0
-78 -93 -108 6933 0
-6934 79 0
-6934 94 0
-6934 109 0
-79 -94 -109 6934 0
-6935 80 0
-6935 95 0
-6935 110 0
-80 -95 -110 6935 0
-6936 81 0
-6936 96 0
-6936 111 0
-81 -96 -111 6936 0
-6937 82 0
-6937 97 0
-6937 112 0
-82 -97 -112 6937 0
-6938 83 0
-6938 98 0
-6938 113 0
-83 -98 -113 6938 0
-6939 84 0
-6939 99 0
-6939 114 0
-84 -99 -114 6939 0
-6940 85 0
-6940 100 0
-6940 115 0
-85 -100 -115 6940 0
-6941 86 0
-6941 101 0
-6941 116 0
-86 -101 -116 6941 0
-6942 87 0
-6942 102 0
-6942 117 0
-87 -102 -117 6942 0
-6943 88 0
-6943 103 0
-6943 118 0
-88 -103 -118 6943 0
-6944 89 0
-6944 104 0
-6944 119 0
-89 -104 -119 6944 0
-6945 90 0
-6945 105 0
-6945 120 0
-90 -105 -120 6945 0
-6931 9066 0
-6932 9066 0
-6933 9066 0
-6934 9066 0
-6935 9066 0
-6936 9066 0
-6937 9066 0
-6938 9066 0
-6939 9066 0
-6940 9066 0
-6941 9066 0
-6942 9066 0
-6943 9066 0
-6944 9066 0
-6945 9066 0
-9066 6931 6932 6933 6934 6935 6936 6937 6938 6939 6940 6941 6942 6943 6944 6945 0
-6946 76 0
-6946 91 0
-6946 121 0
-76 -91 -121 6946 0
-6947 77 0
-6947 92 0
-6947 122 0
-77 -92 -122 6947 0
-6948 78 0
-6948 93 0
-6948 123 0
-78 -93 -123 6948 0
-6949 79 0
-6949 94 0
-6949 124 0
-79 -94 -124 6949 0
-6950 80 0
-6950 95 0
-6950 125 0
-80 -95 -125 6950 0
-6951 81 0
-6951 96 0
-6951 126 0
-81 -96 -126 6951 0
-6952 82 0
-6952 97 0
-6952 127 0
-82 -97 -127 6952 0
-6953 83 0
-6953 98 0
-6953 128 0
-83 -98 -128 6953 0
-6954 84 0
-6954 99 0
-6954 129 0
-84 -99 -129 6954 0
-6955 85 0
-6955 100 0
-6955 130 0
-85 -100 -130 6955 0
-6956 86 0
-6956 101 0
-6956 131 0
-86 -101 -131 6956 0
-6957 87 0
-6957 102 0
-6957 132 0
-87 -102 -132 6957 0
-6958 88 0
-6958 103 0
-6958 133 0
-88 -103 -133 6958 0
-6959 89 0
-6959 104 0
-6959 134 0
-89 -104 -134 6959 0
-6960 90 0
-6960 105 0
-6960 135 0
-90 -105 -135 6960 0
-6946 9067 0
-6947 9067 0
-6948 9067 0
-6949 9067 0
-6950 9067 0
-6951 9067 0
-6952 9067 0
-6953 9067 0
-6954 9067 0
-6955 9067 0
-6956 9067 0
-6957 9067 0
-6958 9067 0
-6959 9067 0
-6960 9067 0
-9067 6946 6947 6948 6949 6950 6951 6952 6953 6954 6955 6956 6957 6958 6959 6960 0
-6961 76 0
-6961 91 0
-6961 136 0
-76 -91 -136 6961 0
-6962 77 0
-6962 92 0
-6962 137 0
-77 -92 -137 6962 0
-6963 78 0
-6963 93 0
-6963 138 0
-78 -93 -138 6963 0
-6964 79 0
-6964 94 0
-6964 139 0
-79 -94 -139 6964 0
-6965 80 0
-6965 95 0
-6965 140 0
-80 -95 -140 6965 0
-6966 81 0
-6966 96 0
-6966 141 0
-81 -96 -141 6966 0
-6967 82 0
-6967 97 0
-6967 142 0
-82 -97 -142 6967 0
-6968 83 0
-6968 98 0
-6968 143 0
-83 -98 -143 6968 0
-6969 84 0
-6969 99 0
-6969 144 0
-84 -99 -144 6969 0
-6970 85 0
-6970 100 0
-6970 145 0
-85 -100 -145 6970 0
-6971 86 0
-6971 101 0
-6971 146 0
-86 -101 -146 6971 0
-6972 87 0
-6972 102 0
-6972 147 0
-87 -102 -147 6972 0
-6973 88 0
-6973 103 0
-6973 148 0
-88 -103 -148 6973 0
-6974 89 0
-6974 104 0
-6974 149 0
-89 -104 -149 6974 0
-6975 90 0
-6975 105 0
-6975 150 0
-90 -105 -150 6975 0
-6961 9068 0
-6962 9068 0
-6963 9068 0
-6964 9068 0
-6965 9068 0
-6966 9068 0
-6967 9068 0
-6968 9068 0
-6969 9068 0
-6970 9068 0
-6971 9068 0
-6972 9068 0
-6973 9068 0
-6974 9068 0
-6975 9068 0
-9068 6961 6962 6963 6964 6965 6966 6967 6968 6969 6970 6971 6972 6973 6974 6975 0
-6976 76 0
-6976 91 0
-6976 151 0
-76 -91 -151 6976 0
-6977 77 0
-6977 92 0
-6977 152 0
-77 -92 -152 6977 0
-6978 78 0
-6978 93 0
-6978 153 0
-78 -93 -153 6978 0
-6979 79 0
-6979 94 0
-6979 154 0
-79 -94 -154 6979 0
-6980 80 0
-6980 95 0
-6980 155 0
-80 -95 -155 6980 0
-6981 81 0
-6981 96 0
-6981 156 0
-81 -96 -156 6981 0
-6982 82 0
-6982 97 0
-6982 157 0
-82 -97 -157 6982 0
-6983 83 0
-6983 98 0
-6983 158 0
-83 -98 -158 6983 0
-6984 84 0
-6984 99 0
-6984 159 0
-84 -99 -159 6984 0
-6985 85 0
-6985 100 0
-6985 160 0
-85 -100 -160 6985 0
-6986 86 0
-6986 101 0
-6986 161 0
-86 -101 -161 6986 0
-6987 87 0
-6987 102 0
-6987 162 0
-87 -102 -162 6987 0
-6988 88 0
-6988 103 0
-6988 163 0
-88 -103 -163 6988 0
-6989 89 0
-6989 104 0
-6989 164 0
-89 -104 -164 6989 0
-6990 90 0
-6990 105 0
-6990 165 0
-90 -105 -165 6990 0
-6976 9069 0
-6977 9069 0
-6978 9069 0
-6979 9069 0
-6980 9069 0
-6981 9069 0
-6982 9069 0
-6983 9069 0
-6984 9069 0
-6985 9069 0
-6986 9069 0
-6987 9069 0
-6988 9069 0
-6989 9069 0
-6990 9069 0
-9069 6976 6977 6978 6979 6980 6981 6982 6983 6984 6985 6986 6987 6988 6989 6990 0
-6991 76 0
-6991 91 0
-6991 166 0
-76 -91 -166 6991 0
-6992 77 0
-6992 92 0
-6992 167 0
-77 -92 -167 6992 0
-6993 78 0
-6993 93 0
-6993 168 0
-78 -93 -168 6993 0
-6994 79 0
-6994 94 0
-6994 169 0
-79 -94 -169 6994 0
-6995 80 0
-6995 95 0
-6995 170 0
-80 -95 -170 6995 0
-6996 81 0
-6996 96 0
-6996 171 0
-81 -96 -171 6996 0
-6997 82 0
-6997 97 0
-6997 172 0
-82 -97 -172 6997 0
-6998 83 0
-6998 98 0
-6998 173 0
-83 -98 -173 6998 0
-6999 84 0
-6999 99 0
-6999 174 0
-84 -99 -174 6999 0
-7000 85 0
-7000 100 0
-7000 175 0
-85 -100 -175 7000 0
-7001 86 0
-7001 101 0
-7001 176 0
-86 -101 -176 7001 0
-7002 87 0
-7002 102 0
-7002 177 0
-87 -102 -177 7002 0
-7003 88 0
-7003 103 0
-7003 178 0
-88 -103 -178 7003 0
-7004 89 0
-7004 104 0
-7004 179 0
-89 -104 -179 7004 0
-7005 90 0
-7005 105 0
-7005 180 0
-90 -105 -180 7005 0
-6991 9070 0
-6992 9070 0
-6993 9070 0
-6994 9070 0
-6995 9070 0
-6996 9070 0
-6997 9070 0
-6998 9070 0
-6999 9070 0
-7000 9070 0
-7001 9070 0
-7002 9070 0
-7003 9070 0
-7004 9070 0
-7005 9070 0
-9070 6991 6992 6993 6994 6995 6996 6997 6998 6999 7000 7001 7002 7003 7004 7005 0
-7006 76 0
-7006 91 0
-7006 181 0
-76 -91 -181 7006 0
-7007 77 0
-7007 92 0
-7007 182 0
-77 -92 -182 7007 0
-7008 78 0
-7008 93 0
-7008 183 0
-78 -93 -183 7008 0
-7009 79 0
-7009 94 0
-7009 184 0
-79 -94 -184 7009 0
-7010 80 0
-7010 95 0
-7010 185 0
-80 -95 -185 7010 0
-7011 81 0
-7011 96 0
-7011 186 0
-81 -96 -186 7011 0
-7012 82 0
-7012 97 0
-7012 187 0
-82 -97 -187 7012 0
-7013 83 0
-7013 98 0
-7013 188 0
-83 -98 -188 7013 0
-7014 84 0
-7014 99 0
-7014 189 0
-84 -99 -189 7014 0
-7015 85 0
-7015 100 0
-7015 190 0
-85 -100 -190 7015 0
-7016 86 0
-7016 101 0
-7016 191 0
-86 -101 -191 7016 0
-7017 87 0
-7017 102 0
-7017 192 0
-87 -102 -192 7017 0
-7018 88 0
-7018 103 0
-7018 193 0
-88 -103 -193 7018 0
-7019 89 0
-7019 104 0
-7019 194 0
-89 -104 -194 7019 0
-7020 90 0
-7020 105 0
-7020 195 0
-90 -105 -195 7020 0
-7006 9071 0
-7007 9071 0
-7008 9071 0
-7009 9071 0
-7010 9071 0
-7011 9071 0
-7012 9071 0
-7013 9071 0
-7014 9071 0
-7015 9071 0
-7016 9071 0
-7017 9071 0
-7018 9071 0
-7019 9071 0
-7020 9071 0
-9071 7006 7007 7008 7009 7010 7011 7012 7013 7014 7015 7016 7017 7018 7019 7020 0
-7021 76 0
-7021 91 0
-7021 196 0
-76 -91 -196 7021 0
-7022 77 0
-7022 92 0
-7022 197 0
-77 -92 -197 7022 0
-7023 78 0
-7023 93 0
-7023 198 0
-78 -93 -198 7023 0
-7024 79 0
-7024 94 0
-7024 199 0
-79 -94 -199 7024 0
-7025 80 0
-7025 95 0
-7025 200 0
-80 -95 -200 7025 0
-7026 81 0
-7026 96 0
-7026 201 0
-81 -96 -201 7026 0
-7027 82 0
-7027 97 0
-7027 202 0
-82 -97 -202 7027 0
-7028 83 0
-7028 98 0
-7028 203 0
-83 -98 -203 7028 0
-7029 84 0
-7029 99 0
-7029 204 0
-84 -99 -204 7029 0
-7030 85 0
-7030 100 0
-7030 205 0
-85 -100 -205 7030 0
-7031 86 0
-7031 101 0
-7031 206 0
-86 -101 -206 7031 0
-7032 87 0
-7032 102 0
-7032 207 0
-87 -102 -207 7032 0
-7033 88 0
-7033 103 0
-7033 208 0
-88 -103 -208 7033 0
-7034 89 0
-7034 104 0
-7034 209 0
-89 -104 -209 7034 0
-7035 90 0
-7035 105 0
-7035 210 0
-90 -105 -210 7035 0
-7021 9072 0
-7022 9072 0
-7023 9072 0
-7024 9072 0
-7025 9072 0
-7026 9072 0
-7027 9072 0
-7028 9072 0
-7029 9072 0
-7030 9072 0
-7031 9072 0
-7032 9072 0
-7033 9072 0
-7034 9072 0
-7035 9072 0
-9072 7021 7022 7023 7024 7025 7026 7027 7028 7029 7030 7031 7032 7033 7034 7035 0
-7036 76 0
-7036 91 0
-7036 211 0
-76 -91 -211 7036 0
-7037 77 0
-7037 92 0
-7037 212 0
-77 -92 -212 7037 0
-7038 78 0
-7038 93 0
-7038 213 0
-78 -93 -213 7038 0
-7039 79 0
-7039 94 0
-7039 214 0
-79 -94 -214 7039 0
-7040 80 0
-7040 95 0
-7040 215 0
-80 -95 -215 7040 0
-7041 81 0
-7041 96 0
-7041 216 0
-81 -96 -216 7041 0
-7042 82 0
-7042 97 0
-7042 217 0
-82 -97 -217 7042 0
-7043 83 0
-7043 98 0
-7043 218 0
-83 -98 -218 7043 0
-7044 84 0
-7044 99 0
-7044 219 0
-84 -99 -219 7044 0
-7045 85 0
-7045 100 0
-7045 220 0
-85 -100 -220 7045 0
-7046 86 0
-7046 101 0
-7046 221 0
-86 -101 -221 7046 0
-7047 87 0
-7047 102 0
-7047 222 0
-87 -102 -222 7047 0
-7048 88 0
-7048 103 0
-7048 223 0
-88 -103 -223 7048 0
-7049 89 0
-7049 104 0
-7049 224 0
-89 -104 -224 7049 0
-7050 90 0
-7050 105 0
-7050 225 0
-90 -105 -225 7050 0
-7036 9073 0
-7037 9073 0
-7038 9073 0
-7039 9073 0
-7040 9073 0
-7041 9073 0
-7042 9073 0
-7043 9073 0
-7044 9073 0
-7045 9073 0
-7046 9073 0
-7047 9073 0
-7048 9073 0
-7049 9073 0
-7050 9073 0
-9073 7036 7037 7038 7039 7040 7041 7042 7043 7044 7045 7046 7047 7048 7049 7050 0
-7051 76 0
-7051 106 0
-7051 121 0
-76 -106 -121 7051 0
-7052 77 0
-7052 107 0
-7052 122 0
-77 -107 -122 7052 0
-7053 78 0
-7053 108 0
-7053 123 0
-78 -108 -123 7053 0
-7054 79 0
-7054 109 0
-7054 124 0
-79 -109 -124 7054 0
-7055 80 0
-7055 110 0
-7055 125 0
-80 -110 -125 7055 0
-7056 81 0
-7056 111 0
-7056 126 0
-81 -111 -126 7056 0
-7057 82 0
-7057 112 0
-7057 127 0
-82 -112 -127 7057 0
-7058 83 0
-7058 113 0
-7058 128 0
-83 -113 -128 7058 0
-7059 84 0
-7059 114 0
-7059 129 0
-84 -114 -129 7059 0
-7060 85 0
-7060 115 0
-7060 130 0
-85 -115 -130 7060 0
-7061 86 0
-7061 116 0
-7061 131 0
-86 -116 -131 7061 0
-7062 87 0
-7062 117 0
-7062 132 0
-87 -117 -132 7062 0
-7063 88 0
-7063 118 0
-7063 133 0
-88 -118 -133 7063 0
-7064 89 0
-7064 119 0
-7064 134 0
-89 -119 -134 7064 0
-7065 90 0
-7065 120 0
-7065 135 0
-90 -120 -135 7065 0
-7051 9074 0
-7052 9074 0
-7053 9074 0
-7054 9074 0
-7055 9074 0
-7056 9074 0
-7057 9074 0
-7058 9074 0
-7059 9074 0
-7060 9074 0
-7061 9074 0
-7062 9074 0
-7063 9074 0
-7064 9074 0
-7065 9074 0
-9074 7051 7052 7053 7054 7055 7056 7057 7058 7059 7060 7061 7062 7063 7064 7065 0
-7066 76 0
-7066 106 0
-7066 136 0
-76 -106 -136 7066 0
-7067 77 0
-7067 107 0
-7067 137 0
-77 -107 -137 7067 0
-7068 78 0
-7068 108 0
-7068 138 0
-78 -108 -138 7068 0
-7069 79 0
-7069 109 0
-7069 139 0
-79 -109 -139 7069 0
-7070 80 0
-7070 110 0
-7070 140 0
-80 -110 -140 7070 0
-7071 81 0
-7071 111 0
-7071 141 0
-81 -111 -141 7071 0
-7072 82 0
-7072 112 0
-7072 142 0
-82 -112 -142 7072 0
-7073 83 0
-7073 113 0
-7073 143 0
-83 -113 -143 7073 0
-7074 84 0
-7074 114 0
-7074 144 0
-84 -114 -144 7074 0
-7075 85 0
-7075 115 0
-7075 145 0
-85 -115 -145 7075 0
-7076 86 0
-7076 116 0
-7076 146 0
-86 -116 -146 7076 0
-7077 87 0
-7077 117 0
-7077 147 0
-87 -117 -147 7077 0
-7078 88 0
-7078 118 0
-7078 148 0
-88 -118 -148 7078 0
-7079 89 0
-7079 119 0
-7079 149 0
-89 -119 -149 7079 0
-7080 90 0
-7080 120 0
-7080 150 0
-90 -120 -150 7080 0
-7066 9075 0
-7067 9075 0
-7068 9075 0
-7069 9075 0
-7070 9075 0
-7071 9075 0
-7072 9075 0
-7073 9075 0
-7074 9075 0
-7075 9075 0
-7076 9075 0
-7077 9075 0
-7078 9075 0
-7079 9075 0
-7080 9075 0
-9075 7066 7067 7068 7069 7070 7071 7072 7073 7074 7075 7076 7077 7078 7079 7080 0
-7081 76 0
-7081 106 0
-7081 151 0
-76 -106 -151 7081 0
-7082 77 0
-7082 107 0
-7082 152 0
-77 -107 -152 7082 0
-7083 78 0
-7083 108 0
-7083 153 0
-78 -108 -153 7083 0
-7084 79 0
-7084 109 0
-7084 154 0
-79 -109 -154 7084 0
-7085 80 0
-7085 110 0
-7085 155 0
-80 -110 -155 7085 0
-7086 81 0
-7086 111 0
-7086 156 0
-81 -111 -156 7086 0
-7087 82 0
-7087 112 0
-7087 157 0
-82 -112 -157 7087 0
-7088 83 0
-7088 113 0
-7088 158 0
-83 -113 -158 7088 0
-7089 84 0
-7089 114 0
-7089 159 0
-84 -114 -159 7089 0
-7090 85 0
-7090 115 0
-7090 160 0
-85 -115 -160 7090 0
-7091 86 0
-7091 116 0
-7091 161 0
-86 -116 -161 7091 0
-7092 87 0
-7092 117 0
-7092 162 0
-87 -117 -162 7092 0
-7093 88 0
-7093 118 0
-7093 163 0
-88 -118 -163 7093 0
-7094 89 0
-7094 119 0
-7094 164 0
-89 -119 -164 7094 0
-7095 90 0
-7095 120 0
-7095 165 0
-90 -120 -165 7095 0
-7081 9076 0
-7082 9076 0
-7083 9076 0
-7084 9076 0
-7085 9076 0
-7086 9076 0
-7087 9076 0
-7088 9076 0
-7089 9076 0
-7090 9076 0
-7091 9076 0
-7092 9076 0
-7093 9076 0
-7094 9076 0
-7095 9076 0
-9076 7081 7082 7083 7084 7085 7086 7087 7088 7089 7090 7091 7092 7093 7094 7095 0
-7096 76 0
-7096 106 0
-7096 166 0
-76 -106 -166 7096 0
-7097 77 0
-7097 107 0
-7097 167 0
-77 -107 -167 7097 0
-7098 78 0
-7098 108 0
-7098 168 0
-78 -108 -168 7098 0
-7099 79 0
-7099 109 0
-7099 169 0
-79 -109 -169 7099 0
-7100 80 0
-7100 110 0
-7100 170 0
-80 -110 -170 7100 0
-7101 81 0
-7101 111 0
-7101 171 0
-81 -111 -171 7101 0
-7102 82 0
-7102 112 0
-7102 172 0
-82 -112 -172 7102 0
-7103 83 0
-7103 113 0
-7103 173 0
-83 -113 -173 7103 0
-7104 84 0
-7104 114 0
-7104 174 0
-84 -114 -174 7104 0
-7105 85 0
-7105 115 0
-7105 175 0
-85 -115 -175 7105 0
-7106 86 0
-7106 116 0
-7106 176 0
-86 -116 -176 7106 0
-7107 87 0
-7107 117 0
-7107 177 0
-87 -117 -177 7107 0
-7108 88 0
-7108 118 0
-7108 178 0
-88 -118 -178 7108 0
-7109 89 0
-7109 119 0
-7109 179 0
-89 -119 -179 7109 0
-7110 90 0
-7110 120 0
-7110 180 0
-90 -120 -180 7110 0
-7096 9077 0
-7097 9077 0
-7098 9077 0
-7099 9077 0
-7100 9077 0
-7101 9077 0
-7102 9077 0
-7103 9077 0
-7104 9077 0
-7105 9077 0
-7106 9077 0
-7107 9077 0
-7108 9077 0
-7109 9077 0
-7110 9077 0
-9077 7096 7097 7098 7099 7100 7101 7102 7103 7104 7105 7106 7107 7108 7109 7110 0
-7111 76 0
-7111 106 0
-7111 181 0
-76 -106 -181 7111 0
-7112 77 0
-7112 107 0
-7112 182 0
-77 -107 -182 7112 0
-7113 78 0
-7113 108 0
-7113 183 0
-78 -108 -183 7113 0
-7114 79 0
-7114 109 0
-7114 184 0
-79 -109 -184 7114 0
-7115 80 0
-7115 110 0
-7115 185 0
-80 -110 -185 7115 0
-7116 81 0
-7116 111 0
-7116 186 0
-81 -111 -186 7116 0
-7117 82 0
-7117 112 0
-7117 187 0
-82 -112 -187 7117 0
-7118 83 0
-7118 113 0
-7118 188 0
-83 -113 -188 7118 0
-7119 84 0
-7119 114 0
-7119 189 0
-84 -114 -189 7119 0
-7120 85 0
-7120 115 0
-7120 190 0
-85 -115 -190 7120 0
-7121 86 0
-7121 116 0
-7121 191 0
-86 -116 -191 7121 0
-7122 87 0
-7122 117 0
-7122 192 0
-87 -117 -192 7122 0
-7123 88 0
-7123 118 0
-7123 193 0
-88 -118 -193 7123 0
-7124 89 0
-7124 119 0
-7124 194 0
-89 -119 -194 7124 0
-7125 90 0
-7125 120 0
-7125 195 0
-90 -120 -195 7125 0
-7111 9078 0
-7112 9078 0
-7113 9078 0
-7114 9078 0
-7115 9078 0
-7116 9078 0
-7117 9078 0
-7118 9078 0
-7119 9078 0
-7120 9078 0
-7121 9078 0
-7122 9078 0
-7123 9078 0
-7124 9078 0
-7125 9078 0
-9078 7111 7112 7113 7114 7115 7116 7117 7118 7119 7120 7121 7122 7123 7124 7125 0
-7126 76 0
-7126 106 0
-7126 196 0
-76 -106 -196 7126 0
-7127 77 0
-7127 107 0
-7127 197 0
-77 -107 -197 7127 0
-7128 78 0
-7128 108 0
-7128 198 0
-78 -108 -198 7128 0
-7129 79 0
-7129 109 0
-7129 199 0
-79 -109 -199 7129 0
-7130 80 0
-7130 110 0
-7130 200 0
-80 -110 -200 7130 0
-7131 81 0
-7131 111 0
-7131 201 0
-81 -111 -201 7131 0
-7132 82 0
-7132 112 0
-7132 202 0
-82 -112 -202 7132 0
-7133 83 0
-7133 113 0
-7133 203 0
-83 -113 -203 7133 0
-7134 84 0
-7134 114 0
-7134 204 0
-84 -114 -204 7134 0
-7135 85 0
-7135 115 0
-7135 205 0
-85 -115 -205 7135 0
-7136 86 0
-7136 116 0
-7136 206 0
-86 -116 -206 7136 0
-7137 87 0
-7137 117 0
-7137 207 0
-87 -117 -207 7137 0
-7138 88 0
-7138 118 0
-7138 208 0
-88 -118 -208 7138 0
-7139 89 0
-7139 119 0
-7139 209 0
-89 -119 -209 7139 0
-7140 90 0
-7140 120 0
-7140 210 0
-90 -120 -210 7140 0
-7126 9079 0
-7127 9079 0
-7128 9079 0
-7129 9079 0
-7130 9079 0
-7131 9079 0
-7132 9079 0
-7133 9079 0
-7134 9079 0
-7135 9079 0
-7136 9079 0
-7137 9079 0
-7138 9079 0
-7139 9079 0
-7140 9079 0
-9079 7126 7127 7128 7129 7130 7131 7132 7133 7134 7135 7136 7137 7138 7139 7140 0
-7141 76 0
-7141 106 0
-7141 211 0
-76 -106 -211 7141 0
-7142 77 0
-7142 107 0
-7142 212 0
-77 -107 -212 7142 0
-7143 78 0
-7143 108 0
-7143 213 0
-78 -108 -213 7143 0
-7144 79 0
-7144 109 0
-7144 214 0
-79 -109 -214 7144 0
-7145 80 0
-7145 110 0
-7145 215 0
-80 -110 -215 7145 0
-7146 81 0
-7146 111 0
-7146 216 0
-81 -111 -216 7146 0
-7147 82 0
-7147 112 0
-7147 217 0
-82 -112 -217 7147 0
-7148 83 0
-7148 113 0
-7148 218 0
-83 -113 -218 7148 0
-7149 84 0
-7149 114 0
-7149 219 0
-84 -114 -219 7149 0
-7150 85 0
-7150 115 0
-7150 220 0
-85 -115 -220 7150 0
-7151 86 0
-7151 116 0
-7151 221 0
-86 -116 -221 7151 0
-7152 87 0
-7152 117 0
-7152 222 0
-87 -117 -222 7152 0
-7153 88 0
-7153 118 0
-7153 223 0
-88 -118 -223 7153 0
-7154 89 0
-7154 119 0
-7154 224 0
-89 -119 -224 7154 0
-7155 90 0
-7155 120 0
-7155 225 0
-90 -120 -225 7155 0
-7141 9080 0
-7142 9080 0
-7143 9080 0
-7144 9080 0
-7145 9080 0
-7146 9080 0
-7147 9080 0
-7148 9080 0
-7149 9080 0
-7150 9080 0
-7151 9080 0
-7152 9080 0
-7153 9080 0
-7154 9080 0
-7155 9080 0
-9080 7141 7142 7143 7144 7145 7146 7147 7148 7149 7150 7151 7152 7153 7154 7155 0
-7156 76 0
-7156 121 0
-7156 136 0
-76 -121 -136 7156 0
-7157 77 0
-7157 122 0
-7157 137 0
-77 -122 -137 7157 0
-7158 78 0
-7158 123 0
-7158 138 0
-78 -123 -138 7158 0
-7159 79 0
-7159 124 0
-7159 139 0
-79 -124 -139 7159 0
-7160 80 0
-7160 125 0
-7160 140 0
-80 -125 -140 7160 0
-7161 81 0
-7161 126 0
-7161 141 0
-81 -126 -141 7161 0
-7162 82 0
-7162 127 0
-7162 142 0
-82 -127 -142 7162 0
-7163 83 0
-7163 128 0
-7163 143 0
-83 -128 -143 7163 0
-7164 84 0
-7164 129 0
-7164 144 0
-84 -129 -144 7164 0
-7165 85 0
-7165 130 0
-7165 145 0
-85 -130 -145 7165 0
-7166 86 0
-7166 131 0
-7166 146 0
-86 -131 -146 7166 0
-7167 87 0
-7167 132 0
-7167 147 0
-87 -132 -147 7167 0
-7168 88 0
-7168 133 0
-7168 148 0
-88 -133 -148 7168 0
-7169 89 0
-7169 134 0
-7169 149 0
-89 -134 -149 7169 0
-7170 90 0
-7170 135 0
-7170 150 0
-90 -135 -150 7170 0
-7156 9081 0
-7157 9081 0
-7158 9081 0
-7159 9081 0
-7160 9081 0
-7161 9081 0
-7162 9081 0
-7163 9081 0
-7164 9081 0
-7165 9081 0
-7166 9081 0
-7167 9081 0
-7168 9081 0
-7169 9081 0
-7170 9081 0
-9081 7156 7157 7158 7159 7160 7161 7162 7163 7164 7165 7166 7167 7168 7169 7170 0
-7171 76 0
-7171 121 0
-7171 151 0
-76 -121 -151 7171 0
-7172 77 0
-7172 122 0
-7172 152 0
-77 -122 -152 7172 0
-7173 78 0
-7173 123 0
-7173 153 0
-78 -123 -153 7173 0
-7174 79 0
-7174 124 0
-7174 154 0
-79 -124 -154 7174 0
-7175 80 0
-7175 125 0
-7175 155 0
-80 -125 -155 7175 0
-7176 81 0
-7176 126 0
-7176 156 0
-81 -126 -156 7176 0
-7177 82 0
-7177 127 0
-7177 157 0
-82 -127 -157 7177 0
-7178 83 0
-7178 128 0
-7178 158 0
-83 -128 -158 7178 0
-7179 84 0
-7179 129 0
-7179 159 0
-84 -129 -159 7179 0
-7180 85 0
-7180 130 0
-7180 160 0
-85 -130 -160 7180 0
-7181 86 0
-7181 131 0
-7181 161 0
-86 -131 -161 7181 0
-7182 87 0
-7182 132 0
-7182 162 0
-87 -132 -162 7182 0
-7183 88 0
-7183 133 0
-7183 163 0
-88 -133 -163 7183 0
-7184 89 0
-7184 134 0
-7184 164 0
-89 -134 -164 7184 0
-7185 90 0
-7185 135 0
-7185 165 0
-90 -135 -165 7185 0
-7171 9082 0
-7172 9082 0
-7173 9082 0
-7174 9082 0
-7175 9082 0
-7176 9082 0
-7177 9082 0
-7178 9082 0
-7179 9082 0
-7180 9082 0
-7181 9082 0
-7182 9082 0
-7183 9082 0
-7184 9082 0
-7185 9082 0
-9082 7171 7172 7173 7174 7175 7176 7177 7178 7179 7180 7181 7182 7183 7184 7185 0
-7186 76 0
-7186 121 0
-7186 166 0
-76 -121 -166 7186 0
-7187 77 0
-7187 122 0
-7187 167 0
-77 -122 -167 7187 0
-7188 78 0
-7188 123 0
-7188 168 0
-78 -123 -168 7188 0
-7189 79 0
-7189 124 0
-7189 169 0
-79 -124 -169 7189 0
-7190 80 0
-7190 125 0
-7190 170 0
-80 -125 -170 7190 0
-7191 81 0
-7191 126 0
-7191 171 0
-81 -126 -171 7191 0
-7192 82 0
-7192 127 0
-7192 172 0
-82 -127 -172 7192 0
-7193 83 0
-7193 128 0
-7193 173 0
-83 -128 -173 7193 0
-7194 84 0
-7194 129 0
-7194 174 0
-84 -129 -174 7194 0
-7195 85 0
-7195 130 0
-7195 175 0
-85 -130 -175 7195 0
-7196 86 0
-7196 131 0
-7196 176 0
-86 -131 -176 7196 0
-7197 87 0
-7197 132 0
-7197 177 0
-87 -132 -177 7197 0
-7198 88 0
-7198 133 0
-7198 178 0
-88 -133 -178 7198 0
-7199 89 0
-7199 134 0
-7199 179 0
-89 -134 -179 7199 0
-7200 90 0
-7200 135 0
-7200 180 0
-90 -135 -180 7200 0
-7186 9083 0
-7187 9083 0
-7188 9083 0
-7189 9083 0
-7190 9083 0
-7191 9083 0
-7192 9083 0
-7193 9083 0
-7194 9083 0
-7195 9083 0
-7196 9083 0
-7197 9083 0
-7198 9083 0
-7199 9083 0
-7200 9083 0
-9083 7186 7187 7188 7189 7190 7191 7192 7193 7194 7195 7196 7197 7198 7199 7200 0
-7201 76 0
-7201 121 0
-7201 181 0
-76 -121 -181 7201 0
-7202 77 0
-7202 122 0
-7202 182 0
-77 -122 -182 7202 0
-7203 78 0
-7203 123 0
-7203 183 0
-78 -123 -183 7203 0
-7204 79 0
-7204 124 0
-7204 184 0
-79 -124 -184 7204 0
-7205 80 0
-7205 125 0
-7205 185 0
-80 -125 -185 7205 0
-7206 81 0
-7206 126 0
-7206 186 0
-81 -126 -186 7206 0
-7207 82 0
-7207 127 0
-7207 187 0
-82 -127 -187 7207 0
-7208 83 0
-7208 128 0
-7208 188 0
-83 -128 -188 7208 0
-7209 84 0
-7209 129 0
-7209 189 0
-84 -129 -189 7209 0
-7210 85 0
-7210 130 0
-7210 190 0
-85 -130 -190 7210 0
-7211 86 0
-7211 131 0
-7211 191 0
-86 -131 -191 7211 0
-7212 87 0
-7212 132 0
-7212 192 0
-87 -132 -192 7212 0
-7213 88 0
-7213 133 0
-7213 193 0
-88 -133 -193 7213 0
-7214 89 0
-7214 134 0
-7214 194 0
-89 -134 -194 7214 0
-7215 90 0
-7215 135 0
-7215 195 0
-90 -135 -195 7215 0
-7201 9084 0
-7202 9084 0
-7203 9084 0
-7204 9084 0
-7205 9084 0
-7206 9084 0
-7207 9084 0
-7208 9084 0
-7209 9084 0
-7210 9084 0
-7211 9084 0
-7212 9084 0
-7213 9084 0
-7214 9084 0
-7215 9084 0
-9084 7201 7202 7203 7204 7205 7206 7207 7208 7209 7210 7211 7212 7213 7214 7215 0
-7216 76 0
-7216 121 0
-7216 196 0
-76 -121 -196 7216 0
-7217 77 0
-7217 122 0
-7217 197 0
-77 -122 -197 7217 0
-7218 78 0
-7218 123 0
-7218 198 0
-78 -123 -198 7218 0
-7219 79 0
-7219 124 0
-7219 199 0
-79 -124 -199 7219 0
-7220 80 0
-7220 125 0
-7220 200 0
-80 -125 -200 7220 0
-7221 81 0
-7221 126 0
-7221 201 0
-81 -126 -201 7221 0
-7222 82 0
-7222 127 0
-7222 202 0
-82 -127 -202 7222 0
-7223 83 0
-7223 128 0
-7223 203 0
-83 -128 -203 7223 0
-7224 84 0
-7224 129 0
-7224 204 0
-84 -129 -204 7224 0
-7225 85 0
-7225 130 0
-7225 205 0
-85 -130 -205 7225 0
-7226 86 0
-7226 131 0
-7226 206 0
-86 -131 -206 7226 0
-7227 87 0
-7227 132 0
-7227 207 0
-87 -132 -207 7227 0
-7228 88 0
-7228 133 0
-7228 208 0
-88 -133 -208 7228 0
-7229 89 0
-7229 134 0
-7229 209 0
-89 -134 -209 7229 0
-7230 90 0
-7230 135 0
-7230 210 0
-90 -135 -210 7230 0
-7216 9085 0
-7217 9085 0
-7218 9085 0
-7219 9085 0
-7220 9085 0
-7221 9085 0
-7222 9085 0
-7223 9085 0
-7224 9085 0
-7225 9085 0
-7226 9085 0
-7227 9085 0
-7228 9085 0
-7229 9085 0
-7230 9085 0
-9085 7216 7217 7218 7219 7220 7221 7222 7223 7224 7225 7226 7227 7228 7229 7230 0
-7231 76 0
-7231 121 0
-7231 211 0
-76 -121 -211 7231 0
-7232 77 0
-7232 122 0
-7232 212 0
-77 -122 -212 7232 0
-7233 78 0
-7233 123 0
-7233 213 0
-78 -123 -213 7233 0
-7234 79 0
-7234 124 0
-7234 214 0
-79 -124 -214 7234 0
-7235 80 0
-7235 125 0
-7235 215 0
-80 -125 -215 7235 0
-7236 81 0
-7236 126 0
-7236 216 0
-81 -126 -216 7236 0
-7237 82 0
-7237 127 0
-7237 217 0
-82 -127 -217 7237 0
-7238 83 0
-7238 128 0
-7238 218 0
-83 -128 -218 7238 0
-7239 84 0
-7239 129 0
-7239 219 0
-84 -129 -219 7239 0
-7240 85 0
-7240 130 0
-7240 220 0
-85 -130 -220 7240 0
-7241 86 0
-7241 131 0
-7241 221 0
-86 -131 -221 7241 0
-7242 87 0
-7242 132 0
-7242 222 0
-87 -132 -222 7242 0
-7243 88 0
-7243 133 0
-7243 223 0
-88 -133 -223 7243 0
-7244 89 0
-7244 134 0
-7244 224 0
-89 -134 -224 7244 0
-7245 90 0
-7245 135 0
-7245 225 0
-90 -135 -225 7245 0
-7231 9086 0
-7232 9086 0
-7233 9086 0
-7234 9086 0
-7235 9086 0
-7236 9086 0
-7237 9086 0
-7238 9086 0
-7239 9086 0
-7240 9086 0
-7241 9086 0
-7242 9086 0
-7243 9086 0
-7244 9086 0
-7245 9086 0
-9086 7231 7232 7233 7234 7235 7236 7237 7238 7239 7240 7241 7242 7243 7244 7245 0
-7246 76 0
-7246 136 0
-7246 151 0
-76 -136 -151 7246 0
-7247 77 0
-7247 137 0
-7247 152 0
-77 -137 -152 7247 0
-7248 78 0
-7248 138 0
-7248 153 0
-78 -138 -153 7248 0
-7249 79 0
-7249 139 0
-7249 154 0
-79 -139 -154 7249 0
-7250 80 0
-7250 140 0
-7250 155 0
-80 -140 -155 7250 0
-7251 81 0
-7251 141 0
-7251 156 0
-81 -141 -156 7251 0
-7252 82 0
-7252 142 0
-7252 157 0
-82 -142 -157 7252 0
-7253 83 0
-7253 143 0
-7253 158 0
-83 -143 -158 7253 0
-7254 84 0
-7254 144 0
-7254 159 0
-84 -144 -159 7254 0
-7255 85 0
-7255 145 0
-7255 160 0
-85 -145 -160 7255 0
-7256 86 0
-7256 146 0
-7256 161 0
-86 -146 -161 7256 0
-7257 87 0
-7257 147 0
-7257 162 0
-87 -147 -162 7257 0
-7258 88 0
-7258 148 0
-7258 163 0
-88 -148 -163 7258 0
-7259 89 0
-7259 149 0
-7259 164 0
-89 -149 -164 7259 0
-7260 90 0
-7260 150 0
-7260 165 0
-90 -150 -165 7260 0
-7246 9087 0
-7247 9087 0
-7248 9087 0
-7249 9087 0
-7250 9087 0
-7251 9087 0
-7252 9087 0
-7253 9087 0
-7254 9087 0
-7255 9087 0
-7256 9087 0
-7257 9087 0
-7258 9087 0
-7259 9087 0
-7260 9087 0
-9087 7246 7247 7248 7249 7250 7251 7252 7253 7254 7255 7256 7257 7258 7259 7260 0
-7261 76 0
-7261 136 0
-7261 166 0
-76 -136 -166 7261 0
-7262 77 0
-7262 137 0
-7262 167 0
-77 -137 -167 7262 0
-7263 78 0
-7263 138 0
-7263 168 0
-78 -138 -168 7263 0
-7264 79 0
-7264 139 0
-7264 169 0
-79 -139 -169 7264 0
-7265 80 0
-7265 140 0
-7265 170 0
-80 -140 -170 7265 0
-7266 81 0
-7266 141 0
-7266 171 0
-81 -141 -171 7266 0
-7267 82 0
-7267 142 0
-7267 172 0
-82 -142 -172 7267 0
-7268 83 0
-7268 143 0
-7268 173 0
-83 -143 -173 7268 0
-7269 84 0
-7269 144 0
-7269 174 0
-84 -144 -174 7269 0
-7270 85 0
-7270 145 0
-7270 175 0
-85 -145 -175 7270 0
-7271 86 0
-7271 146 0
-7271 176 0
-86 -146 -176 7271 0
-7272 87 0
-7272 147 0
-7272 177 0
-87 -147 -177 7272 0
-7273 88 0
-7273 148 0
-7273 178 0
-88 -148 -178 7273 0
-7274 89 0
-7274 149 0
-7274 179 0
-89 -149 -179 7274 0
-7275 90 0
-7275 150 0
-7275 180 0
-90 -150 -180 7275 0
-7261 9088 0
-7262 9088 0
-7263 9088 0
-7264 9088 0
-7265 9088 0
-7266 9088 0
-7267 9088 0
-7268 9088 0
-7269 9088 0
-7270 9088 0
-7271 9088 0
-7272 9088 0
-7273 9088 0
-7274 9088 0
-7275 9088 0
-9088 7261 7262 7263 7264 7265 7266 7267 7268 7269 7270 7271 7272 7273 7274 7275 0
-7276 76 0
-7276 136 0
-7276 181 0
-76 -136 -181 7276 0
-7277 77 0
-7277 137 0
-7277 182 0
-77 -137 -182 7277 0
-7278 78 0
-7278 138 0
-7278 183 0
-78 -138 -183 7278 0
-7279 79 0
-7279 139 0
-7279 184 0
-79 -139 -184 7279 0
-7280 80 0
-7280 140 0
-7280 185 0
-80 -140 -185 7280 0
-7281 81 0
-7281 141 0
-7281 186 0
-81 -141 -186 7281 0
-7282 82 0
-7282 142 0
-7282 187 0
-82 -142 -187 7282 0
-7283 83 0
-7283 143 0
-7283 188 0
-83 -143 -188 7283 0
-7284 84 0
-7284 144 0
-7284 189 0
-84 -144 -189 7284 0
-7285 85 0
-7285 145 0
-7285 190 0
-85 -145 -190 7285 0
-7286 86 0
-7286 146 0
-7286 191 0
-86 -146 -191 7286 0
-7287 87 0
-7287 147 0
-7287 192 0
-87 -147 -192 7287 0
-7288 88 0
-7288 148 0
-7288 193 0
-88 -148 -193 7288 0
-7289 89 0
-7289 149 0
-7289 194 0
-89 -149 -194 7289 0
-7290 90 0
-7290 150 0
-7290 195 0
-90 -150 -195 7290 0
-7276 9089 0
-7277 9089 0
-7278 9089 0
-7279 9089 0
-7280 9089 0
-7281 9089 0
-7282 9089 0
-7283 9089 0
-7284 9089 0
-7285 9089 0
-7286 9089 0
-7287 9089 0
-7288 9089 0
-7289 9089 0
-7290 9089 0
-9089 7276 7277 7278 7279 7280 7281 7282 7283 7284 7285 7286 7287 7288 7289 7290 0
-7291 76 0
-7291 136 0
-7291 196 0
-76 -136 -196 7291 0
-7292 77 0
-7292 137 0
-7292 197 0
-77 -137 -197 7292 0
-7293 78 0
-7293 138 0
-7293 198 0
-78 -138 -198 7293 0
-7294 79 0
-7294 139 0
-7294 199 0
-79 -139 -199 7294 0
-7295 80 0
-7295 140 0
-7295 200 0
-80 -140 -200 7295 0
-7296 81 0
-7296 141 0
-7296 201 0
-81 -141 -201 7296 0
-7297 82 0
-7297 142 0
-7297 202 0
-82 -142 -202 7297 0
-7298 83 0
-7298 143 0
-7298 203 0
-83 -143 -203 7298 0
-7299 84 0
-7299 144 0
-7299 204 0
-84 -144 -204 7299 0
-7300 85 0
-7300 145 0
-7300 205 0
-85 -145 -205 7300 0
-7301 86 0
-7301 146 0
-7301 206 0
-86 -146 -206 7301 0
-7302 87 0
-7302 147 0
-7302 207 0
-87 -147 -207 7302 0
-7303 88 0
-7303 148 0
-7303 208 0
-88 -148 -208 7303 0
-7304 89 0
-7304 149 0
-7304 209 0
-89 -149 -209 7304 0
-7305 90 0
-7305 150 0
-7305 210 0
-90 -150 -210 7305 0
-7291 9090 0
-7292 9090 0
-7293 9090 0
-7294 9090 0
-7295 9090 0
-7296 9090 0
-7297 9090 0
-7298 9090 0
-7299 9090 0
-7300 9090 0
-7301 9090 0
-7302 9090 0
-7303 9090 0
-7304 9090 0
-7305 9090 0
-9090 7291 7292 7293 7294 7295 7296 7297 7298 7299 7300 7301 7302 7303 7304 7305 0
-7306 76 0
-7306 136 0
-7306 211 0
-76 -136 -211 7306 0
-7307 77 0
-7307 137 0
-7307 212 0
-77 -137 -212 7307 0
-7308 78 0
-7308 138 0
-7308 213 0
-78 -138 -213 7308 0
-7309 79 0
-7309 139 0
-7309 214 0
-79 -139 -214 7309 0
-7310 80 0
-7310 140 0
-7310 215 0
-80 -140 -215 7310 0
-7311 81 0
-7311 141 0
-7311 216 0
-81 -141 -216 7311 0
-7312 82 0
-7312 142 0
-7312 217 0
-82 -142 -217 7312 0
-7313 83 0
-7313 143 0
-7313 218 0
-83 -143 -218 7313 0
-7314 84 0
-7314 144 0
-7314 219 0
-84 -144 -219 7314 0
-7315 85 0
-7315 145 0
-7315 220 0
-85 -145 -220 7315 0
-7316 86 0
-7316 146 0
-7316 221 0
-86 -146 -221 7316 0
-7317 87 0
-7317 147 0
-7317 222 0
-87 -147 -222 7317 0
-7318 88 0
-7318 148 0
-7318 223 0
-88 -148 -223 7318 0
-7319 89 0
-7319 149 0
-7319 224 0
-89 -149 -224 7319 0
-7320 90 0
-7320 150 0
-7320 225 0
-90 -150 -225 7320 0
-7306 9091 0
-7307 9091 0
-7308 9091 0
-7309 9091 0
-7310 9091 0
-7311 9091 0
-7312 9091 0
-7313 9091 0
-7314 9091 0
-7315 9091 0
-7316 9091 0
-7317 9091 0
-7318 9091 0
-7319 9091 0
-7320 9091 0
-9091 7306 7307 7308 7309 7310 7311 7312 7313 7314 7315 7316 7317 7318 7319 7320 0
-7321 76 0
-7321 151 0
-7321 166 0
-76 -151 -166 7321 0
-7322 77 0
-7322 152 0
-7322 167 0
-77 -152 -167 7322 0
-7323 78 0
-7323 153 0
-7323 168 0
-78 -153 -168 7323 0
-7324 79 0
-7324 154 0
-7324 169 0
-79 -154 -169 7324 0
-7325 80 0
-7325 155 0
-7325 170 0
-80 -155 -170 7325 0
-7326 81 0
-7326 156 0
-7326 171 0
-81 -156 -171 7326 0
-7327 82 0
-7327 157 0
-7327 172 0
-82 -157 -172 7327 0
-7328 83 0
-7328 158 0
-7328 173 0
-83 -158 -173 7328 0
-7329 84 0
-7329 159 0
-7329 174 0
-84 -159 -174 7329 0
-7330 85 0
-7330 160 0
-7330 175 0
-85 -160 -175 7330 0
-7331 86 0
-7331 161 0
-7331 176 0
-86 -161 -176 7331 0
-7332 87 0
-7332 162 0
-7332 177 0
-87 -162 -177 7332 0
-7333 88 0
-7333 163 0
-7333 178 0
-88 -163 -178 7333 0
-7334 89 0
-7334 164 0
-7334 179 0
-89 -164 -179 7334 0
-7335 90 0
-7335 165 0
-7335 180 0
-90 -165 -180 7335 0
-7321 9092 0
-7322 9092 0
-7323 9092 0
-7324 9092 0
-7325 9092 0
-7326 9092 0
-7327 9092 0
-7328 9092 0
-7329 9092 0
-7330 9092 0
-7331 9092 0
-7332 9092 0
-7333 9092 0
-7334 9092 0
-7335 9092 0
-9092 7321 7322 7323 7324 7325 7326 7327 7328 7329 7330 7331 7332 7333 7334 7335 0
-7336 76 0
-7336 151 0
-7336 181 0
-76 -151 -181 7336 0
-7337 77 0
-7337 152 0
-7337 182 0
-77 -152 -182 7337 0
-7338 78 0
-7338 153 0
-7338 183 0
-78 -153 -183 7338 0
-7339 79 0
-7339 154 0
-7339 184 0
-79 -154 -184 7339 0
-7340 80 0
-7340 155 0
-7340 185 0
-80 -155 -185 7340 0
-7341 81 0
-7341 156 0
-7341 186 0
-81 -156 -186 7341 0
-7342 82 0
-7342 157 0
-7342 187 0
-82 -157 -187 7342 0
-7343 83 0
-7343 158 0
-7343 188 0
-83 -158 -188 7343 0
-7344 84 0
-7344 159 0
-7344 189 0
-84 -159 -189 7344 0
-7345 85 0
-7345 160 0
-7345 190 0
-85 -160 -190 7345 0
-7346 86 0
-7346 161 0
-7346 191 0
-86 -161 -191 7346 0
-7347 87 0
-7347 162 0
-7347 192 0
-87 -162 -192 7347 0
-7348 88 0
-7348 163 0
-7348 193 0
-88 -163 -193 7348 0
-7349 89 0
-7349 164 0
-7349 194 0
-89 -164 -194 7349 0
-7350 90 0
-7350 165 0
-7350 195 0
-90 -165 -195 7350 0
-7336 9093 0
-7337 9093 0
-7338 9093 0
-7339 9093 0
-7340 9093 0
-7341 9093 0
-7342 9093 0
-7343 9093 0
-7344 9093 0
-7345 9093 0
-7346 9093 0
-7347 9093 0
-7348 9093 0
-7349 9093 0
-7350 9093 0
-9093 7336 7337 7338 7339 7340 7341 7342 7343 7344 7345 7346 7347 7348 7349 7350 0
-7351 76 0
-7351 151 0
-7351 196 0
-76 -151 -196 7351 0
-7352 77 0
-7352 152 0
-7352 197 0
-77 -152 -197 7352 0
-7353 78 0
-7353 153 0
-7353 198 0
-78 -153 -198 7353 0
-7354 79 0
-7354 154 0
-7354 199 0
-79 -154 -199 7354 0
-7355 80 0
-7355 155 0
-7355 200 0
-80 -155 -200 7355 0
-7356 81 0
-7356 156 0
-7356 201 0
-81 -156 -201 7356 0
-7357 82 0
-7357 157 0
-7357 202 0
-82 -157 -202 7357 0
-7358 83 0
-7358 158 0
-7358 203 0
-83 -158 -203 7358 0
-7359 84 0
-7359 159 0
-7359 204 0
-84 -159 -204 7359 0
-7360 85 0
-7360 160 0
-7360 205 0
-85 -160 -205 7360 0
-7361 86 0
-7361 161 0
-7361 206 0
-86 -161 -206 7361 0
-7362 87 0
-7362 162 0
-7362 207 0
-87 -162 -207 7362 0
-7363 88 0
-7363 163 0
-7363 208 0
-88 -163 -208 7363 0
-7364 89 0
-7364 164 0
-7364 209 0
-89 -164 -209 7364 0
-7365 90 0
-7365 165 0
-7365 210 0
-90 -165 -210 7365 0
-7351 9094 0
-7352 9094 0
-7353 9094 0
-7354 9094 0
-7355 9094 0
-7356 9094 0
-7357 9094 0
-7358 9094 0
-7359 9094 0
-7360 9094 0
-7361 9094 0
-7362 9094 0
-7363 9094 0
-7364 9094 0
-7365 9094 0
-9094 7351 7352 7353 7354 7355 7356 7357 7358 7359 7360 7361 7362 7363 7364 7365 0
-7366 76 0
-7366 151 0
-7366 211 0
-76 -151 -211 7366 0
-7367 77 0
-7367 152 0
-7367 212 0
-77 -152 -212 7367 0
-7368 78 0
-7368 153 0
-7368 213 0
-78 -153 -213 7368 0
-7369 79 0
-7369 154 0
-7369 214 0
-79 -154 -214 7369 0
-7370 80 0
-7370 155 0
-7370 215 0
-80 -155 -215 7370 0
-7371 81 0
-7371 156 0
-7371 216 0
-81 -156 -216 7371 0
-7372 82 0
-7372 157 0
-7372 217 0
-82 -157 -217 7372 0
-7373 83 0
-7373 158 0
-7373 218 0
-83 -158 -218 7373 0
-7374 84 0
-7374 159 0
-7374 219 0
-84 -159 -219 7374 0
-7375 85 0
-7375 160 0
-7375 220 0
-85 -160 -220 7375 0
-7376 86 0
-7376 161 0
-7376 221 0
-86 -161 -221 7376 0
-7377 87 0
-7377 162 0
-7377 222 0
-87 -162 -222 7377 0
-7378 88 0
-7378 163 0
-7378 223 0
-88 -163 -223 7378 0
-7379 89 0
-7379 164 0
-7379 224 0
-89 -164 -224 7379 0
-7380 90 0
-7380 165 0
-7380 225 0
-90 -165 -225 7380 0
-7366 9095 0
-7367 9095 0
-7368 9095 0
-7369 9095 0
-7370 9095 0
-7371 9095 0
-7372 9095 0
-7373 9095 0
-7374 9095 0
-7375 9095 0
-7376 9095 0
-7377 9095 0
-7378 9095 0
-7379 9095 0
-7380 9095 0
-9095 7366 7367 7368 7369 7370 7371 7372 7373 7374 7375 7376 7377 7378 7379 7380 0
-7381 76 0
-7381 166 0
-7381 181 0
-76 -166 -181 7381 0
-7382 77 0
-7382 167 0
-7382 182 0
-77 -167 -182 7382 0
-7383 78 0
-7383 168 0
-7383 183 0
-78 -168 -183 7383 0
-7384 79 0
-7384 169 0
-7384 184 0
-79 -169 -184 7384 0
-7385 80 0
-7385 170 0
-7385 185 0
-80 -170 -185 7385 0
-7386 81 0
-7386 171 0
-7386 186 0
-81 -171 -186 7386 0
-7387 82 0
-7387 172 0
-7387 187 0
-82 -172 -187 7387 0
-7388 83 0
-7388 173 0
-7388 188 0
-83 -173 -188 7388 0
-7389 84 0
-7389 174 0
-7389 189 0
-84 -174 -189 7389 0
-7390 85 0
-7390 175 0
-7390 190 0
-85 -175 -190 7390 0
-7391 86 0
-7391 176 0
-7391 191 0
-86 -176 -191 7391 0
-7392 87 0
-7392 177 0
-7392 192 0
-87 -177 -192 7392 0
-7393 88 0
-7393 178 0
-7393 193 0
-88 -178 -193 7393 0
-7394 89 0
-7394 179 0
-7394 194 0
-89 -179 -194 7394 0
-7395 90 0
-7395 180 0
-7395 195 0
-90 -180 -195 7395 0
-7381 9096 0
-7382 9096 0
-7383 9096 0
-7384 9096 0
-7385 9096 0
-7386 9096 0
-7387 9096 0
-7388 9096 0
-7389 9096 0
-7390 9096 0
-7391 9096 0
-7392 9096 0
-7393 9096 0
-7394 9096 0
-7395 9096 0
-9096 7381 7382 7383 7384 7385 7386 7387 7388 7389 7390 7391 7392 7393 7394 7395 0
-7396 76 0
-7396 166 0
-7396 196 0
-76 -166 -196 7396 0
-7397 77 0
-7397 167 0
-7397 197 0
-77 -167 -197 7397 0
-7398 78 0
-7398 168 0
-7398 198 0
-78 -168 -198 7398 0
-7399 79 0
-7399 169 0
-7399 199 0
-79 -169 -199 7399 0
-7400 80 0
-7400 170 0
-7400 200 0
-80 -170 -200 7400 0
-7401 81 0
-7401 171 0
-7401 201 0
-81 -171 -201 7401 0
-7402 82 0
-7402 172 0
-7402 202 0
-82 -172 -202 7402 0
-7403 83 0
-7403 173 0
-7403 203 0
-83 -173 -203 7403 0
-7404 84 0
-7404 174 0
-7404 204 0
-84 -174 -204 7404 0
-7405 85 0
-7405 175 0
-7405 205 0
-85 -175 -205 7405 0
-7406 86 0
-7406 176 0
-7406 206 0
-86 -176 -206 7406 0
-7407 87 0
-7407 177 0
-7407 207 0
-87 -177 -207 7407 0
-7408 88 0
-7408 178 0
-7408 208 0
-88 -178 -208 7408 0
-7409 89 0
-7409 179 0
-7409 209 0
-89 -179 -209 7409 0
-7410 90 0
-7410 180 0
-7410 210 0
-90 -180 -210 7410 0
-7396 9097 0
-7397 9097 0
-7398 9097 0
-7399 9097 0
-7400 9097 0
-7401 9097 0
-7402 9097 0
-7403 9097 0
-7404 9097 0
-7405 9097 0
-7406 9097 0
-7407 9097 0
-7408 9097 0
-7409 9097 0
-7410 9097 0
-9097 7396 7397 7398 7399 7400 7401 7402 7403 7404 7405 7406 7407 7408 7409 7410 0
-7411 76 0
-7411 166 0
-7411 211 0
-76 -166 -211 7411 0
-7412 77 0
-7412 167 0
-7412 212 0
-77 -167 -212 7412 0
-7413 78 0
-7413 168 0
-7413 213 0
-78 -168 -213 7413 0
-7414 79 0
-7414 169 0
-7414 214 0
-79 -169 -214 7414 0
-7415 80 0
-7415 170 0
-7415 215 0
-80 -170 -215 7415 0
-7416 81 0
-7416 171 0
-7416 216 0
-81 -171 -216 7416 0
-7417 82 0
-7417 172 0
-7417 217 0
-82 -172 -217 7417 0
-7418 83 0
-7418 173 0
-7418 218 0
-83 -173 -218 7418 0
-7419 84 0
-7419 174 0
-7419 219 0
-84 -174 -219 7419 0
-7420 85 0
-7420 175 0
-7420 220 0
-85 -175 -220 7420 0
-7421 86 0
-7421 176 0
-7421 221 0
-86 -176 -221 7421 0
-7422 87 0
-7422 177 0
-7422 222 0
-87 -177 -222 7422 0
-7423 88 0
-7423 178 0
-7423 223 0
-88 -178 -223 7423 0
-7424 89 0
-7424 179 0
-7424 224 0
-89 -179 -224 7424 0
-7425 90 0
-7425 180 0
-7425 225 0
-90 -180 -225 7425 0
-7411 9098 0
-7412 9098 0
-7413 9098 0
-7414 9098 0
-7415 9098 0
-7416 9098 0
-7417 9098 0
-7418 9098 0
-7419 9098 0
-7420 9098 0
-7421 9098 0
-7422 9098 0
-7423 9098 0
-7424 9098 0
-7425 9098 0
-9098 7411 7412 7413 7414 7415 7416 7417 7418 7419 7420 7421 7422 7423 7424 7425 0
-7426 76 0
-7426 181 0
-7426 196 0
-76 -181 -196 7426 0
-7427 77 0
-7427 182 0
-7427 197 0
-77 -182 -197 7427 0
-7428 78 0
-7428 183 0
-7428 198 0
-78 -183 -198 7428 0
-7429 79 0
-7429 184 0
-7429 199 0
-79 -184 -199 7429 0
-7430 80 0
-7430 185 0
-7430 200 0
-80 -185 -200 7430 0
-7431 81 0
-7431 186 0
-7431 201 0
-81 -186 -201 7431 0
-7432 82 0
-7432 187 0
-7432 202 0
-82 -187 -202 7432 0
-7433 83 0
-7433 188 0
-7433 203 0
-83 -188 -203 7433 0
-7434 84 0
-7434 189 0
-7434 204 0
-84 -189 -204 7434 0
-7435 85 0
-7435 190 0
-7435 205 0
-85 -190 -205 7435 0
-7436 86 0
-7436 191 0
-7436 206 0
-86 -191 -206 7436 0
-7437 87 0
-7437 192 0
-7437 207 0
-87 -192 -207 7437 0
-7438 88 0
-7438 193 0
-7438 208 0
-88 -193 -208 7438 0
-7439 89 0
-7439 194 0
-7439 209 0
-89 -194 -209 7439 0
-7440 90 0
-7440 195 0
-7440 210 0
-90 -195 -210 7440 0
-7426 9099 0
-7427 9099 0
-7428 9099 0
-7429 9099 0
-7430 9099 0
-7431 9099 0
-7432 9099 0
-7433 9099 0
-7434 9099 0
-7435 9099 0
-7436 9099 0
-7437 9099 0
-7438 9099 0
-7439 9099 0
-7440 9099 0
-9099 7426 7427 7428 7429 7430 7431 7432 7433 7434 7435 7436 7437 7438 7439 7440 0
-7441 76 0
-7441 181 0
-7441 211 0
-76 -181 -211 7441 0
-7442 77 0
-7442 182 0
-7442 212 0
-77 -182 -212 7442 0
-7443 78 0
-7443 183 0
-7443 213 0
-78 -183 -213 7443 0
-7444 79 0
-7444 184 0
-7444 214 0
-79 -184 -214 7444 0
-7445 80 0
-7445 185 0
-7445 215 0
-80 -185 -215 7445 0
-7446 81 0
-7446 186 0
-7446 216 0
-81 -186 -216 7446 0
-7447 82 0
-7447 187 0
-7447 217 0
-82 -187 -217 7447 0
-7448 83 0
-7448 188 0
-7448 218 0
-83 -188 -218 7448 0
-7449 84 0
-7449 189 0
-7449 219 0
-84 -189 -219 7449 0
-7450 85 0
-7450 190 0
-7450 220 0
-85 -190 -220 7450 0
-7451 86 0
-7451 191 0
-7451 221 0
-86 -191 -221 7451 0
-7452 87 0
-7452 192 0
-7452 222 0
-87 -192 -222 7452 0
-7453 88 0
-7453 193 0
-7453 223 0
-88 -193 -223 7453 0
-7454 89 0
-7454 194 0
-7454 224 0
-89 -194 -224 7454 0
-7455 90 0
-7455 195 0
-7455 225 0
-90 -195 -225 7455 0
-7441 9100 0
-7442 9100 0
-7443 9100 0
-7444 9100 0
-7445 9100 0
-7446 9100 0
-7447 9100 0
-7448 9100 0
-7449 9100 0
-7450 9100 0
-7451 9100 0
-7452 9100 0
-7453 9100 0
-7454 9100 0
-7455 9100 0
-9100 7441 7442 7443 7444 7445 7446 7447 7448 7449 7450 7451 7452 7453 7454 7455 0
-7456 76 0
-7456 196 0
-7456 211 0
-76 -196 -211 7456 0
-7457 77 0
-7457 197 0
-7457 212 0
-77 -197 -212 7457 0
-7458 78 0
-7458 198 0
-7458 213 0
-78 -198 -213 7458 0
-7459 79 0
-7459 199 0
-7459 214 0
-79 -199 -214 7459 0
-7460 80 0
-7460 200 0
-7460 215 0
-80 -200 -215 7460 0
-7461 81 0
-7461 201 0
-7461 216 0
-81 -201 -216 7461 0
-7462 82 0
-7462 202 0
-7462 217 0
-82 -202 -217 7462 0
-7463 83 0
-7463 203 0
-7463 218 0
-83 -203 -218 7463 0
-7464 84 0
-7464 204 0
-7464 219 0
-84 -204 -219 7464 0
-7465 85 0
-7465 205 0
-7465 220 0
-85 -205 -220 7465 0
-7466 86 0
-7466 206 0
-7466 221 0
-86 -206 -221 7466 0
-7467 87 0
-7467 207 0
-7467 222 0
-87 -207 -222 7467 0
-7468 88 0
-7468 208 0
-7468 223 0
-88 -208 -223 7468 0
-7469 89 0
-7469 209 0
-7469 224 0
-89 -209 -224 7469 0
-7470 90 0
-7470 210 0
-7470 225 0
-90 -210 -225 7470 0
-7456 9101 0
-7457 9101 0
-7458 9101 0
-7459 9101 0
-7460 9101 0
-7461 9101 0
-7462 9101 0
-7463 9101 0
-7464 9101 0
-7465 9101 0
-7466 9101 0
-7467 9101 0
-7468 9101 0
-7469 9101 0
-7470 9101 0
-9101 7456 7457 7458 7459 7460 7461 7462 7463 7464 7465 7466 7467 7468 7469 7470 0
-7471 91 0
-7471 106 0
-7471 121 0
-91 -106 -121 7471 0
-7472 92 0
-7472 107 0
-7472 122 0
-92 -107 -122 7472 0
-7473 93 0
-7473 108 0
-7473 123 0
-93 -108 -123 7473 0
-7474 94 0
-7474 109 0
-7474 124 0
-94 -109 -124 7474 0
-7475 95 0
-7475 110 0
-7475 125 0
-95 -110 -125 7475 0
-7476 96 0
-7476 111 0
-7476 126 0
-96 -111 -126 7476 0
-7477 97 0
-7477 112 0
-7477 127 0
-97 -112 -127 7477 0
-7478 98 0
-7478 113 0
-7478 128 0
-98 -113 -128 7478 0
-7479 99 0
-7479 114 0
-7479 129 0
-99 -114 -129 7479 0
-7480 100 0
-7480 115 0
-7480 130 0
-100 -115 -130 7480 0
-7481 101 0
-7481 116 0
-7481 131 0
-101 -116 -131 7481 0
-7482 102 0
-7482 117 0
-7482 132 0
-102 -117 -132 7482 0
-7483 103 0
-7483 118 0
-7483 133 0
-103 -118 -133 7483 0
-7484 104 0
-7484 119 0
-7484 134 0
-104 -119 -134 7484 0
-7485 105 0
-7485 120 0
-7485 135 0
-105 -120 -135 7485 0
-7471 9102 0
-7472 9102 0
-7473 9102 0
-7474 9102 0
-7475 9102 0
-7476 9102 0
-7477 9102 0
-7478 9102 0
-7479 9102 0
-7480 9102 0
-7481 9102 0
-7482 9102 0
-7483 9102 0
-7484 9102 0
-7485 9102 0
-9102 7471 7472 7473 7474 7475 7476 7477 7478 7479 7480 7481 7482 7483 7484 7485 0
-7486 91 0
-7486 106 0
-7486 136 0
-91 -106 -136 7486 0
-7487 92 0
-7487 107 0
-7487 137 0
-92 -107 -137 7487 0
-7488 93 0
-7488 108 0
-7488 138 0
-93 -108 -138 7488 0
-7489 94 0
-7489 109 0
-7489 139 0
-94 -109 -139 7489 0
-7490 95 0
-7490 110 0
-7490 140 0
-95 -110 -140 7490 0
-7491 96 0
-7491 111 0
-7491 141 0
-96 -111 -141 7491 0
-7492 97 0
-7492 112 0
-7492 142 0
-97 -112 -142 7492 0
-7493 98 0
-7493 113 0
-7493 143 0
-98 -113 -143 7493 0
-7494 99 0
-7494 114 0
-7494 144 0
-99 -114 -144 7494 0
-7495 100 0
-7495 115 0
-7495 145 0
-100 -115 -145 7495 0
-7496 101 0
-7496 116 0
-7496 146 0
-101 -116 -146 7496 0
-7497 102 0
-7497 117 0
-7497 147 0
-102 -117 -147 7497 0
-7498 103 0
-7498 118 0
-7498 148 0
-103 -118 -148 7498 0
-7499 104 0
-7499 119 0
-7499 149 0
-104 -119 -149 7499 0
-7500 105 0
-7500 120 0
-7500 150 0
-105 -120 -150 7500 0
-7486 9103 0
-7487 9103 0
-7488 9103 0
-7489 9103 0
-7490 9103 0
-7491 9103 0
-7492 9103 0
-7493 9103 0
-7494 9103 0
-7495 9103 0
-7496 9103 0
-7497 9103 0
-7498 9103 0
-7499 9103 0
-7500 9103 0
-9103 7486 7487 7488 7489 7490 7491 7492 7493 7494 7495 7496 7497 7498 7499 7500 0
-7501 91 0
-7501 106 0
-7501 151 0
-91 -106 -151 7501 0
-7502 92 0
-7502 107 0
-7502 152 0
-92 -107 -152 7502 0
-7503 93 0
-7503 108 0
-7503 153 0
-93 -108 -153 7503 0
-7504 94 0
-7504 109 0
-7504 154 0
-94 -109 -154 7504 0
-7505 95 0
-7505 110 0
-7505 155 0
-95 -110 -155 7505 0
-7506 96 0
-7506 111 0
-7506 156 0
-96 -111 -156 7506 0
-7507 97 0
-7507 112 0
-7507 157 0
-97 -112 -157 7507 0
-7508 98 0
-7508 113 0
-7508 158 0
-98 -113 -158 7508 0
-7509 99 0
-7509 114 0
-7509 159 0
-99 -114 -159 7509 0
-7510 100 0
-7510 115 0
-7510 160 0
-100 -115 -160 7510 0
-7511 101 0
-7511 116 0
-7511 161 0
-101 -116 -161 7511 0
-7512 102 0
-7512 117 0
-7512 162 0
-102 -117 -162 7512 0
-7513 103 0
-7513 118 0
-7513 163 0
-103 -118 -163 7513 0
-7514 104 0
-7514 119 0
-7514 164 0
-104 -119 -164 7514 0
-7515 105 0
-7515 120 0
-7515 165 0
-105 -120 -165 7515 0
-7501 9104 0
-7502 9104 0
-7503 9104 0
-7504 9104 0
-7505 9104 0
-7506 9104 0
-7507 9104 0
-7508 9104 0
-7509 9104 0
-7510 9104 0
-7511 9104 0
-7512 9104 0
-7513 9104 0
-7514 9104 0
-7515 9104 0
-9104 7501 7502 7503 7504 7505 7506 7507 7508 7509 7510 7511 7512 7513 7514 7515 0
-7516 91 0
-7516 106 0
-7516 166 0
-91 -106 -166 7516 0
-7517 92 0
-7517 107 0
-7517 167 0
-92 -107 -167 7517 0
-7518 93 0
-7518 108 0
-7518 168 0
-93 -108 -168 7518 0
-7519 94 0
-7519 109 0
-7519 169 0
-94 -109 -169 7519 0
-7520 95 0
-7520 110 0
-7520 170 0
-95 -110 -170 7520 0
-7521 96 0
-7521 111 0
-7521 171 0
-96 -111 -171 7521 0
-7522 97 0
-7522 112 0
-7522 172 0
-97 -112 -172 7522 0
-7523 98 0
-7523 113 0
-7523 173 0
-98 -113 -173 7523 0
-7524 99 0
-7524 114 0
-7524 174 0
-99 -114 -174 7524 0
-7525 100 0
-7525 115 0
-7525 175 0
-100 -115 -175 7525 0
-7526 101 0
-7526 116 0
-7526 176 0
-101 -116 -176 7526 0
-7527 102 0
-7527 117 0
-7527 177 0
-102 -117 -177 7527 0
-7528 103 0
-7528 118 0
-7528 178 0
-103 -118 -178 7528 0
-7529 104 0
-7529 119 0
-7529 179 0
-104 -119 -179 7529 0
-7530 105 0
-7530 120 0
-7530 180 0
-105 -120 -180 7530 0
-7516 9105 0
-7517 9105 0
-7518 9105 0
-7519 9105 0
-7520 9105 0
-7521 9105 0
-7522 9105 0
-7523 9105 0
-7524 9105 0
-7525 9105 0
-7526 9105 0
-7527 9105 0
-7528 9105 0
-7529 9105 0
-7530 9105 0
-9105 7516 7517 7518 7519 7520 7521 7522 7523 7524 7525 7526 7527 7528 7529 7530 0
-7531 91 0
-7531 106 0
-7531 181 0
-91 -106 -181 7531 0
-7532 92 0
-7532 107 0
-7532 182 0
-92 -107 -182 7532 0
-7533 93 0
-7533 108 0
-7533 183 0
-93 -108 -183 7533 0
-7534 94 0
-7534 109 0
-7534 184 0
-94 -109 -184 7534 0
-7535 95 0
-7535 110 0
-7535 185 0
-95 -110 -185 7535 0
-7536 96 0
-7536 111 0
-7536 186 0
-96 -111 -186 7536 0
-7537 97 0
-7537 112 0
-7537 187 0
-97 -112 -187 7537 0
-7538 98 0
-7538 113 0
-7538 188 0
-98 -113 -188 7538 0
-7539 99 0
-7539 114 0
-7539 189 0
-99 -114 -189 7539 0
-7540 100 0
-7540 115 0
-7540 190 0
-100 -115 -190 7540 0
-7541 101 0
-7541 116 0
-7541 191 0
-101 -116 -191 7541 0
-7542 102 0
-7542 117 0
-7542 192 0
-102 -117 -192 7542 0
-7543 103 0
-7543 118 0
-7543 193 0
-103 -118 -193 7543 0
-7544 104 0
-7544 119 0
-7544 194 0
-104 -119 -194 7544 0
-7545 105 0
-7545 120 0
-7545 195 0
-105 -120 -195 7545 0
-7531 9106 0
-7532 9106 0
-7533 9106 0
-7534 9106 0
-7535 9106 0
-7536 9106 0
-7537 9106 0
-7538 9106 0
-7539 9106 0
-7540 9106 0
-7541 9106 0
-7542 9106 0
-7543 9106 0
-7544 9106 0
-7545 9106 0
-9106 7531 7532 7533 7534 7535 7536 7537 7538 7539 7540 7541 7542 7543 7544 7545 0
-7546 91 0
-7546 106 0
-7546 196 0
-91 -106 -196 7546 0
-7547 92 0
-7547 107 0
-7547 197 0
-92 -107 -197 7547 0
-7548 93 0
-7548 108 0
-7548 198 0
-93 -108 -198 7548 0
-7549 94 0
-7549 109 0
-7549 199 0
-94 -109 -199 7549 0
-7550 95 0
-7550 110 0
-7550 200 0
-95 -110 -200 7550 0
-7551 96 0
-7551 111 0
-7551 201 0
-96 -111 -201 7551 0
-7552 97 0
-7552 112 0
-7552 202 0
-97 -112 -202 7552 0
-7553 98 0
-7553 113 0
-7553 203 0
-98 -113 -203 7553 0
-7554 99 0
-7554 114 0
-7554 204 0
-99 -114 -204 7554 0
-7555 100 0
-7555 115 0
-7555 205 0
-100 -115 -205 7555 0
-7556 101 0
-7556 116 0
-7556 206 0
-101 -116 -206 7556 0
-7557 102 0
-7557 117 0
-7557 207 0
-102 -117 -207 7557 0
-7558 103 0
-7558 118 0
-7558 208 0
-103 -118 -208 7558 0
-7559 104 0
-7559 119 0
-7559 209 0
-104 -119 -209 7559 0
-7560 105 0
-7560 120 0
-7560 210 0
-105 -120 -210 7560 0
-7546 9107 0
-7547 9107 0
-7548 9107 0
-7549 9107 0
-7550 9107 0
-7551 9107 0
-7552 9107 0
-7553 9107 0
-7554 9107 0
-7555 9107 0
-7556 9107 0
-7557 9107 0
-7558 9107 0
-7559 9107 0
-7560 9107 0
-9107 7546 7547 7548 7549 7550 7551 7552 7553 7554 7555 7556 7557 7558 7559 7560 0
-7561 91 0
-7561 106 0
-7561 211 0
-91 -106 -211 7561 0
-7562 92 0
-7562 107 0
-7562 212 0
-92 -107 -212 7562 0
-7563 93 0
-7563 108 0
-7563 213 0
-93 -108 -213 7563 0
-7564 94 0
-7564 109 0
-7564 214 0
-94 -109 -214 7564 0
-7565 95 0
-7565 110 0
-7565 215 0
-95 -110 -215 7565 0
-7566 96 0
-7566 111 0
-7566 216 0
-96 -111 -216 7566 0
-7567 97 0
-7567 112 0
-7567 217 0
-97 -112 -217 7567 0
-7568 98 0
-7568 113 0
-7568 218 0
-98 -113 -218 7568 0
-7569 99 0
-7569 114 0
-7569 219 0
-99 -114 -219 7569 0
-7570 100 0
-7570 115 0
-7570 220 0
-100 -115 -220 7570 0
-7571 101 0
-7571 116 0
-7571 221 0
-101 -116 -221 7571 0
-7572 102 0
-7572 117 0
-7572 222 0
-102 -117 -222 7572 0
-7573 103 0
-7573 118 0
-7573 223 0
-103 -118 -223 7573 0
-7574 104 0
-7574 119 0
-7574 224 0
-104 -119 -224 7574 0
-7575 105 0
-7575 120 0
-7575 225 0
-105 -120 -225 7575 0
-7561 9108 0
-7562 9108 0
-7563 9108 0
-7564 9108 0
-7565 9108 0
-7566 9108 0
-7567 9108 0
-7568 9108 0
-7569 9108 0
-7570 9108 0
-7571 9108 0
-7572 9108 0
-7573 9108 0
-7574 9108 0
-7575 9108 0
-9108 7561 7562 7563 7564 7565 7566 7567 7568 7569 7570 7571 7572 7573 7574 7575 0
-7576 91 0
-7576 121 0
-7576 136 0
-91 -121 -136 7576 0
-7577 92 0
-7577 122 0
-7577 137 0
-92 -122 -137 7577 0
-7578 93 0
-7578 123 0
-7578 138 0
-93 -123 -138 7578 0
-7579 94 0
-7579 124 0
-7579 139 0
-94 -124 -139 7579 0
-7580 95 0
-7580 125 0
-7580 140 0
-95 -125 -140 7580 0
-7581 96 0
-7581 126 0
-7581 141 0
-96 -126 -141 7581 0
-7582 97 0
-7582 127 0
-7582 142 0
-97 -127 -142 7582 0
-7583 98 0
-7583 128 0
-7583 143 0
-98 -128 -143 7583 0
-7584 99 0
-7584 129 0
-7584 144 0
-99 -129 -144 7584 0
-7585 100 0
-7585 130 0
-7585 145 0
-100 -130 -145 7585 0
-7586 101 0
-7586 131 0
-7586 146 0
-101 -131 -146 7586 0
-7587 102 0
-7587 132 0
-7587 147 0
-102 -132 -147 7587 0
-7588 103 0
-7588 133 0
-7588 148 0
-103 -133 -148 7588 0
-7589 104 0
-7589 134 0
-7589 149 0
-104 -134 -149 7589 0
-7590 105 0
-7590 135 0
-7590 150 0
-105 -135 -150 7590 0
-7576 9109 0
-7577 9109 0
-7578 9109 0
-7579 9109 0
-7580 9109 0
-7581 9109 0
-7582 9109 0
-7583 9109 0
-7584 9109 0
-7585 9109 0
-7586 9109 0
-7587 9109 0
-7588 9109 0
-7589 9109 0
-7590 9109 0
-9109 7576 7577 7578 7579 7580 7581 7582 7583 7584 7585 7586 7587 7588 7589 7590 0
-7591 91 0
-7591 121 0
-7591 151 0
-91 -121 -151 7591 0
-7592 92 0
-7592 122 0
-7592 152 0
-92 -122 -152 7592 0
-7593 93 0
-7593 123 0
-7593 153 0
-93 -123 -153 7593 0
-7594 94 0
-7594 124 0
-7594 154 0
-94 -124 -154 7594 0
-7595 95 0
-7595 125 0
-7595 155 0
-95 -125 -155 7595 0
-7596 96 0
-7596 126 0
-7596 156 0
-96 -126 -156 7596 0
-7597 97 0
-7597 127 0
-7597 157 0
-97 -127 -157 7597 0
-7598 98 0
-7598 128 0
-7598 158 0
-98 -128 -158 7598 0
-7599 99 0
-7599 129 0
-7599 159 0
-99 -129 -159 7599 0
-7600 100 0
-7600 130 0
-7600 160 0
-100 -130 -160 7600 0
-7601 101 0
-7601 131 0
-7601 161 0
-101 -131 -161 7601 0
-7602 102 0
-7602 132 0
-7602 162 0
-102 -132 -162 7602 0
-7603 103 0
-7603 133 0
-7603 163 0
-103 -133 -163 7603 0
-7604 104 0
-7604 134 0
-7604 164 0
-104 -134 -164 7604 0
-7605 105 0
-7605 135 0
-7605 165 0
-105 -135 -165 7605 0
-7591 9110 0
-7592 9110 0
-7593 9110 0
-7594 9110 0
-7595 9110 0
-7596 9110 0
-7597 9110 0
-7598 9110 0
-7599 9110 0
-7600 9110 0
-7601 9110 0
-7602 9110 0
-7603 9110 0
-7604 9110 0
-7605 9110 0
-9110 7591 7592 7593 7594 7595 7596 7597 7598 7599 7600 7601 7602 7603 7604 7605 0
-7606 91 0
-7606 121 0
-7606 166 0
-91 -121 -166 7606 0
-7607 92 0
-7607 122 0
-7607 167 0
-92 -122 -167 7607 0
-7608 93 0
-7608 123 0
-7608 168 0
-93 -123 -168 7608 0
-7609 94 0
-7609 124 0
-7609 169 0
-94 -124 -169 7609 0
-7610 95 0
-7610 125 0
-7610 170 0
-95 -125 -170 7610 0
-7611 96 0
-7611 126 0
-7611 171 0
-96 -126 -171 7611 0
-7612 97 0
-7612 127 0
-7612 172 0
-97 -127 -172 7612 0
-7613 98 0
-7613 128 0
-7613 173 0
-98 -128 -173 7613 0
-7614 99 0
-7614 129 0
-7614 174 0
-99 -129 -174 7614 0
-7615 100 0
-7615 130 0
-7615 175 0
-100 -130 -175 7615 0
-7616 101 0
-7616 131 0
-7616 176 0
-101 -131 -176 7616 0
-7617 102 0
-7617 132 0
-7617 177 0
-102 -132 -177 7617 0
-7618 103 0
-7618 133 0
-7618 178 0
-103 -133 -178 7618 0
-7619 104 0
-7619 134 0
-7619 179 0
-104 -134 -179 7619 0
-7620 105 0
-7620 135 0
-7620 180 0
-105 -135 -180 7620 0
-7606 9111 0
-7607 9111 0
-7608 9111 0
-7609 9111 0
-7610 9111 0
-7611 9111 0
-7612 9111 0
-7613 9111 0
-7614 9111 0
-7615 9111 0
-7616 9111 0
-7617 9111 0
-7618 9111 0
-7619 9111 0
-7620 9111 0
-9111 7606 7607 7608 7609 7610 7611 7612 7613 7614 7615 7616 7617 7618 7619 7620 0
-7621 91 0
-7621 121 0
-7621 181 0
-91 -121 -181 7621 0
-7622 92 0
-7622 122 0
-7622 182 0
-92 -122 -182 7622 0
-7623 93 0
-7623 123 0
-7623 183 0
-93 -123 -183 7623 0
-7624 94 0
-7624 124 0
-7624 184 0
-94 -124 -184 7624 0
-7625 95 0
-7625 125 0
-7625 185 0
-95 -125 -185 7625 0
-7626 96 0
-7626 126 0
-7626 186 0
-96 -126 -186 7626 0
-7627 97 0
-7627 127 0
-7627 187 0
-97 -127 -187 7627 0
-7628 98 0
-7628 128 0
-7628 188 0
-98 -128 -188 7628 0
-7629 99 0
-7629 129 0
-7629 189 0
-99 -129 -189 7629 0
-7630 100 0
-7630 130 0
-7630 190 0
-100 -130 -190 7630 0
-7631 101 0
-7631 131 0
-7631 191 0
-101 -131 -191 7631 0
-7632 102 0
-7632 132 0
-7632 192 0
-102 -132 -192 7632 0
-7633 103 0
-7633 133 0
-7633 193 0
-103 -133 -193 7633 0
-7634 104 0
-7634 134 0
-7634 194 0
-104 -134 -194 7634 0
-7635 105 0
-7635 135 0
-7635 195 0
-105 -135 -195 7635 0
-7621 9112 0
-7622 9112 0
-7623 9112 0
-7624 9112 0
-7625 9112 0
-7626 9112 0
-7627 9112 0
-7628 9112 0
-7629 9112 0
-7630 9112 0
-7631 9112 0
-7632 9112 0
-7633 9112 0
-7634 9112 0
-7635 9112 0
-9112 7621 7622 7623 7624 7625 7626 7627 7628 7629 7630 7631 7632 7633 7634 7635 0
-7636 91 0
-7636 121 0
-7636 196 0
-91 -121 -196 7636 0
-7637 92 0
-7637 122 0
-7637 197 0
-92 -122 -197 7637 0
-7638 93 0
-7638 123 0
-7638 198 0
-93 -123 -198 7638 0
-7639 94 0
-7639 124 0
-7639 199 0
-94 -124 -199 7639 0
-7640 95 0
-7640 125 0
-7640 200 0
-95 -125 -200 7640 0
-7641 96 0
-7641 126 0
-7641 201 0
-96 -126 -201 7641 0
-7642 97 0
-7642 127 0
-7642 202 0
-97 -127 -202 7642 0
-7643 98 0
-7643 128 0
-7643 203 0
-98 -128 -203 7643 0
-7644 99 0
-7644 129 0
-7644 204 0
-99 -129 -204 7644 0
-7645 100 0
-7645 130 0
-7645 205 0
-100 -130 -205 7645 0
-7646 101 0
-7646 131 0
-7646 206 0
-101 -131 -206 7646 0
-7647 102 0
-7647 132 0
-7647 207 0
-102 -132 -207 7647 0
-7648 103 0
-7648 133 0
-7648 208 0
-103 -133 -208 7648 0
-7649 104 0
-7649 134 0
-7649 209 0
-104 -134 -209 7649 0
-7650 105 0
-7650 135 0
-7650 210 0
-105 -135 -210 7650 0
-7636 9113 0
-7637 9113 0
-7638 9113 0
-7639 9113 0
-7640 9113 0
-7641 9113 0
-7642 9113 0
-7643 9113 0
-7644 9113 0
-7645 9113 0
-7646 9113 0
-7647 9113 0
-7648 9113 0
-7649 9113 0
-7650 9113 0
-9113 7636 7637 7638 7639 7640 7641 7642 7643 7644 7645 7646 7647 7648 7649 7650 0
-7651 91 0
-7651 121 0
-7651 211 0
-91 -121 -211 7651 0
-7652 92 0
-7652 122 0
-7652 212 0
-92 -122 -212 7652 0
-7653 93 0
-7653 123 0
-7653 213 0
-93 -123 -213 7653 0
-7654 94 0
-7654 124 0
-7654 214 0
-94 -124 -214 7654 0
-7655 95 0
-7655 125 0
-7655 215 0
-95 -125 -215 7655 0
-7656 96 0
-7656 126 0
-7656 216 0
-96 -126 -216 7656 0
-7657 97 0
-7657 127 0
-7657 217 0
-97 -127 -217 7657 0
-7658 98 0
-7658 128 0
-7658 218 0
-98 -128 -218 7658 0
-7659 99 0
-7659 129 0
-7659 219 0
-99 -129 -219 7659 0
-7660 100 0
-7660 130 0
-7660 220 0
-100 -130 -220 7660 0
-7661 101 0
-7661 131 0
-7661 221 0
-101 -131 -221 7661 0
-7662 102 0
-7662 132 0
-7662 222 0
-102 -132 -222 7662 0
-7663 103 0
-7663 133 0
-7663 223 0
-103 -133 -223 7663 0
-7664 104 0
-7664 134 0
-7664 224 0
-104 -134 -224 7664 0
-7665 105 0
-7665 135 0
-7665 225 0
-105 -135 -225 7665 0
-7651 9114 0
-7652 9114 0
-7653 9114 0
-7654 9114 0
-7655 9114 0
-7656 9114 0
-7657 9114 0
-7658 9114 0
-7659 9114 0
-7660 9114 0
-7661 9114 0
-7662 9114 0
-7663 9114 0
-7664 9114 0
-7665 9114 0
-9114 7651 7652 7653 7654 7655 7656 7657 7658 7659 7660 7661 7662 7663 7664 7665 0
-7666 91 0
-7666 136 0
-7666 151 0
-91 -136 -151 7666 0
-7667 92 0
-7667 137 0
-7667 152 0
-92 -137 -152 7667 0
-7668 93 0
-7668 138 0
-7668 153 0
-93 -138 -153 7668 0
-7669 94 0
-7669 139 0
-7669 154 0
-94 -139 -154 7669 0
-7670 95 0
-7670 140 0
-7670 155 0
-95 -140 -155 7670 0
-7671 96 0
-7671 141 0
-7671 156 0
-96 -141 -156 7671 0
-7672 97 0
-7672 142 0
-7672 157 0
-97 -142 -157 7672 0
-7673 98 0
-7673 143 0
-7673 158 0
-98 -143 -158 7673 0
-7674 99 0
-7674 144 0
-7674 159 0
-99 -144 -159 7674 0
-7675 100 0
-7675 145 0
-7675 160 0
-100 -145 -160 7675 0
-7676 101 0
-7676 146 0
-7676 161 0
-101 -146 -161 7676 0
-7677 102 0
-7677 147 0
-7677 162 0
-102 -147 -162 7677 0
-7678 103 0
-7678 148 0
-7678 163 0
-103 -148 -163 7678 0
-7679 104 0
-7679 149 0
-7679 164 0
-104 -149 -164 7679 0
-7680 105 0
-7680 150 0
-7680 165 0
-105 -150 -165 7680 0
-7666 9115 0
-7667 9115 0
-7668 9115 0
-7669 9115 0
-7670 9115 0
-7671 9115 0
-7672 9115 0
-7673 9115 0
-7674 9115 0
-7675 9115 0
-7676 9115 0
-7677 9115 0
-7678 9115 0
-7679 9115 0
-7680 9115 0
-9115 7666 7667 7668 7669 7670 7671 7672 7673 7674 7675 7676 7677 7678 7679 7680 0
-7681 91 0
-7681 136 0
-7681 166 0
-91 -136 -166 7681 0
-7682 92 0
-7682 137 0
-7682 167 0
-92 -137 -167 7682 0
-7683 93 0
-7683 138 0
-7683 168 0
-93 -138 -168 7683 0
-7684 94 0
-7684 139 0
-7684 169 0
-94 -139 -169 7684 0
-7685 95 0
-7685 140 0
-7685 170 0
-95 -140 -170 7685 0
-7686 96 0
-7686 141 0
-7686 171 0
-96 -141 -171 7686 0
-7687 97 0
-7687 142 0
-7687 172 0
-97 -142 -172 7687 0
-7688 98 0
-7688 143 0
-7688 173 0
-98 -143 -173 7688 0
-7689 99 0
-7689 144 0
-7689 174 0
-99 -144 -174 7689 0
-7690 100 0
-7690 145 0
-7690 175 0
-100 -145 -175 7690 0
-7691 101 0
-7691 146 0
-7691 176 0
-101 -146 -176 7691 0
-7692 102 0
-7692 147 0
-7692 177 0
-102 -147 -177 7692 0
-7693 103 0
-7693 148 0
-7693 178 0
-103 -148 -178 7693 0
-7694 104 0
-7694 149 0
-7694 179 0
-104 -149 -179 7694 0
-7695 105 0
-7695 150 0
-7695 180 0
-105 -150 -180 7695 0
-7681 9116 0
-7682 9116 0
-7683 9116 0
-7684 9116 0
-7685 9116 0
-7686 9116 0
-7687 9116 0
-7688 9116 0
-7689 9116 0
-7690 9116 0
-7691 9116 0
-7692 9116 0
-7693 9116 0
-7694 9116 0
-7695 9116 0
-9116 7681 7682 7683 7684 7685 7686 7687 7688 7689 7690 7691 7692 7693 7694 7695 0
-7696 91 0
-7696 136 0
-7696 181 0
-91 -136 -181 7696 0
-7697 92 0
-7697 137 0
-7697 182 0
-92 -137 -182 7697 0
-7698 93 0
-7698 138 0
-7698 183 0
-93 -138 -183 7698 0
-7699 94 0
-7699 139 0
-7699 184 0
-94 -139 -184 7699 0
-7700 95 0
-7700 140 0
-7700 185 0
-95 -140 -185 7700 0
-7701 96 0
-7701 141 0
-7701 186 0
-96 -141 -186 7701 0
-7702 97 0
-7702 142 0
-7702 187 0
-97 -142 -187 7702 0
-7703 98 0
-7703 143 0
-7703 188 0
-98 -143 -188 7703 0
-7704 99 0
-7704 144 0
-7704 189 0
-99 -144 -189 7704 0
-7705 100 0
-7705 145 0
-7705 190 0
-100 -145 -190 7705 0
-7706 101 0
-7706 146 0
-7706 191 0
-101 -146 -191 7706 0
-7707 102 0
-7707 147 0
-7707 192 0
-102 -147 -192 7707 0
-7708 103 0
-7708 148 0
-7708 193 0
-103 -148 -193 7708 0
-7709 104 0
-7709 149 0
-7709 194 0
-104 -149 -194 7709 0
-7710 105 0
-7710 150 0
-7710 195 0
-105 -150 -195 7710 0
-7696 9117 0
-7697 9117 0
-7698 9117 0
-7699 9117 0
-7700 9117 0
-7701 9117 0
-7702 9117 0
-7703 9117 0
-7704 9117 0
-7705 9117 0
-7706 9117 0
-7707 9117 0
-7708 9117 0
-7709 9117 0
-7710 9117 0
-9117 7696 7697 7698 7699 7700 7701 7702 7703 7704 7705 7706 7707 7708 7709 7710 0
-7711 91 0
-7711 136 0
-7711 196 0
-91 -136 -196 7711 0
-7712 92 0
-7712 137 0
-7712 197 0
-92 -137 -197 7712 0
-7713 93 0
-7713 138 0
-7713 198 0
-93 -138 -198 7713 0
-7714 94 0
-7714 139 0
-7714 199 0
-94 -139 -199 7714 0
-7715 95 0
-7715 140 0
-7715 200 0
-95 -140 -200 7715 0
-7716 96 0
-7716 141 0
-7716 201 0
-96 -141 -201 7716 0
-7717 97 0
-7717 142 0
-7717 202 0
-97 -142 -202 7717 0
-7718 98 0
-7718 143 0
-7718 203 0
-98 -143 -203 7718 0
-7719 99 0
-7719 144 0
-7719 204 0
-99 -144 -204 7719 0
-7720 100 0
-7720 145 0
-7720 205 0
-100 -145 -205 7720 0
-7721 101 0
-7721 146 0
-7721 206 0
-101 -146 -206 7721 0
-7722 102 0
-7722 147 0
-7722 207 0
-102 -147 -207 7722 0
-7723 103 0
-7723 148 0
-7723 208 0
-103 -148 -208 7723 0
-7724 104 0
-7724 149 0
-7724 209 0
-104 -149 -209 7724 0
-7725 105 0
-7725 150 0
-7725 210 0
-105 -150 -210 7725 0
-7711 9118 0
-7712 9118 0
-7713 9118 0
-7714 9118 0
-7715 9118 0
-7716 9118 0
-7717 9118 0
-7718 9118 0
-7719 9118 0
-7720 9118 0
-7721 9118 0
-7722 9118 0
-7723 9118 0
-7724 9118 0
-7725 9118 0
-9118 7711 7712 7713 7714 7715 7716 7717 7718 7719 7720 7721 7722 7723 7724 7725 0
-7726 91 0
-7726 136 0
-7726 211 0
-91 -136 -211 7726 0
-7727 92 0
-7727 137 0
-7727 212 0
-92 -137 -212 7727 0
-7728 93 0
-7728 138 0
-7728 213 0
-93 -138 -213 7728 0
-7729 94 0
-7729 139 0
-7729 214 0
-94 -139 -214 7729 0
-7730 95 0
-7730 140 0
-7730 215 0
-95 -140 -215 7730 0
-7731 96 0
-7731 141 0
-7731 216 0
-96 -141 -216 7731 0
-7732 97 0
-7732 142 0
-7732 217 0
-97 -142 -217 7732 0
-7733 98 0
-7733 143 0
-7733 218 0
-98 -143 -218 7733 0
-7734 99 0
-7734 144 0
-7734 219 0
-99 -144 -219 7734 0
-7735 100 0
-7735 145 0
-7735 220 0
-100 -145 -220 7735 0
-7736 101 0
-7736 146 0
-7736 221 0
-101 -146 -221 7736 0
-7737 102 0
-7737 147 0
-7737 222 0
-102 -147 -222 7737 0
-7738 103 0
-7738 148 0
-7738 223 0
-103 -148 -223 7738 0
-7739 104 0
-7739 149 0
-7739 224 0
-104 -149 -224 7739 0
-7740 105 0
-7740 150 0
-7740 225 0
-105 -150 -225 7740 0
-7726 9119 0
-7727 9119 0
-7728 9119 0
-7729 9119 0
-7730 9119 0
-7731 9119 0
-7732 9119 0
-7733 9119 0
-7734 9119 0
-7735 9119 0
-7736 9119 0
-7737 9119 0
-7738 9119 0
-7739 9119 0
-7740 9119 0
-9119 7726 7727 7728 7729 7730 7731 7732 7733 7734 7735 7736 7737 7738 7739 7740 0
-7741 91 0
-7741 151 0
-7741 166 0
-91 -151 -166 7741 0
-7742 92 0
-7742 152 0
-7742 167 0
-92 -152 -167 7742 0
-7743 93 0
-7743 153 0
-7743 168 0
-93 -153 -168 7743 0
-7744 94 0
-7744 154 0
-7744 169 0
-94 -154 -169 7744 0
-7745 95 0
-7745 155 0
-7745 170 0
-95 -155 -170 7745 0
-7746 96 0
-7746 156 0
-7746 171 0
-96 -156 -171 7746 0
-7747 97 0
-7747 157 0
-7747 172 0
-97 -157 -172 7747 0
-7748 98 0
-7748 158 0
-7748 173 0
-98 -158 -173 7748 0
-7749 99 0
-7749 159 0
-7749 174 0
-99 -159 -174 7749 0
-7750 100 0
-7750 160 0
-7750 175 0
-100 -160 -175 7750 0
-7751 101 0
-7751 161 0
-7751 176 0
-101 -161 -176 7751 0
-7752 102 0
-7752 162 0
-7752 177 0
-102 -162 -177 7752 0
-7753 103 0
-7753 163 0
-7753 178 0
-103 -163 -178 7753 0
-7754 104 0
-7754 164 0
-7754 179 0
-104 -164 -179 7754 0
-7755 105 0
-7755 165 0
-7755 180 0
-105 -165 -180 7755 0
-7741 9120 0
-7742 9120 0
-7743 9120 0
-7744 9120 0
-7745 9120 0
-7746 9120 0
-7747 9120 0
-7748 9120 0
-7749 9120 0
-7750 9120 0
-7751 9120 0
-7752 9120 0
-7753 9120 0
-7754 9120 0
-7755 9120 0
-9120 7741 7742 7743 7744 7745 7746 7747 7748 7749 7750 7751 7752 7753 7754 7755 0
-7756 91 0
-7756 151 0
-7756 181 0
-91 -151 -181 7756 0
-7757 92 0
-7757 152 0
-7757 182 0
-92 -152 -182 7757 0
-7758 93 0
-7758 153 0
-7758 183 0
-93 -153 -183 7758 0
-7759 94 0
-7759 154 0
-7759 184 0
-94 -154 -184 7759 0
-7760 95 0
-7760 155 0
-7760 185 0
-95 -155 -185 7760 0
-7761 96 0
-7761 156 0
-7761 186 0
-96 -156 -186 7761 0
-7762 97 0
-7762 157 0
-7762 187 0
-97 -157 -187 7762 0
-7763 98 0
-7763 158 0
-7763 188 0
-98 -158 -188 7763 0
-7764 99 0
-7764 159 0
-7764 189 0
-99 -159 -189 7764 0
-7765 100 0
-7765 160 0
-7765 190 0
-100 -160 -190 7765 0
-7766 101 0
-7766 161 0
-7766 191 0
-101 -161 -191 7766 0
-7767 102 0
-7767 162 0
-7767 192 0
-102 -162 -192 7767 0
-7768 103 0
-7768 163 0
-7768 193 0
-103 -163 -193 7768 0
-7769 104 0
-7769 164 0
-7769 194 0
-104 -164 -194 7769 0
-7770 105 0
-7770 165 0
-7770 195 0
-105 -165 -195 7770 0
-7756 9121 0
-7757 9121 0
-7758 9121 0
-7759 9121 0
-7760 9121 0
-7761 9121 0
-7762 9121 0
-7763 9121 0
-7764 9121 0
-7765 9121 0
-7766 9121 0
-7767 9121 0
-7768 9121 0
-7769 9121 0
-7770 9121 0
-9121 7756 7757 7758 7759 7760 7761 7762 7763 7764 7765 7766 7767 7768 7769 7770 0
-7771 91 0
-7771 151 0
-7771 196 0
-91 -151 -196 7771 0
-7772 92 0
-7772 152 0
-7772 197 0
-92 -152 -197 7772 0
-7773 93 0
-7773 153 0
-7773 198 0
-93 -153 -198 7773 0
-7774 94 0
-7774 154 0
-7774 199 0
-94 -154 -199 7774 0
-7775 95 0
-7775 155 0
-7775 200 0
-95 -155 -200 7775 0
-7776 96 0
-7776 156 0
-7776 201 0
-96 -156 -201 7776 0
-7777 97 0
-7777 157 0
-7777 202 0
-97 -157 -202 7777 0
-7778 98 0
-7778 158 0
-7778 203 0
-98 -158 -203 7778 0
-7779 99 0
-7779 159 0
-7779 204 0
-99 -159 -204 7779 0
-7780 100 0
-7780 160 0
-7780 205 0
-100 -160 -205 7780 0
-7781 101 0
-7781 161 0
-7781 206 0
-101 -161 -206 7781 0
-7782 102 0
-7782 162 0
-7782 207 0
-102 -162 -207 7782 0
-7783 103 0
-7783 163 0
-7783 208 0
-103 -163 -208 7783 0
-7784 104 0
-7784 164 0
-7784 209 0
-104 -164 -209 7784 0
-7785 105 0
-7785 165 0
-7785 210 0
-105 -165 -210 7785 0
-7771 9122 0
-7772 9122 0
-7773 9122 0
-7774 9122 0
-7775 9122 0
-7776 9122 0
-7777 9122 0
-7778 9122 0
-7779 9122 0
-7780 9122 0
-7781 9122 0
-7782 9122 0
-7783 9122 0
-7784 9122 0
-7785 9122 0
-9122 7771 7772 7773 7774 7775 7776 7777 7778 7779 7780 7781 7782 7783 7784 7785 0
-7786 91 0
-7786 151 0
-7786 211 0
-91 -151 -211 7786 0
-7787 92 0
-7787 152 0
-7787 212 0
-92 -152 -212 7787 0
-7788 93 0
-7788 153 0
-7788 213 0
-93 -153 -213 7788 0
-7789 94 0
-7789 154 0
-7789 214 0
-94 -154 -214 7789 0
-7790 95 0
-7790 155 0
-7790 215 0
-95 -155 -215 7790 0
-7791 96 0
-7791 156 0
-7791 216 0
-96 -156 -216 7791 0
-7792 97 0
-7792 157 0
-7792 217 0
-97 -157 -217 7792 0
-7793 98 0
-7793 158 0
-7793 218 0
-98 -158 -218 7793 0
-7794 99 0
-7794 159 0
-7794 219 0
-99 -159 -219 7794 0
-7795 100 0
-7795 160 0
-7795 220 0
-100 -160 -220 7795 0
-7796 101 0
-7796 161 0
-7796 221 0
-101 -161 -221 7796 0
-7797 102 0
-7797 162 0
-7797 222 0
-102 -162 -222 7797 0
-7798 103 0
-7798 163 0
-7798 223 0
-103 -163 -223 7798 0
-7799 104 0
-7799 164 0
-7799 224 0
-104 -164 -224 7799 0
-7800 105 0
-7800 165 0
-7800 225 0
-105 -165 -225 7800 0
-7786 9123 0
-7787 9123 0
-7788 9123 0
-7789 9123 0
-7790 9123 0
-7791 9123 0
-7792 9123 0
-7793 9123 0
-7794 9123 0
-7795 9123 0
-7796 9123 0
-7797 9123 0
-7798 9123 0
-7799 9123 0
-7800 9123 0
-9123 7786 7787 7788 7789 7790 7791 7792 7793 7794 7795 7796 7797 7798 7799 7800 0
-7801 91 0
-7801 166 0
-7801 181 0
-91 -166 -181 7801 0
-7802 92 0
-7802 167 0
-7802 182 0
-92 -167 -182 7802 0
-7803 93 0
-7803 168 0
-7803 183 0
-93 -168 -183 7803 0
-7804 94 0
-7804 169 0
-7804 184 0
-94 -169 -184 7804 0
-7805 95 0
-7805 170 0
-7805 185 0
-95 -170 -185 7805 0
-7806 96 0
-7806 171 0
-7806 186 0
-96 -171 -186 7806 0
-7807 97 0
-7807 172 0
-7807 187 0
-97 -172 -187 7807 0
-7808 98 0
-7808 173 0
-7808 188 0
-98 -173 -188 7808 0
-7809 99 0
-7809 174 0
-7809 189 0
-99 -174 -189 7809 0
-7810 100 0
-7810 175 0
-7810 190 0
-100 -175 -190 7810 0
-7811 101 0
-7811 176 0
-7811 191 0
-101 -176 -191 7811 0
-7812 102 0
-7812 177 0
-7812 192 0
-102 -177 -192 7812 0
-7813 103 0
-7813 178 0
-7813 193 0
-103 -178 -193 7813 0
-7814 104 0
-7814 179 0
-7814 194 0
-104 -179 -194 7814 0
-7815 105 0
-7815 180 0
-7815 195 0
-105 -180 -195 7815 0
-7801 9124 0
-7802 9124 0
-7803 9124 0
-7804 9124 0
-7805 9124 0
-7806 9124 0
-7807 9124 0
-7808 9124 0
-7809 9124 0
-7810 9124 0
-7811 9124 0
-7812 9124 0
-7813 9124 0
-7814 9124 0
-7815 9124 0
-9124 7801 7802 7803 7804 7805 7806 7807 7808 7809 7810 7811 7812 7813 7814 7815 0
-7816 91 0
-7816 166 0
-7816 196 0
-91 -166 -196 7816 0
-7817 92 0
-7817 167 0
-7817 197 0
-92 -167 -197 7817 0
-7818 93 0
-7818 168 0
-7818 198 0
-93 -168 -198 7818 0
-7819 94 0
-7819 169 0
-7819 199 0
-94 -169 -199 7819 0
-7820 95 0
-7820 170 0
-7820 200 0
-95 -170 -200 7820 0
-7821 96 0
-7821 171 0
-7821 201 0
-96 -171 -201 7821 0
-7822 97 0
-7822 172 0
-7822 202 0
-97 -172 -202 7822 0
-7823 98 0
-7823 173 0
-7823 203 0
-98 -173 -203 7823 0
-7824 99 0
-7824 174 0
-7824 204 0
-99 -174 -204 7824 0
-7825 100 0
-7825 175 0
-7825 205 0
-100 -175 -205 7825 0
-7826 101 0
-7826 176 0
-7826 206 0
-101 -176 -206 7826 0
-7827 102 0
-7827 177 0
-7827 207 0
-102 -177 -207 7827 0
-7828 103 0
-7828 178 0
-7828 208 0
-103 -178 -208 7828 0
-7829 104 0
-7829 179 0
-7829 209 0
-104 -179 -209 7829 0
-7830 105 0
-7830 180 0
-7830 210 0
-105 -180 -210 7830 0
-7816 9125 0
-7817 9125 0
-7818 9125 0
-7819 9125 0
-7820 9125 0
-7821 9125 0
-7822 9125 0
-7823 9125 0
-7824 9125 0
-7825 9125 0
-7826 9125 0
-7827 9125 0
-7828 9125 0
-7829 9125 0
-7830 9125 0
-9125 7816 7817 7818 7819 7820 7821 7822 7823 7824 7825 7826 7827 7828 7829 7830 0
-7831 91 0
-7831 166 0
-7831 211 0
-91 -166 -211 7831 0
-7832 92 0
-7832 167 0
-7832 212 0
-92 -167 -212 7832 0
-7833 93 0
-7833 168 0
-7833 213 0
-93 -168 -213 7833 0
-7834 94 0
-7834 169 0
-7834 214 0
-94 -169 -214 7834 0
-7835 95 0
-7835 170 0
-7835 215 0
-95 -170 -215 7835 0
-7836 96 0
-7836 171 0
-7836 216 0
-96 -171 -216 7836 0
-7837 97 0
-7837 172 0
-7837 217 0
-97 -172 -217 7837 0
-7838 98 0
-7838 173 0
-7838 218 0
-98 -173 -218 7838 0
-7839 99 0
-7839 174 0
-7839 219 0
-99 -174 -219 7839 0
-7840 100 0
-7840 175 0
-7840 220 0
-100 -175 -220 7840 0
-7841 101 0
-7841 176 0
-7841 221 0
-101 -176 -221 7841 0
-7842 102 0
-7842 177 0
-7842 222 0
-102 -177 -222 7842 0
-7843 103 0
-7843 178 0
-7843 223 0
-103 -178 -223 7843 0
-7844 104 0
-7844 179 0
-7844 224 0
-104 -179 -224 7844 0
-7845 105 0
-7845 180 0
-7845 225 0
-105 -180 -225 7845 0
-7831 9126 0
-7832 9126 0
-7833 9126 0
-7834 9126 0
-7835 9126 0
-7836 9126 0
-7837 9126 0
-7838 9126 0
-7839 9126 0
-7840 9126 0
-7841 9126 0
-7842 9126 0
-7843 9126 0
-7844 9126 0
-7845 9126 0
-9126 7831 7832 7833 7834 7835 7836 7837 7838 7839 7840 7841 7842 7843 7844 7845 0
-7846 91 0
-7846 181 0
-7846 196 0
-91 -181 -196 7846 0
-7847 92 0
-7847 182 0
-7847 197 0
-92 -182 -197 7847 0
-7848 93 0
-7848 183 0
-7848 198 0
-93 -183 -198 7848 0
-7849 94 0
-7849 184 0
-7849 199 0
-94 -184 -199 7849 0
-7850 95 0
-7850 185 0
-7850 200 0
-95 -185 -200 7850 0
-7851 96 0
-7851 186 0
-7851 201 0
-96 -186 -201 7851 0
-7852 97 0
-7852 187 0
-7852 202 0
-97 -187 -202 7852 0
-7853 98 0
-7853 188 0
-7853 203 0
-98 -188 -203 7853 0
-7854 99 0
-7854 189 0
-7854 204 0
-99 -189 -204 7854 0
-7855 100 0
-7855 190 0
-7855 205 0
-100 -190 -205 7855 0
-7856 101 0
-7856 191 0
-7856 206 0
-101 -191 -206 7856 0
-7857 102 0
-7857 192 0
-7857 207 0
-102 -192 -207 7857 0
-7858 103 0
-7858 193 0
-7858 208 0
-103 -193 -208 7858 0
-7859 104 0
-7859 194 0
-7859 209 0
-104 -194 -209 7859 0
-7860 105 0
-7860 195 0
-7860 210 0
-105 -195 -210 7860 0
-7846 9127 0
-7847 9127 0
-7848 9127 0
-7849 9127 0
-7850 9127 0
-7851 9127 0
-7852 9127 0
-7853 9127 0
-7854 9127 0
-7855 9127 0
-7856 9127 0
-7857 9127 0
-7858 9127 0
-7859 9127 0
-7860 9127 0
-9127 7846 7847 7848 7849 7850 7851 7852 7853 7854 7855 7856 7857 7858 7859 7860 0
-7861 91 0
-7861 181 0
-7861 211 0
-91 -181 -211 7861 0
-7862 92 0
-7862 182 0
-7862 212 0
-92 -182 -212 7862 0
-7863 93 0
-7863 183 0
-7863 213 0
-93 -183 -213 7863 0
-7864 94 0
-7864 184 0
-7864 214 0
-94 -184 -214 7864 0
-7865 95 0
-7865 185 0
-7865 215 0
-95 -185 -215 7865 0
-7866 96 0
-7866 186 0
-7866 216 0
-96 -186 -216 7866 0
-7867 97 0
-7867 187 0
-7867 217 0
-97 -187 -217 7867 0
-7868 98 0
-7868 188 0
-7868 218 0
-98 -188 -218 7868 0
-7869 99 0
-7869 189 0
-7869 219 0
-99 -189 -219 7869 0
-7870 100 0
-7870 190 0
-7870 220 0
-100 -190 -220 7870 0
-7871 101 0
-7871 191 0
-7871 221 0
-101 -191 -221 7871 0
-7872 102 0
-7872 192 0
-7872 222 0
-102 -192 -222 7872 0
-7873 103 0
-7873 193 0
-7873 223 0
-103 -193 -223 7873 0
-7874 104 0
-7874 194 0
-7874 224 0
-104 -194 -224 7874 0
-7875 105 0
-7875 195 0
-7875 225 0
-105 -195 -225 7875 0
-7861 9128 0
-7862 9128 0
-7863 9128 0
-7864 9128 0
-7865 9128 0
-7866 9128 0
-7867 9128 0
-7868 9128 0
-7869 9128 0
-7870 9128 0
-7871 9128 0
-7872 9128 0
-7873 9128 0
-7874 9128 0
-7875 9128 0
-9128 7861 7862 7863 7864 7865 7866 7867 7868 7869 7870 7871 7872 7873 7874 7875 0
-7876 91 0
-7876 196 0
-7876 211 0
-91 -196 -211 7876 0
-7877 92 0
-7877 197 0
-7877 212 0
-92 -197 -212 7877 0
-7878 93 0
-7878 198 0
-7878 213 0
-93 -198 -213 7878 0
-7879 94 0
-7879 199 0
-7879 214 0
-94 -199 -214 7879 0
-7880 95 0
-7880 200 0
-7880 215 0
-95 -200 -215 7880 0
-7881 96 0
-7881 201 0
-7881 216 0
-96 -201 -216 7881 0
-7882 97 0
-7882 202 0
-7882 217 0
-97 -202 -217 7882 0
-7883 98 0
-7883 203 0
-7883 218 0
-98 -203 -218 7883 0
-7884 99 0
-7884 204 0
-7884 219 0
-99 -204 -219 7884 0
-7885 100 0
-7885 205 0
-7885 220 0
-100 -205 -220 7885 0
-7886 101 0
-7886 206 0
-7886 221 0
-101 -206 -221 7886 0
-7887 102 0
-7887 207 0
-7887 222 0
-102 -207 -222 7887 0
-7888 103 0
-7888 208 0
-7888 223 0
-103 -208 -223 7888 0
-7889 104 0
-7889 209 0
-7889 224 0
-104 -209 -224 7889 0
-7890 105 0
-7890 210 0
-7890 225 0
-105 -210 -225 7890 0
-7876 9129 0
-7877 9129 0
-7878 9129 0
-7879 9129 0
-7880 9129 0
-7881 9129 0
-7882 9129 0
-7883 9129 0
-7884 9129 0
-7885 9129 0
-7886 9129 0
-7887 9129 0
-7888 9129 0
-7889 9129 0
-7890 9129 0
-9129 7876 7877 7878 7879 7880 7881 7882 7883 7884 7885 7886 7887 7888 7889 7890 0
-7891 106 0
-7891 121 0
-7891 136 0
-106 -121 -136 7891 0
-7892 107 0
-7892 122 0
-7892 137 0
-107 -122 -137 7892 0
-7893 108 0
-7893 123 0
-7893 138 0
-108 -123 -138 7893 0
-7894 109 0
-7894 124 0
-7894 139 0
-109 -124 -139 7894 0
-7895 110 0
-7895 125 0
-7895 140 0
-110 -125 -140 7895 0
-7896 111 0
-7896 126 0
-7896 141 0
-111 -126 -141 7896 0
-7897 112 0
-7897 127 0
-7897 142 0
-112 -127 -142 7897 0
-7898 113 0
-7898 128 0
-7898 143 0
-113 -128 -143 7898 0
-7899 114 0
-7899 129 0
-7899 144 0
-114 -129 -144 7899 0
-7900 115 0
-7900 130 0
-7900 145 0
-115 -130 -145 7900 0
-7901 116 0
-7901 131 0
-7901 146 0
-116 -131 -146 7901 0
-7902 117 0
-7902 132 0
-7902 147 0
-117 -132 -147 7902 0
-7903 118 0
-7903 133 0
-7903 148 0
-118 -133 -148 7903 0
-7904 119 0
-7904 134 0
-7904 149 0
-119 -134 -149 7904 0
-7905 120 0
-7905 135 0
-7905 150 0
-120 -135 -150 7905 0
-7891 9130 0
-7892 9130 0
-7893 9130 0
-7894 9130 0
-7895 9130 0
-7896 9130 0
-7897 9130 0
-7898 9130 0
-7899 9130 0
-7900 9130 0
-7901 9130 0
-7902 9130 0
-7903 9130 0
-7904 9130 0
-7905 9130 0
-9130 7891 7892 7893 7894 7895 7896 7897 7898 7899 7900 7901 7902 7903 7904 7905 0
-7906 106 0
-7906 121 0
-7906 151 0
-106 -121 -151 7906 0
-7907 107 0
-7907 122 0
-7907 152 0
-107 -122 -152 7907 0
-7908 108 0
-7908 123 0
-7908 153 0
-108 -123 -153 7908 0
-7909 109 0
-7909 124 0
-7909 154 0
-109 -124 -154 7909 0
-7910 110 0
-7910 125 0
-7910 155 0
-110 -125 -155 7910 0
-7911 111 0
-7911 126 0
-7911 156 0
-111 -126 -156 7911 0
-7912 112 0
-7912 127 0
-7912 157 0
-112 -127 -157 7912 0
-7913 113 0
-7913 128 0
-7913 158 0
-113 -128 -158 7913 0
-7914 114 0
-7914 129 0
-7914 159 0
-114 -129 -159 7914 0
-7915 115 0
-7915 130 0
-7915 160 0
-115 -130 -160 7915 0
-7916 116 0
-7916 131 0
-7916 161 0
-116 -131 -161 7916 0
-7917 117 0
-7917 132 0
-7917 162 0
-117 -132 -162 7917 0
-7918 118 0
-7918 133 0
-7918 163 0
-118 -133 -163 7918 0
-7919 119 0
-7919 134 0
-7919 164 0
-119 -134 -164 7919 0
-7920 120 0
-7920 135 0
-7920 165 0
-120 -135 -165 7920 0
-7906 9131 0
-7907 9131 0
-7908 9131 0
-7909 9131 0
-7910 9131 0
-7911 9131 0
-7912 9131 0
-7913 9131 0
-7914 9131 0
-7915 9131 0
-7916 9131 0
-7917 9131 0
-7918 9131 0
-7919 9131 0
-7920 9131 0
-9131 7906 7907 7908 7909 7910 7911 7912 7913 7914 7915 7916 7917 7918 7919 7920 0
-7921 106 0
-7921 121 0
-7921 166 0
-106 -121 -166 7921 0
-7922 107 0
-7922 122 0
-7922 167 0
-107 -122 -167 7922 0
-7923 108 0
-7923 123 0
-7923 168 0
-108 -123 -168 7923 0
-7924 109 0
-7924 124 0
-7924 169 0
-109 -124 -169 7924 0
-7925 110 0
-7925 125 0
-7925 170 0
-110 -125 -170 7925 0
-7926 111 0
-7926 126 0
-7926 171 0
-111 -126 -171 7926 0
-7927 112 0
-7927 127 0
-7927 172 0
-112 -127 -172 7927 0
-7928 113 0
-7928 128 0
-7928 173 0
-113 -128 -173 7928 0
-7929 114 0
-7929 129 0
-7929 174 0
-114 -129 -174 7929 0
-7930 115 0
-7930 130 0
-7930 175 0
-115 -130 -175 7930 0
-7931 116 0
-7931 131 0
-7931 176 0
-116 -131 -176 7931 0
-7932 117 0
-7932 132 0
-7932 177 0
-117 -132 -177 7932 0
-7933 118 0
-7933 133 0
-7933 178 0
-118 -133 -178 7933 0
-7934 119 0
-7934 134 0
-7934 179 0
-119 -134 -179 7934 0
-7935 120 0
-7935 135 0
-7935 180 0
-120 -135 -180 7935 0
-7921 9132 0
-7922 9132 0
-7923 9132 0
-7924 9132 0
-7925 9132 0
-7926 9132 0
-7927 9132 0
-7928 9132 0
-7929 9132 0
-7930 9132 0
-7931 9132 0
-7932 9132 0
-7933 9132 0
-7934 9132 0
-7935 9132 0
-9132 7921 7922 7923 7924 7925 7926 7927 7928 7929 7930 7931 7932 7933 7934 7935 0
-7936 106 0
-7936 121 0
-7936 181 0
-106 -121 -181 7936 0
-7937 107 0
-7937 122 0
-7937 182 0
-107 -122 -182 7937 0
-7938 108 0
-7938 123 0
-7938 183 0
-108 -123 -183 7938 0
-7939 109 0
-7939 124 0
-7939 184 0
-109 -124 -184 7939 0
-7940 110 0
-7940 125 0
-7940 185 0
-110 -125 -185 7940 0
-7941 111 0
-7941 126 0
-7941 186 0
-111 -126 -186 7941 0
-7942 112 0
-7942 127 0
-7942 187 0
-112 -127 -187 7942 0
-7943 113 0
-7943 128 0
-7943 188 0
-113 -128 -188 7943 0
-7944 114 0
-7944 129 0
-7944 189 0
-114 -129 -189 7944 0
-7945 115 0
-7945 130 0
-7945 190 0
-115 -130 -190 7945 0
-7946 116 0
-7946 131 0
-7946 191 0
-116 -131 -191 7946 0
-7947 117 0
-7947 132 0
-7947 192 0
-117 -132 -192 7947 0
-7948 118 0
-7948 133 0
-7948 193 0
-118 -133 -193 7948 0
-7949 119 0
-7949 134 0
-7949 194 0
-119 -134 -194 7949 0
-7950 120 0
-7950 135 0
-7950 195 0
-120 -135 -195 7950 0
-7936 9133 0
-7937 9133 0
-7938 9133 0
-7939 9133 0
-7940 9133 0
-7941 9133 0
-7942 9133 0
-7943 9133 0
-7944 9133 0
-7945 9133 0
-7946 9133 0
-7947 9133 0
-7948 9133 0
-7949 9133 0
-7950 9133 0
-9133 7936 7937 7938 7939 7940 7941 7942 7943 7944 7945 7946 7947 7948 7949 7950 0
-7951 106 0
-7951 121 0
-7951 196 0
-106 -121 -196 7951 0
-7952 107 0
-7952 122 0
-7952 197 0
-107 -122 -197 7952 0
-7953 108 0
-7953 123 0
-7953 198 0
-108 -123 -198 7953 0
-7954 109 0
-7954 124 0
-7954 199 0
-109 -124 -199 7954 0
-7955 110 0
-7955 125 0
-7955 200 0
-110 -125 -200 7955 0
-7956 111 0
-7956 126 0
-7956 201 0
-111 -126 -201 7956 0
-7957 112 0
-7957 127 0
-7957 202 0
-112 -127 -202 7957 0
-7958 113 0
-7958 128 0
-7958 203 0
-113 -128 -203 7958 0
-7959 114 0
-7959 129 0
-7959 204 0
-114 -129 -204 7959 0
-7960 115 0
-7960 130 0
-7960 205 0
-115 -130 -205 7960 0
-7961 116 0
-7961 131 0
-7961 206 0
-116 -131 -206 7961 0
-7962 117 0
-7962 132 0
-7962 207 0
-117 -132 -207 7962 0
-7963 118 0
-7963 133 0
-7963 208 0
-118 -133 -208 7963 0
-7964 119 0
-7964 134 0
-7964 209 0
-119 -134 -209 7964 0
-7965 120 0
-7965 135 0
-7965 210 0
-120 -135 -210 7965 0
-7951 9134 0
-7952 9134 0
-7953 9134 0
-7954 9134 0
-7955 9134 0
-7956 9134 0
-7957 9134 0
-7958 9134 0
-7959 9134 0
-7960 9134 0
-7961 9134 0
-7962 9134 0
-7963 9134 0
-7964 9134 0
-7965 9134 0
-9134 7951 7952 7953 7954 7955 7956 7957 7958 7959 7960 7961 7962 7963 7964 7965 0
-7966 106 0
-7966 121 0
-7966 211 0
-106 -121 -211 7966 0
-7967 107 0
-7967 122 0
-7967 212 0
-107 -122 -212 7967 0
-7968 108 0
-7968 123 0
-7968 213 0
-108 -123 -213 7968 0
-7969 109 0
-7969 124 0
-7969 214 0
-109 -124 -214 7969 0
-7970 110 0
-7970 125 0
-7970 215 0
-110 -125 -215 7970 0
-7971 111 0
-7971 126 0
-7971 216 0
-111 -126 -216 7971 0
-7972 112 0
-7972 127 0
-7972 217 0
-112 -127 -217 7972 0
-7973 113 0
-7973 128 0
-7973 218 0
-113 -128 -218 7973 0
-7974 114 0
-7974 129 0
-7974 219 0
-114 -129 -219 7974 0
-7975 115 0
-7975 130 0
-7975 220 0
-115 -130 -220 7975 0
-7976 116 0
-7976 131 0
-7976 221 0
-116 -131 -221 7976 0
-7977 117 0
-7977 132 0
-7977 222 0
-117 -132 -222 7977 0
-7978 118 0
-7978 133 0
-7978 223 0
-118 -133 -223 7978 0
-7979 119 0
-7979 134 0
-7979 224 0
-119 -134 -224 7979 0
-7980 120 0
-7980 135 0
-7980 225 0
-120 -135 -225 7980 0
-7966 9135 0
-7967 9135 0
-7968 9135 0
-7969 9135 0
-7970 9135 0
-7971 9135 0
-7972 9135 0
-7973 9135 0
-7974 9135 0
-7975 9135 0
-7976 9135 0
-7977 9135 0
-7978 9135 0
-7979 9135 0
-7980 9135 0
-9135 7966 7967 7968 7969 7970 7971 7972 7973 7974 7975 7976 7977 7978 7979 7980 0
-7981 106 0
-7981 136 0
-7981 151 0
-106 -136 -151 7981 0
-7982 107 0
-7982 137 0
-7982 152 0
-107 -137 -152 7982 0
-7983 108 0
-7983 138 0
-7983 153 0
-108 -138 -153 7983 0
-7984 109 0
-7984 139 0
-7984 154 0
-109 -139 -154 7984 0
-7985 110 0
-7985 140 0
-7985 155 0
-110 -140 -155 7985 0
-7986 111 0
-7986 141 0
-7986 156 0
-111 -141 -156 7986 0
-7987 112 0
-7987 142 0
-7987 157 0
-112 -142 -157 7987 0
-7988 113 0
-7988 143 0
-7988 158 0
-113 -143 -158 7988 0
-7989 114 0
-7989 144 0
-7989 159 0
-114 -144 -159 7989 0
-7990 115 0
-7990 145 0
-7990 160 0
-115 -145 -160 7990 0
-7991 116 0
-7991 146 0
-7991 161 0
-116 -146 -161 7991 0
-7992 117 0
-7992 147 0
-7992 162 0
-117 -147 -162 7992 0
-7993 118 0
-7993 148 0
-7993 163 0
-118 -148 -163 7993 0
-7994 119 0
-7994 149 0
-7994 164 0
-119 -149 -164 7994 0
-7995 120 0
-7995 150 0
-7995 165 0
-120 -150 -165 7995 0
-7981 9136 0
-7982 9136 0
-7983 9136 0
-7984 9136 0
-7985 9136 0
-7986 9136 0
-7987 9136 0
-7988 9136 0
-7989 9136 0
-7990 9136 0
-7991 9136 0
-7992 9136 0
-7993 9136 0
-7994 9136 0
-7995 9136 0
-9136 7981 7982 7983 7984 7985 7986 7987 7988 7989 7990 7991 7992 7993 7994 7995 0
-7996 106 0
-7996 136 0
-7996 166 0
-106 -136 -166 7996 0
-7997 107 0
-7997 137 0
-7997 167 0
-107 -137 -167 7997 0
-7998 108 0
-7998 138 0
-7998 168 0
-108 -138 -168 7998 0
-7999 109 0
-7999 139 0
-7999 169 0
-109 -139 -169 7999 0
-8000 110 0
-8000 140 0
-8000 170 0
-110 -140 -170 8000 0
-8001 111 0
-8001 141 0
-8001 171 0
-111 -141 -171 8001 0
-8002 112 0
-8002 142 0
-8002 172 0
-112 -142 -172 8002 0
-8003 113 0
-8003 143 0
-8003 173 0
-113 -143 -173 8003 0
-8004 114 0
-8004 144 0
-8004 174 0
-114 -144 -174 8004 0
-8005 115 0
-8005 145 0
-8005 175 0
-115 -145 -175 8005 0
-8006 116 0
-8006 146 0
-8006 176 0
-116 -146 -176 8006 0
-8007 117 0
-8007 147 0
-8007 177 0
-117 -147 -177 8007 0
-8008 118 0
-8008 148 0
-8008 178 0
-118 -148 -178 8008 0
-8009 119 0
-8009 149 0
-8009 179 0
-119 -149 -179 8009 0
-8010 120 0
-8010 150 0
-8010 180 0
-120 -150 -180 8010 0
-7996 9137 0
-7997 9137 0
-7998 9137 0
-7999 9137 0
-8000 9137 0
-8001 9137 0
-8002 9137 0
-8003 9137 0
-8004 9137 0
-8005 9137 0
-8006 9137 0
-8007 9137 0
-8008 9137 0
-8009 9137 0
-8010 9137 0
-9137 7996 7997 7998 7999 8000 8001 8002 8003 8004 8005 8006 8007 8008 8009 8010 0
-8011 106 0
-8011 136 0
-8011 181 0
-106 -136 -181 8011 0
-8012 107 0
-8012 137 0
-8012 182 0
-107 -137 -182 8012 0
-8013 108 0
-8013 138 0
-8013 183 0
-108 -138 -183 8013 0
-8014 109 0
-8014 139 0
-8014 184 0
-109 -139 -184 8014 0
-8015 110 0
-8015 140 0
-8015 185 0
-110 -140 -185 8015 0
-8016 111 0
-8016 141 0
-8016 186 0
-111 -141 -186 8016 0
-8017 112 0
-8017 142 0
-8017 187 0
-112 -142 -187 8017 0
-8018 113 0
-8018 143 0
-8018 188 0
-113 -143 -188 8018 0
-8019 114 0
-8019 144 0
-8019 189 0
-114 -144 -189 8019 0
-8020 115 0
-8020 145 0
-8020 190 0
-115 -145 -190 8020 0
-8021 116 0
-8021 146 0
-8021 191 0
-116 -146 -191 8021 0
-8022 117 0
-8022 147 0
-8022 192 0
-117 -147 -192 8022 0
-8023 118 0
-8023 148 0
-8023 193 0
-118 -148 -193 8023 0
-8024 119 0
-8024 149 0
-8024 194 0
-119 -149 -194 8024 0
-8025 120 0
-8025 150 0
-8025 195 0
-120 -150 -195 8025 0
-8011 9138 0
-8012 9138 0
-8013 9138 0
-8014 9138 0
-8015 9138 0
-8016 9138 0
-8017 9138 0
-8018 9138 0
-8019 9138 0
-8020 9138 0
-8021 9138 0
-8022 9138 0
-8023 9138 0
-8024 9138 0
-8025 9138 0
-9138 8011 8012 8013 8014 8015 8016 8017 8018 8019 8020 8021 8022 8023 8024 8025 0
-8026 106 0
-8026 136 0
-8026 196 0
-106 -136 -196 8026 0
-8027 107 0
-8027 137 0
-8027 197 0
-107 -137 -197 8027 0
-8028 108 0
-8028 138 0
-8028 198 0
-108 -138 -198 8028 0
-8029 109 0
-8029 139 0
-8029 199 0
-109 -139 -199 8029 0
-8030 110 0
-8030 140 0
-8030 200 0
-110 -140 -200 8030 0
-8031 111 0
-8031 141 0
-8031 201 0
-111 -141 -201 8031 0
-8032 112 0
-8032 142 0
-8032 202 0
-112 -142 -202 8032 0
-8033 113 0
-8033 143 0
-8033 203 0
-113 -143 -203 8033 0
-8034 114 0
-8034 144 0
-8034 204 0
-114 -144 -204 8034 0
-8035 115 0
-8035 145 0
-8035 205 0
-115 -145 -205 8035 0
-8036 116 0
-8036 146 0
-8036 206 0
-116 -146 -206 8036 0
-8037 117 0
-8037 147 0
-8037 207 0
-117 -147 -207 8037 0
-8038 118 0
-8038 148 0
-8038 208 0
-118 -148 -208 8038 0
-8039 119 0
-8039 149 0
-8039 209 0
-119 -149 -209 8039 0
-8040 120 0
-8040 150 0
-8040 210 0
-120 -150 -210 8040 0
-8026 9139 0
-8027 9139 0
-8028 9139 0
-8029 9139 0
-8030 9139 0
-8031 9139 0
-8032 9139 0
-8033 9139 0
-8034 9139 0
-8035 9139 0
-8036 9139 0
-8037 9139 0
-8038 9139 0
-8039 9139 0
-8040 9139 0
-9139 8026 8027 8028 8029 8030 8031 8032 8033 8034 8035 8036 8037 8038 8039 8040 0
-8041 106 0
-8041 136 0
-8041 211 0
-106 -136 -211 8041 0
-8042 107 0
-8042 137 0
-8042 212 0
-107 -137 -212 8042 0
-8043 108 0
-8043 138 0
-8043 213 0
-108 -138 -213 8043 0
-8044 109 0
-8044 139 0
-8044 214 0
-109 -139 -214 8044 0
-8045 110 0
-8045 140 0
-8045 215 0
-110 -140 -215 8045 0
-8046 111 0
-8046 141 0
-8046 216 0
-111 -141 -216 8046 0
-8047 112 0
-8047 142 0
-8047 217 0
-112 -142 -217 8047 0
-8048 113 0
-8048 143 0
-8048 218 0
-113 -143 -218 8048 0
-8049 114 0
-8049 144 0
-8049 219 0
-114 -144 -219 8049 0
-8050 115 0
-8050 145 0
-8050 220 0
-115 -145 -220 8050 0
-8051 116 0
-8051 146 0
-8051 221 0
-116 -146 -221 8051 0
-8052 117 0
-8052 147 0
-8052 222 0
-117 -147 -222 8052 0
-8053 118 0
-8053 148 0
-8053 223 0
-118 -148 -223 8053 0
-8054 119 0
-8054 149 0
-8054 224 0
-119 -149 -224 8054 0
-8055 120 0
-8055 150 0
-8055 225 0
-120 -150 -225 8055 0
-8041 9140 0
-8042 9140 0
-8043 9140 0
-8044 9140 0
-8045 9140 0
-8046 9140 0
-8047 9140 0
-8048 9140 0
-8049 9140 0
-8050 9140 0
-8051 9140 0
-8052 9140 0
-8053 9140 0
-8054 9140 0
-8055 9140 0
-9140 8041 8042 8043 8044 8045 8046 8047 8048 8049 8050 8051 8052 8053 8054 8055 0
-8056 106 0
-8056 151 0
-8056 166 0
-106 -151 -166 8056 0
-8057 107 0
-8057 152 0
-8057 167 0
-107 -152 -167 8057 0
-8058 108 0
-8058 153 0
-8058 168 0
-108 -153 -168 8058 0
-8059 109 0
-8059 154 0
-8059 169 0
-109 -154 -169 8059 0
-8060 110 0
-8060 155 0
-8060 170 0
-110 -155 -170 8060 0
-8061 111 0
-8061 156 0
-8061 171 0
-111 -156 -171 8061 0
-8062 112 0
-8062 157 0
-8062 172 0
-112 -157 -172 8062 0
-8063 113 0
-8063 158 0
-8063 173 0
-113 -158 -173 8063 0
-8064 114 0
-8064 159 0
-8064 174 0
-114 -159 -174 8064 0
-8065 115 0
-8065 160 0
-8065 175 0
-115 -160 -175 8065 0
-8066 116 0
-8066 161 0
-8066 176 0
-116 -161 -176 8066 0
-8067 117 0
-8067 162 0
-8067 177 0
-117 -162 -177 8067 0
-8068 118 0
-8068 163 0
-8068 178 0
-118 -163 -178 8068 0
-8069 119 0
-8069 164 0
-8069 179 0
-119 -164 -179 8069 0
-8070 120 0
-8070 165 0
-8070 180 0
-120 -165 -180 8070 0
-8056 9141 0
-8057 9141 0
-8058 9141 0
-8059 9141 0
-8060 9141 0
-8061 9141 0
-8062 9141 0
-8063 9141 0
-8064 9141 0
-8065 9141 0
-8066 9141 0
-8067 9141 0
-8068 9141 0
-8069 9141 0
-8070 9141 0
-9141 8056 8057 8058 8059 8060 8061 8062 8063 8064 8065 8066 8067 8068 8069 8070 0
-8071 106 0
-8071 151 0
-8071 181 0
-106 -151 -181 8071 0
-8072 107 0
-8072 152 0
-8072 182 0
-107 -152 -182 8072 0
-8073 108 0
-8073 153 0
-8073 183 0
-108 -153 -183 8073 0
-8074 109 0
-8074 154 0
-8074 184 0
-109 -154 -184 8074 0
-8075 110 0
-8075 155 0
-8075 185 0
-110 -155 -185 8075 0
-8076 111 0
-8076 156 0
-8076 186 0
-111 -156 -186 8076 0
-8077 112 0
-8077 157 0
-8077 187 0
-112 -157 -187 8077 0
-8078 113 0
-8078 158 0
-8078 188 0
-113 -158 -188 8078 0
-8079 114 0
-8079 159 0
-8079 189 0
-114 -159 -189 8079 0
-8080 115 0
-8080 160 0
-8080 190 0
-115 -160 -190 8080 0
-8081 116 0
-8081 161 0
-8081 191 0
-116 -161 -191 8081 0
-8082 117 0
-8082 162 0
-8082 192 0
-117 -162 -192 8082 0
-8083 118 0
-8083 163 0
-8083 193 0
-118 -163 -193 8083 0
-8084 119 0
-8084 164 0
-8084 194 0
-119 -164 -194 8084 0
-8085 120 0
-8085 165 0
-8085 195 0
-120 -165 -195 8085 0
-8071 9142 0
-8072 9142 0
-8073 9142 0
-8074 9142 0
-8075 9142 0
-8076 9142 0
-8077 9142 0
-8078 9142 0
-8079 9142 0
-8080 9142 0
-8081 9142 0
-8082 9142 0
-8083 9142 0
-8084 9142 0
-8085 9142 0
-9142 8071 8072 8073 8074 8075 8076 8077 8078 8079 8080 8081 8082 8083 8084 8085 0
-8086 106 0
-8086 151 0
-8086 196 0
-106 -151 -196 8086 0
-8087 107 0
-8087 152 0
-8087 197 0
-107 -152 -197 8087 0
-8088 108 0
-8088 153 0
-8088 198 0
-108 -153 -198 8088 0
-8089 109 0
-8089 154 0
-8089 199 0
-109 -154 -199 8089 0
-8090 110 0
-8090 155 0
-8090 200 0
-110 -155 -200 8090 0
-8091 111 0
-8091 156 0
-8091 201 0
-111 -156 -201 8091 0
-8092 112 0
-8092 157 0
-8092 202 0
-112 -157 -202 8092 0
-8093 113 0
-8093 158 0
-8093 203 0
-113 -158 -203 8093 0
-8094 114 0
-8094 159 0
-8094 204 0
-114 -159 -204 8094 0
-8095 115 0
-8095 160 0
-8095 205 0
-115 -160 -205 8095 0
-8096 116 0
-8096 161 0
-8096 206 0
-116 -161 -206 8096 0
-8097 117 0
-8097 162 0
-8097 207 0
-117 -162 -207 8097 0
-8098 118 0
-8098 163 0
-8098 208 0
-118 -163 -208 8098 0
-8099 119 0
-8099 164 0
-8099 209 0
-119 -164 -209 8099 0
-8100 120 0
-8100 165 0
-8100 210 0
-120 -165 -210 8100 0
-8086 9143 0
-8087 9143 0
-8088 9143 0
-8089 9143 0
-8090 9143 0
-8091 9143 0
-8092 9143 0
-8093 9143 0
-8094 9143 0
-8095 9143 0
-8096 9143 0
-8097 9143 0
-8098 9143 0
-8099 9143 0
-8100 9143 0
-9143 8086 8087 8088 8089 8090 8091 8092 8093 8094 8095 8096 8097 8098 8099 8100 0
-8101 106 0
-8101 151 0
-8101 211 0
-106 -151 -211 8101 0
-8102 107 0
-8102 152 0
-8102 212 0
-107 -152 -212 8102 0
-8103 108 0
-8103 153 0
-8103 213 0
-108 -153 -213 8103 0
-8104 109 0
-8104 154 0
-8104 214 0
-109 -154 -214 8104 0
-8105 110 0
-8105 155 0
-8105 215 0
-110 -155 -215 8105 0
-8106 111 0
-8106 156 0
-8106 216 0
-111 -156 -216 8106 0
-8107 112 0
-8107 157 0
-8107 217 0
-112 -157 -217 8107 0
-8108 113 0
-8108 158 0
-8108 218 0
-113 -158 -218 8108 0
-8109 114 0
-8109 159 0
-8109 219 0
-114 -159 -219 8109 0
-8110 115 0
-8110 160 0
-8110 220 0
-115 -160 -220 8110 0
-8111 116 0
-8111 161 0
-8111 221 0
-116 -161 -221 8111 0
-8112 117 0
-8112 162 0
-8112 222 0
-117 -162 -222 8112 0
-8113 118 0
-8113 163 0
-8113 223 0
-118 -163 -223 8113 0
-8114 119 0
-8114 164 0
-8114 224 0
-119 -164 -224 8114 0
-8115 120 0
-8115 165 0
-8115 225 0
-120 -165 -225 8115 0
-8101 9144 0
-8102 9144 0
-8103 9144 0
-8104 9144 0
-8105 9144 0
-8106 9144 0
-8107 9144 0
-8108 9144 0
-8109 9144 0
-8110 9144 0
-8111 9144 0
-8112 9144 0
-8113 9144 0
-8114 9144 0
-8115 9144 0
-9144 8101 8102 8103 8104 8105 8106 8107 8108 8109 8110 8111 8112 8113 8114 8115 0
-8116 106 0
-8116 166 0
-8116 181 0
-106 -166 -181 8116 0
-8117 107 0
-8117 167 0
-8117 182 0
-107 -167 -182 8117 0
-8118 108 0
-8118 168 0
-8118 183 0
-108 -168 -183 8118 0
-8119 109 0
-8119 169 0
-8119 184 0
-109 -169 -184 8119 0
-8120 110 0
-8120 170 0
-8120 185 0
-110 -170 -185 8120 0
-8121 111 0
-8121 171 0
-8121 186 0
-111 -171 -186 8121 0
-8122 112 0
-8122 172 0
-8122 187 0
-112 -172 -187 8122 0
-8123 113 0
-8123 173 0
-8123 188 0
-113 -173 -188 8123 0
-8124 114 0
-8124 174 0
-8124 189 0
-114 -174 -189 8124 0
-8125 115 0
-8125 175 0
-8125 190 0
-115 -175 -190 8125 0
-8126 116 0
-8126 176 0
-8126 191 0
-116 -176 -191 8126 0
-8127 117 0
-8127 177 0
-8127 192 0
-117 -177 -192 8127 0
-8128 118 0
-8128 178 0
-8128 193 0
-118 -178 -193 8128 0
-8129 119 0
-8129 179 0
-8129 194 0
-119 -179 -194 8129 0
-8130 120 0
-8130 180 0
-8130 195 0
-120 -180 -195 8130 0
-8116 9145 0
-8117 9145 0
-8118 9145 0
-8119 9145 0
-8120 9145 0
-8121 9145 0
-8122 9145 0
-8123 9145 0
-8124 9145 0
-8125 9145 0
-8126 9145 0
-8127 9145 0
-8128 9145 0
-8129 9145 0
-8130 9145 0
-9145 8116 8117 8118 8119 8120 8121 8122 8123 8124 8125 8126 8127 8128 8129 8130 0
-8131 106 0
-8131 166 0
-8131 196 0
-106 -166 -196 8131 0
-8132 107 0
-8132 167 0
-8132 197 0
-107 -167 -197 8132 0
-8133 108 0
-8133 168 0
-8133 198 0
-108 -168 -198 8133 0
-8134 109 0
-8134 169 0
-8134 199 0
-109 -169 -199 8134 0
-8135 110 0
-8135 170 0
-8135 200 0
-110 -170 -200 8135 0
-8136 111 0
-8136 171 0
-8136 201 0
-111 -171 -201 8136 0
-8137 112 0
-8137 172 0
-8137 202 0
-112 -172 -202 8137 0
-8138 113 0
-8138 173 0
-8138 203 0
-113 -173 -203 8138 0
-8139 114 0
-8139 174 0
-8139 204 0
-114 -174 -204 8139 0
-8140 115 0
-8140 175 0
-8140 205 0
-115 -175 -205 8140 0
-8141 116 0
-8141 176 0
-8141 206 0
-116 -176 -206 8141 0
-8142 117 0
-8142 177 0
-8142 207 0
-117 -177 -207 8142 0
-8143 118 0
-8143 178 0
-8143 208 0
-118 -178 -208 8143 0
-8144 119 0
-8144 179 0
-8144 209 0
-119 -179 -209 8144 0
-8145 120 0
-8145 180 0
-8145 210 0
-120 -180 -210 8145 0
-8131 9146 0
-8132 9146 0
-8133 9146 0
-8134 9146 0
-8135 9146 0
-8136 9146 0
-8137 9146 0
-8138 9146 0
-8139 9146 0
-8140 9146 0
-8141 9146 0
-8142 9146 0
-8143 9146 0
-8144 9146 0
-8145 9146 0
-9146 8131 8132 8133 8134 8135 8136 8137 8138 8139 8140 8141 8142 8143 8144 8145 0
-8146 106 0
-8146 166 0
-8146 211 0
-106 -166 -211 8146 0
-8147 107 0
-8147 167 0
-8147 212 0
-107 -167 -212 8147 0
-8148 108 0
-8148 168 0
-8148 213 0
-108 -168 -213 8148 0
-8149 109 0
-8149 169 0
-8149 214 0
-109 -169 -214 8149 0
-8150 110 0
-8150 170 0
-8150 215 0
-110 -170 -215 8150 0
-8151 111 0
-8151 171 0
-8151 216 0
-111 -171 -216 8151 0
-8152 112 0
-8152 172 0
-8152 217 0
-112 -172 -217 8152 0
-8153 113 0
-8153 173 0
-8153 218 0
-113 -173 -218 8153 0
-8154 114 0
-8154 174 0
-8154 219 0
-114 -174 -219 8154 0
-8155 115 0
-8155 175 0
-8155 220 0
-115 -175 -220 8155 0
-8156 116 0
-8156 176 0
-8156 221 0
-116 -176 -221 8156 0
-8157 117 0
-8157 177 0
-8157 222 0
-117 -177 -222 8157 0
-8158 118 0
-8158 178 0
-8158 223 0
-118 -178 -223 8158 0
-8159 119 0
-8159 179 0
-8159 224 0
-119 -179 -224 8159 0
-8160 120 0
-8160 180 0
-8160 225 0
-120 -180 -225 8160 0
-8146 9147 0
-8147 9147 0
-8148 9147 0
-8149 9147 0
-8150 9147 0
-8151 9147 0
-8152 9147 0
-8153 9147 0
-8154 9147 0
-8155 9147 0
-8156 9147 0
-8157 9147 0
-8158 9147 0
-8159 9147 0
-8160 9147 0
-9147 8146 8147 8148 8149 8150 8151 8152 8153 8154 8155 8156 8157 8158 8159 8160 0
-8161 106 0
-8161 181 0
-8161 196 0
-106 -181 -196 8161 0
-8162 107 0
-8162 182 0
-8162 197 0
-107 -182 -197 8162 0
-8163 108 0
-8163 183 0
-8163 198 0
-108 -183 -198 8163 0
-8164 109 0
-8164 184 0
-8164 199 0
-109 -184 -199 8164 0
-8165 110 0
-8165 185 0
-8165 200 0
-110 -185 -200 8165 0
-8166 111 0
-8166 186 0
-8166 201 0
-111 -186 -201 8166 0
-8167 112 0
-8167 187 0
-8167 202 0
-112 -187 -202 8167 0
-8168 113 0
-8168 188 0
-8168 203 0
-113 -188 -203 8168 0
-8169 114 0
-8169 189 0
-8169 204 0
-114 -189 -204 8169 0
-8170 115 0
-8170 190 0
-8170 205 0
-115 -190 -205 8170 0
-8171 116 0
-8171 191 0
-8171 206 0
-116 -191 -206 8171 0
-8172 117 0
-8172 192 0
-8172 207 0
-117 -192 -207 8172 0
-8173 118 0
-8173 193 0
-8173 208 0
-118 -193 -208 8173 0
-8174 119 0
-8174 194 0
-8174 209 0
-119 -194 -209 8174 0
-8175 120 0
-8175 195 0
-8175 210 0
-120 -195 -210 8175 0
-8161 9148 0
-8162 9148 0
-8163 9148 0
-8164 9148 0
-8165 9148 0
-8166 9148 0
-8167 9148 0
-8168 9148 0
-8169 9148 0
-8170 9148 0
-8171 9148 0
-8172 9148 0
-8173 9148 0
-8174 9148 0
-8175 9148 0
-9148 8161 8162 8163 8164 8165 8166 8167 8168 8169 8170 8171 8172 8173 8174 8175 0
-8176 106 0
-8176 181 0
-8176 211 0
-106 -181 -211 8176 0
-8177 107 0
-8177 182 0
-8177 212 0
-107 -182 -212 8177 0
-8178 108 0
-8178 183 0
-8178 213 0
-108 -183 -213 8178 0
-8179 109 0
-8179 184 0
-8179 214 0
-109 -184 -214 8179 0
-8180 110 0
-8180 185 0
-8180 215 0
-110 -185 -215 8180 0
-8181 111 0
-8181 186 0
-8181 216 0
-111 -186 -216 8181 0
-8182 112 0
-8182 187 0
-8182 217 0
-112 -187 -217 8182 0
-8183 113 0
-8183 188 0
-8183 218 0
-113 -188 -218 8183 0
-8184 114 0
-8184 189 0
-8184 219 0
-114 -189 -219 8184 0
-8185 115 0
-8185 190 0
-8185 220 0
-115 -190 -220 8185 0
-8186 116 0
-8186 191 0
-8186 221 0
-116 -191 -221 8186 0
-8187 117 0
-8187 192 0
-8187 222 0
-117 -192 -222 8187 0
-8188 118 0
-8188 193 0
-8188 223 0
-118 -193 -223 8188 0
-8189 119 0
-8189 194 0
-8189 224 0
-119 -194 -224 8189 0
-8190 120 0
-8190 195 0
-8190 225 0
-120 -195 -225 8190 0
-8176 9149 0
-8177 9149 0
-8178 9149 0
-8179 9149 0
-8180 9149 0
-8181 9149 0
-8182 9149 0
-8183 9149 0
-8184 9149 0
-8185 9149 0
-8186 9149 0
-8187 9149 0
-8188 9149 0
-8189 9149 0
-8190 9149 0
-9149 8176 8177 8178 8179 8180 8181 8182 8183 8184 8185 8186 8187 8188 8189 8190 0
-8191 106 0
-8191 196 0
-8191 211 0
-106 -196 -211 8191 0
-8192 107 0
-8192 197 0
-8192 212 0
-107 -197 -212 8192 0
-8193 108 0
-8193 198 0
-8193 213 0
-108 -198 -213 8193 0
-8194 109 0
-8194 199 0
-8194 214 0
-109 -199 -214 8194 0
-8195 110 0
-8195 200 0
-8195 215 0
-110 -200 -215 8195 0
-8196 111 0
-8196 201 0
-8196 216 0
-111 -201 -216 8196 0
-8197 112 0
-8197 202 0
-8197 217 0
-112 -202 -217 8197 0
-8198 113 0
-8198 203 0
-8198 218 0
-113 -203 -218 8198 0
-8199 114 0
-8199 204 0
-8199 219 0
-114 -204 -219 8199 0
-8200 115 0
-8200 205 0
-8200 220 0
-115 -205 -220 8200 0
-8201 116 0
-8201 206 0
-8201 221 0
-116 -206 -221 8201 0
-8202 117 0
-8202 207 0
-8202 222 0
-117 -207 -222 8202 0
-8203 118 0
-8203 208 0
-8203 223 0
-118 -208 -223 8203 0
-8204 119 0
-8204 209 0
-8204 224 0
-119 -209 -224 8204 0
-8205 120 0
-8205 210 0
-8205 225 0
-120 -210 -225 8205 0
-8191 9150 0
-8192 9150 0
-8193 9150 0
-8194 9150 0
-8195 9150 0
-8196 9150 0
-8197 9150 0
-8198 9150 0
-8199 9150 0
-8200 9150 0
-8201 9150 0
-8202 9150 0
-8203 9150 0
-8204 9150 0
-8205 9150 0
-9150 8191 8192 8193 8194 8195 8196 8197 8198 8199 8200 8201 8202 8203 8204 8205 0
-8206 121 0
-8206 136 0
-8206 151 0
-121 -136 -151 8206 0
-8207 122 0
-8207 137 0
-8207 152 0
-122 -137 -152 8207 0
-8208 123 0
-8208 138 0
-8208 153 0
-123 -138 -153 8208 0
-8209 124 0
-8209 139 0
-8209 154 0
-124 -139 -154 8209 0
-8210 125 0
-8210 140 0
-8210 155 0
-125 -140 -155 8210 0
-8211 126 0
-8211 141 0
-8211 156 0
-126 -141 -156 8211 0
-8212 127 0
-8212 142 0
-8212 157 0
-127 -142 -157 8212 0
-8213 128 0
-8213 143 0
-8213 158 0
-128 -143 -158 8213 0
-8214 129 0
-8214 144 0
-8214 159 0
-129 -144 -159 8214 0
-8215 130 0
-8215 145 0
-8215 160 0
-130 -145 -160 8215 0
-8216 131 0
-8216 146 0
-8216 161 0
-131 -146 -161 8216 0
-8217 132 0
-8217 147 0
-8217 162 0
-132 -147 -162 8217 0
-8218 133 0
-8218 148 0
-8218 163 0
-133 -148 -163 8218 0
-8219 134 0
-8219 149 0
-8219 164 0
-134 -149 -164 8219 0
-8220 135 0
-8220 150 0
-8220 165 0
-135 -150 -165 8220 0
-8206 9151 0
-8207 9151 0
-8208 9151 0
-8209 9151 0
-8210 9151 0
-8211 9151 0
-8212 9151 0
-8213 9151 0
-8214 9151 0
-8215 9151 0
-8216 9151 0
-8217 9151 0
-8218 9151 0
-8219 9151 0
-8220 9151 0
-9151 8206 8207 8208 8209 8210 8211 8212 8213 8214 8215 8216 8217 8218 8219 8220 0
-8221 121 0
-8221 136 0
-8221 166 0
-121 -136 -166 8221 0
-8222 122 0
-8222 137 0
-8222 167 0
-122 -137 -167 8222 0
-8223 123 0
-8223 138 0
-8223 168 0
-123 -138 -168 8223 0
-8224 124 0
-8224 139 0
-8224 169 0
-124 -139 -169 8224 0
-8225 125 0
-8225 140 0
-8225 170 0
-125 -140 -170 8225 0
-8226 126 0
-8226 141 0
-8226 171 0
-126 -141 -171 8226 0
-8227 127 0
-8227 142 0
-8227 172 0
-127 -142 -172 8227 0
-8228 128 0
-8228 143 0
-8228 173 0
-128 -143 -173 8228 0
-8229 129 0
-8229 144 0
-8229 174 0
-129 -144 -174 8229 0
-8230 130 0
-8230 145 0
-8230 175 0
-130 -145 -175 8230 0
-8231 131 0
-8231 146 0
-8231 176 0
-131 -146 -176 8231 0
-8232 132 0
-8232 147 0
-8232 177 0
-132 -147 -177 8232 0
-8233 133 0
-8233 148 0
-8233 178 0
-133 -148 -178 8233 0
-8234 134 0
-8234 149 0
-8234 179 0
-134 -149 -179 8234 0
-8235 135 0
-8235 150 0
-8235 180 0
-135 -150 -180 8235 0
-8221 9152 0
-8222 9152 0
-8223 9152 0
-8224 9152 0
-8225 9152 0
-8226 9152 0
-8227 9152 0
-8228 9152 0
-8229 9152 0
-8230 9152 0
-8231 9152 0
-8232 9152 0
-8233 9152 0
-8234 9152 0
-8235 9152 0
-9152 8221 8222 8223 8224 8225 8226 8227 8228 8229 8230 8231 8232 8233 8234 8235 0
-8236 121 0
-8236 136 0
-8236 181 0
-121 -136 -181 8236 0
-8237 122 0
-8237 137 0
-8237 182 0
-122 -137 -182 8237 0
-8238 123 0
-8238 138 0
-8238 183 0
-123 -138 -183 8238 0
-8239 124 0
-8239 139 0
-8239 184 0
-124 -139 -184 8239 0
-8240 125 0
-8240 140 0
-8240 185 0
-125 -140 -185 8240 0
-8241 126 0
-8241 141 0
-8241 186 0
-126 -141 -186 8241 0
-8242 127 0
-8242 142 0
-8242 187 0
-127 -142 -187 8242 0
-8243 128 0
-8243 143 0
-8243 188 0
-128 -143 -188 8243 0
-8244 129 0
-8244 144 0
-8244 189 0
-129 -144 -189 8244 0
-8245 130 0
-8245 145 0
-8245 190 0
-130 -145 -190 8245 0
-8246 131 0
-8246 146 0
-8246 191 0
-131 -146 -191 8246 0
-8247 132 0
-8247 147 0
-8247 192 0
-132 -147 -192 8247 0
-8248 133 0
-8248 148 0
-8248 193 0
-133 -148 -193 8248 0
-8249 134 0
-8249 149 0
-8249 194 0
-134 -149 -194 8249 0
-8250 135 0
-8250 150 0
-8250 195 0
-135 -150 -195 8250 0
-8236 9153 0
-8237 9153 0
-8238 9153 0
-8239 9153 0
-8240 9153 0
-8241 9153 0
-8242 9153 0
-8243 9153 0
-8244 9153 0
-8245 9153 0
-8246 9153 0
-8247 9153 0
-8248 9153 0
-8249 9153 0
-8250 9153 0
-9153 8236 8237 8238 8239 8240 8241 8242 8243 8244 8245 8246 8247 8248 8249 8250 0
-8251 121 0
-8251 136 0
-8251 196 0
-121 -136 -196 8251 0
-8252 122 0
-8252 137 0
-8252 197 0
-122 -137 -197 8252 0
-8253 123 0
-8253 138 0
-8253 198 0
-123 -138 -198 8253 0
-8254 124 0
-8254 139 0
-8254 199 0
-124 -139 -199 8254 0
-8255 125 0
-8255 140 0
-8255 200 0
-125 -140 -200 8255 0
-8256 126 0
-8256 141 0
-8256 201 0
-126 -141 -201 8256 0
-8257 127 0
-8257 142 0
-8257 202 0
-127 -142 -202 8257 0
-8258 128 0
-8258 143 0
-8258 203 0
-128 -143 -203 8258 0
-8259 129 0
-8259 144 0
-8259 204 0
-129 -144 -204 8259 0
-8260 130 0
-8260 145 0
-8260 205 0
-130 -145 -205 8260 0
-8261 131 0
-8261 146 0
-8261 206 0
-131 -146 -206 8261 0
-8262 132 0
-8262 147 0
-8262 207 0
-132 -147 -207 8262 0
-8263 133 0
-8263 148 0
-8263 208 0
-133 -148 -208 8263 0
-8264 134 0
-8264 149 0
-8264 209 0
-134 -149 -209 8264 0
-8265 135 0
-8265 150 0
-8265 210 0
-135 -150 -210 8265 0
-8251 9154 0
-8252 9154 0
-8253 9154 0
-8254 9154 0
-8255 9154 0
-8256 9154 0
-8257 9154 0
-8258 9154 0
-8259 9154 0
-8260 9154 0
-8261 9154 0
-8262 9154 0
-8263 9154 0
-8264 9154 0
-8265 9154 0
-9154 8251 8252 8253 8254 8255 8256 8257 8258 8259 8260 8261 8262 8263 8264 8265 0
-8266 121 0
-8266 136 0
-8266 211 0
-121 -136 -211 8266 0
-8267 122 0
-8267 137 0
-8267 212 0
-122 -137 -212 8267 0
-8268 123 0
-8268 138 0
-8268 213 0
-123 -138 -213 8268 0
-8269 124 0
-8269 139 0
-8269 214 0
-124 -139 -214 8269 0
-8270 125 0
-8270 140 0
-8270 215 0
-125 -140 -215 8270 0
-8271 126 0
-8271 141 0
-8271 216 0
-126 -141 -216 8271 0
-8272 127 0
-8272 142 0
-8272 217 0
-127 -142 -217 8272 0
-8273 128 0
-8273 143 0
-8273 218 0
-128 -143 -218 8273 0
-8274 129 0
-8274 144 0
-8274 219 0
-129 -144 -219 8274 0
-8275 130 0
-8275 145 0
-8275 220 0
-130 -145 -220 8275 0
-8276 131 0
-8276 146 0
-8276 221 0
-131 -146 -221 8276 0
-8277 132 0
-8277 147 0
-8277 222 0
-132 -147 -222 8277 0
-8278 133 0
-8278 148 0
-8278 223 0
-133 -148 -223 8278 0
-8279 134 0
-8279 149 0
-8279 224 0
-134 -149 -224 8279 0
-8280 135 0
-8280 150 0
-8280 225 0
-135 -150 -225 8280 0
-8266 9155 0
-8267 9155 0
-8268 9155 0
-8269 9155 0
-8270 9155 0
-8271 9155 0
-8272 9155 0
-8273 9155 0
-8274 9155 0
-8275 9155 0
-8276 9155 0
-8277 9155 0
-8278 9155 0
-8279 9155 0
-8280 9155 0
-9155 8266 8267 8268 8269 8270 8271 8272 8273 8274 8275 8276 8277 8278 8279 8280 0
-8281 121 0
-8281 151 0
-8281 166 0
-121 -151 -166 8281 0
-8282 122 0
-8282 152 0
-8282 167 0
-122 -152 -167 8282 0
-8283 123 0
-8283 153 0
-8283 168 0
-123 -153 -168 8283 0
-8284 124 0
-8284 154 0
-8284 169 0
-124 -154 -169 8284 0
-8285 125 0
-8285 155 0
-8285 170 0
-125 -155 -170 8285 0
-8286 126 0
-8286 156 0
-8286 171 0
-126 -156 -171 8286 0
-8287 127 0
-8287 157 0
-8287 172 0
-127 -157 -172 8287 0
-8288 128 0
-8288 158 0
-8288 173 0
-128 -158 -173 8288 0
-8289 129 0
-8289 159 0
-8289 174 0
-129 -159 -174 8289 0
-8290 130 0
-8290 160 0
-8290 175 0
-130 -160 -175 8290 0
-8291 131 0
-8291 161 0
-8291 176 0
-131 -161 -176 8291 0
-8292 132 0
-8292 162 0
-8292 177 0
-132 -162 -177 8292 0
-8293 133 0
-8293 163 0
-8293 178 0
-133 -163 -178 8293 0
-8294 134 0
-8294 164 0
-8294 179 0
-134 -164 -179 8294 0
-8295 135 0
-8295 165 0
-8295 180 0
-135 -165 -180 8295 0
-8281 9156 0
-8282 9156 0
-8283 9156 0
-8284 9156 0
-8285 9156 0
-8286 9156 0
-8287 9156 0
-8288 9156 0
-8289 9156 0
-8290 9156 0
-8291 9156 0
-8292 9156 0
-8293 9156 0
-8294 9156 0
-8295 9156 0
-9156 8281 8282 8283 8284 8285 8286 8287 8288 8289 8290 8291 8292 8293 8294 8295 0
-8296 121 0
-8296 151 0
-8296 181 0
-121 -151 -181 8296 0
-8297 122 0
-8297 152 0
-8297 182 0
-122 -152 -182 8297 0
-8298 123 0
-8298 153 0
-8298 183 0
-123 -153 -183 8298 0
-8299 124 0
-8299 154 0
-8299 184 0
-124 -154 -184 8299 0
-8300 125 0
-8300 155 0
-8300 185 0
-125 -155 -185 8300 0
-8301 126 0
-8301 156 0
-8301 186 0
-126 -156 -186 8301 0
-8302 127 0
-8302 157 0
-8302 187 0
-127 -157 -187 8302 0
-8303 128 0
-8303 158 0
-8303 188 0
-128 -158 -188 8303 0
-8304 129 0
-8304 159 0
-8304 189 0
-129 -159 -189 8304 0
-8305 130 0
-8305 160 0
-8305 190 0
-130 -160 -190 8305 0
-8306 131 0
-8306 161 0
-8306 191 0
-131 -161 -191 8306 0
-8307 132 0
-8307 162 0
-8307 192 0
-132 -162 -192 8307 0
-8308 133 0
-8308 163 0
-8308 193 0
-133 -163 -193 8308 0
-8309 134 0
-8309 164 0
-8309 194 0
-134 -164 -194 8309 0
-8310 135 0
-8310 165 0
-8310 195 0
-135 -165 -195 8310 0
-8296 9157 0
-8297 9157 0
-8298 9157 0
-8299 9157 0
-8300 9157 0
-8301 9157 0
-8302 9157 0
-8303 9157 0
-8304 9157 0
-8305 9157 0
-8306 9157 0
-8307 9157 0
-8308 9157 0
-8309 9157 0
-8310 9157 0
-9157 8296 8297 8298 8299 8300 8301 8302 8303 8304 8305 8306 8307 8308 8309 8310 0
-8311 121 0
-8311 151 0
-8311 196 0
-121 -151 -196 8311 0
-8312 122 0
-8312 152 0
-8312 197 0
-122 -152 -197 8312 0
-8313 123 0
-8313 153 0
-8313 198 0
-123 -153 -198 8313 0
-8314 124 0
-8314 154 0
-8314 199 0
-124 -154 -199 8314 0
-8315 125 0
-8315 155 0
-8315 200 0
-125 -155 -200 8315 0
-8316 126 0
-8316 156 0
-8316 201 0
-126 -156 -201 8316 0
-8317 127 0
-8317 157 0
-8317 202 0
-127 -157 -202 8317 0
-8318 128 0
-8318 158 0
-8318 203 0
-128 -158 -203 8318 0
-8319 129 0
-8319 159 0
-8319 204 0
-129 -159 -204 8319 0
-8320 130 0
-8320 160 0
-8320 205 0
-130 -160 -205 8320 0
-8321 131 0
-8321 161 0
-8321 206 0
-131 -161 -206 8321 0
-8322 132 0
-8322 162 0
-8322 207 0
-132 -162 -207 8322 0
-8323 133 0
-8323 163 0
-8323 208 0
-133 -163 -208 8323 0
-8324 134 0
-8324 164 0
-8324 209 0
-134 -164 -209 8324 0
-8325 135 0
-8325 165 0
-8325 210 0
-135 -165 -210 8325 0
-8311 9158 0
-8312 9158 0
-8313 9158 0
-8314 9158 0
-8315 9158 0
-8316 9158 0
-8317 9158 0
-8318 9158 0
-8319 9158 0
-8320 9158 0
-8321 9158 0
-8322 9158 0
-8323 9158 0
-8324 9158 0
-8325 9158 0
-9158 8311 8312 8313 8314 8315 8316 8317 8318 8319 8320 8321 8322 8323 8324 8325 0
-8326 121 0
-8326 151 0
-8326 211 0
-121 -151 -211 8326 0
-8327 122 0
-8327 152 0
-8327 212 0
-122 -152 -212 8327 0
-8328 123 0
-8328 153 0
-8328 213 0
-123 -153 -213 8328 0
-8329 124 0
-8329 154 0
-8329 214 0
-124 -154 -214 8329 0
-8330 125 0
-8330 155 0
-8330 215 0
-125 -155 -215 8330 0
-8331 126 0
-8331 156 0
-8331 216 0
-126 -156 -216 8331 0
-8332 127 0
-8332 157 0
-8332 217 0
-127 -157 -217 8332 0
-8333 128 0
-8333 158 0
-8333 218 0
-128 -158 -218 8333 0
-8334 129 0
-8334 159 0
-8334 219 0
-129 -159 -219 8334 0
-8335 130 0
-8335 160 0
-8335 220 0
-130 -160 -220 8335 0
-8336 131 0
-8336 161 0
-8336 221 0
-131 -161 -221 8336 0
-8337 132 0
-8337 162 0
-8337 222 0
-132 -162 -222 8337 0
-8338 133 0
-8338 163 0
-8338 223 0
-133 -163 -223 8338 0
-8339 134 0
-8339 164 0
-8339 224 0
-134 -164 -224 8339 0
-8340 135 0
-8340 165 0
-8340 225 0
-135 -165 -225 8340 0
-8326 9159 0
-8327 9159 0
-8328 9159 0
-8329 9159 0
-8330 9159 0
-8331 9159 0
-8332 9159 0
-8333 9159 0
-8334 9159 0
-8335 9159 0
-8336 9159 0
-8337 9159 0
-8338 9159 0
-8339 9159 0
-8340 9159 0
-9159 8326 8327 8328 8329 8330 8331 8332 8333 8334 8335 8336 8337 8338 8339 8340 0
-8341 121 0
-8341 166 0
-8341 181 0
-121 -166 -181 8341 0
-8342 122 0
-8342 167 0
-8342 182 0
-122 -167 -182 8342 0
-8343 123 0
-8343 168 0
-8343 183 0
-123 -168 -183 8343 0
-8344 124 0
-8344 169 0
-8344 184 0
-124 -169 -184 8344 0
-8345 125 0
-8345 170 0
-8345 185 0
-125 -170 -185 8345 0
-8346 126 0
-8346 171 0
-8346 186 0
-126 -171 -186 8346 0
-8347 127 0
-8347 172 0
-8347 187 0
-127 -172 -187 8347 0
-8348 128 0
-8348 173 0
-8348 188 0
-128 -173 -188 8348 0
-8349 129 0
-8349 174 0
-8349 189 0
-129 -174 -189 8349 0
-8350 130 0
-8350 175 0
-8350 190 0
-130 -175 -190 8350 0
-8351 131 0
-8351 176 0
-8351 191 0
-131 -176 -191 8351 0
-8352 132 0
-8352 177 0
-8352 192 0
-132 -177 -192 8352 0
-8353 133 0
-8353 178 0
-8353 193 0
-133 -178 -193 8353 0
-8354 134 0
-8354 179 0
-8354 194 0
-134 -179 -194 8354 0
-8355 135 0
-8355 180 0
-8355 195 0
-135 -180 -195 8355 0
-8341 9160 0
-8342 9160 0
-8343 9160 0
-8344 9160 0
-8345 9160 0
-8346 9160 0
-8347 9160 0
-8348 9160 0
-8349 9160 0
-8350 9160 0
-8351 9160 0
-8352 9160 0
-8353 9160 0
-8354 9160 0
-8355 9160 0
-9160 8341 8342 8343 8344 8345 8346 8347 8348 8349 8350 8351 8352 8353 8354 8355 0
-8356 121 0
-8356 166 0
-8356 196 0
-121 -166 -196 8356 0
-8357 122 0
-8357 167 0
-8357 197 0
-122 -167 -197 8357 0
-8358 123 0
-8358 168 0
-8358 198 0
-123 -168 -198 8358 0
-8359 124 0
-8359 169 0
-8359 199 0
-124 -169 -199 8359 0
-8360 125 0
-8360 170 0
-8360 200 0
-125 -170 -200 8360 0
-8361 126 0
-8361 171 0
-8361 201 0
-126 -171 -201 8361 0
-8362 127 0
-8362 172 0
-8362 202 0
-127 -172 -202 8362 0
-8363 128 0
-8363 173 0
-8363 203 0
-128 -173 -203 8363 0
-8364 129 0
-8364 174 0
-8364 204 0
-129 -174 -204 8364 0
-8365 130 0
-8365 175 0
-8365 205 0
-130 -175 -205 8365 0
-8366 131 0
-8366 176 0
-8366 206 0
-131 -176 -206 8366 0
-8367 132 0
-8367 177 0
-8367 207 0
-132 -177 -207 8367 0
-8368 133 0
-8368 178 0
-8368 208 0
-133 -178 -208 8368 0
-8369 134 0
-8369 179 0
-8369 209 0
-134 -179 -209 8369 0
-8370 135 0
-8370 180 0
-8370 210 0
-135 -180 -210 8370 0
-8356 9161 0
-8357 9161 0
-8358 9161 0
-8359 9161 0
-8360 9161 0
-8361 9161 0
-8362 9161 0
-8363 9161 0
-8364 9161 0
-8365 9161 0
-8366 9161 0
-8367 9161 0
-8368 9161 0
-8369 9161 0
-8370 9161 0
-9161 8356 8357 8358 8359 8360 8361 8362 8363 8364 8365 8366 8367 8368 8369 8370 0
-8371 121 0
-8371 166 0
-8371 211 0
-121 -166 -211 8371 0
-8372 122 0
-8372 167 0
-8372 212 0
-122 -167 -212 8372 0
-8373 123 0
-8373 168 0
-8373 213 0
-123 -168 -213 8373 0
-8374 124 0
-8374 169 0
-8374 214 0
-124 -169 -214 8374 0
-8375 125 0
-8375 170 0
-8375 215 0
-125 -170 -215 8375 0
-8376 126 0
-8376 171 0
-8376 216 0
-126 -171 -216 8376 0
-8377 127 0
-8377 172 0
-8377 217 0
-127 -172 -217 8377 0
-8378 128 0
-8378 173 0
-8378 218 0
-128 -173 -218 8378 0
-8379 129 0
-8379 174 0
-8379 219 0
-129 -174 -219 8379 0
-8380 130 0
-8380 175 0
-8380 220 0
-130 -175 -220 8380 0
-8381 131 0
-8381 176 0
-8381 221 0
-131 -176 -221 8381 0
-8382 132 0
-8382 177 0
-8382 222 0
-132 -177 -222 8382 0
-8383 133 0
-8383 178 0
-8383 223 0
-133 -178 -223 8383 0
-8384 134 0
-8384 179 0
-8384 224 0
-134 -179 -224 8384 0
-8385 135 0
-8385 180 0
-8385 225 0
-135 -180 -225 8385 0
-8371 9162 0
-8372 9162 0
-8373 9162 0
-8374 9162 0
-8375 9162 0
-8376 9162 0
-8377 9162 0
-8378 9162 0
-8379 9162 0
-8380 9162 0
-8381 9162 0
-8382 9162 0
-8383 9162 0
-8384 9162 0
-8385 9162 0
-9162 8371 8372 8373 8374 8375 8376 8377 8378 8379 8380 8381 8382 8383 8384 8385 0
-8386 121 0
-8386 181 0
-8386 196 0
-121 -181 -196 8386 0
-8387 122 0
-8387 182 0
-8387 197 0
-122 -182 -197 8387 0
-8388 123 0
-8388 183 0
-8388 198 0
-123 -183 -198 8388 0
-8389 124 0
-8389 184 0
-8389 199 0
-124 -184 -199 8389 0
-8390 125 0
-8390 185 0
-8390 200 0
-125 -185 -200 8390 0
-8391 126 0
-8391 186 0
-8391 201 0
-126 -186 -201 8391 0
-8392 127 0
-8392 187 0
-8392 202 0
-127 -187 -202 8392 0
-8393 128 0
-8393 188 0
-8393 203 0
-128 -188 -203 8393 0
-8394 129 0
-8394 189 0
-8394 204 0
-129 -189 -204 8394 0
-8395 130 0
-8395 190 0
-8395 205 0
-130 -190 -205 8395 0
-8396 131 0
-8396 191 0
-8396 206 0
-131 -191 -206 8396 0
-8397 132 0
-8397 192 0
-8397 207 0
-132 -192 -207 8397 0
-8398 133 0
-8398 193 0
-8398 208 0
-133 -193 -208 8398 0
-8399 134 0
-8399 194 0
-8399 209 0
-134 -194 -209 8399 0
-8400 135 0
-8400 195 0
-8400 210 0
-135 -195 -210 8400 0
-8386 9163 0
-8387 9163 0
-8388 9163 0
-8389 9163 0
-8390 9163 0
-8391 9163 0
-8392 9163 0
-8393 9163 0
-8394 9163 0
-8395 9163 0
-8396 9163 0
-8397 9163 0
-8398 9163 0
-8399 9163 0
-8400 9163 0
-9163 8386 8387 8388 8389 8390 8391 8392 8393 8394 8395 8396 8397 8398 8399 8400 0
-8401 121 0
-8401 181 0
-8401 211 0
-121 -181 -211 8401 0
-8402 122 0
-8402 182 0
-8402 212 0
-122 -182 -212 8402 0
-8403 123 0
-8403 183 0
-8403 213 0
-123 -183 -213 8403 0
-8404 124 0
-8404 184 0
-8404 214 0
-124 -184 -214 8404 0
-8405 125 0
-8405 185 0
-8405 215 0
-125 -185 -215 8405 0
-8406 126 0
-8406 186 0
-8406 216 0
-126 -186 -216 8406 0
-8407 127 0
-8407 187 0
-8407 217 0
-127 -187 -217 8407 0
-8408 128 0
-8408 188 0
-8408 218 0
-128 -188 -218 8408 0
-8409 129 0
-8409 189 0
-8409 219 0
-129 -189 -219 8409 0
-8410 130 0
-8410 190 0
-8410 220 0
-130 -190 -220 8410 0
-8411 131 0
-8411 191 0
-8411 221 0
-131 -191 -221 8411 0
-8412 132 0
-8412 192 0
-8412 222 0
-132 -192 -222 8412 0
-8413 133 0
-8413 193 0
-8413 223 0
-133 -193 -223 8413 0
-8414 134 0
-8414 194 0
-8414 224 0
-134 -194 -224 8414 0
-8415 135 0
-8415 195 0
-8415 225 0
-135 -195 -225 8415 0
-8401 9164 0
-8402 9164 0
-8403 9164 0
-8404 9164 0
-8405 9164 0
-8406 9164 0
-8407 9164 0
-8408 9164 0
-8409 9164 0
-8410 9164 0
-8411 9164 0
-8412 9164 0
-8413 9164 0
-8414 9164 0
-8415 9164 0
-9164 8401 8402 8403 8404 8405 8406 8407 8408 8409 8410 8411 8412 8413 8414 8415 0
-8416 121 0
-8416 196 0
-8416 211 0
-121 -196 -211 8416 0
-8417 122 0
-8417 197 0
-8417 212 0
-122 -197 -212 8417 0
-8418 123 0
-8418 198 0
-8418 213 0
-123 -198 -213 8418 0
-8419 124 0
-8419 199 0
-8419 214 0
-124 -199 -214 8419 0
-8420 125 0
-8420 200 0
-8420 215 0
-125 -200 -215 8420 0
-8421 126 0
-8421 201 0
-8421 216 0
-126 -201 -216 8421 0
-8422 127 0
-8422 202 0
-8422 217 0
-127 -202 -217 8422 0
-8423 128 0
-8423 203 0
-8423 218 0
-128 -203 -218 8423 0
-8424 129 0
-8424 204 0
-8424 219 0
-129 -204 -219 8424 0
-8425 130 0
-8425 205 0
-8425 220 0
-130 -205 -220 8425 0
-8426 131 0
-8426 206 0
-8426 221 0
-131 -206 -221 8426 0
-8427 132 0
-8427 207 0
-8427 222 0
-132 -207 -222 8427 0
-8428 133 0
-8428 208 0
-8428 223 0
-133 -208 -223 8428 0
-8429 134 0
-8429 209 0
-8429 224 0
-134 -209 -224 8429 0
-8430 135 0
-8430 210 0
-8430 225 0
-135 -210 -225 8430 0
-8416 9165 0
-8417 9165 0
-8418 9165 0
-8419 9165 0
-8420 9165 0
-8421 9165 0
-8422 9165 0
-8423 9165 0
-8424 9165 0
-8425 9165 0
-8426 9165 0
-8427 9165 0
-8428 9165 0
-8429 9165 0
-8430 9165 0
-9165 8416 8417 8418 8419 8420 8421 8422 8423 8424 8425 8426 8427 8428 8429 8430 0
-8431 136 0
-8431 151 0
-8431 166 0
-136 -151 -166 8431 0
-8432 137 0
-8432 152 0
-8432 167 0
-137 -152 -167 8432 0
-8433 138 0
-8433 153 0
-8433 168 0
-138 -153 -168 8433 0
-8434 139 0
-8434 154 0
-8434 169 0
-139 -154 -169 8434 0
-8435 140 0
-8435 155 0
-8435 170 0
-140 -155 -170 8435 0
-8436 141 0
-8436 156 0
-8436 171 0
-141 -156 -171 8436 0
-8437 142 0
-8437 157 0
-8437 172 0
-142 -157 -172 8437 0
-8438 143 0
-8438 158 0
-8438 173 0
-143 -158 -173 8438 0
-8439 144 0
-8439 159 0
-8439 174 0
-144 -159 -174 8439 0
-8440 145 0
-8440 160 0
-8440 175 0
-145 -160 -175 8440 0
-8441 146 0
-8441 161 0
-8441 176 0
-146 -161 -176 8441 0
-8442 147 0
-8442 162 0
-8442 177 0
-147 -162 -177 8442 0
-8443 148 0
-8443 163 0
-8443 178 0
-148 -163 -178 8443 0
-8444 149 0
-8444 164 0
-8444 179 0
-149 -164 -179 8444 0
-8445 150 0
-8445 165 0
-8445 180 0
-150 -165 -180 8445 0
-8431 9166 0
-8432 9166 0
-8433 9166 0
-8434 9166 0
-8435 9166 0
-8436 9166 0
-8437 9166 0
-8438 9166 0
-8439 9166 0
-8440 9166 0
-8441 9166 0
-8442 9166 0
-8443 9166 0
-8444 9166 0
-8445 9166 0
-9166 8431 8432 8433 8434 8435 8436 8437 8438 8439 8440 8441 8442 8443 8444 8445 0
-8446 136 0
-8446 151 0
-8446 181 0
-136 -151 -181 8446 0
-8447 137 0
-8447 152 0
-8447 182 0
-137 -152 -182 8447 0
-8448 138 0
-8448 153 0
-8448 183 0
-138 -153 -183 8448 0
-8449 139 0
-8449 154 0
-8449 184 0
-139 -154 -184 8449 0
-8450 140 0
-8450 155 0
-8450 185 0
-140 -155 -185 8450 0
-8451 141 0
-8451 156 0
-8451 186 0
-141 -156 -186 8451 0
-8452 142 0
-8452 157 0
-8452 187 0
-142 -157 -187 8452 0
-8453 143 0
-8453 158 0
-8453 188 0
-143 -158 -188 8453 0
-8454 144 0
-8454 159 0
-8454 189 0
-144 -159 -189 8454 0
-8455 145 0
-8455 160 0
-8455 190 0
-145 -160 -190 8455 0
-8456 146 0
-8456 161 0
-8456 191 0
-146 -161 -191 8456 0
-8457 147 0
-8457 162 0
-8457 192 0
-147 -162 -192 8457 0
-8458 148 0
-8458 163 0
-8458 193 0
-148 -163 -193 8458 0
-8459 149 0
-8459 164 0
-8459 194 0
-149 -164 -194 8459 0
-8460 150 0
-8460 165 0
-8460 195 0
-150 -165 -195 8460 0
-8446 9167 0
-8447 9167 0
-8448 9167 0
-8449 9167 0
-8450 9167 0
-8451 9167 0
-8452 9167 0
-8453 9167 0
-8454 9167 0
-8455 9167 0
-8456 9167 0
-8457 9167 0
-8458 9167 0
-8459 9167 0
-8460 9167 0
-9167 8446 8447 8448 8449 8450 8451 8452 8453 8454 8455 8456 8457 8458 8459 8460 0
-8461 136 0
-8461 151 0
-8461 196 0
-136 -151 -196 8461 0
-8462 137 0
-8462 152 0
-8462 197 0
-137 -152 -197 8462 0
-8463 138 0
-8463 153 0
-8463 198 0
-138 -153 -198 8463 0
-8464 139 0
-8464 154 0
-8464 199 0
-139 -154 -199 8464 0
-8465 140 0
-8465 155 0
-8465 200 0
-140 -155 -200 8465 0
-8466 141 0
-8466 156 0
-8466 201 0
-141 -156 -201 8466 0
-8467 142 0
-8467 157 0
-8467 202 0
-142 -157 -202 8467 0
-8468 143 0
-8468 158 0
-8468 203 0
-143 -158 -203 8468 0
-8469 144 0
-8469 159 0
-8469 204 0
-144 -159 -204 8469 0
-8470 145 0
-8470 160 0
-8470 205 0
-145 -160 -205 8470 0
-8471 146 0
-8471 161 0
-8471 206 0
-146 -161 -206 8471 0
-8472 147 0
-8472 162 0
-8472 207 0
-147 -162 -207 8472 0
-8473 148 0
-8473 163 0
-8473 208 0
-148 -163 -208 8473 0
-8474 149 0
-8474 164 0
-8474 209 0
-149 -164 -209 8474 0
-8475 150 0
-8475 165 0
-8475 210 0
-150 -165 -210 8475 0
-8461 9168 0
-8462 9168 0
-8463 9168 0
-8464 9168 0
-8465 9168 0
-8466 9168 0
-8467 9168 0
-8468 9168 0
-8469 9168 0
-8470 9168 0
-8471 9168 0
-8472 9168 0
-8473 9168 0
-8474 9168 0
-8475 9168 0
-9168 8461 8462 8463 8464 8465 8466 8467 8468 8469 8470 8471 8472 8473 8474 8475 0
-8476 136 0
-8476 151 0
-8476 211 0
-136 -151 -211 8476 0
-8477 137 0
-8477 152 0
-8477 212 0
-137 -152 -212 8477 0
-8478 138 0
-8478 153 0
-8478 213 0
-138 -153 -213 8478 0
-8479 139 0
-8479 154 0
-8479 214 0
-139 -154 -214 8479 0
-8480 140 0
-8480 155 0
-8480 215 0
-140 -155 -215 8480 0
-8481 141 0
-8481 156 0
-8481 216 0
-141 -156 -216 8481 0
-8482 142 0
-8482 157 0
-8482 217 0
-142 -157 -217 8482 0
-8483 143 0
-8483 158 0
-8483 218 0
-143 -158 -218 8483 0
-8484 144 0
-8484 159 0
-8484 219 0
-144 -159 -219 8484 0
-8485 145 0
-8485 160 0
-8485 220 0
-145 -160 -220 8485 0
-8486 146 0
-8486 161 0
-8486 221 0
-146 -161 -221 8486 0
-8487 147 0
-8487 162 0
-8487 222 0
-147 -162 -222 8487 0
-8488 148 0
-8488 163 0
-8488 223 0
-148 -163 -223 8488 0
-8489 149 0
-8489 164 0
-8489 224 0
-149 -164 -224 8489 0
-8490 150 0
-8490 165 0
-8490 225 0
-150 -165 -225 8490 0
-8476 9169 0
-8477 9169 0
-8478 9169 0
-8479 9169 0
-8480 9169 0
-8481 9169 0
-8482 9169 0
-8483 9169 0
-8484 9169 0
-8485 9169 0
-8486 9169 0
-8487 9169 0
-8488 9169 0
-8489 9169 0
-8490 9169 0
-9169 8476 8477 8478 8479 8480 8481 8482 8483 8484 8485 8486 8487 8488 8489 8490 0
-8491 136 0
-8491 166 0
-8491 181 0
-136 -166 -181 8491 0
-8492 137 0
-8492 167 0
-8492 182 0
-137 -167 -182 8492 0
-8493 138 0
-8493 168 0
-8493 183 0
-138 -168 -183 8493 0
-8494 139 0
-8494 169 0
-8494 184 0
-139 -169 -184 8494 0
-8495 140 0
-8495 170 0
-8495 185 0
-140 -170 -185 8495 0
-8496 141 0
-8496 171 0
-8496 186 0
-141 -171 -186 8496 0
-8497 142 0
-8497 172 0
-8497 187 0
-142 -172 -187 8497 0
-8498 143 0
-8498 173 0
-8498 188 0
-143 -173 -188 8498 0
-8499 144 0
-8499 174 0
-8499 189 0
-144 -174 -189 8499 0
-8500 145 0
-8500 175 0
-8500 190 0
-145 -175 -190 8500 0
-8501 146 0
-8501 176 0
-8501 191 0
-146 -176 -191 8501 0
-8502 147 0
-8502 177 0
-8502 192 0
-147 -177 -192 8502 0
-8503 148 0
-8503 178 0
-8503 193 0
-148 -178 -193 8503 0
-8504 149 0
-8504 179 0
-8504 194 0
-149 -179 -194 8504 0
-8505 150 0
-8505 180 0
-8505 195 0
-150 -180 -195 8505 0
-8491 9170 0
-8492 9170 0
-8493 9170 0
-8494 9170 0
-8495 9170 0
-8496 9170 0
-8497 9170 0
-8498 9170 0
-8499 9170 0
-8500 9170 0
-8501 9170 0
-8502 9170 0
-8503 9170 0
-8504 9170 0
-8505 9170 0
-9170 8491 8492 8493 8494 8495 8496 8497 8498 8499 8500 8501 8502 8503 8504 8505 0
-8506 136 0
-8506 166 0
-8506 196 0
-136 -166 -196 8506 0
-8507 137 0
-8507 167 0
-8507 197 0
-137 -167 -197 8507 0
-8508 138 0
-8508 168 0
-8508 198 0
-138 -168 -198 8508 0
-8509 139 0
-8509 169 0
-8509 199 0
-139 -169 -199 8509 0
-8510 140 0
-8510 170 0
-8510 200 0
-140 -170 -200 8510 0
-8511 141 0
-8511 171 0
-8511 201 0
-141 -171 -201 8511 0
-8512 142 0
-8512 172 0
-8512 202 0
-142 -172 -202 8512 0
-8513 143 0
-8513 173 0
-8513 203 0
-143 -173 -203 8513 0
-8514 144 0
-8514 174 0
-8514 204 0
-144 -174 -204 8514 0
-8515 145 0
-8515 175 0
-8515 205 0
-145 -175 -205 8515 0
-8516 146 0
-8516 176 0
-8516 206 0
-146 -176 -206 8516 0
-8517 147 0
-8517 177 0
-8517 207 0
-147 -177 -207 8517 0
-8518 148 0
-8518 178 0
-8518 208 0
-148 -178 -208 8518 0
-8519 149 0
-8519 179 0
-8519 209 0
-149 -179 -209 8519 0
-8520 150 0
-8520 180 0
-8520 210 0
-150 -180 -210 8520 0
-8506 9171 0
-8507 9171 0
-8508 9171 0
-8509 9171 0
-8510 9171 0
-8511 9171 0
-8512 9171 0
-8513 9171 0
-8514 9171 0
-8515 9171 0
-8516 9171 0
-8517 9171 0
-8518 9171 0
-8519 9171 0
-8520 9171 0
-9171 8506 8507 8508 8509 8510 8511 8512 8513 8514 8515 8516 8517 8518 8519 8520 0
-8521 136 0
-8521 166 0
-8521 211 0
-136 -166 -211 8521 0
-8522 137 0
-8522 167 0
-8522 212 0
-137 -167 -212 8522 0
-8523 138 0
-8523 168 0
-8523 213 0
-138 -168 -213 8523 0
-8524 139 0
-8524 169 0
-8524 214 0
-139 -169 -214 8524 0
-8525 140 0
-8525 170 0
-8525 215 0
-140 -170 -215 8525 0
-8526 141 0
-8526 171 0
-8526 216 0
-141 -171 -216 8526 0
-8527 142 0
-8527 172 0
-8527 217 0
-142 -172 -217 8527 0
-8528 143 0
-8528 173 0
-8528 218 0
-143 -173 -218 8528 0
-8529 144 0
-8529 174 0
-8529 219 0
-144 -174 -219 8529 0
-8530 145 0
-8530 175 0
-8530 220 0
-145 -175 -220 8530 0
-8531 146 0
-8531 176 0
-8531 221 0
-146 -176 -221 8531 0
-8532 147 0
-8532 177 0
-8532 222 0
-147 -177 -222 8532 0
-8533 148 0
-8533 178 0
-8533 223 0
-148 -178 -223 8533 0
-8534 149 0
-8534 179 0
-8534 224 0
-149 -179 -224 8534 0
-8535 150 0
-8535 180 0
-8535 225 0
-150 -180 -225 8535 0
-8521 9172 0
-8522 9172 0
-8523 9172 0
-8524 9172 0
-8525 9172 0
-8526 9172 0
-8527 9172 0
-8528 9172 0
-8529 9172 0
-8530 9172 0
-8531 9172 0
-8532 9172 0
-8533 9172 0
-8534 9172 0
-8535 9172 0
-9172 8521 8522 8523 8524 8525 8526 8527 8528 8529 8530 8531 8532 8533 8534 8535 0
-8536 136 0
-8536 181 0
-8536 196 0
-136 -181 -196 8536 0
-8537 137 0
-8537 182 0
-8537 197 0
-137 -182 -197 8537 0
-8538 138 0
-8538 183 0
-8538 198 0
-138 -183 -198 8538 0
-8539 139 0
-8539 184 0
-8539 199 0
-139 -184 -199 8539 0
-8540 140 0
-8540 185 0
-8540 200 0
-140 -185 -200 8540 0
-8541 141 0
-8541 186 0
-8541 201 0
-141 -186 -201 8541 0
-8542 142 0
-8542 187 0
-8542 202 0
-142 -187 -202 8542 0
-8543 143 0
-8543 188 0
-8543 203 0
-143 -188 -203 8543 0
-8544 144 0
-8544 189 0
-8544 204 0
-144 -189 -204 8544 0
-8545 145 0
-8545 190 0
-8545 205 0
-145 -190 -205 8545 0
-8546 146 0
-8546 191 0
-8546 206 0
-146 -191 -206 8546 0
-8547 147 0
-8547 192 0
-8547 207 0
-147 -192 -207 8547 0
-8548 148 0
-8548 193 0
-8548 208 0
-148 -193 -208 8548 0
-8549 149 0
-8549 194 0
-8549 209 0
-149 -194 -209 8549 0
-8550 150 0
-8550 195 0
-8550 210 0
-150 -195 -210 8550 0
-8536 9173 0
-8537 9173 0
-8538 9173 0
-8539 9173 0
-8540 9173 0
-8541 9173 0
-8542 9173 0
-8543 9173 0
-8544 9173 0
-8545 9173 0
-8546 9173 0
-8547 9173 0
-8548 9173 0
-8549 9173 0
-8550 9173 0
-9173 8536 8537 8538 8539 8540 8541 8542 8543 8544 8545 8546 8547 8548 8549 8550 0
-8551 136 0
-8551 181 0
-8551 211 0
-136 -181 -211 8551 0
-8552 137 0
-8552 182 0
-8552 212 0
-137 -182 -212 8552 0
-8553 138 0
-8553 183 0
-8553 213 0
-138 -183 -213 8553 0
-8554 139 0
-8554 184 0
-8554 214 0
-139 -184 -214 8554 0
-8555 140 0
-8555 185 0
-8555 215 0
-140 -185 -215 8555 0
-8556 141 0
-8556 186 0
-8556 216 0
-141 -186 -216 8556 0
-8557 142 0
-8557 187 0
-8557 217 0
-142 -187 -217 8557 0
-8558 143 0
-8558 188 0
-8558 218 0
-143 -188 -218 8558 0
-8559 144 0
-8559 189 0
-8559 219 0
-144 -189 -219 8559 0
-8560 145 0
-8560 190 0
-8560 220 0
-145 -190 -220 8560 0
-8561 146 0
-8561 191 0
-8561 221 0
-146 -191 -221 8561 0
-8562 147 0
-8562 192 0
-8562 222 0
-147 -192 -222 8562 0
-8563 148 0
-8563 193 0
-8563 223 0
-148 -193 -223 8563 0
-8564 149 0
-8564 194 0
-8564 224 0
-149 -194 -224 8564 0
-8565 150 0
-8565 195 0
-8565 225 0
-150 -195 -225 8565 0
-8551 9174 0
-8552 9174 0
-8553 9174 0
-8554 9174 0
-8555 9174 0
-8556 9174 0
-8557 9174 0
-8558 9174 0
-8559 9174 0
-8560 9174 0
-8561 9174 0
-8562 9174 0
-8563 9174 0
-8564 9174 0
-8565 9174 0
-9174 8551 8552 8553 8554 8555 8556 8557 8558 8559 8560 8561 8562 8563 8564 8565 0
-8566 136 0
-8566 196 0
-8566 211 0
-136 -196 -211 8566 0
-8567 137 0
-8567 197 0
-8567 212 0
-137 -197 -212 8567 0
-8568 138 0
-8568 198 0
-8568 213 0
-138 -198 -213 8568 0
-8569 139 0
-8569 199 0
-8569 214 0
-139 -199 -214 8569 0
-8570 140 0
-8570 200 0
-8570 215 0
-140 -200 -215 8570 0
-8571 141 0
-8571 201 0
-8571 216 0
-141 -201 -216 8571 0
-8572 142 0
-8572 202 0
-8572 217 0
-142 -202 -217 8572 0
-8573 143 0
-8573 203 0
-8573 218 0
-143 -203 -218 8573 0
-8574 144 0
-8574 204 0
-8574 219 0
-144 -204 -219 8574 0
-8575 145 0
-8575 205 0
-8575 220 0
-145 -205 -220 8575 0
-8576 146 0
-8576 206 0
-8576 221 0
-146 -206 -221 8576 0
-8577 147 0
-8577 207 0
-8577 222 0
-147 -207 -222 8577 0
-8578 148 0
-8578 208 0
-8578 223 0
-148 -208 -223 8578 0
-8579 149 0
-8579 209 0
-8579 224 0
-149 -209 -224 8579 0
-8580 150 0
-8580 210 0
-8580 225 0
-150 -210 -225 8580 0
-8566 9175 0
-8567 9175 0
-8568 9175 0
-8569 9175 0
-8570 9175 0
-8571 9175 0
-8572 9175 0
-8573 9175 0
-8574 9175 0
-8575 9175 0
-8576 9175 0
-8577 9175 0
-8578 9175 0
-8579 9175 0
-8580 9175 0
-9175 8566 8567 8568 8569 8570 8571 8572 8573 8574 8575 8576 8577 8578 8579 8580 0
-8581 151 0
-8581 166 0
-8581 181 0
-151 -166 -181 8581 0
-8582 152 0
-8582 167 0
-8582 182 0
-152 -167 -182 8582 0
-8583 153 0
-8583 168 0
-8583 183 0
-153 -168 -183 8583 0
-8584 154 0
-8584 169 0
-8584 184 0
-154 -169 -184 8584 0
-8585 155 0
-8585 170 0
-8585 185 0
-155 -170 -185 8585 0
-8586 156 0
-8586 171 0
-8586 186 0
-156 -171 -186 8586 0
-8587 157 0
-8587 172 0
-8587 187 0
-157 -172 -187 8587 0
-8588 158 0
-8588 173 0
-8588 188 0
-158 -173 -188 8588 0
-8589 159 0
-8589 174 0
-8589 189 0
-159 -174 -189 8589 0
-8590 160 0
-8590 175 0
-8590 190 0
-160 -175 -190 8590 0
-8591 161 0
-8591 176 0
-8591 191 0
-161 -176 -191 8591 0
-8592 162 0
-8592 177 0
-8592 192 0
-162 -177 -192 8592 0
-8593 163 0
-8593 178 0
-8593 193 0
-163 -178 -193 8593 0
-8594 164 0
-8594 179 0
-8594 194 0
-164 -179 -194 8594 0
-8595 165 0
-8595 180 0
-8595 195 0
-165 -180 -195 8595 0
-8581 9176 0
-8582 9176 0
-8583 9176 0
-8584 9176 0
-8585 9176 0
-8586 9176 0
-8587 9176 0
-8588 9176 0
-8589 9176 0
-8590 9176 0
-8591 9176 0
-8592 9176 0
-8593 9176 0
-8594 9176 0
-8595 9176 0
-9176 8581 8582 8583 8584 8585 8586 8587 8588 8589 8590 8591 8592 8593 8594 8595 0
-8596 151 0
-8596 166 0
-8596 196 0
-151 -166 -196 8596 0
-8597 152 0
-8597 167 0
-8597 197 0
-152 -167 -197 8597 0
-8598 153 0
-8598 168 0
-8598 198 0
-153 -168 -198 8598 0
-8599 154 0
-8599 169 0
-8599 199 0
-154 -169 -199 8599 0
-8600 155 0
-8600 170 0
-8600 200 0
-155 -170 -200 8600 0
-8601 156 0
-8601 171 0
-8601 201 0
-156 -171 -201 8601 0
-8602 157 0
-8602 172 0
-8602 202 0
-157 -172 -202 8602 0
-8603 158 0
-8603 173 0
-8603 203 0
-158 -173 -203 8603 0
-8604 159 0
-8604 174 0
-8604 204 0
-159 -174 -204 8604 0
-8605 160 0
-8605 175 0
-8605 205 0
-160 -175 -205 8605 0
-8606 161 0
-8606 176 0
-8606 206 0
-161 -176 -206 8606 0
-8607 162 0
-8607 177 0
-8607 207 0
-162 -177 -207 8607 0
-8608 163 0
-8608 178 0
-8608 208 0
-163 -178 -208 8608 0
-8609 164 0
-8609 179 0
-8609 209 0
-164 -179 -209 8609 0
-8610 165 0
-8610 180 0
-8610 210 0
-165 -180 -210 8610 0
-8596 9177 0
-8597 9177 0
-8598 9177 0
-8599 9177 0
-8600 9177 0
-8601 9177 0
-8602 9177 0
-8603 9177 0
-8604 9177 0
-8605 9177 0
-8606 9177 0
-8607 9177 0
-8608 9177 0
-8609 9177 0
-8610 9177 0
-9177 8596 8597 8598 8599 8600 8601 8602 8603 8604 8605 8606 8607 8608 8609 8610 0
-8611 151 0
-8611 166 0
-8611 211 0
-151 -166 -211 8611 0
-8612 152 0
-8612 167 0
-8612 212 0
-152 -167 -212 8612 0
-8613 153 0
-8613 168 0
-8613 213 0
-153 -168 -213 8613 0
-8614 154 0
-8614 169 0
-8614 214 0
-154 -169 -214 8614 0
-8615 155 0
-8615 170 0
-8615 215 0
-155 -170 -215 8615 0
-8616 156 0
-8616 171 0
-8616 216 0
-156 -171 -216 8616 0
-8617 157 0
-8617 172 0
-8617 217 0
-157 -172 -217 8617 0
-8618 158 0
-8618 173 0
-8618 218 0
-158 -173 -218 8618 0
-8619 159 0
-8619 174 0
-8619 219 0
-159 -174 -219 8619 0
-8620 160 0
-8620 175 0
-8620 220 0
-160 -175 -220 8620 0
-8621 161 0
-8621 176 0
-8621 221 0
-161 -176 -221 8621 0
-8622 162 0
-8622 177 0
-8622 222 0
-162 -177 -222 8622 0
-8623 163 0
-8623 178 0
-8623 223 0
-163 -178 -223 8623 0
-8624 164 0
-8624 179 0
-8624 224 0
-164 -179 -224 8624 0
-8625 165 0
-8625 180 0
-8625 225 0
-165 -180 -225 8625 0
-8611 9178 0
-8612 9178 0
-8613 9178 0
-8614 9178 0
-8615 9178 0
-8616 9178 0
-8617 9178 0
-8618 9178 0
-8619 9178 0
-8620 9178 0
-8621 9178 0
-8622 9178 0
-8623 9178 0
-8624 9178 0
-8625 9178 0
-9178 8611 8612 8613 8614 8615 8616 8617 8618 8619 8620 8621 8622 8623 8624 8625 0
-8626 151 0
-8626 181 0
-8626 196 0
-151 -181 -196 8626 0
-8627 152 0
-8627 182 0
-8627 197 0
-152 -182 -197 8627 0
-8628 153 0
-8628 183 0
-8628 198 0
-153 -183 -198 8628 0
-8629 154 0
-8629 184 0
-8629 199 0
-154 -184 -199 8629 0
-8630 155 0
-8630 185 0
-8630 200 0
-155 -185 -200 8630 0
-8631 156 0
-8631 186 0
-8631 201 0
-156 -186 -201 8631 0
-8632 157 0
-8632 187 0
-8632 202 0
-157 -187 -202 8632 0
-8633 158 0
-8633 188 0
-8633 203 0
-158 -188 -203 8633 0
-8634 159 0
-8634 189 0
-8634 204 0
-159 -189 -204 8634 0
-8635 160 0
-8635 190 0
-8635 205 0
-160 -190 -205 8635 0
-8636 161 0
-8636 191 0
-8636 206 0
-161 -191 -206 8636 0
-8637 162 0
-8637 192 0
-8637 207 0
-162 -192 -207 8637 0
-8638 163 0
-8638 193 0
-8638 208 0
-163 -193 -208 8638 0
-8639 164 0
-8639 194 0
-8639 209 0
-164 -194 -209 8639 0
-8640 165 0
-8640 195 0
-8640 210 0
-165 -195 -210 8640 0
-8626 9179 0
-8627 9179 0
-8628 9179 0
-8629 9179 0
-8630 9179 0
-8631 9179 0
-8632 9179 0
-8633 9179 0
-8634 9179 0
-8635 9179 0
-8636 9179 0
-8637 9179 0
-8638 9179 0
-8639 9179 0
-8640 9179 0
-9179 8626 8627 8628 8629 8630 8631 8632 8633 8634 8635 8636 8637 8638 8639 8640 0
-8641 151 0
-8641 181 0
-8641 211 0
-151 -181 -211 8641 0
-8642 152 0
-8642 182 0
-8642 212 0
-152 -182 -212 8642 0
-8643 153 0
-8643 183 0
-8643 213 0
-153 -183 -213 8643 0
-8644 154 0
-8644 184 0
-8644 214 0
-154 -184 -214 8644 0
-8645 155 0
-8645 185 0
-8645 215 0
-155 -185 -215 8645 0
-8646 156 0
-8646 186 0
-8646 216 0
-156 -186 -216 8646 0
-8647 157 0
-8647 187 0
-8647 217 0
-157 -187 -217 8647 0
-8648 158 0
-8648 188 0
-8648 218 0
-158 -188 -218 8648 0
-8649 159 0
-8649 189 0
-8649 219 0
-159 -189 -219 8649 0
-8650 160 0
-8650 190 0
-8650 220 0
-160 -190 -220 8650 0
-8651 161 0
-8651 191 0
-8651 221 0
-161 -191 -221 8651 0
-8652 162 0
-8652 192 0
-8652 222 0
-162 -192 -222 8652 0
-8653 163 0
-8653 193 0
-8653 223 0
-163 -193 -223 8653 0
-8654 164 0
-8654 194 0
-8654 224 0
-164 -194 -224 8654 0
-8655 165 0
-8655 195 0
-8655 225 0
-165 -195 -225 8655 0
-8641 9180 0
-8642 9180 0
-8643 9180 0
-8644 9180 0
-8645 9180 0
-8646 9180 0
-8647 9180 0
-8648 9180 0
-8649 9180 0
-8650 9180 0
-8651 9180 0
-8652 9180 0
-8653 9180 0
-8654 9180 0
-8655 9180 0
-9180 8641 8642 8643 8644 8645 8646 8647 8648 8649 8650 8651 8652 8653 8654 8655 0
-8656 151 0
-8656 196 0
-8656 211 0
-151 -196 -211 8656 0
-8657 152 0
-8657 197 0
-8657 212 0
-152 -197 -212 8657 0
-8658 153 0
-8658 198 0
-8658 213 0
-153 -198 -213 8658 0
-8659 154 0
-8659 199 0
-8659 214 0
-154 -199 -214 8659 0
-8660 155 0
-8660 200 0
-8660 215 0
-155 -200 -215 8660 0
-8661 156 0
-8661 201 0
-8661 216 0
-156 -201 -216 8661 0
-8662 157 0
-8662 202 0
-8662 217 0
-157 -202 -217 8662 0
-8663 158 0
-8663 203 0
-8663 218 0
-158 -203 -218 8663 0
-8664 159 0
-8664 204 0
-8664 219 0
-159 -204 -219 8664 0
-8665 160 0
-8665 205 0
-8665 220 0
-160 -205 -220 8665 0
-8666 161 0
-8666 206 0
-8666 221 0
-161 -206 -221 8666 0
-8667 162 0
-8667 207 0
-8667 222 0
-162 -207 -222 8667 0
-8668 163 0
-8668 208 0
-8668 223 0
-163 -208 -223 8668 0
-8669 164 0
-8669 209 0
-8669 224 0
-164 -209 -224 8669 0
-8670 165 0
-8670 210 0
-8670 225 0
-165 -210 -225 8670 0
-8656 9181 0
-8657 9181 0
-8658 9181 0
-8659 9181 0
-8660 9181 0
-8661 9181 0
-8662 9181 0
-8663 9181 0
-8664 9181 0
-8665 9181 0
-8666 9181 0
-8667 9181 0
-8668 9181 0
-8669 9181 0
-8670 9181 0
-9181 8656 8657 8658 8659 8660 8661 8662 8663 8664 8665 8666 8667 8668 8669 8670 0
-8671 166 0
-8671 181 0
-8671 196 0
-166 -181 -196 8671 0
-8672 167 0
-8672 182 0
-8672 197 0
-167 -182 -197 8672 0
-8673 168 0
-8673 183 0
-8673 198 0
-168 -183 -198 8673 0
-8674 169 0
-8674 184 0
-8674 199 0
-169 -184 -199 8674 0
-8675 170 0
-8675 185 0
-8675 200 0
-170 -185 -200 8675 0
-8676 171 0
-8676 186 0
-8676 201 0
-171 -186 -201 8676 0
-8677 172 0
-8677 187 0
-8677 202 0
-172 -187 -202 8677 0
-8678 173 0
-8678 188 0
-8678 203 0
-173 -188 -203 8678 0
-8679 174 0
-8679 189 0
-8679 204 0
-174 -189 -204 8679 0
-8680 175 0
-8680 190 0
-8680 205 0
-175 -190 -205 8680 0
-8681 176 0
-8681 191 0
-8681 206 0
-176 -191 -206 8681 0
-8682 177 0
-8682 192 0
-8682 207 0
-177 -192 -207 8682 0
-8683 178 0
-8683 193 0
-8683 208 0
-178 -193 -208 8683 0
-8684 179 0
-8684 194 0
-8684 209 0
-179 -194 -209 8684 0
-8685 180 0
-8685 195 0
-8685 210 0
-180 -195 -210 8685 0
-8671 9182 0
-8672 9182 0
-8673 9182 0
-8674 9182 0
-8675 9182 0
-8676 9182 0
-8677 9182 0
-8678 9182 0
-8679 9182 0
-8680 9182 0
-8681 9182 0
-8682 9182 0
-8683 9182 0
-8684 9182 0
-8685 9182 0
-9182 8671 8672 8673 8674 8675 8676 8677 8678 8679 8680 8681 8682 8683 8684 8685 0
-8686 166 0
-8686 181 0
-8686 211 0
-166 -181 -211 8686 0
-8687 167 0
-8687 182 0
-8687 212 0
-167 -182 -212 8687 0
-8688 168 0
-8688 183 0
-8688 213 0
-168 -183 -213 8688 0
-8689 169 0
-8689 184 0
-8689 214 0
-169 -184 -214 8689 0
-8690 170 0
-8690 185 0
-8690 215 0
-170 -185 -215 8690 0
-8691 171 0
-8691 186 0
-8691 216 0
-171 -186 -216 8691 0
-8692 172 0
-8692 187 0
-8692 217 0
-172 -187 -217 8692 0
-8693 173 0
-8693 188 0
-8693 218 0
-173 -188 -218 8693 0
-8694 174 0
-8694 189 0
-8694 219 0
-174 -189 -219 8694 0
-8695 175 0
-8695 190 0
-8695 220 0
-175 -190 -220 8695 0
-8696 176 0
-8696 191 0
-8696 221 0
-176 -191 -221 8696 0
-8697 177 0
-8697 192 0
-8697 222 0
-177 -192 -222 8697 0
-8698 178 0
-8698 193 0
-8698 223 0
-178 -193 -223 8698 0
-8699 179 0
-8699 194 0
-8699 224 0
-179 -194 -224 8699 0
-8700 180 0
-8700 195 0
-8700 225 0
-180 -195 -225 8700 0
-8686 9183 0
-8687 9183 0
-8688 9183 0
-8689 9183 0
-8690 9183 0
-8691 9183 0
-8692 9183 0
-8693 9183 0
-8694 9183 0
-8695 9183 0
-8696 9183 0
-8697 9183 0
-8698 9183 0
-8699 9183 0
-8700 9183 0
-9183 8686 8687 8688 8689 8690 8691 8692 8693 8694 8695 8696 8697 8698 8699 8700 0
-8701 166 0
-8701 196 0
-8701 211 0
-166 -196 -211 8701 0
-8702 167 0
-8702 197 0
-8702 212 0
-167 -197 -212 8702 0
-8703 168 0
-8703 198 0
-8703 213 0
-168 -198 -213 8703 0
-8704 169 0
-8704 199 0
-8704 214 0
-169 -199 -214 8704 0
-8705 170 0
-8705 200 0
-8705 215 0
-170 -200 -215 8705 0
-8706 171 0
-8706 201 0
-8706 216 0
-171 -201 -216 8706 0
-8707 172 0
-8707 202 0
-8707 217 0
-172 -202 -217 8707 0
-8708 173 0
-8708 203 0
-8708 218 0
-173 -203 -218 8708 0
-8709 174 0
-8709 204 0
-8709 219 0
-174 -204 -219 8709 0
-8710 175 0
-8710 205 0
-8710 220 0
-175 -205 -220 8710 0
-8711 176 0
-8711 206 0
-8711 221 0
-176 -206 -221 8711 0
-8712 177 0
-8712 207 0
-8712 222 0
-177 -207 -222 8712 0
-8713 178 0
-8713 208 0
-8713 223 0
-178 -208 -223 8713 0
-8714 179 0
-8714 209 0
-8714 224 0
-179 -209 -224 8714 0
-8715 180 0
-8715 210 0
-8715 225 0
-180 -210 -225 8715 0
-8701 9184 0
-8702 9184 0
-8703 9184 0
-8704 9184 0
-8705 9184 0
-8706 9184 0
-8707 9184 0
-8708 9184 0
-8709 9184 0
-8710 9184 0
-8711 9184 0
-8712 9184 0
-8713 9184 0
-8714 9184 0
-8715 9184 0
-9184 8701 8702 8703 8704 8705 8706 8707 8708 8709 8710 8711 8712 8713 8714 8715 0
-8716 181 0
-8716 196 0
-8716 211 0
-181 -196 -211 8716 0
-8717 182 0
-8717 197 0
-8717 212 0
-182 -197 -212 8717 0
-8718 183 0
-8718 198 0
-8718 213 0
-183 -198 -213 8718 0
-8719 184 0
-8719 199 0
-8719 214 0
-184 -199 -214 8719 0
-8720 185 0
-8720 200 0
-8720 215 0
-185 -200 -215 8720 0
-8721 186 0
-8721 201 0
-8721 216 0
-186 -201 -216 8721 0
-8722 187 0
-8722 202 0
-8722 217 0
-187 -202 -217 8722 0
-8723 188 0
-8723 203 0
-8723 218 0
-188 -203 -218 8723 0
-8724 189 0
-8724 204 0
-8724 219 0
-189 -204 -219 8724 0
-8725 190 0
-8725 205 0
-8725 220 0
-190 -205 -220 8725 0
-8726 191 0
-8726 206 0
-8726 221 0
-191 -206 -221 8726 0
-8727 192 0
-8727 207 0
-8727 222 0
-192 -207 -222 8727 0
-8728 193 0
-8728 208 0
-8728 223 0
-193 -208 -223 8728 0
-8729 194 0
-8729 209 0
-8729 224 0
-194 -209 -224 8729 0
-8730 195 0
-8730 210 0
-8730 225 0
-195 -210 -225 8730 0
-8716 9185 0
-8717 9185 0
-8718 9185 0
-8719 9185 0
-8720 9185 0
-8721 9185 0
-8722 9185 0
-8723 9185 0
-8724 9185 0
-8725 9185 0
-8726 9185 0
-8727 9185 0
-8728 9185 0
-8729 9185 0
-8730 9185 0
-9185 8716 8717 8718 8719 8720 8721 8722 8723 8724 8725 8726 8727 8728 8729 8730 0
-1801 -1815 -1828 -1803 8731 8822 8744 8732 0
-1801 -1816 -1828 -1802 8732 8822 8744 8731 0
-1802 -1815 -1816 -1803 8731 8822 8732 8744 0
-1801 -1815 -1829 -1804 8731 8823 8745 8733 0
-1801 -1817 -1829 -1802 8733 8823 8745 8731 0
-1802 -1815 -1817 -1804 8731 8823 8733 8745 0
-1801 -1815 -1830 -1805 8731 8824 8746 8734 0
-1801 -1818 -1830 -1802 8734 8824 8746 8731 0
-1802 -1815 -1818 -1805 8731 8824 8734 8746 0
-1801 -1815 -1831 -1806 8731 8825 8747 8735 0
-1801 -1819 -1831 -1802 8735 8825 8747 8731 0
-1802 -1815 -1819 -1806 8731 8825 8735 8747 0
-1801 -1815 -1832 -1807 8731 8826 8748 8736 0
-1801 -1820 -1832 -1802 8736 8826 8748 8731 0
-1802 -1815 -1820 -1807 8731 8826 8736 8748 0
-1801 -1815 -1833 -1808 8731 8827 8749 8737 0
-1801 -1821 -1833 -1802 8737 8827 8749 8731 0
-1802 -1815 -1821 -1808 8731 8827 8737 8749 0
-1801 -1815 -1834 -1809 8731 8828 8750 8738 0
-1801 -1822 -1834 -1802 8738 8828 8750 8731 0
-1802 -1815 -1822 -1809 8731 8828 8738 8750 0
-1801 -1815 -1835 -1810 8731 8829 8751 8739 0
-1801 -1823 -1835 -1802 8739 8829 8751 8731 0
-1802 -1815 -1823 -1810 8731 8829 8739 8751 0
-1801 -1815 -1836 -1811 8731 8830 8752 8740 0
-1801 -1824 -1836 -1802 8740 8830 8752 8731 0
-1802 -1815 -1824 -1811 8731 8830 8740 8752 0
-1801 -1815 -1837 -1812 8731 8831 8753 8741 0
-1801 -1825 -1837 -1802 8741 8831 8753 8731 0
-1802 -1815 -1825 -1812 8731 8831 8741 8753 0
-1801 -1815 -1838 -1813 8731 8832 8754 8742 0
-1801 -1826 -1838 -1802 8742 8832 8754 8731 0
-1802 -1815 -1826 -1813 8731 8832 8742 8754 0
-1801 -1815 -1839 -1814 8731 8833 8755 8743 0
-1801 -1827 -1839 -1802 8743 8833 8755 8731 0
-1802 -1815 -1827 -1814 8731 8833 8743 8755 0
-1801 -1816 -1840 -1804 8732 8834 8756 8733 0
-1801 -1817 -1840 -1803 8733 8834 8756 8732 0
-1803 -1816 -1817 -1804 8732 8834 8733 8756 0
-1801 -1816 -1841 -1805 8732 8835 8757 8734 0
-1801 -1818 -1841 -1803 8734 8835 8757 8732 0
-1803 -1816 -1818 -1805 8732 8835 8734 8757 0
-1801 -1816 -1842 -1806 8732 8836 8758 8735 0
-1801 -1819 -1842 -1803 8735 8836 8758 8732 0
-1803 -1816 -1819 -1806 8732 8836 8735 8758 0
-1801 -1816 -1843 -1807 8732 8837 8759 8736 0
-1801 -1820 -1843 -1803 8736 8837 8759 8732 0
-1803 -1816 -1820 -1807 8732 8837 8736 8759 0
-1801 -1816 -1844 -1808 8732 8838 8760 8737 0
-1801 -1821 -1844 -1803 8737 8838 8760 8732 0
-1803 -1816 -1821 -1808 8732 8838 8737 8760 0
-1801 -1816 -1845 -1809 8732 8839 8761 8738 0
-1801 -1822 -1845 -1803 8738 8839 8761 8732 0
-1803 -1816 -1822 -1809 8732 8839 8738 8761 0
-1801 -1816 -1846 -1810 8732 8840 8762 8739 0
-1801 -1823 -1846 -1803 8739 8840 8762 8732 0
-1803 -1816 -1823 -1810 8732 8840 8739 8762 0
-1801 -1816 -1847 -1811 8732 8841 8763 8740 0
-1801 -1824 -1847 -1803 8740 8841 8763 8732 0
-1803 -1816 -1824 -1811 8732 8841 8740 8763 0
-1801 -1816 -1848 -1812 8732 8842 8764 8741 0
-1801 -1825 -1848 -1803 8741 8842 8764 8732 0
-1803 -1816 -1825 -1812 8732 8842 8741 8764 0
-1801 -1816 -1849 -1813 8732 8843 8765 8742 0
-1801 -1826 -1849 -1803 8742 8843 8765 8732 0
-1803 -1816 -1826 -1813 8732 8843 8742 8765 0
-1801 -1816 -1850 -1814 8732 8844 8766 8743 0
-1801 -1827 -1850 -1803 8743 8844 8766 8732 0
-1803 -1816 -1827 -1814 8732 8844 8743 8766 0
-1801 -1817 -1851 -1805 8733 8845 8767 8734 0
-1801 -1818 -1851 -1804 8734 8845 8767 8733 0
-1804 -1817 -1818 -1805 8733 8845 8734 8767 0
-1801 -1817 -1852 -1806 8733 8846 8768 8735 0
-1801 -1819 -1852 -1804 8735 8846 8768 8733 0
-1804 -1817 -1819 -1806 8733 8846 8735 8768 0
-1801 -1817 -1853 -1807 8733 8847 8769 8736 0
-1801 -1820 -1853 -1804 8736 8847 8769 8733 0
-1804 -1817 -1820 -1807 8733 8847 8736 8769 0
-1801 -1817 -1854 -1808 8733 8848 8770 8737 0
-1801 -1821 -1854 -1804 8737 8848 8770 8733 0
-1804 -1817 -1821 -1808 8733 8848 8737 8770 0
-1801 -1817 -1855 -1809 8733 8849 8771 8738 0
-1801 -1822 -1855 -1804 8738 8849 8771 8733 0
-1804 -1817 -1822 -1809 8733 8849 8738 8771 0
-1801 -1817 -1856 -1810 8733 8850 8772 8739 0
-1801 -1823 -1856 -1804 8739 8850 8772 8733 0
-1804 -1817 -1823 -1810 8733 8850 8739 8772 0
-1801 -1817 -1857 -1811 8733 8851 8773 8740 0
-1801 -1824 -1857 -1804 8740 8851 8773 8733 0
-1804 -1817 -1824 -1811 8733 8851 8740 8773 0
-1801 -1817 -1858 -1812 8733 8852 8774 8741 0
-1801 -1825 -1858 -1804 8741 8852 8774 8733 0
-1804 -1817 -1825 -1812 8733 8852 8741 8774 0
-1801 -1817 -1859 -1813 8733 8853 8775 8742 0
-1801 -1826 -1859 -1804 8742 8853 8775 8733 0
-1804 -1817 -1826 -1813 8733 8853 8742 8775 0
-1801 -1817 -1860 -1814 8733 8854 8776 8743 0
-1801 -1827 -1860 -1804 8743 8854 8776 8733 0
-1804 -1817 -1827 -1814 8733 8854 8743 8776 0
-1801 -1818 -1861 -1806 8734 8855 8777 8735 0
-1801 -1819 -1861 -1805 8735 8855 8777 8734 0
-1805 -1818 -1819 -1806 8734 8855 8735 8777 0
-1801 -1818 -1862 -1807 8734 8856 8778 8736 0
-1801 -1820 -1862 -1805 8736 8856 8778 8734 0
-1805 -1818 -1820 -1807 8734 8856 8736 8778 0
-1801 -1818 -1863 -1808 8734 8857 8779 8737 0
-1801 -1821 -1863 -1805 8737 8857 8779 8734 0
-1805 -1818 -1821 -1808 8734 8857 8737 8779 0
-1801 -1818 -1864 -1809 8734 8858 8780 8738 0
-1801 -1822 -1864 -1805 8738 8858 8780 8734 0
-1805 -1818 -1822 -1809 8734 8858 8738 8780 0
-1801 -1818 -1865 -1810 8734 8859 8781 8739 0
-1801 -1823 -1865 -1805 8739 8859 8781 8734 0
-1805 -1818 -1823 -1810 8734 8859 8739 8781 0
-1801 -1818 -1866 -1811 8734 8860 8782 8740 0
-1801 -1824 -1866 -1805 8740 8860 8782 8734 0
-1805 -1818 -1824 -1811 8734 8860 8740 8782 0
-1801 -1818 -1867 -1812 8734 8861 8783 8741 0
-1801 -1825 -1867 -1805 8741 8861 8783 8734 0
-1805 -1818 -1825 -1812 8734 8861 8741 8783 0
-1801 -1818 -1868 -1813 8734 8862 8784 8742 0
-1801 -1826 -1868 -1805 8742 8862 8784 8734 0
-1805 -1818 -1826 -1813 8734 8862 8742 8784 0
-1801 -1818 -1869 -1814 8734 8863 8785 8743 0
-1801 -1827 -1869 -1805 8743 8863 8785 8734 0
-1805 -1818 -1827 -1814 8734 8863 8743 8785 0
-1801 -1819 -1870 -1807 8735 8864 8786 8736 0
-1801 -1820 -1870 -1806 8736 8864 8786 8735 0
-1806 -1819 -1820 -1807 8735 8864 8736 8786 0
-1801 -1819 -1871 -1808 8735 8865 8787 8737 0
-1801 -1821 -1871 -1806 8737 8865 8787 8735 0
-1806 -1819 -1821 -1808 8735 8865 8737 8787 0
-1801 -1819 -1872 -1809 8735 8866 8788 8738 0
-1801 -1822 -1872 -1806 8738 8866 8788 8735 0
-1806 -1819 -1822 -1809 8735 8866 8738 8788 0
-1801 -1819 -1873 -1810 8735 8867 8789 8739 0
-1801 -1823 -1873 -1806 8739 8867 8789 8735 0
-1806 -1819 -1823 -1810 8735 8867 8739 8789 0
-1801 -1819 -1874 -1811 8735 8868 8790 8740 0
-1801 -1824 -1874 -1806 8740 8868 8790 8735 0
-1806 -1819 -1824 -1811 8735 8868 8740 8790 0
-1801 -1819 -1875 -1812 8735 8869 8791 8741 0
-1801 -1825 -1875 -1806 8741 8869 8791 8735 0
-1806 -1819 -1825 -1812 8735 8869 8741 8791 0
-1801 -1819 -1876 -1813 8735 8870 8792 8742 0
-1801 -1826 -1876 -1806 8742 8870 8792 8735 0
-1806 -1819 -1826 -1813 8735 8870 8742 8792 0
-1801 -1819 -1877 -1814 8735 8871 8793 8743 0
-1801 -1827 -1877 -1806 8743 8871 8793 8735 0
-1806 -1819 -1827 -1814 8735 8871 8743 8793 0
-1801 -1820 -1878 -1808 8736 8872 8794 8737 0
-1801 -1821 -1878 -1807 8737 8872 8794 8736 0
-1807 -1820 -1821 -1808 8736 8872 8737 8794 0
-1801 -1820 -1879 -1809 8736 8873 8795 8738 0
-1801 -1822 -1879 -1807 8738 8873 8795 8736 0
-1807 -1820 -1822 -1809 8736 8873 8738 8795 0
-1801 -1820 -1880 -1810 8736 8874 8796 8739 0
-1801 -1823 -1880 -1807 8739 8874 8796 8736 0
-1807 -1820 -1823 -1810 8736 8874 8739 8796 0
-1801 -1820 -1881 -1811 8736 8875 8797 8740 0
-1801 -1824 -1881 -1807 8740 8875 8797 8736 0
-1807 -1820 -1824 -1811 8736 8875 8740 8797 0
-1801 -1820 -1882 -1812 8736 8876 8798 8741 0
-1801 -1825 -1882 -1807 8741 8876 8798 8736 0
-1807 -1820 -1825 -1812 8736 8876 8741 8798 0
-1801 -1820 -1883 -1813 8736 8877 8799 8742 0
-1801 -1826 -1883 -1807 8742 8877 8799 8736 0
-1807 -1820 -1826 -1813 8736 8877 8742 8799 0
-1801 -1820 -1884 -1814 8736 8878 8800 8743 0
-1801 -1827 -1884 -1807 8743 8878 8800 8736 0
-1807 -1820 -1827 -1814 8736 8878 8743 8800 0
-1801 -1821 -1885 -1809 8737 8879 8801 8738 0
-1801 -1822 -1885 -1808 8738 8879 8801 8737 0
-1808 -1821 -1822 -1809 8737 8879 8738 8801 0
-1801 -1821 -1886 -1810 8737 8880 8802 8739 0
-1801 -1823 -1886 -1808 8739 8880 8802 8737 0
-1808 -1821 -1823 -1810 8737 8880 8739 8802 0
-1801 -1821 -1887 -1811 8737 8881 8803 8740 0
-1801 -1824 -1887 -1808 8740 8881 8803 8737 0
-1808 -1821 -1824 -1811 8737 8881 8740 8803 0
-1801 -1821 -1888 -1812 8737 8882 8804 8741 0
-1801 -1825 -1888 -1808 8741 8882 8804 8737 0
-1808 -1821 -1825 -1812 8737 8882 8741 8804 0
-1801 -1821 -1889 -1813 8737 8883 8805 8742 0
-1801 -1826 -1889 -1808 8742 8883 8805 8737 0
-1808 -1821 -1826 -1813 8737 8883 8742 8805 0
-1801 -1821 -1890 -1814 8737 8884 8806 8743 0
-1801 -1827 -1890 -1808 8743 8884 8806 8737 0
-1808 -1821 -1827 -1814 8737 8884 8743 8806 0
-1801 -1822 -1891 -1810 8738 8885 8807 8739 0
-1801 -1823 -1891 -1809 8739 8885 8807 8738 0
-1809 -1822 -1823 -1810 8738 8885 8739 8807 0
-1801 -1822 -1892 -1811 8738 8886 8808 8740 0
-1801 -1824 -1892 -1809 8740 8886 8808 8738 0
-1809 -1822 -1824 -1811 8738 8886 8740 8808 0
-1801 -1822 -1893 -1812 8738 8887 8809 8741 0
-1801 -1825 -1893 -1809 8741 8887 8809 8738 0
-1809 -1822 -1825 -1812 8738 8887 8741 8809 0
-1801 -1822 -1894 -1813 8738 8888 8810 8742 0
-1801 -1826 -1894 -1809 8742 8888 8810 8738 0
-1809 -1822 -1826 -1813 8738 8888 8742 8810 0
-1801 -1822 -1895 -1814 8738 8889 8811 8743 0
-1801 -1827 -1895 -1809 8743 8889 8811 8738 0
-1809 -1822 -1827 -1814 8738 8889 8743 8811 0
-1801 -1823 -1896 -1811 8739 8890 8812 8740 0
-1801 -1824 -1896 -1810 8740 8890 8812 8739 0
-1810 -1823 -1824 -1811 8739 8890 8740 8812 0
-1801 -1823 -1897 -1812 8739 8891 8813 8741 0
-1801 -1825 -1897 -1810 8741 8891 8813 8739 0
-1810 -1823 -1825 -1812 8739 8891 8741 8813 0
-1801 -1823 -1898 -1813 8739 8892 8814 8742 0
-1801 -1826 -1898 -1810 8742 8892 8814 8739 0
-1810 -1823 -1826 -1813 8739 8892 8742 8814 0
-1801 -1823 -1899 -1814 8739 8893 8815 8743 0
-1801 -1827 -1899 -1810 8743 8893 8815 8739 0
-1810 -1823 -1827 -1814 8739 8893 8743 8815 0
-1801 -1824 -1900 -1812 8740 8894 8816 8741 0
-1801 -1825 -1900 -1811 8741 8894 8816 8740 0
-1811 -1824 -1825 -1812 8740 8894 8741 8816 0
-1801 -1824 -1901 -1813 8740 8895 8817 8742 0
-1801 -1826 -1901 -1811 8742 8895 8817 8740 0
-1811 -1824 -1826 -1813 8740 8895 8742 8817 0
-1801 -1824 -1902 -1814 8740 8896 8818 8743 0
-1801 -1827 -1902 -1811 8743 8896 8818 8740 0
-1811 -1824 -1827 -1814 8740 8896 8743 8818 0
-1801 -1825 -1903 -1813 8741 8897 8819 8742 0
-1801 -1826 -1903 -1812 8742 8897 8819 8741 0
-1812 -1825 -1826 -1813 8741 8897 8742 8819 0
-1801 -1825 -1904 -1814 8741 8898 8820 8743 0
-1801 -1827 -1904 -1812 8743 8898 8820 8741 0
-1812 -1825 -1827 -1814 8741 8898 8743 8820 0
-1801 -1826 -1905 -1814 8742 8899 8821 8743 0
-1801 -1827 -1905 -1813 8743 8899 8821 8742 0
-1813 -1826 -1827 -1814 8742 8899 8743 8821 0
-1802 -1828 -1840 -1804 8744 8900 8756 8745 0
-1802 -1829 -1840 -1803 8745 8900 8756 8744 0
-1803 -1828 -1829 -1804 8744 8900 8745 8756 0
-1802 -1828 -1841 -1805 8744 8901 8757 8746 0
-1802 -1830 -1841 -1803 8746 8901 8757 8744 0
-1803 -1828 -1830 -1805 8744 8901 8746 8757 0
-1802 -1828 -1842 -1806 8744 8902 8758 8747 0
-1802 -1831 -1842 -1803 8747 8902 8758 8744 0
-1803 -1828 -1831 -1806 8744 8902 8747 8758 0
-1802 -1828 -1843 -1807 8744 8903 8759 8748 0
-1802 -1832 -1843 -1803 8748 8903 8759 8744 0
-1803 -1828 -1832 -1807 8744 8903 8748 8759 0
-1802 -1828 -1844 -1808 8744 8904 8760 8749 0
-1802 -1833 -1844 -1803 8749 8904 8760 8744 0
-1803 -1828 -1833 -1808 8744 8904 8749 8760 0
-1802 -1828 -1845 -1809 8744 8905 8761 8750 0
-1802 -1834 -1845 -1803 8750 8905 8761 8744 0
-1803 -1828 -1834 -1809 8744 8905 8750 8761 0
-1802 -1828 -1846 -1810 8744 8906 8762 8751 0
-1802 -1835 -1846 -1803 8751 8906 8762 8744 0
-1803 -1828 -1835 -1810 8744 8906 8751 8762 0
-1802 -1828 -1847 -1811 8744 8907 8763 8752 0
-1802 -1836 -1847 -1803 8752 8907 8763 8744 0
-1803 -1828 -1836 -1811 8744 8907 8752 8763 0
-1802 -1828 -1848 -1812 8744 8908 8764 8753 0
-1802 -1837 -1848 -1803 8753 8908 8764 8744 0
-1803 -1828 -1837 -1812 8744 8908 8753 8764 0
-1802 -1828 -1849 -1813 8744 8909 8765 8754 0
-1802 -1838 -1849 -1803 8754 8909 8765 8744 0
-1803 -1828 -1838 -1813 8744 8909 8754 8765 0
-1802 -1828 -1850 -1814 8744 8910 8766 8755 0
-1802 -1839 -1850 -1803 8755 8910 8766 8744 0
-1803 -1828 -1839 -1814 8744 8910 8755 8766 0
-1802 -1829 -1851 -1805 8745 8911 8767 8746 0
-1802 -1830 -1851 -1804 8746 8911 8767 8745 0
-1804 -1829 -1830 -1805 8745 8911 8746 8767 0
-1802 -1829 -1852 -1806 8745 8912 8768 8747 0
-1802 -1831 -1852 -1804 8747 8912 8768 8745 0
-1804 -1829 -1831 -1806 8745 8912 8747 8768 0
-1802 -1829 -1853 -1807 8745 8913 8769 8748 0
-1802 -1832 -1853 -1804 8748 8913 8769 8745 0
-1804 -1829 -1832 -1807 8745 8913 8748 8769 0
-1802 -1829 -1854 -1808 8745 8914 8770 8749 0
-1802 -1833 -1854 -1804 8749 8914 8770 8745 0
-1804 -1829 -1833 -1808 8745 8914 8749 8770 0
-1802 -1829 -1855 -1809 8745 8915 8771 8750 0
-1802 -1834 -1855 -1804 8750 8915 8771 8745 0
-1804 -1829 -1834 -1809 8745 8915 8750 8771 0
-1802 -1829 -1856 -1810 8745 8916 8772 8751 0
-1802 -1835 -1856 -1804 8751 8916 8772 8745 0
-1804 -1829 -1835 -1810 8745 8916 8751 8772 0
-1802 -1829 -1857 -1811 8745 8917 8773 8752 0
-1802 -1836 -1857 -1804 8752 8917 8773 8745 0
-1804 -1829 -1836 -1811 8745 8917 8752 8773 0
-1802 -1829 -1858 -1812 8745 8918 8774 8753 0
-1802 -1837 -1858 -1804 8753 8918 8774 8745 0
-1804 -1829 -1837 -1812 8745 8918 8753 8774 0
-1802 -1829 -1859 -1813 8745 8919 8775 8754 0
-1802 -1838 -1859 -1804 8754 8919 8775 8745 0
-1804 -1829 -1838 -1813 8745 8919 8754 8775 0
-1802 -1829 -1860 -1814 8745 8920 8776 8755 0
-1802 -1839 -1860 -1804 8755 8920 8776 8745 0
-1804 -1829 -1839 -1814 8745 8920 8755 8776 0
-1802 -1830 -1861 -1806 8746 8921 8777 8747 0
-1802 -1831 -1861 -1805 8747 8921 8777 8746 0
-1805 -1830 -1831 -1806 8746 8921 8747 8777 0
-1802 -1830 -1862 -1807 8746 8922 8778 8748 0
-1802 -1832 -1862 -1805 8748 8922 8778 8746 0
-1805 -1830 -1832 -1807 8746 8922 8748 8778 0
-1802 -1830 -1863 -1808 8746 8923 8779 8749 0
-1802 -1833 -1863 -1805 8749 8923 8779 8746 0
-1805 -1830 -1833 -1808 8746 8923 8749 8779 0
-1802 -1830 -1864 -1809 8746 8924 8780 8750 0
-1802 -1834 -1864 -1805 8750 8924 8780 8746 0
-1805 -1830 -1834 -1809 8746 8924 8750 8780 0
-1802 -1830 -1865 -1810 8746 8925 8781 8751 0
-1802 -1835 -1865 -1805 8751 8925 8781 8746 0
-1805 -1830 -1835 -1810 8746 8925 8751 8781 0
-1802 -1830 -1866 -1811 8746 8926 8782 8752 0
-1802 -1836 -1866 -1805 8752 8926 8782 8746 0
-1805 -1830 -1836 -1811 8746 8926 8752 8782 0
-1802 -1830 -1867 -1812 8746 8927 8783 8753 0
-1802 -1837 -1867 -1805 8753 8927 8783 8746 0
-1805 -1830 -1837 -1812 8746 8927 8753 8783 0
-1802 -1830 -1868 -1813 8746 8928 8784 8754 0
-1802 -1838 -1868 -1805 8754 8928 8784 8746 0
-1805 -1830 -1838 -1813 8746 8928 8754 8784 0
-1802 -1830 -1869 -1814 8746 8929 8785 8755 0
-1802 -1839 -1869 -1805 8755 8929 8785 8746 0
-1805 -1830 -1839 -1814 8746 8929 8755 8785 0
-1802 -1831 -1870 -1807 8747 8930 8786 8748 0
-1802 -1832 -1870 -1806 8748 8930 8786 8747 0
-1806 -1831 -1832 -1807 8747 8930 8748 8786 0
-1802 -1831 -1871 -1808 8747 8931 8787 8749 0
-1802 -1833 -1871 -1806 8749 8931 8787 8747 0
-1806 -1831 -1833 -1808 8747 8931 8749 8787 0
-1802 -1831 -1872 -1809 8747 8932 8788 8750 0
-1802 -1834 -1872 -1806 8750 8932 8788 8747 0
-1806 -1831 -1834 -1809 8747 8932 8750 8788 0
-1802 -1831 -1873 -1810 8747 8933 8789 8751 0
-1802 -1835 -1873 -1806 8751 8933 8789 8747 0
-1806 -1831 -1835 -1810 8747 8933 8751 8789 0
-1802 -1831 -1874 -1811 8747 8934 8790 8752 0
-1802 -1836 -1874 -1806 8752 8934 8790 8747 0
-1806 -1831 -1836 -1811 8747 8934 8752 8790 0
-1802 -1831 -1875 -1812 8747 8935 8791 8753 0
-1802 -1837 -1875 -1806 8753 8935 8791 8747 0
-1806 -1831 -1837 -1812 8747 8935 8753 8791 0
-1802 -1831 -1876 -1813 8747 8936 8792 8754 0
-1802 -1838 -1876 -1806 8754 8936 8792 8747 0
-1806 -1831 -1838 -1813 8747 8936 8754 8792 0
-1802 -1831 -1877 -1814 8747 8937 8793 8755 0
-1802 -1839 -1877 -1806 8755 8937 8793 8747 0
-1806 -1831 -1839 -1814 8747 8937 8755 8793 0
-1802 -1832 -1878 -1808 8748 8938 8794 8749 0
-1802 -1833 -1878 -1807 8749 8938 8794 8748 0
-1807 -1832 -1833 -1808 8748 8938 8749 8794 0
-1802 -1832 -1879 -1809 8748 8939 8795 8750 0
-1802 -1834 -1879 -1807 8750 8939 8795 8748 0
-1807 -1832 -1834 -1809 8748 8939 8750 8795 0
-1802 -1832 -1880 -1810 8748 8940 8796 8751 0
-1802 -1835 -1880 -1807 8751 8940 8796 8748 0
-1807 -1832 -1835 -1810 8748 8940 8751 8796 0
-1802 -1832 -1881 -1811 8748 8941 8797 8752 0
-1802 -1836 -1881 -1807 8752 8941 8797 8748 0
-1807 -1832 -1836 -1811 8748 8941 8752 8797 0
-1802 -1832 -1882 -1812 8748 8942 8798 8753 0
-1802 -1837 -1882 -1807 8753 8942 8798 8748 0
-1807 -1832 -1837 -1812 8748 8942 8753 8798 0
-1802 -1832 -1883 -1813 8748 8943 8799 8754 0
-1802 -1838 -1883 -1807 8754 8943 8799 8748 0
-1807 -1832 -1838 -1813 8748 8943 8754 8799 0
-1802 -1832 -1884 -1814 8748 8944 8800 8755 0
-1802 -1839 -1884 -1807 8755 8944 8800 8748 0
-1807 -1832 -1839 -1814 8748 8944 8755 8800 0
-1802 -1833 -1885 -1809 8749 8945 8801 8750 0
-1802 -1834 -1885 -1808 8750 8945 8801 8749 0
-1808 -1833 -1834 -1809 8749 8945 8750 8801 0
-1802 -1833 -1886 -1810 8749 8946 8802 8751 0
-1802 -1835 -1886 -1808 8751 8946 8802 8749 0
-1808 -1833 -1835 -1810 8749 8946 8751 8802 0
-1802 -1833 -1887 -1811 8749 8947 8803 8752 0
-1802 -1836 -1887 -1808 8752 8947 8803 8749 0
-1808 -1833 -1836 -1811 8749 8947 8752 8803 0
-1802 -1833 -1888 -1812 8749 8948 8804 8753 0
-1802 -1837 -1888 -1808 8753 8948 8804 8749 0
-1808 -1833 -1837 -1812 8749 8948 8753 8804 0
-1802 -1833 -1889 -1813 8749 8949 8805 8754 0
-1802 -1838 -1889 -1808 8754 8949 8805 8749 0
-1808 -1833 -1838 -1813 8749 8949 8754 8805 0
-1802 -1833 -1890 -1814 8749 8950 8806 8755 0
-1802 -1839 -1890 -1808 8755 8950 8806 8749 0
-1808 -1833 -1839 -1814 8749 8950 8755 8806 0
-1802 -1834 -1891 -1810 8750 8951 8807 8751 0
-1802 -1835 -1891 -1809 8751 8951 8807 8750 0
-1809 -1834 -1835 -1810 8750 8951 8751 8807 0
-1802 -1834 -1892 -1811 8750 8952 8808 8752 0
-1802 -1836 -1892 -1809 8752 8952 8808 8750 0
-1809 -1834 -1836 -1811 8750 8952 8752 8808 0
-1802 -1834 -1893 -1812 8750 8953 8809 8753 0
-1802 -1837 -1893 -1809 8753 8953 8809 8750 0
-1809 -1834 -1837 -1812 8750 8953 8753 8809 0
-1802 -1834 -1894 -1813 8750 8954 8810 8754 0
-1802 -1838 -1894 -1809 8754 8954 8810 8750 0
-1809 -1834 -1838 -1813 8750 8954 8754 8810 0
-1802 -1834 -1895 -1814 8750 8955 8811 8755 0
-1802 -1839 -1895 -1809 8755 8955 8811 8750 0
-1809 -1834 -1839 -1814 8750 8955 8755 8811 0
-1802 -1835 -1896 -1811 8751 8956 8812 8752 0
-1802 -1836 -1896 -1810 8752 8956 8812 8751 0
-1810 -1835 -1836 -1811 8751 8956 8752 8812 0
-1802 -1835 -1897 -1812 8751 8957 8813 8753 0
-1802 -1837 -1897 -1810 8753 8957 8813 8751 0
-1810 -1835 -1837 -1812 8751 8957 8753 8813 0
-1802 -1835 -1898 -1813 8751 8958 8814 8754 0
-1802 -1838 -1898 -1810 8754 8958 8814 8751 0
-1810 -1835 -1838 -1813 8751 8958 8754 8814 0
-1802 -1835 -1899 -1814 8751 8959 8815 8755 0
-1802 -1839 -1899 -1810 8755 8959 8815 8751 0
-1810 -1835 -1839 -1814 8751 8959 8755 8815 0
-1802 -1836 -1900 -1812 8752 8960 8816 8753 0
-1802 -1837 -1900 -1811 8753 8960 8816 8752 0
-1811 -1836 -1837 -1812 8752 8960 8753 8816 0
-1802 -1836 -1901 -1813 8752 8961 8817 8754 0
-1802 -1838 -1901 -1811 8754 8961 8817 8752 0
-1811 -1836 -1838 -1813 8752 8961 8754 8817 0
-1802 -1836 -1902 -1814 8752 8962 8818 8755 0
-1802 -1839 -1902 -1811 8755 8962 8818 8752 0
-1811 -1836 -1839 -1814 8752 8962 8755 8818 0
-1802 -1837 -1903 -1813 8753 8963 8819 8754 0
-1802 -1838 -1903 -1812 8754 8963 8819 8753 0
-1812 -1837 -1838 -1813 8753 8963 8754 8819 0
-1802 -1837 -1904 -1814 8753 8964 8820 8755 0
-1802 -1839 -1904 -1812 8755 8964 8820 8753 0
-1812 -1837 -1839 -1814 8753 8964 8755 8820 0
-1802 -1838 -1905 -1814 8754 8965 8821 8755 0
-1802 -1839 -1905 -1813 8755 8965 8821 8754 0
-1813 -1838 -1839 -1814 8754 8965 8755 8821 0
-1803 -1840 -1851 -1805 8756 8966 8767 8757 0
-1803 -1841 -1851 -1804 8757 8966 8767 8756 0
-1804 -1840 -1841 -1805 8756 8966 8757 8767 0
-1803 -1840 -1852 -1806 8756 8967 8768 8758 0
-1803 -1842 -1852 -1804 8758 8967 8768 8756 0
-1804 -1840 -1842 -1806 8756 8967 8758 8768 0
-1803 -1840 -1853 -1807 8756 8968 8769 8759 0
-1803 -1843 -1853 -1804 8759 8968 8769 8756 0
-1804 -1840 -1843 -1807 8756 8968 8759 8769 0
-1803 -1840 -1854 -1808 8756 8969 8770 8760 0
-1803 -1844 -1854 -1804 8760 8969 8770 8756 0
-1804 -1840 -1844 -1808 8756 8969 8760 8770 0
-1803 -1840 -1855 -1809 8756 8970 8771 8761 0
-1803 -1845 -1855 -1804 8761 8970 8771 8756 0
-1804 -1840 -1845 -1809 8756 8970 8761 8771 0
-1803 -1840 -1856 -1810 8756 8971 8772 8762 0
-1803 -1846 -1856 -1804 8762 8971 8772 8756 0
-1804 -1840 -1846 -1810 8756 8971 8762 8772 0
-1803 -1840 -1857 -1811 8756 8972 8773 8763 0
-1803 -1847 -1857 -1804 8763 8972 8773 8756 0
-1804 -1840 -1847 -1811 8756 8972 8763 8773 0
-1803 -1840 -1858 -1812 8756 8973 8774 8764 0
-1803 -1848 -1858 -1804 8764 8973 8774 8756 0
-1804 -1840 -1848 -1812 8756 8973 8764 8774 0
-1803 -1840 -1859 -1813 8756 8974 8775 8765 0
-1803 -1849 -1859 -1804 8765 8974 8775 8756 0
-1804 -1840 -1849 -1813 8756 8974 8765 8775 0
-1803 -1840 -1860 -1814 8756 8975 8776 8766 0
-1803 -1850 -1860 -1804 8766 8975 8776 8756 0
-1804 -1840 -1850 -1814 8756 8975 8766 8776 0
-1803 -1841 -1861 -1806 8757 8976 8777 8758 0
-1803 -1842 -1861 -1805 8758 8976 8777 8757 0
-1805 -1841 -1842 -1806 8757 8976 8758 8777 0
-1803 -1841 -1862 -1807 8757 8977 8778 8759 0
-1803 -1843 -1862 -1805 8759 8977 8778 8757 0
-1805 -1841 -1843 -1807 8757 8977 8759 8778 0
-1803 -1841 -1863 -1808 8757 8978 8779 8760 0
-1803 -1844 -1863 -1805 8760 8978 8779 8757 0
-1805 -1841 -1844 -1808 8757 8978 8760 8779 0
-1803 -1841 -1864 -1809 8757 8979 8780 8761 0
-1803 -1845 -1864 -1805 8761 8979 8780 8757 0
-1805 -1841 -1845 -1809 8757 8979 8761 8780 0
-1803 -1841 -1865 -1810 8757 8980 8781 8762 0
-1803 -1846 -1865 -1805 8762 8980 8781 8757 0
-1805 -1841 -1846 -1810 8757 8980 8762 8781 0
-1803 -1841 -1866 -1811 8757 8981 8782 8763 0
-1803 -1847 -1866 -1805 8763 8981 8782 8757 0
-1805 -1841 -1847 -1811 8757 8981 8763 8782 0
-1803 -1841 -1867 -1812 8757 8982 8783 8764 0
-1803 -1848 -1867 -1805 8764 8982 8783 8757 0
-1805 -1841 -1848 -1812 8757 8982 8764 8783 0
-1803 -1841 -1868 -1813 8757 8983 8784 8765 0
-1803 -1849 -1868 -1805 8765 8983 8784 8757 0
-1805 -1841 -1849 -1813 8757 8983 8765 8784 0
-1803 -1841 -1869 -1814 8757 8984 8785 8766 0
-1803 -1850 -1869 -1805 8766 8984 8785 8757 0
-1805 -1841 -1850 -1814 8757 8984 8766 8785 0
-1803 -1842 -1870 -1807 8758 8985 8786 8759 0
-1803 -1843 -1870 -1806 8759 8985 8786 8758 0
-1806 -1842 -1843 -1807 8758 8985 8759 8786 0
-1803 -1842 -1871 -1808 8758 8986 8787 8760 0
-1803 -1844 -1871 -1806 8760 8986 8787 8758 0
-1806 -1842 -1844 -1808 8758 8986 8760 8787 0
-1803 -1842 -1872 -1809 8758 8987 8788 8761 0
-1803 -1845 -1872 -1806 8761 8987 8788 8758 0
-1806 -1842 -1845 -1809 8758 8987 8761 8788 0
-1803 -1842 -1873 -1810 8758 8988 8789 8762 0
-1803 -1846 -1873 -1806 8762 8988 8789 8758 0
-1806 -1842 -1846 -1810 8758 8988 8762 8789 0
-1803 -1842 -1874 -1811 8758 8989 8790 8763 0
-1803 -1847 -1874 -1806 8763 8989 8790 8758 0
-1806 -1842 -1847 -1811 8758 8989 8763 8790 0
-1803 -1842 -1875 -1812 8758 8990 8791 8764 0
-1803 -1848 -1875 -1806 8764 8990 8791 8758 0
-1806 -1842 -1848 -1812 8758 8990 8764 8791 0
-1803 -1842 -1876 -1813 8758 8991 8792 8765 0
-1803 -1849 -1876 -1806 8765 8991 8792 8758 0
-1806 -1842 -1849 -1813 8758 8991 8765 8792 0
-1803 -1842 -1877 -1814 8758 8992 8793 8766 0
-1803 -1850 -1877 -1806 8766 8992 8793 8758 0
-1806 -1842 -1850 -1814 8758 8992 8766 8793 0
-1803 -1843 -1878 -1808 8759 8993 8794 8760 0
-1803 -1844 -1878 -1807 8760 8993 8794 8759 0
-1807 -1843 -1844 -1808 8759 8993 8760 8794 0
-1803 -1843 -1879 -1809 8759 8994 8795 8761 0
-1803 -1845 -1879 -1807 8761 8994 8795 8759 0
-1807 -1843 -1845 -1809 8759 8994 8761 8795 0
-1803 -1843 -1880 -1810 8759 8995 8796 8762 0
-1803 -1846 -1880 -1807 8762 8995 8796 8759 0
-1807 -1843 -1846 -1810 8759 8995 8762 8796 0
-1803 -1843 -1881 -1811 8759 8996 8797 8763 0
-1803 -1847 -1881 -1807 8763 8996 8797 8759 0
-1807 -1843 -1847 -1811 8759 8996 8763 8797 0
-1803 -1843 -1882 -1812 8759 8997 8798 8764 0
-1803 -1848 -1882 -1807 8764 8997 8798 8759 0
-1807 -1843 -1848 -1812 8759 8997 8764 8798 0
-1803 -1843 -1883 -1813 8759 8998 8799 8765 0
-1803 -1849 -1883 -1807 8765 8998 8799 8759 0
-1807 -1843 -1849 -1813 8759 8998 8765 8799 0
-1803 -1843 -1884 -1814 8759 8999 8800 8766 0
-1803 -1850 -1884 -1807 8766 8999 8800 8759 0
-1807 -1843 -1850 -1814 8759 8999 8766 8800 0
-1803 -1844 -1885 -1809 8760 9000 8801 8761 0
-1803 -1845 -1885 -1808 8761 9000 8801 8760 0
-1808 -1844 -1845 -1809 8760 9000 8761 8801 0
-1803 -1844 -1886 -1810 8760 9001 8802 8762 0
-1803 -1846 -1886 -1808 8762 9001 8802 8760 0
-1808 -1844 -1846 -1810 8760 9001 8762 8802 0
-1803 -1844 -1887 -1811 8760 9002 8803 8763 0
-1803 -1847 -1887 -1808 8763 9002 8803 8760 0
-1808 -1844 -1847 -1811 8760 9002 8763 8803 0
-1803 -1844 -1888 -1812 8760 9003 8804 8764 0
-1803 -1848 -1888 -1808 8764 9003 8804 8760 0
-1808 -1844 -1848 -1812 8760 9003 8764 8804 0
-1803 -1844 -1889 -1813 8760 9004 8805 8765 0
-1803 -1849 -1889 -1808 8765 9004 8805 8760 0
-1808 -1844 -1849 -1813 8760 9004 8765 8805 0
-1803 -1844 -1890 -1814 8760 9005 8806 8766 0
-1803 -1850 -1890 -1808 8766 9005 8806 8760 0
-1808 -1844 -1850 -1814 8760 9005 8766 8806 0
-1803 -1845 -1891 -1810 8761 9006 8807 8762 0
-1803 -1846 -1891 -1809 8762 9006 8807 8761 0
-1809 -1845 -1846 -1810 8761 9006 8762 8807 0
-1803 -1845 -1892 -1811 8761 9007 8808 8763 0
-1803 -1847 -1892 -1809 8763 9007 8808 8761 0
-1809 -1845 -1847 -1811 8761 9007 8763 8808 0
-1803 -1845 -1893 -1812 8761 9008 8809 8764 0
-1803 -1848 -1893 -1809 8764 9008 8809 8761 0
-1809 -1845 -1848 -1812 8761 9008 8764 8809 0
-1803 -1845 -1894 -1813 8761 9009 8810 8765 0
-1803 -1849 -1894 -1809 8765 9009 8810 8761 0
-1809 -1845 -1849 -1813 8761 9009 8765 8810 0
-1803 -1845 -1895 -1814 8761 9010 8811 8766 0
-1803 -1850 -1895 -1809 8766 9010 8811 8761 0
-1809 -1845 -1850 -1814 8761 9010 8766 8811 0
-1803 -1846 -1896 -1811 8762 9011 8812 8763 0
-1803 -1847 -1896 -1810 8763 9011 8812 8762 0
-1810 -1846 -1847 -1811 8762 9011 8763 8812 0
-1803 -1846 -1897 -1812 8762 9012 8813 8764 0
-1803 -1848 -1897 -1810 8764 9012 8813 8762 0
-1810 -1846 -1848 -1812 8762 9012 8764 8813 0
-1803 -1846 -1898 -1813 8762 9013 8814 8765 0
-1803 -1849 -1898 -1810 8765 9013 8814 8762 0
-1810 -1846 -1849 -1813 8762 9013 8765 8814 0
-1803 -1846 -1899 -1814 8762 9014 8815 8766 0
-1803 -1850 -1899 -1810 8766 9014 8815 8762 0
-1810 -1846 -1850 -1814 8762 9014 8766 8815 0
-1803 -1847 -1900 -1812 8763 9015 8816 8764 0
-1803 -1848 -1900 -1811 8764 9015 8816 8763 0
-1811 -1847 -1848 -1812 8763 9015 8764 8816 0
-1803 -1847 -1901 -1813 8763 9016 8817 8765 0
-1803 -1849 -1901 -1811 8765 9016 8817 8763 0
-1811 -1847 -1849 -1813 8763 9016 8765 8817 0
-1803 -1847 -1902 -1814 8763 9017 8818 8766 0
-1803 -1850 -1902 -1811 8766 9017 8818 8763 0
-1811 -1847 -1850 -1814 8763 9017 8766 8818 0
-1803 -1848 -1903 -1813 8764 9018 8819 8765 0
-1803 -1849 -1903 -1812 8765 9018 8819 8764 0
-1812 -1848 -1849 -1813 8764 9018 8765 8819 0
-1803 -1848 -1904 -1814 8764 9019 8820 8766 0
-1803 -1850 -1904 -1812 8766 9019 8820 8764 0
-1812 -1848 -1850 -1814 8764 9019 8766 8820 0
-1803 -1849 -1905 -1814 8765 9020 8821 8766 0
-1803 -1850 -1905 -1813 8766 9020 8821 8765 0
-1813 -1849 -1850 -1814 8765 9020 8766 8821 0
-1804 -1851 -1861 -1806 8767 9021 8777 8768 0
-1804 -1852 -1861 -1805 8768 9021 8777 8767 0
-1805 -1851 -1852 -1806 8767 9021 8768 8777 0
-1804 -1851 -1862 -1807 8767 9022 8778 8769 0
-1804 -1853 -1862 -1805 8769 9022 8778 8767 0
-1805 -1851 -1853 -1807 8767 9022 8769 8778 0
-1804 -1851 -1863 -1808 8767 9023 8779 8770 0
-1804 -1854 -1863 -1805 8770 9023 8779 8767 0
-1805 -1851 -1854 -1808 8767 9023 8770 8779 0
-1804 -1851 -1864 -1809 8767 9024 8780 8771 0
-1804 -1855 -1864 -1805 8771 9024 8780 8767 0
-1805 -1851 -1855 -1809 8767 9024 8771 8780 0
-1804 -1851 -1865 -1810 8767 9025 8781 8772 0
-1804 -1856 -1865 -1805 8772 9025 8781 8767 0
-1805 -1851 -1856 -1810 8767 9025 8772 8781 0
-1804 -1851 -1866 -1811 8767 9026 8782 8773 0
-1804 -1857 -1866 -1805 8773 9026 8782 8767 0
-1805 -1851 -1857 -1811 8767 9026 8773 8782 0
-1804 -1851 -1867 -1812 8767 9027 8783 8774 0
-1804 -1858 -1867 -1805 8774 9027 8783 8767 0
-1805 -1851 -1858 -1812 8767 9027 8774 8783 0
-1804 -1851 -1868 -1813 8767 9028 8784 8775 0
-1804 -1859 -1868 -1805 8775 9028 8784 8767 0
-1805 -1851 -1859 -1813 8767 9028 8775 8784 0
-1804 -1851 -1869 -1814 8767 9029 8785 8776 0
-1804 -1860 -1869 -1805 8776 9029 8785 8767 0
-1805 -1851 -1860 -1814 8767 9029 8776 8785 0
-1804 -1852 -1870 -1807 8768 9030 8786 8769 0
-1804 -1853 -1870 -1806 8769 9030 8786 8768 0
-1806 -1852 -1853 -1807 8768 9030 8769 8786 0
-1804 -1852 -1871 -1808 8768 9031 8787 8770 0
-1804 -1854 -1871 -1806 8770 9031 8787 8768 0
-1806 -1852 -1854 -1808 8768 9031 8770 8787 0
-1804 -1852 -1872 -1809 8768 9032 8788 8771 0
-1804 -1855 -1872 -1806 8771 9032 8788 8768 0
-1806 -1852 -1855 -1809 8768 9032 8771 8788 0
-1804 -1852 -1873 -1810 8768 9033 8789 8772 0
-1804 -1856 -1873 -1806 8772 9033 8789 8768 0
-1806 -1852 -1856 -1810 8768 9033 8772 8789 0
-1804 -1852 -1874 -1811 8768 9034 8790 8773 0
-1804 -1857 -1874 -1806 8773 9034 8790 8768 0
-1806 -1852 -1857 -1811 8768 9034 8773 8790 0
-1804 -1852 -1875 -1812 8768 9035 8791 8774 0
-1804 -1858 -1875 -1806 8774 9035 8791 8768 0
-1806 -1852 -1858 -1812 8768 9035 8774 8791 0
-1804 -1852 -1876 -1813 8768 9036 8792 8775 0
-1804 -1859 -1876 -1806 8775 9036 8792 8768 0
-1806 -1852 -1859 -1813 8768 9036 8775 8792 0
-1804 -1852 -1877 -1814 8768 9037 8793 8776 0
-1804 -1860 -1877 -1806 8776 9037 8793 8768 0
-1806 -1852 -1860 -1814 8768 9037 8776 8793 0
-1804 -1853 -1878 -1808 8769 9038 8794 8770 0
-1804 -1854 -1878 -1807 8770 9038 8794 8769 0
-1807 -1853 -1854 -1808 8769 9038 8770 8794 0
-1804 -1853 -1879 -1809 8769 9039 8795 8771 0
-1804 -1855 -1879 -1807 8771 9039 8795 8769 0
-1807 -1853 -1855 -1809 8769 9039 8771 8795 0
-1804 -1853 -1880 -1810 8769 9040 8796 8772 0
-1804 -1856 -1880 -1807 8772 9040 8796 8769 0
-1807 -1853 -1856 -1810 8769 9040 8772 8796 0
-1804 -1853 -1881 -1811 8769 9041 8797 8773 0
-1804 -1857 -1881 -1807 8773 9041 8797 8769 0
-1807 -1853 -1857 -1811 8769 9041 8773 8797 0
-1804 -1853 -1882 -1812 8769 9042 8798 8774 0
-1804 -1858 -1882 -1807 8774 9042 8798 8769 0
-1807 -1853 -1858 -1812 8769 9042 8774 8798 0
-1804 -1853 -1883 -1813 8769 9043 8799 8775 0
-1804 -1859 -1883 -1807 8775 9043 8799 8769 0
-1807 -1853 -1859 -1813 8769 9043 8775 8799 0
-1804 -1853 -1884 -1814 8769 9044 8800 8776 0
-1804 -1860 -1884 -1807 8776 9044 8800 8769 0
-1807 -1853 -1860 -1814 8769 9044 8776 8800 0
-1804 -1854 -1885 -1809 8770 9045 8801 8771 0
-1804 -1855 -1885 -1808 8771 9045 8801 8770 0
-1808 -1854 -1855 -1809 8770 9045 8771 8801 0
-1804 -1854 -1886 -1810 8770 9046 8802 8772 0
-1804 -1856 -1886 -1808 8772 9046 8802 8770 0
-1808 -1854 -1856 -1810 8770 9046 8772 8802 0
-1804 -1854 -1887 -1811 8770 9047 8803 8773 0
-1804 -1857 -1887 -1808 8773 9047 8803 8770 0
-1808 -1854 -1857 -1811 8770 9047 8773 8803 0
-1804 -1854 -1888 -1812 8770 9048 8804 8774 0
-1804 -1858 -1888 -1808 8774 9048 8804 8770 0
-1808 -1854 -1858 -1812 8770 9048 8774 8804 0
-1804 -1854 -1889 -1813 8770 9049 8805 8775 0
-1804 -1859 -1889 -1808 8775 9049 8805 8770 0
-1808 -1854 -1859 -1813 8770 9049 8775 8805 0
-1804 -1854 -1890 -1814 8770 9050 8806 8776 0
-1804 -1860 -1890 -1808 8776 9050 8806 8770 0
-1808 -1854 -1860 -1814 8770 9050 8776 8806 0
-1804 -1855 -1891 -1810 8771 9051 8807 8772 0
-1804 -1856 -1891 -1809 8772 9051 8807 8771 0
-1809 -1855 -1856 -1810 8771 9051 8772 8807 0
-1804 -1855 -1892 -1811 8771 9052 8808 8773 0
-1804 -1857 -1892 -1809 8773 9052 8808 8771 0
-1809 -1855 -1857 -1811 8771 9052 8773 8808 0
-1804 -1855 -1893 -1812 8771 9053 8809 8774 0
-1804 -1858 -1893 -1809 8774 9053 8809 8771 0
-1809 -1855 -1858 -1812 8771 9053 8774 8809 0
-1804 -1855 -1894 -1813 8771 9054 8810 8775 0
-1804 -1859 -1894 -1809 8775 9054 8810 8771 0
-1809 -1855 -1859 -1813 8771 9054 8775 8810 0
-1804 -1855 -1895 -1814 8771 9055 8811 8776 0
-1804 -1860 -1895 -1809 8776 9055 8811 8771 0
-1809 -1855 -1860 -1814 8771 9055 8776 8811 0
-1804 -1856 -1896 -1811 8772 9056 8812 8773 0
-1804 -1857 -1896 -1810 8773 9056 8812 8772 0
-1810 -1856 -1857 -1811 8772 9056 8773 8812 0
-1804 -1856 -1897 -1812 8772 9057 8813 8774 0
-1804 -1858 -1897 -1810 8774 9057 8813 8772 0
-1810 -1856 -1858 -1812 8772 9057 8774 8813 0
-1804 -1856 -1898 -1813 8772 9058 8814 8775 0
-1804 -1859 -1898 -1810 8775 9058 8814 8772 0
-1810 -1856 -1859 -1813 8772 9058 8775 8814 0
-1804 -1856 -1899 -1814 8772 9059 8815 8776 0
-1804 -1860 -1899 -1810 8776 9059 8815 8772 0
-1810 -1856 -1860 -1814 8772 9059 8776 8815 0
-1804 -1857 -1900 -1812 8773 9060 8816 8774 0
-1804 -1858 -1900 -1811 8774 9060 8816 8773 0
-1811 -1857 -1858 -1812 8773 9060 8774 8816 0
-1804 -1857 -1901 -1813 8773 9061 8817 8775 0
-1804 -1859 -1901 -1811 8775 9061 8817 8773 0
-1811 -1857 -1859 -1813 8773 9061 8775 8817 0
-1804 -1857 -1902 -1814 8773 9062 8818 8776 0
-1804 -1860 -1902 -1811 8776 9062 8818 8773 0
-1811 -1857 -1860 -1814 8773 9062 8776 8818 0
-1804 -1858 -1903 -1813 8774 9063 8819 8775 0
-1804 -1859 -1903 -1812 8775 9063 8819 8774 0
-1812 -1858 -1859 -1813 8774 9063 8775 8819 0
-1804 -1858 -1904 -1814 8774 9064 8820 8776 0
-1804 -1860 -1904 -1812 8776 9064 8820 8774 0
-1812 -1858 -1860 -1814 8774 9064 8776 8820 0
-1804 -1859 -1905 -1814 8775 9065 8821 8776 0
-1804 -1860 -1905 -1813 8776 9065 8821 8775 0
-1813 -1859 -1860 -1814 8775 9065 8776 8821 0
-1805 -1861 -1870 -1807 8777 9066 8786 8778 0
-1805 -1862 -1870 -1806 8778 9066 8786 8777 0
-1806 -1861 -1862 -1807 8777 9066 8778 8786 0
-1805 -1861 -1871 -1808 8777 9067 8787 8779 0
-1805 -1863 -1871 -1806 8779 9067 8787 8777 0
-1806 -1861 -1863 -1808 8777 9067 8779 8787 0
-1805 -1861 -1872 -1809 8777 9068 8788 8780 0
-1805 -1864 -1872 -1806 8780 9068 8788 8777 0
-1806 -1861 -1864 -1809 8777 9068 8780 8788 0
-1805 -1861 -1873 -1810 8777 9069 8789 8781 0
-1805 -1865 -1873 -1806 8781 9069 8789 8777 0
-1806 -1861 -1865 -1810 8777 9069 8781 8789 0
-1805 -1861 -1874 -1811 8777 9070 8790 8782 0
-1805 -1866 -1874 -1806 8782 9070 8790 8777 0
-1806 -1861 -1866 -1811 8777 9070 8782 8790 0
-1805 -1861 -1875 -1812 8777 9071 8791 8783 0
-1805 -1867 -1875 -1806 8783 9071 8791 8777 0
-1806 -1861 -1867 -1812 8777 9071 8783 8791 0
-1805 -1861 -1876 -1813 8777 9072 8792 8784 0
-1805 -1868 -1876 -1806 8784 9072 8792 8777 0
-1806 -1861 -1868 -1813 8777 9072 8784 8792 0
-1805 -1861 -1877 -1814 8777 9073 8793 8785 0
-1805 -1869 -1877 -1806 8785 9073 8793 8777 0
-1806 -1861 -1869 -1814 8777 9073 8785 8793 0
-1805 -1862 -1878 -1808 8778 9074 8794 8779 0
-1805 -1863 -1878 -1807 8779 9074 8794 8778 0
-1807 -1862 -1863 -1808 8778 9074 8779 8794 0
-1805 -1862 -1879 -1809 8778 9075 8795 8780 0
-1805 -1864 -1879 -1807 8780 9075 8795 8778 0
-1807 -1862 -1864 -1809 8778 9075 8780 8795 0
-1805 -1862 -1880 -1810 8778 9076 8796 8781 0
-1805 -1865 -1880 -1807 8781 9076 8796 8778 0
-1807 -1862 -1865 -1810 8778 9076 8781 8796 0
-1805 -1862 -1881 -1811 8778 9077 8797 8782 0
-1805 -1866 -1881 -1807 8782 9077 8797 8778 0
-1807 -1862 -1866 -1811 8778 9077 8782 8797 0
-1805 -1862 -1882 -1812 8778 9078 8798 8783 0
-1805 -1867 -1882 -1807 8783 9078 8798 8778 0
-1807 -1862 -1867 -1812 8778 9078 8783 8798 0
-1805 -1862 -1883 -1813 8778 9079 8799 8784 0
-1805 -1868 -1883 -1807 8784 9079 8799 8778 0
-1807 -1862 -1868 -1813 8778 9079 8784 8799 0
-1805 -1862 -1884 -1814 8778 9080 8800 8785 0
-1805 -1869 -1884 -1807 8785 9080 8800 8778 0
-1807 -1862 -1869 -1814 8778 9080 8785 8800 0
-1805 -1863 -1885 -1809 8779 9081 8801 8780 0
-1805 -1864 -1885 -1808 8780 9081 8801 8779 0
-1808 -1863 -1864 -1809 8779 9081 8780 8801 0
-1805 -1863 -1886 -1810 8779 9082 8802 8781 0
-1805 -1865 -1886 -1808 8781 9082 8802 8779 0
-1808 -1863 -1865 -1810 8779 9082 8781 8802 0
-1805 -1863 -1887 -1811 8779 9083 8803 8782 0
-1805 -1866 -1887 -1808 8782 9083 8803 8779 0
-1808 -1863 -1866 -1811 8779 9083 8782 8803 0
-1805 -1863 -1888 -1812 8779 9084 8804 8783 0
-1805 -1867 -1888 -1808 8783 9084 8804 8779 0
-1808 -1863 -1867 -1812 8779 9084 8783 8804 0
-1805 -1863 -1889 -1813 8779 9085 8805 8784 0
-1805 -1868 -1889 -1808 8784 9085 8805 8779 0
-1808 -1863 -1868 -1813 8779 9085 8784 8805 0
-1805 -1863 -1890 -1814 8779 9086 8806 8785 0
-1805 -1869 -1890 -1808 8785 9086 8806 8779 0
-1808 -1863 -1869 -1814 8779 9086 8785 8806 0
-1805 -1864 -1891 -1810 8780 9087 8807 8781 0
-1805 -1865 -1891 -1809 8781 9087 8807 8780 0
-1809 -1864 -1865 -1810 8780 9087 8781 8807 0
-1805 -1864 -1892 -1811 8780 9088 8808 8782 0
-1805 -1866 -1892 -1809 8782 9088 8808 8780 0
-1809 -1864 -1866 -1811 8780 9088 8782 8808 0
-1805 -1864 -1893 -1812 8780 9089 8809 8783 0
-1805 -1867 -1893 -1809 8783 9089 8809 8780 0
-1809 -1864 -1867 -1812 8780 9089 8783 8809 0
-1805 -1864 -1894 -1813 8780 9090 8810 8784 0
-1805 -1868 -1894 -1809 8784 9090 8810 8780 0
-1809 -1864 -1868 -1813 8780 9090 8784 8810 0
-1805 -1864 -1895 -1814 8780 9091 8811 8785 0
-1805 -1869 -1895 -1809 8785 9091 8811 8780 0
-1809 -1864 -1869 -1814 8780 9091 8785 8811 0
-1805 -1865 -1896 -1811 8781 9092 8812 8782 0
-1805 -1866 -1896 -1810 8782 9092 8812 8781 0
-1810 -1865 -1866 -1811 8781 9092 8782 8812 0
-1805 -1865 -1897 -1812 8781 9093 8813 8783 0
-1805 -1867 -1897 -1810 8783 9093 8813 8781 0
-1810 -1865 -1867 -1812 8781 9093 8783 8813 0
-1805 -1865 -1898 -1813 8781 9094 8814 8784 0
-1805 -1868 -1898 -1810 8784 9094 8814 8781 0
-1810 -1865 -1868 -1813 8781 9094 8784 8814 0
-1805 -1865 -1899 -1814 8781 9095 8815 8785 0
-1805 -1869 -1899 -1810 8785 9095 8815 8781 0
-1810 -1865 -1869 -1814 8781 9095 8785 8815 0
-1805 -1866 -1900 -1812 8782 9096 8816 8783 0
-1805 -1867 -1900 -1811 8783 9096 8816 8782 0
-1811 -1866 -1867 -1812 8782 9096 8783 8816 0
-1805 -1866 -1901 -1813 8782 9097 8817 8784 0
-1805 -1868 -1901 -1811 8784 9097 8817 8782 0
-1811 -1866 -1868 -1813 8782 9097 8784 8817 0
-1805 -1866 -1902 -1814 8782 9098 8818 8785 0
-1805 -1869 -1902 -1811 8785 9098 8818 8782 0
-1811 -1866 -1869 -1814 8782 9098 8785 8818 0
-1805 -1867 -1903 -1813 8783 9099 8819 8784 0
-1805 -1868 -1903 -1812 8784 9099 8819 8783 0
-1812 -1867 -1868 -1813 8783 9099 8784 8819 0
-1805 -1867 -1904 -1814 8783 9100 8820 8785 0
-1805 -1869 -1904 -1812 8785 9100 8820 8783 0
-1812 -1867 -1869 -1814 8783 9100 8785 8820 0
-1805 -1868 -1905 -1814 8784 9101 8821 8785 0
-1805 -1869 -1905 -1813 8785 9101 8821 8784 0
-1813 -1868 -1869 -1814 8784 9101 8785 8821 0
-1806 -1870 -1878 -1808 8786 9102 8794 8787 0
-1806 -1871 -1878 -1807 8787 9102 8794 8786 0
-1807 -1870 -1871 -1808 8786 9102 8787 8794 0
-1806 -1870 -1879 -1809 8786 9103 8795 8788 0
-1806 -1872 -1879 -1807 8788 9103 8795 8786 0
-1807 -1870 -1872 -1809 8786 9103 8788 8795 0
-1806 -1870 -1880 -1810 8786 9104 8796 8789 0
-1806 -1873 -1880 -1807 8789 9104 8796 8786 0
-1807 -1870 -1873 -1810 8786 9104 8789 8796 0
-1806 -1870 -1881 -1811 8786 9105 8797 8790 0
-1806 -1874 -1881 -1807 8790 9105 8797 8786 0
-1807 -1870 -1874 -1811 8786 9105 8790 8797 0
-1806 -1870 -1882 -1812 8786 9106 8798 8791 0
-1806 -1875 -1882 -1807 8791 9106 8798 8786 0
-1807 -1870 -1875 -1812 8786 9106 8791 8798 0
-1806 -1870 -1883 -1813 8786 9107 8799 8792 0
-1806 -1876 -1883 -1807 8792 9107 8799 8786 0
-1807 -1870 -1876 -1813 8786 9107 8792 8799 0
-1806 -1870 -1884 -1814 8786 9108 8800 8793 0
-1806 -1877 -1884 -1807 8793 9108 8800 8786 0
-1807 -1870 -1877 -1814 8786 9108 8793 8800 0
-1806 -1871 -1885 -1809 8787 9109 8801 8788 0
-1806 -1872 -1885 -1808 8788 9109 8801 8787 0
-1808 -1871 -1872 -1809 8787 9109 8788 8801 0
-1806 -1871 -1886 -1810 8787 9110 8802 8789 0
-1806 -1873 -1886 -1808 8789 9110 8802 8787 0
-1808 -1871 -1873 -1810 8787 9110 8789 8802 0
-1806 -1871 -1887 -1811 8787 9111 8803 8790 0
-1806 -1874 -1887 -1808 8790 9111 8803 8787 0
-1808 -1871 -1874 -1811 8787 9111 8790 8803 0
-1806 -1871 -1888 -1812 8787 9112 8804 8791 0
-1806 -1875 -1888 -1808 8791 9112 8804 8787 0
-1808 -1871 -1875 -1812 8787 9112 8791 8804 0
-1806 -1871 -1889 -1813 8787 9113 8805 8792 0
-1806 -1876 -1889 -1808 8792 9113 8805 8787 0
-1808 -1871 -1876 -1813 8787 9113 8792 8805 0
-1806 -1871 -1890 -1814 8787 9114 8806 8793 0
-1806 -1877 -1890 -1808 8793 9114 8806 8787 0
-1808 -1871 -1877 -1814 8787 9114 8793 8806 0
-1806 -1872 -1891 -1810 8788 9115 8807 8789 0
-1806 -1873 -1891 -1809 8789 9115 8807 8788 0
-1809 -1872 -1873 -1810 8788 9115 8789 8807 0
-1806 -1872 -1892 -1811 8788 9116 8808 8790 0
-1806 -1874 -1892 -1809 8790 9116 8808 8788 0
-1809 -1872 -1874 -1811 8788 9116 8790 8808 0
-1806 -1872 -1893 -1812 8788 9117 8809 8791 0
-1806 -1875 -1893 -1809 8791 9117 8809 8788 0
-1809 -1872 -1875 -1812 8788 9117 8791 8809 0
-1806 -1872 -1894 -1813 8788 9118 8810 8792 0
-1806 -1876 -1894 -1809 8792 9118 8810 8788 0
-1809 -1872 -1876 -1813 8788 9118 8792 8810 0
-1806 -1872 -1895 -1814 8788 9119 8811 8793 0
-1806 -1877 -1895 -1809 8793 9119 8811 8788 0
-1809 -1872 -1877 -1814 8788 9119 8793 8811 0
-1806 -1873 -1896 -1811 8789 9120 8812 8790 0
-1806 -1874 -1896 -1810 8790 9120 8812 8789 0
-1810 -1873 -1874 -1811 8789 9120 8790 8812 0
-1806 -1873 -1897 -1812 8789 9121 8813 8791 0
-1806 -1875 -1897 -1810 8791 9121 8813 8789 0
-1810 -1873 -1875 -1812 8789 9121 8791 8813 0
-1806 -1873 -1898 -1813 8789 9122 8814 8792 0
-1806 -1876 -1898 -1810 8792 9122 8814 8789 0
-1810 -1873 -1876 -1813 8789 9122 8792 8814 0
-1806 -1873 -1899 -1814 8789 9123 8815 8793 0
-1806 -1877 -1899 -1810 8793 9123 8815 8789 0
-1810 -1873 -1877 -1814 8789 9123 8793 8815 0
-1806 -1874 -1900 -1812 8790 9124 8816 8791 0
-1806 -1875 -1900 -1811 8791 9124 8816 8790 0
-1811 -1874 -1875 -1812 8790 9124 8791 8816 0
-1806 -1874 -1901 -1813 8790 9125 8817 8792 0
-1806 -1876 -1901 -1811 8792 9125 8817 8790 0
-1811 -1874 -1876 -1813 8790 9125 8792 8817 0
-1806 -1874 -1902 -1814 8790 9126 8818 8793 0
-1806 -1877 -1902 -1811 8793 9126 8818 8790 0
-1811 -1874 -1877 -1814 8790 9126 8793 8818 0
-1806 -1875 -1903 -1813 8791 9127 8819 8792 0
-1806 -1876 -1903 -1812 8792 9127 8819 8791 0
-1812 -1875 -1876 -1813 8791 9127 8792 8819 0
-1806 -1875 -1904 -1814 8791 9128 8820 8793 0
-1806 -1877 -1904 -1812 8793 9128 8820 8791 0
-1812 -1875 -1877 -1814 8791 9128 8793 8820 0
-1806 -1876 -1905 -1814 8792 9129 8821 8793 0
-1806 -1877 -1905 -1813 8793 9129 8821 8792 0
-1813 -1876 -1877 -1814 8792 9129 8793 8821 0
-1807 -1878 -1885 -1809 8794 9130 8801 8795 0
-1807 -1879 -1885 -1808 8795 9130 8801 8794 0
-1808 -1878 -1879 -1809 8794 9130 8795 8801 0
-1807 -1878 -1886 -1810 8794 9131 8802 8796 0
-1807 -1880 -1886 -1808 8796 9131 8802 8794 0
-1808 -1878 -1880 -1810 8794 9131 8796 8802 0
-1807 -1878 -1887 -1811 8794 9132 8803 8797 0
-1807 -1881 -1887 -1808 8797 9132 8803 8794 0
-1808 -1878 -1881 -1811 8794 9132 8797 8803 0
-1807 -1878 -1888 -1812 8794 9133 8804 8798 0
-1807 -1882 -1888 -1808 8798 9133 8804 8794 0
-1808 -1878 -1882 -1812 8794 9133 8798 8804 0
-1807 -1878 -1889 -1813 8794 9134 8805 8799 0
-1807 -1883 -1889 -1808 8799 9134 8805 8794 0
-1808 -1878 -1883 -1813 8794 9134 8799 8805 0
-1807 -1878 -1890 -1814 8794 9135 8806 8800 0
-1807 -1884 -1890 -1808 8800 9135 8806 8794 0
-1808 -1878 -1884 -1814 8794 9135 8800 8806 0
-1807 -1879 -1891 -1810 8795 9136 8807 8796 0
-1807 -1880 -1891 -1809 8796 9136 8807 8795 0
-1809 -1879 -1880 -1810 8795 9136 8796 8807 0
-1807 -1879 -1892 -1811 8795 9137 8808 8797 0
-1807 -1881 -1892 -1809 8797 9137 8808 8795 0
-1809 -1879 -1881 -1811 8795 9137 8797 8808 0
-1807 -1879 -1893 -1812 8795 9138 8809 8798 0
-1807 -1882 -1893 -1809 8798 9138 8809 8795 0
-1809 -1879 -1882 -1812 8795 9138 8798 8809 0
-1807 -1879 -1894 -1813 8795 9139 8810 8799 0
-1807 -1883 -1894 -1809 8799 9139 8810 8795 0
-1809 -1879 -1883 -1813 8795 9139 8799 8810 0
-1807 -1879 -1895 -1814 8795 9140 8811 8800 0
-1807 -1884 -1895 -1809 8800 9140 8811 8795 0
-1809 -1879 -1884 -1814 8795 9140 8800 8811 0
-1807 -1880 -1896 -1811 8796 9141 8812 8797 0
-1807 -1881 -1896 -1810 8797 9141 8812 8796 0
-1810 -1880 -1881 -1811 8796 9141 8797 8812 0
-1807 -1880 -1897 -1812 8796 9142 8813 8798 0
-1807 -1882 -1897 -1810 8798 9142 8813 8796 0
-1810 -1880 -1882 -1812 8796 9142 8798 8813 0
-1807 -1880 -1898 -1813 8796 9143 8814 8799 0
-1807 -1883 -1898 -1810 8799 9143 8814 8796 0
-1810 -1880 -1883 -1813 8796 9143 8799 8814 0
-1807 -1880 -1899 -1814 8796 9144 8815 8800 0
-1807 -1884 -1899 -1810 8800 9144 8815 8796 0
-1810 -1880 -1884 -1814 8796 9144 8800 8815 0
-1807 -1881 -1900 -1812 8797 9145 8816 8798 0
-1807 -1882 -1900 -1811 8798 9145 8816 8797 0
-1811 -1881 -1882 -1812 8797 9145 8798 8816 0
-1807 -1881 -1901 -1813 8797 9146 8817 8799 0
-1807 -1883 -1901 -1811 8799 9146 8817 8797 0
-1811 -1881 -1883 -1813 8797 9146 8799 8817 0
-1807 -1881 -1902 -1814 8797 9147 8818 8800 0
-1807 -1884 -1902 -1811 8800 9147 8818 8797 0
-1811 -1881 -1884 -1814 8797 9147 8800 8818 0
-1807 -1882 -1903 -1813 8798 9148 8819 8799 0
-1807 -1883 -1903 -1812 8799 9148 8819 8798 0
-1812 -1882 -1883 -1813 8798 9148 8799 8819 0
-1807 -1882 -1904 -1814 8798 9149 8820 8800 0
-1807 -1884 -1904 -1812 8800 9149 8820 8798 0
-1812 -1882 -1884 -1814 8798 9149 8800 8820 0
-1807 -1883 -1905 -1814 8799 9150 8821 8800 0
-1807 -1884 -1905 -1813 8800 9150 8821 8799 0
-1813 -1883 -1884 -1814 8799 9150 8800 8821 0
-1808 -1885 -1891 -1810 8801 9151 8807 8802 0
-1808 -1886 -1891 -1809 8802 9151 8807 8801 0
-1809 -1885 -1886 -1810 8801 9151 8802 8807 0
-1808 -1885 -1892 -1811 8801 9152 8808 8803 0
-1808 -1887 -1892 -1809 8803 9152 8808 8801 0
-1809 -1885 -1887 -1811 8801 9152 8803 8808 0
-1808 -1885 -1893 -1812 8801 9153 8809 8804 0
-1808 -1888 -1893 -1809 8804 9153 8809 8801 0
-1809 -1885 -1888 -1812 8801 9153 8804 8809 0
-1808 -1885 -1894 -1813 8801 9154 8810 8805 0
-1808 -1889 -1894 -1809 8805 9154 8810 8801 0
-1809 -1885 -1889 -1813 8801 9154 8805 8810 0
-1808 -1885 -1895 -1814 8801 9155 8811 8806 0
-1808 -1890 -1895 -1809 8806 9155 8811 8801 0
-1809 -1885 -1890 -1814 8801 9155 8806 8811 0
-1808 -1886 -1896 -1811 8802 9156 8812 8803 0
-1808 -1887 -1896 -1810 8803 9156 8812 8802 0
-1810 -1886 -1887 -1811 8802 9156 8803 8812 0
-1808 -1886 -1897 -1812 8802 9157 8813 8804 0
-1808 -1888 -1897 -1810 8804 9157 8813 8802 0
-1810 -1886 -1888 -1812 8802 9157 8804 8813 0
-1808 -1886 -1898 -1813 8802 9158 8814 8805 0
-1808 -1889 -1898 -1810 8805 9158 8814 8802 0
-1810 -1886 -1889 -1813 8802 9158 8805 8814 0
-1808 -1886 -1899 -1814 8802 9159 8815 8806 0
-1808 -1890 -1899 -1810 8806 9159 8815 8802 0
-1810 -1886 -1890 -1814 8802 9159 8806 8815 0
-1808 -1887 -1900 -1812 8803 9160 8816 8804 0
-1808 -1888 -1900 -1811 8804 9160 8816 8803 0
-1811 -1887 -1888 -1812 8803 9160 8804 8816 0
-1808 -1887 -1901 -1813 8803 9161 8817 8805 0
-1808 -1889 -1901 -1811 8805 9161 8817 8803 0
-1811 -1887 -1889 -1813 8803 9161 8805 8817 0
-1808 -1887 -1902 -1814 8803 9162 8818 8806 0
-1808 -1890 -1902 -1811 8806 9162 8818 8803 0
-1811 -1887 -1890 -1814 8803 9162 8806 8818 0
-1808 -1888 -1903 -1813 8804 9163 8819 8805 0
-1808 -1889 -1903 -1812 8805 9163 8819 8804 0
-1812 -1888 -1889 -1813 8804 9163 8805 8819 0
-1808 -1888 -1904 -1814 8804 9164 8820 8806 0
-1808 -1890 -1904 -1812 8806 9164 8820 8804 0
-1812 -1888 -1890 -1814 8804 9164 8806 8820 0
-1808 -1889 -1905 -1814 8805 9165 8821 8806 0
-1808 -1890 -1905 -1813 8806 9165 8821 8805 0
-1813 -1889 -1890 -1814 8805 9165 8806 8821 0
-1809 -1891 -1896 -1811 8807 9166 8812 8808 0
-1809 -1892 -1896 -1810 8808 9166 8812 8807 0
-1810 -1891 -1892 -1811 8807 9166 8808 8812 0
-1809 -1891 -1897 -1812 8807 9167 8813 8809 0
-1809 -1893 -1897 -1810 8809 9167 8813 8807 0
-1810 -1891 -1893 -1812 8807 9167 8809 8813 0
-1809 -1891 -1898 -1813 8807 9168 8814 8810 0
-1809 -1894 -1898 -1810 8810 9168 8814 8807 0
-1810 -1891 -1894 -1813 8807 9168 8810 8814 0
-1809 -1891 -1899 -1814 8807 9169 8815 8811 0
-1809 -1895 -1899 -1810 8811 9169 8815 8807 0
-1810 -1891 -1895 -1814 8807 9169 8811 8815 0
-1809 -1892 -1900 -1812 8808 9170 8816 8809 0
-1809 -1893 -1900 -1811 8809 9170 8816 8808 0
-1811 -1892 -1893 -1812 8808 9170 8809 8816 0
-1809 -1892 -1901 -1813 8808 9171 8817 8810 0
-1809 -1894 -1901 -1811 8810 9171 8817 8808 0
-1811 -1892 -1894 -1813 8808 9171 8810 8817 0
-1809 -1892 -1902 -1814 8808 9172 8818 8811 0
-1809 -1895 -1902 -1811 8811 9172 8818 8808 0
-1811 -1892 -1895 -1814 8808 9172 8811 8818 0
-1809 -1893 -1903 -1813 8809 9173 8819 8810 0
-1809 -1894 -1903 -1812 8810 9173 8819 8809 0
-1812 -1893 -1894 -1813 8809 9173 8810 8819 0
-1809 -1893 -1904 -1814 8809 9174 8820 8811 0
-1809 -1895 -1904 -1812 8811 9174 8820 8809 0
-1812 -1893 -1895 -1814 8809 9174 8811 8820 0
-1809 -1894 -1905 -1814 8810 9175 8821 8811 0
-1809 -1895 -1905 -1813 8811 9175 8821 8810 0
-1813 -1894 -1895 -1814 8810 9175 8811 8821 0
-1810 -1896 -1900 -1812 8812 9176 8816 8813 0
-1810 -1897 -1900 -1811 8813 9176 8816 8812 0
-1811 -1896 -1897 -1812 8812 9176 8813 8816 0
-1810 -1896 -1901 -1813 8812 9177 8817 8814 0
-1810 -1898 -1901 -1811 8814 9177 8817 8812 0
-1811 -1896 -1898 -1813 8812 9177 8814 8817 0
-1810 -1896 -1902 -1814 8812 9178 8818 8815 0
-1810 -1899 -1902 -1811 8815 9178 8818 8812 0
-1811 -1896 -1899 -1814 8812 9178 8815 8818 0
-1810 -1897 -1903 -1813 8813 9179 8819 8814 0
-1810 -1898 -1903 -1812 8814 9179 8819 8813 0
-1812 -1897 -1898 -1813 8813 9179 8814 8819 0
-1810 -1897 -1904 -1814 8813 9180 8820 8815 0
-1810 -1899 -1904 -1812 8815 9180 8820 8813 0
-1812 -1897 -1899 -1814 8813 9180 8815 8820 0
-1810 -1898 -1905 -1814 8814 9181 8821 8815 0
-1810 -1899 -1905 -1813 8815 9181 8821 8814 0
-1813 -1898 -1899 -1814 8814 9181 8815 8821 0
-1811 -1900 -1903 -1813 8816 9182 8819 8817 0
-1811 -1901 -1903 -1812 8817 9182 8819 8816 0
-1812 -1900 -1901 -1813 8816 9182 8817 8819 0
-1811 -1900 -1904 -1814 8816 9183 8820 8818 0
-1811 -1902 -1904 -1812 8818 9183 8820 8816 0
-1812 -1900 -1902 -1814 8816 9183 8818 8820 0
-1811 -1901 -1905 -1814 8817 9184 8821 8818 0
-1811 -1902 -1905 -1813 8818 9184 8821 8817 0
-1813 -1901 -1902 -1814 8817 9184 8818 8821 0
-1812 -1903 -1905 -1814 8819 9185 8821 8820 0
-1812 -1904 -1905 -1813 8820 9185 8821 8819 0
-1813 -1903 -1904 -1814 8819 9185 8820 8821 0
-1815 -1828 -1840 -1817 8822 8900 8834 8823 0
-1815 -1829 -1840 -1816 8823 8900 8834 8822 0
-1816 -1828 -1829 -1817 8822 8900 8823 8834 0
-1815 -1828 -1841 -1818 8822 8901 8835 8824 0
-1815 -1830 -1841 -1816 8824 8901 8835 8822 0
-1816 -1828 -1830 -1818 8822 8901 8824 8835 0
-1815 -1828 -1842 -1819 8822 8902 8836 8825 0
-1815 -1831 -1842 -1816 8825 8902 8836 8822 0
-1816 -1828 -1831 -1819 8822 8902 8825 8836 0
-1815 -1828 -1843 -1820 8822 8903 8837 8826 0
-1815 -1832 -1843 -1816 8826 8903 8837 8822 0
-1816 -1828 -1832 -1820 8822 8903 8826 8837 0
-1815 -1828 -1844 -1821 8822 8904 8838 8827 0
-1815 -1833 -1844 -1816 8827 8904 8838 8822 0
-1816 -1828 -1833 -1821 8822 8904 8827 8838 0
-1815 -1828 -1845 -1822 8822 8905 8839 8828 0
-1815 -1834 -1845 -1816 8828 8905 8839 8822 0
-1816 -1828 -1834 -1822 8822 8905 8828 8839 0
-1815 -1828 -1846 -1823 8822 8906 8840 8829 0
-1815 -1835 -1846 -1816 8829 8906 8840 8822 0
-1816 -1828 -1835 -1823 8822 8906 8829 8840 0
-1815 -1828 -1847 -1824 8822 8907 8841 8830 0
-1815 -1836 -1847 -1816 8830 8907 8841 8822 0
-1816 -1828 -1836 -1824 8822 8907 8830 8841 0
-1815 -1828 -1848 -1825 8822 8908 8842 8831 0
-1815 -1837 -1848 -1816 8831 8908 8842 8822 0
-1816 -1828 -1837 -1825 8822 8908 8831 8842 0
-1815 -1828 -1849 -1826 8822 8909 8843 8832 0
-1815 -1838 -1849 -1816 8832 8909 8843 8822 0
-1816 -1828 -1838 -1826 8822 8909 8832 8843 0
-1815 -1828 -1850 -1827 8822 8910 8844 8833 0
-1815 -1839 -1850 -1816 8833 8910 8844 8822 0
-1816 -1828 -1839 -1827 8822 8910 8833 8844 0
-1815 -1829 -1851 -1818 8823 8911 8845 8824 0
-1815 -1830 -1851 -1817 8824 8911 8845 8823 0
-1817 -1829 -1830 -1818 8823 8911 8824 8845 0
-1815 -1829 -1852 -1819 8823 8912 8846 8825 0
-1815 -1831 -1852 -1817 8825 8912 8846 8823 0
-1817 -1829 -1831 -1819 8823 8912 8825 8846 0
-1815 -1829 -1853 -1820 8823 8913 8847 8826 0
-1815 -1832 -1853 -1817 8826 8913 8847 8823 0
-1817 -1829 -1832 -1820 8823 8913 8826 8847 0
-1815 -1829 -1854 -1821 8823 8914 8848 8827 0
-1815 -1833 -1854 -1817 8827 8914 8848 8823 0
-1817 -1829 -1833 -1821 8823 8914 8827 8848 0
-1815 -1829 -1855 -1822 8823 8915 8849 8828 0
-1815 -1834 -1855 -1817 8828 8915 8849 8823 0
-1817 -1829 -1834 -1822 8823 8915 8828 8849 0
-1815 -1829 -1856 -1823 8823 8916 8850 8829 0
-1815 -1835 -1856 -1817 8829 8916 8850 8823 0
-1817 -1829 -1835 -1823 8823 8916 8829 8850 0
-1815 -1829 -1857 -1824 8823 8917 8851 8830 0
-1815 -1836 -1857 -1817 8830 8917 8851 8823 0
-1817 -1829 -1836 -1824 8823 8917 8830 8851 0
-1815 -1829 -1858 -1825 8823 8918 8852 8831 0
-1815 -1837 -1858 -1817 8831 8918 8852 8823 0
-1817 -1829 -1837 -1825 8823 8918 8831 8852 0
-1815 -1829 -1859 -1826 8823 8919 8853 8832 0
-1815 -1838 -1859 -1817 8832 8919 8853 8823 0
-1817 -1829 -1838 -1826 8823 8919 8832 8853 0
-1815 -1829 -1860 -1827 8823 8920 8854 8833 0
-1815 -1839 -1860 -1817 8833 8920 8854 8823 0
-1817 -1829 -1839 -1827 8823 8920 8833 8854 0
-1815 -1830 -1861 -1819 8824 8921 8855 8825 0
-1815 -1831 -1861 -1818 8825 8921 8855 8824 0
-1818 -1830 -1831 -1819 8824 8921 8825 8855 0
-1815 -1830 -1862 -1820 8824 8922 8856 8826 0
-1815 -1832 -1862 -1818 8826 8922 8856 8824 0
-1818 -1830 -1832 -1820 8824 8922 8826 8856 0
-1815 -1830 -1863 -1821 8824 8923 8857 8827 0
-1815 -1833 -1863 -1818 8827 8923 8857 8824 0
-1818 -1830 -1833 -1821 8824 8923 8827 8857 0
-1815 -1830 -1864 -1822 8824 8924 8858 8828 0
-1815 -1834 -1864 -1818 8828 8924 8858 8824 0
-1818 -1830 -1834 -1822 8824 8924 8828 8858 0
-1815 -1830 -1865 -1823 8824 8925 8859 8829 0
-1815 -1835 -1865 -1818 8829 8925 8859 8824 0
-1818 -1830 -1835 -1823 8824 8925 8829 8859 0
-1815 -1830 -1866 -1824 8824 8926 8860 8830 0
-1815 -1836 -1866 -1818 8830 8926 8860 8824 0
-1818 -1830 -1836 -1824 8824 8926 8830 8860 0
-1815 -1830 -1867 -1825 8824 8927 8861 8831 0
-1815 -1837 -1867 -1818 8831 8927 8861 8824 0
-1818 -1830 -1837 -1825 8824 8927 8831 8861 0
-1815 -1830 -1868 -1826 8824 8928 8862 8832 0
-1815 -1838 -1868 -1818 8832 8928 8862 8824 0
-1818 -1830 -1838 -1826 8824 8928 8832 8862 0
-1815 -1830 -1869 -1827 8824 8929 8863 8833 0
-1815 -1839 -1869 -1818 8833 8929 8863 8824 0
-1818 -1830 -1839 -1827 8824 8929 8833 8863 0
-1815 -1831 -1870 -1820 8825 8930 8864 8826 0
-1815 -1832 -1870 -1819 8826 8930 8864 8825 0
-1819 -1831 -1832 -1820 8825 8930 8826 8864 0
-1815 -1831 -1871 -1821 8825 8931 8865 8827 0
-1815 -1833 -1871 -1819 8827 8931 8865 8825 0
-1819 -1831 -1833 -1821 8825 8931 8827 8865 0
-1815 -1831 -1872 -1822 8825 8932 8866 8828 0
-1815 -1834 -1872 -1819 8828 8932 8866 8825 0
-1819 -1831 -1834 -1822 8825 8932 8828 8866 0
-1815 -1831 -1873 -1823 8825 8933 8867 8829 0
-1815 -1835 -1873 -1819 8829 8933 8867 8825 0
-1819 -1831 -1835 -1823 8825 8933 8829 8867 0
-1815 -1831 -1874 -1824 8825 8934 8868 8830 0
-1815 -1836 -1874 -1819 8830 8934 8868 8825 0
-1819 -1831 -1836 -1824 8825 8934 8830 8868 0
-1815 -1831 -1875 -1825 8825 8935 8869 8831 0
-1815 -1837 -1875 -1819 8831 8935 8869 8825 0
-1819 -1831 -1837 -1825 8825 8935 8831 8869 0
-1815 -1831 -1876 -1826 8825 8936 8870 8832 0
-1815 -1838 -1876 -1819 8832 8936 8870 8825 0
-1819 -1831 -1838 -1826 8825 8936 8832 8870 0
-1815 -1831 -1877 -1827 8825 8937 8871 8833 0
-1815 -1839 -1877 -1819 8833 8937 8871 8825 0
-1819 -1831 -1839 -1827 8825 8937 8833 8871 0
-1815 -1832 -1878 -1821 8826 8938 8872 8827 0
-1815 -1833 -1878 -1820 8827 8938 8872 8826 0
-1820 -1832 -1833 -1821 8826 8938 8827 8872 0
-1815 -1832 -1879 -1822 8826 8939 8873 8828 0
-1815 -1834 -1879 -1820 8828 8939 8873 8826 0
-1820 -1832 -1834 -1822 8826 8939 8828 8873 0
-1815 -1832 -1880 -1823 8826 8940 8874 8829 0
-1815 -1835 -1880 -1820 8829 8940 8874 8826 0
-1820 -1832 -1835 -1823 8826 8940 8829 8874 0
-1815 -1832 -1881 -1824 8826 8941 8875 8830 0
-1815 -1836 -1881 -1820 8830 8941 8875 8826 0
-1820 -1832 -1836 -1824 8826 8941 8830 8875 0
-1815 -1832 -1882 -1825 8826 8942 8876 8831 0
-1815 -1837 -1882 -1820 8831 8942 8876 8826 0
-1820 -1832 -1837 -1825 8826 8942 8831 8876 0
-1815 -1832 -1883 -1826 8826 8943 8877 8832 0
-1815 -1838 -1883 -1820 8832 8943 8877 8826 0
-1820 -1832 -1838 -1826 8826 8943 8832 8877 0
-1815 -1832 -1884 -1827 8826 8944 8878 8833 0
-1815 -1839 -1884 -1820 8833 8944 8878 8826 0
-1820 -1832 -1839 -1827 8826 8944 8833 8878 0
-1815 -1833 -1885 -1822 8827 8945 8879 8828 0
-1815 -1834 -1885 -1821 8828 8945 8879 8827 0
-1821 -1833 -1834 -1822 8827 8945 8828 8879 0
-1815 -1833 -1886 -1823 8827 8946 8880 8829 0
-1815 -1835 -1886 -1821 8829 8946 8880 8827 0
-1821 -1833 -1835 -1823 8827 8946 8829 8880 0
-1815 -1833 -1887 -1824 8827 8947 8881 8830 0
-1815 -1836 -1887 -1821 8830 8947 8881 8827 0
-1821 -1833 -1836 -1824 8827 8947 8830 8881 0
-1815 -1833 -1888 -1825 8827 8948 8882 8831 0
-1815 -1837 -1888 -1821 8831 8948 8882 8827 0
-1821 -1833 -1837 -1825 8827 8948 8831 8882 0
-1815 -1833 -1889 -1826 8827 8949 8883 8832 0
-1815 -1838 -1889 -1821 8832 8949 8883 8827 0
-1821 -1833 -1838 -1826 8827 8949 8832 8883 0
-1815 -1833 -1890 -1827 8827 8950 8884 8833 0
-1815 -1839 -1890 -1821 8833 8950 8884 8827 0
-1821 -1833 -1839 -1827 8827 8950 8833 8884 0
-1815 -1834 -1891 -1823 8828 8951 8885 8829 0
-1815 -1835 -1891 -1822 8829 8951 8885 8828 0
-1822 -1834 -1835 -1823 8828 8951 8829 8885 0
-1815 -1834 -1892 -1824 8828 8952 8886 8830 0
-1815 -1836 -1892 -1822 8830 8952 8886 8828 0
-1822 -1834 -1836 -1824 8828 8952 8830 8886 0
-1815 -1834 -1893 -1825 8828 8953 8887 8831 0
-1815 -1837 -1893 -1822 8831 8953 8887 8828 0
-1822 -1834 -1837 -1825 8828 8953 8831 8887 0
-1815 -1834 -1894 -1826 8828 8954 8888 8832 0
-1815 -1838 -1894 -1822 8832 8954 8888 8828 0
-1822 -1834 -1838 -1826 8828 8954 8832 8888 0
-1815 -1834 -1895 -1827 8828 8955 8889 8833 0
-1815 -1839 -1895 -1822 8833 8955 8889 8828 0
-1822 -1834 -1839 -1827 8828 8955 8833 8889 0
-1815 -1835 -1896 -1824 8829 8956 8890 8830 0
-1815 -1836 -1896 -1823 8830 8956 8890 8829 0
-1823 -1835 -1836 -1824 8829 8956 8830 8890 0
-1815 -1835 -1897 -1825 8829 8957 8891 8831 0
-1815 -1837 -1897 -1823 8831 8957 8891 8829 0
-1823 -1835 -1837 -1825 8829 8957 8831 8891 0
-1815 -1835 -1898 -1826 8829 8958 8892 8832 0
-1815 -1838 -1898 -1823 8832 8958 8892 8829 0
-1823 -1835 -1838 -1826 8829 8958 8832 8892 0
-1815 -1835 -1899 -1827 8829 8959 8893 8833 0
-1815 -1839 -1899 -1823 8833 8959 8893 8829 0
-1823 -1835 -1839 -1827 8829 8959 8833 8893 0
-1815 -1836 -1900 -1825 8830 8960 8894 8831 0
-1815 -1837 -1900 -1824 8831 8960 8894 8830 0
-1824 -1836 -1837 -1825 8830 8960 8831 8894 0
-1815 -1836 -1901 -1826 8830 8961 8895 8832 0
-1815 -1838 -1901 -1824 8832 8961 8895 8830 0
-1824 -1836 -1838 -1826 8830 8961 8832 8895 0
-1815 -1836 -1902 -1827 8830 8962 8896 8833 0
-1815 -1839 -1902 -1824 8833 8962 8896 8830 0
-1824 -1836 -1839 -1827 8830 8962 8833 8896 0
-1815 -1837 -1903 -1826 8831 8963 8897 8832 0
-1815 -1838 -1903 -1825 8832 8963 8897 8831 0
-1825 -1837 -1838 -1826 8831 8963 8832 8897 0
-1815 -1837 -1904 -1827 8831 8964 8898 8833 0
-1815 -1839 -1904 -1825 8833 8964 8898 8831 0
-1825 -1837 -1839 -1827 8831 8964 8833 8898 0
-1815 -1838 -1905 -1827 8832 8965 8899 8833 0
-1815 -1839 -1905 -1826 8833 8965 8899 8832 0
-1826 -1838 -1839 -1827 8832 8965 8833 8899 0
-1816 -1840 -1851 -1818 8834 8966 8845 8835 0
-1816 -1841 -1851 -1817 8835 8966 8845 8834 0
-1817 -1840 -1841 -1818 8834 8966 8835 8845 0
-1816 -1840 -1852 -1819 8834 8967 8846 8836 0
-1816 -1842 -1852 -1817 8836 8967 8846 8834 0
-1817 -1840 -1842 -1819 8834 8967 8836 8846 0
-1816 -1840 -1853 -1820 8834 8968 8847 8837 0
-1816 -1843 -1853 -1817 8837 8968 8847 8834 0
-1817 -1840 -1843 -1820 8834 8968 8837 8847 0
-1816 -1840 -1854 -1821 8834 8969 8848 8838 0
-1816 -1844 -1854 -1817 8838 8969 8848 8834 0
-1817 -1840 -1844 -1821 8834 8969 8838 8848 0
-1816 -1840 -1855 -1822 8834 8970 8849 8839 0
-1816 -1845 -1855 -1817 8839 8970 8849 8834 0
-1817 -1840 -1845 -1822 8834 8970 8839 8849 0
-1816 -1840 -1856 -1823 8834 8971 8850 8840 0
-1816 -1846 -1856 -1817 8840 8971 8850 8834 0
-1817 -1840 -1846 -1823 8834 8971 8840 8850 0
-1816 -1840 -1857 -1824 8834 8972 8851 8841 0
-1816 -1847 -1857 -1817 8841 8972 8851 8834 0
-1817 -1840 -1847 -1824 8834 8972 8841 8851 0
-1816 -1840 -1858 -1825 8834 8973 8852 8842 0
-1816 -1848 -1858 -1817 8842 8973 8852 8834 0
-1817 -1840 -1848 -1825 8834 8973 8842 8852 0
-1816 -1840 -1859 -1826 8834 8974 8853 8843 0
-1816 -1849 -1859 -1817 8843 8974 8853 8834 0
-1817 -1840 -1849 -1826 8834 8974 8843 8853 0
-1816 -1840 -1860 -1827 8834 8975 8854 8844 0
-1816 -1850 -1860 -1817 8844 8975 8854 8834 0
-1817 -1840 -1850 -1827 8834 8975 8844 8854 0
-1816 -1841 -1861 -1819 8835 8976 8855 8836 0
-1816 -1842 -1861 -1818 8836 8976 8855 8835 0
-1818 -1841 -1842 -1819 8835 8976 8836 8855 0
-1816 -1841 -1862 -1820 8835 8977 8856 8837 0
-1816 -1843 -1862 -1818 8837 8977 8856 8835 0
-1818 -1841 -1843 -1820 8835 8977 8837 8856 0
-1816 -1841 -1863 -1821 8835 8978 8857 8838 0
-1816 -1844 -1863 -1818 8838 8978 8857 8835 0
-1818 -1841 -1844 -1821 8835 8978 8838 8857 0
-1816 -1841 -1864 -1822 8835 8979 8858 8839 0
-1816 -1845 -1864 -1818 8839 8979 8858 8835 0
-1818 -1841 -1845 -1822 8835 8979 8839 8858 0
-1816 -1841 -1865 -1823 8835 8980 8859 8840 0
-1816 -1846 -1865 -1818 8840 8980 8859 8835 0
-1818 -1841 -1846 -1823 8835 8980 8840 8859 0
-1816 -1841 -1866 -1824 8835 8981 8860 8841 0
-1816 -1847 -1866 -1818 8841 8981 8860 8835 0
-1818 -1841 -1847 -1824 8835 8981 8841 8860 0
-1816 -1841 -1867 -1825 8835 8982 8861 8842 0
-1816 -1848 -1867 -1818 8842 8982 8861 8835 0
-1818 -1841 -1848 -1825 8835 8982 8842 8861 0
-1816 -1841 -1868 -1826 8835 8983 8862 8843 0
-1816 -1849 -1868 -1818 8843 8983 8862 8835 0
-1818 -1841 -1849 -1826 8835 8983 8843 8862 0
-1816 -1841 -1869 -1827 8835 8984 8863 8844 0
-1816 -1850 -1869 -1818 8844 8984 8863 8835 0
-1818 -1841 -1850 -1827 8835 8984 8844 8863 0
-1816 -1842 -1870 -1820 8836 8985 8864 8837 0
-1816 -1843 -1870 -1819 8837 8985 8864 8836 0
-1819 -1842 -1843 -1820 8836 8985 8837 8864 0
-1816 -1842 -1871 -1821 8836 8986 8865 8838 0
-1816 -1844 -1871 -1819 8838 8986 8865 8836 0
-1819 -1842 -1844 -1821 8836 8986 8838 8865 0
-1816 -1842 -1872 -1822 8836 8987 8866 8839 0
-1816 -1845 -1872 -1819 8839 8987 8866 8836 0
-1819 -1842 -1845 -1822 8836 8987 8839 8866 0
-1816 -1842 -1873 -1823 8836 8988 8867 8840 0
-1816 -1846 -1873 -1819 8840 8988 8867 8836 0
-1819 -1842 -1846 -1823 8836 8988 8840 8867 0
-1816 -1842 -1874 -1824 8836 8989 8868 8841 0
-1816 -1847 -1874 -1819 8841 8989 8868 8836 0
-1819 -1842 -1847 -1824 8836 8989 8841 8868 0
-1816 -1842 -1875 -1825 8836 8990 8869 8842 0
-1816 -1848 -1875 -1819 8842 8990 8869 8836 0
-1819 -1842 -1848 -1825 8836 8990 8842 8869 0
-1816 -1842 -1876 -1826 8836 8991 8870 8843 0
-1816 -1849 -1876 -1819 8843 8991 8870 8836 0
-1819 -1842 -1849 -1826 8836 8991 8843 8870 0
-1816 -1842 -1877 -1827 8836 8992 8871 8844 0
-1816 -1850 -1877 -1819 8844 8992 8871 8836 0
-1819 -1842 -1850 -1827 8836 8992 8844 8871 0
-1816 -1843 -1878 -1821 8837 8993 8872 8838 0
-1816 -1844 -1878 -1820 8838 8993 8872 8837 0
-1820 -1843 -1844 -1821 8837 8993 8838 8872 0
-1816 -1843 -1879 -1822 8837 8994 8873 8839 0
-1816 -1845 -1879 -1820 8839 8994 8873 8837 0
-1820 -1843 -1845 -1822 8837 8994 8839 8873 0
-1816 -1843 -1880 -1823 8837 8995 8874 8840 0
-1816 -1846 -1880 -1820 8840 8995 8874 8837 0
-1820 -1843 -1846 -1823 8837 8995 8840 8874 0
-1816 -1843 -1881 -1824 8837 8996 8875 8841 0
-1816 -1847 -1881 -1820 8841 8996 8875 8837 0
-1820 -1843 -1847 -1824 8837 8996 8841 8875 0
-1816 -1843 -1882 -1825 8837 8997 8876 8842 0
-1816 -1848 -1882 -1820 8842 8997 8876 8837 0
-1820 -1843 -1848 -1825 8837 8997 8842 8876 0
-1816 -1843 -1883 -1826 8837 8998 8877 8843 0
-1816 -1849 -1883 -1820 8843 8998 8877 8837 0
-1820 -1843 -1849 -1826 8837 8998 8843 8877 0
-1816 -1843 -1884 -1827 8837 8999 8878 8844 0
-1816 -1850 -1884 -1820 8844 8999 8878 8837 0
-1820 -1843 -1850 -1827 8837 8999 8844 8878 0
-1816 -1844 -1885 -1822 8838 9000 8879 8839 0
-1816 -1845 -1885 -1821 8839 9000 8879 8838 0
-1821 -1844 -1845 -1822 8838 9000 8839 8879 0
-1816 -1844 -1886 -1823 8838 9001 8880 8840 0
-1816 -1846 -1886 -1821 8840 9001 8880 8838 0
-1821 -1844 -1846 -1823 8838 9001 8840 8880 0
-1816 -1844 -1887 -1824 8838 9002 8881 8841 0
-1816 -1847 -1887 -1821 8841 9002 8881 8838 0
-1821 -1844 -1847 -1824 8838 9002 8841 8881 0
-1816 -1844 -1888 -1825 8838 9003 8882 8842 0
-1816 -1848 -1888 -1821 8842 9003 8882 8838 0
-1821 -1844 -1848 -1825 8838 9003 8842 8882 0
-1816 -1844 -1889 -1826 8838 9004 8883 8843 0
-1816 -1849 -1889 -1821 8843 9004 8883 8838 0
-1821 -1844 -1849 -1826 8838 9004 8843 8883 0
-1816 -1844 -1890 -1827 8838 9005 8884 8844 0
-1816 -1850 -1890 -1821 8844 9005 8884 8838 0
-1821 -1844 -1850 -1827 8838 9005 8844 8884 0
-1816 -1845 -1891 -1823 8839 9006 8885 8840 0
-1816 -1846 -1891 -1822 8840 9006 8885 8839 0
-1822 -1845 -1846 -1823 8839 9006 8840 8885 0
-1816 -1845 -1892 -1824 8839 9007 8886 8841 0
-1816 -1847 -1892 -1822 8841 9007 8886 8839 0
-1822 -1845 -1847 -1824 8839 9007 8841 8886 0
-1816 -1845 -1893 -1825 8839 9008 8887 8842 0
-1816 -1848 -1893 -1822 8842 9008 8887 8839 0
-1822 -1845 -1848 -1825 8839 9008 8842 8887 0
-1816 -1845 -1894 -1826 8839 9009 8888 8843 0
-1816 -1849 -1894 -1822 8843 9009 8888 8839 0
-1822 -1845 -1849 -1826 8839 9009 8843 8888 0
-1816 -1845 -1895 -1827 8839 9010 8889 8844 0
-1816 -1850 -1895 -1822 8844 9010 8889 8839 0
-1822 -1845 -1850 -1827 8839 9010 8844 8889 0
-1816 -1846 -1896 -1824 8840 9011 8890 8841 0
-1816 -1847 -1896 -1823 8841 9011 8890 8840 0
-1823 -1846 -1847 -1824 8840 9011 8841 8890 0
-1816 -1846 -1897 -1825 8840 9012 8891 8842 0
-1816 -1848 -1897 -1823 8842 9012 8891 8840 0
-1823 -1846 -1848 -1825 8840 9012 8842 8891 0
-1816 -1846 -1898 -1826 8840 9013 8892 8843 0
-1816 -1849 -1898 -1823 8843 9013 8892 8840 0
-1823 -1846 -1849 -1826 8840 9013 8843 8892 0
-1816 -1846 -1899 -1827 8840 9014 8893 8844 0
-1816 -1850 -1899 -1823 8844 9014 8893 8840 0
-1823 -1846 -1850 -1827 8840 9014 8844 8893 0
-1816 -1847 -1900 -1825 8841 9015 8894 8842 0
-1816 -1848 -1900 -1824 8842 9015 8894 8841 0
-1824 -1847 -1848 -1825 8841 9015 8842 8894 0
-1816 -1847 -1901 -1826 8841 9016 8895 8843 0
-1816 -1849 -1901 -1824 8843 9016 8895 8841 0
-1824 -1847 -1849 -1826 8841 9016 8843 8895 0
-1816 -1847 -1902 -1827 8841 9017 8896 8844 0
-1816 -1850 -1902 -1824 8844 9017 8896 8841 0
-1824 -1847 -1850 -1827 8841 9017 8844 8896 0
-1816 -1848 -1903 -1826 8842 9018 8897 8843 0
-1816 -1849 -1903 -1825 8843 9018 8897 8842 0
-1825 -1848 -1849 -1826 8842 9018 8843 8897 0
-1816 -1848 -1904 -1827 8842 9019 8898 8844 0
-1816 -1850 -1904 -1825 8844 9019 8898 8842 0
-1825 -1848 -1850 -1827 8842 9019 8844 8898 0
-1816 -1849 -1905 -1827 8843 9020 8899 8844 0
-1816 -1850 -1905 -1826 8844 9020 8899 8843 0
-1826 -1849 -1850 -1827 8843 9020 8844 8899 0
-1817 -1851 -1861 -1819 8845 9021 8855 8846 0
-1817 -1852 -1861 -1818 8846 9021 8855 8845 0
-1818 -1851 -1852 -1819 8845 9021 8846 8855 0
-1817 -1851 -1862 -1820 8845 9022 8856 8847 0
-1817 -1853 -1862 -1818 8847 9022 8856 8845 0
-1818 -1851 -1853 -1820 8845 9022 8847 8856 0
-1817 -1851 -1863 -1821 8845 9023 8857 8848 0
-1817 -1854 -1863 -1818 8848 9023 8857 8845 0
-1818 -1851 -1854 -1821 8845 9023 8848 8857 0
-1817 -1851 -1864 -1822 8845 9024 8858 8849 0
-1817 -1855 -1864 -1818 8849 9024 8858 8845 0
-1818 -1851 -1855 -1822 8845 9024 8849 8858 0
-1817 -1851 -1865 -1823 8845 9025 8859 8850 0
-1817 -1856 -1865 -1818 8850 9025 8859 8845 0
-1818 -1851 -1856 -1823 8845 9025 8850 8859 0
-1817 -1851 -1866 -1824 8845 9026 8860 8851 0
-1817 -1857 -1866 -1818 8851 9026 8860 8845 0
-1818 -1851 -1857 -1824 8845 9026 8851 8860 0
-1817 -1851 -1867 -1825 8845 9027 8861 8852 0
-1817 -1858 -1867 -1818 8852 9027 8861 8845 0
-1818 -1851 -1858 -1825 8845 9027 8852 8861 0
-1817 -1851 -1868 -1826 8845 9028 8862 8853 0
-1817 -1859 -1868 -1818 8853 9028 8862 8845 0
-1818 -1851 -1859 -1826 8845 9028 8853 8862 0
-1817 -1851 -1869 -1827 8845 9029 8863 8854 0
-1817 -1860 -1869 -1818 8854 9029 8863 8845 0
-1818 -1851 -1860 -1827 8845 9029 8854 8863 0
-1817 -1852 -1870 -1820 8846 9030 8864 8847 0
-1817 -1853 -1870 -1819 8847 9030 8864 8846 0
-1819 -1852 -1853 -1820 8846 9030 8847 8864 0
-1817 -1852 -1871 -1821 8846 9031 8865 8848 0
-1817 -1854 -1871 -1819 8848 9031 8865 8846 0
-1819 -1852 -1854 -1821 8846 9031 8848 8865 0
-1817 -1852 -1872 -1822 8846 9032 8866 8849 0
-1817 -1855 -1872 -1819 8849 9032 8866 8846 0
-1819 -1852 -1855 -1822 8846 9032 8849 8866 0
-1817 -1852 -1873 -1823 8846 9033 8867 8850 0
-1817 -1856 -1873 -1819 8850 9033 8867 8846 0
-1819 -1852 -1856 -1823 8846 9033 8850 8867 0
-1817 -1852 -1874 -1824 8846 9034 8868 8851 0
-1817 -1857 -1874 -1819 8851 9034 8868 8846 0
-1819 -1852 -1857 -1824 8846 9034 8851 8868 0
-1817 -1852 -1875 -1825 8846 9035 8869 8852 0
-1817 -1858 -1875 -1819 8852 9035 8869 8846 0
-1819 -1852 -1858 -1825 8846 9035 8852 8869 0
-1817 -1852 -1876 -1826 8846 9036 8870 8853 0
-1817 -1859 -1876 -1819 8853 9036 8870 8846 0
-1819 -1852 -1859 -1826 8846 9036 8853 8870 0
-1817 -1852 -1877 -1827 8846 9037 8871 8854 0
-1817 -1860 -1877 -1819 8854 9037 8871 8846 0
-1819 -1852 -1860 -1827 8846 9037 8854 8871 0
-1817 -1853 -1878 -1821 8847 9038 8872 8848 0
-1817 -1854 -1878 -1820 8848 9038 8872 8847 0
-1820 -1853 -1854 -1821 8847 9038 8848 8872 0
-1817 -1853 -1879 -1822 8847 9039 8873 8849 0
-1817 -1855 -1879 -1820 8849 9039 8873 8847 0
-1820 -1853 -1855 -1822 8847 9039 8849 8873 0
-1817 -1853 -1880 -1823 8847 9040 8874 8850 0
-1817 -1856 -1880 -1820 8850 9040 8874 8847 0
-1820 -1853 -1856 -1823 8847 9040 8850 8874 0
-1817 -1853 -1881 -1824 8847 9041 8875 8851 0
-1817 -1857 -1881 -1820 8851 9041 8875 8847 0
-1820 -1853 -1857 -1824 8847 9041 8851 8875 0
-1817 -1853 -1882 -1825 8847 9042 8876 8852 0
-1817 -1858 -1882 -1820 8852 9042 8876 8847 0
-1820 -1853 -1858 -1825 8847 9042 8852 8876 0
-1817 -1853 -1883 -1826 8847 9043 8877 8853 0
-1817 -1859 -1883 -1820 8853 9043 8877 8847 0
-1820 -1853 -1859 -1826 8847 9043 8853 8877 0
-1817 -1853 -1884 -1827 8847 9044 8878 8854 0
-1817 -1860 -1884 -1820 8854 9044 8878 8847 0
-1820 -1853 -1860 -1827 8847 9044 8854 8878 0
-1817 -1854 -1885 -1822 8848 9045 8879 8849 0
-1817 -1855 -1885 -1821 8849 9045 8879 8848 0
-1821 -1854 -1855 -1822 8848 9045 8849 8879 0
-1817 -1854 -1886 -1823 8848 9046 8880 8850 0
-1817 -1856 -1886 -1821 8850 9046 8880 8848 0
-1821 -1854 -1856 -1823 8848 9046 8850 8880 0
-1817 -1854 -1887 -1824 8848 9047 8881 8851 0
-1817 -1857 -1887 -1821 8851 9047 8881 8848 0
-1821 -1854 -1857 -1824 8848 9047 8851 8881 0
-1817 -1854 -1888 -1825 8848 9048 8882 8852 0
-1817 -1858 -1888 -1821 8852 9048 8882 8848 0
-1821 -1854 -1858 -1825 8848 9048 8852 8882 0
-1817 -1854 -1889 -1826 8848 9049 8883 8853 0
-1817 -1859 -1889 -1821 8853 9049 8883 8848 0
-1821 -1854 -1859 -1826 8848 9049 8853 8883 0
-1817 -1854 -1890 -1827 8848 9050 8884 8854 0
-1817 -1860 -1890 -1821 8854 9050 8884 8848 0
-1821 -1854 -1860 -1827 8848 9050 8854 8884 0
-1817 -1855 -1891 -1823 8849 9051 8885 8850 0
-1817 -1856 -1891 -1822 8850 9051 8885 8849 0
-1822 -1855 -1856 -1823 8849 9051 8850 8885 0
-1817 -1855 -1892 -1824 8849 9052 8886 8851 0
-1817 -1857 -1892 -1822 8851 9052 8886 8849 0
-1822 -1855 -1857 -1824 8849 9052 8851 8886 0
-1817 -1855 -1893 -1825 8849 9053 8887 8852 0
-1817 -1858 -1893 -1822 8852 9053 8887 8849 0
-1822 -1855 -1858 -1825 8849 9053 8852 8887 0
-1817 -1855 -1894 -1826 8849 9054 8888 8853 0
-1817 -1859 -1894 -1822 8853 9054 8888 8849 0
-1822 -1855 -1859 -1826 8849 9054 8853 8888 0
-1817 -1855 -1895 -1827 8849 9055 8889 8854 0
-1817 -1860 -1895 -1822 8854 9055 8889 8849 0
-1822 -1855 -1860 -1827 8849 9055 8854 8889 0
-1817 -1856 -1896 -1824 8850 9056 8890 8851 0
-1817 -1857 -1896 -1823 8851 9056 8890 8850 0
-1823 -1856 -1857 -1824 8850 9056 8851 8890 0
-1817 -1856 -1897 -1825 8850 9057 8891 8852 0
-1817 -1858 -1897 -1823 8852 9057 8891 8850 0
-1823 -1856 -1858 -1825 8850 9057 8852 8891 0
-1817 -1856 -1898 -1826 8850 9058 8892 8853 0
-1817 -1859 -1898 -1823 8853 9058 8892 8850 0
-1823 -1856 -1859 -1826 8850 9058 8853 8892 0
-1817 -1856 -1899 -1827 8850 9059 8893 8854 0
-1817 -1860 -1899 -1823 8854 9059 8893 8850 0
-1823 -1856 -1860 -1827 8850 9059 8854 8893 0
-1817 -1857 -1900 -1825 8851 9060 8894 8852 0
-1817 -1858 -1900 -1824 8852 9060 8894 8851 0
-1824 -1857 -1858 -1825 8851 9060 8852 8894 0
-1817 -1857 -1901 -1826 8851 9061 8895 8853 0
-1817 -1859 -1901 -1824 8853 9061 8895 8851 0
-1824 -1857 -1859 -1826 8851 9061 8853 8895 0
-1817 -1857 -1902 -1827 8851 9062 8896 8854 0
-1817 -1860 -1902 -1824 8854 9062 8896 8851 0
-1824 -1857 -1860 -1827 8851 9062 8854 8896 0
-1817 -1858 -1903 -1826 8852 9063 8897 8853 0
-1817 -1859 -1903 -1825 8853 9063 8897 8852 0
-1825 -1858 -1859 -1826 8852 9063 8853 8897 0
-1817 -1858 -1904 -1827 8852 9064 8898 8854 0
-1817 -1860 -1904 -1825 8854 9064 8898 8852 0
-1825 -1858 -1860 -1827 8852 9064 8854 8898 0
-1817 -1859 -1905 -1827 8853 9065 8899 8854 0
-1817 -1860 -1905 -1826 8854 9065 8899 8853 0
-1826 -1859 -1860 -1827 8853 9065 8854 8899 0
-1818 -1861 -1870 -1820 8855 9066 8864 8856 0
-1818 -1862 -1870 -1819 8856 9066 8864 8855 0
-1819 -1861 -1862 -1820 8855 9066 8856 8864 0
-1818 -1861 -1871 -1821 8855 9067 8865 8857 0
-1818 -1863 -1871 -1819 8857 9067 8865 8855 0
-1819 -1861 -1863 -1821 8855 9067 8857 8865 0
-1818 -1861 -1872 -1822 8855 9068 8866 8858 0
-1818 -1864 -1872 -1819 8858 9068 8866 8855 0
-1819 -1861 -1864 -1822 8855 9068 8858 8866 0
-1818 -1861 -1873 -1823 8855 9069 8867 8859 0
-1818 -1865 -1873 -1819 8859 9069 8867 8855 0
-1819 -1861 -1865 -1823 8855 9069 8859 8867 0
-1818 -1861 -1874 -1824 8855 9070 8868 8860 0
-1818 -1866 -1874 -1819 8860 9070 8868 8855 0
-1819 -1861 -1866 -1824 8855 9070 8860 8868 0
-1818 -1861 -1875 -1825 8855 9071 8869 8861 0
-1818 -1867 -1875 -1819 8861 9071 8869 8855 0
-1819 -1861 -1867 -1825 8855 9071 8861 8869 0
-1818 -1861 -1876 -1826 8855 9072 8870 8862 0
-1818 -1868 -1876 -1819 8862 9072 8870 8855 0
-1819 -1861 -1868 -1826 8855 9072 8862 8870 0
-1818 -1861 -1877 -1827 8855 9073 8871 8863 0
-1818 -1869 -1877 -1819 8863 9073 8871 8855 0
-1819 -1861 -1869 -1827 8855 9073 8863 8871 0
-1818 -1862 -1878 -1821 8856 9074 8872 8857 0
-1818 -1863 -1878 -1820 8857 9074 8872 8856 0
-1820 -1862 -1863 -1821 8856 9074 8857 8872 0
-1818 -1862 -1879 -1822 8856 9075 8873 8858 0
-1818 -1864 -1879 -1820 8858 9075 8873 8856 0
-1820 -1862 -1864 -1822 8856 9075 8858 8873 0
-1818 -1862 -1880 -1823 8856 9076 8874 8859 0
-1818 -1865 -1880 -1820 8859 9076 8874 8856 0
-1820 -1862 -1865 -1823 8856 9076 8859 8874 0
-1818 -1862 -1881 -1824 8856 9077 8875 8860 0
-1818 -1866 -1881 -1820 8860 9077 8875 8856 0
-1820 -1862 -1866 -1824 8856 9077 8860 8875 0
-1818 -1862 -1882 -1825 8856 9078 8876 8861 0
-1818 -1867 -1882 -1820 8861 9078 8876 8856 0
-1820 -1862 -1867 -1825 8856 9078 8861 8876 0
-1818 -1862 -1883 -1826 8856 9079 8877 8862 0
-1818 -1868 -1883 -1820 8862 9079 8877 8856 0
-1820 -1862 -1868 -1826 8856 9079 8862 8877 0
-1818 -1862 -1884 -1827 8856 9080 8878 8863 0
-1818 -1869 -1884 -1820 8863 9080 8878 8856 0
-1820 -1862 -1869 -1827 8856 9080 8863 8878 0
-1818 -1863 -1885 -1822 8857 9081 8879 8858 0
-1818 -1864 -1885 -1821 8858 9081 8879 8857 0
-1821 -1863 -1864 -1822 8857 9081 8858 8879 0
-1818 -1863 -1886 -1823 8857 9082 8880 8859 0
-1818 -1865 -1886 -1821 8859 9082 8880 8857 0
-1821 -1863 -1865 -1823 8857 9082 8859 8880 0
-1818 -1863 -1887 -1824 8857 9083 8881 8860 0
-1818 -1866 -1887 -1821 8860 9083 8881 8857 0
-1821 -1863 -1866 -1824 8857 9083 8860 8881 0
-1818 -1863 -1888 -1825 8857 9084 8882 8861 0
-1818 -1867 -1888 -1821 8861 9084 8882 8857 0
-1821 -1863 -1867 -1825 8857 9084 8861 8882 0
-1818 -1863 -1889 -1826 8857 9085 8883 8862 0
-1818 -1868 -1889 -1821 8862 9085 8883 8857 0
-1821 -1863 -1868 -1826 8857 9085 8862 8883 0
-1818 -1863 -1890 -1827 8857 9086 8884 8863 0
-1818 -1869 -1890 -1821 8863 9086 8884 8857 0
-1821 -1863 -1869 -1827 8857 9086 8863 8884 0
-1818 -1864 -1891 -1823 8858 9087 8885 8859 0
-1818 -1865 -1891 -1822 8859 9087 8885 8858 0
-1822 -1864 -1865 -1823 8858 9087 8859 8885 0
-1818 -1864 -1892 -1824 8858 9088 8886 8860 0
-1818 -1866 -1892 -1822 8860 9088 8886 8858 0
-1822 -1864 -1866 -1824 8858 9088 8860 8886 0
-1818 -1864 -1893 -1825 8858 9089 8887 8861 0
-1818 -1867 -1893 -1822 8861 9089 8887 8858 0
-1822 -1864 -1867 -1825 8858 9089 8861 8887 0
-1818 -1864 -1894 -1826 8858 9090 8888 8862 0
-1818 -1868 -1894 -1822 8862 9090 8888 8858 0
-1822 -1864 -1868 -1826 8858 9090 8862 8888 0
-1818 -1864 -1895 -1827 8858 9091 8889 8863 0
-1818 -1869 -1895 -1822 8863 9091 8889 8858 0
-1822 -1864 -1869 -1827 8858 9091 8863 8889 0
-1818 -1865 -1896 -1824 8859 9092 8890 8860 0
-1818 -1866 -1896 -1823 8860 9092 8890 8859 0
-1823 -1865 -1866 -1824 8859 9092 8860 8890 0
-1818 -1865 -1897 -1825 8859 9093 8891 8861 0
-1818 -1867 -1897 -1823 8861 9093 8891 8859 0
-1823 -1865 -1867 -1825 8859 9093 8861 8891 0
-1818 -1865 -1898 -1826 8859 9094 8892 8862 0
-1818 -1868 -1898 -1823 8862 9094 8892 8859 0
-1823 -1865 -1868 -1826 8859 9094 8862 8892 0
-1818 -1865 -1899 -1827 8859 9095 8893 8863 0
-1818 -1869 -1899 -1823 8863 9095 8893 8859 0
-1823 -1865 -1869 -1827 8859 9095 8863 8893 0
-1818 -1866 -1900 -1825 8860 9096 8894 8861 0
-1818 -1867 -1900 -1824 8861 9096 8894 8860 0
-1824 -1866 -1867 -1825 8860 9096 8861 8894 0
-1818 -1866 -1901 -1826 8860 9097 8895 8862 0
-1818 -1868 -1901 -1824 8862 9097 8895 8860 0
-1824 -1866 -1868 -1826 8860 9097 8862 8895 0
-1818 -1866 -1902 -1827 8860 9098 8896 8863 0
-1818 -1869 -1902 -1824 8863 9098 8896 8860 0
-1824 -1866 -1869 -1827 8860 9098 8863 8896 0
-1818 -1867 -1903 -1826 8861 9099 8897 8862 0
-1818 -1868 -1903 -1825 8862 9099 8897 8861 0
-1825 -1867 -1868 -1826 8861 9099 8862 8897 0
-1818 -1867 -1904 -1827 8861 9100 8898 8863 0
-1818 -1869 -1904 -1825 8863 9100 8898 8861 0
-1825 -1867 -1869 -1827 8861 9100 8863 8898 0
-1818 -1868 -1905 -1827 8862 9101 8899 8863 0
-1818 -1869 -1905 -1826 8863 9101 8899 8862 0
-1826 -1868 -1869 -1827 8862 9101 8863 8899 0
-1819 -1870 -1878 -1821 8864 9102 8872 8865 0
-1819 -1871 -1878 -1820 8865 9102 8872 8864 0
-1820 -1870 -1871 -1821 8864 9102 8865 8872 0
-1819 -1870 -1879 -1822 8864 9103 8873 8866 0
-1819 -1872 -1879 -1820 8866 9103 8873 8864 0
-1820 -1870 -1872 -1822 8864 9103 8866 8873 0
-1819 -1870 -1880 -1823 8864 9104 8874 8867 0
-1819 -1873 -1880 -1820 8867 9104 8874 8864 0
-1820 -1870 -1873 -1823 8864 9104 8867 8874 0
-1819 -1870 -1881 -1824 8864 9105 8875 8868 0
-1819 -1874 -1881 -1820 8868 9105 8875 8864 0
-1820 -1870 -1874 -1824 8864 9105 8868 8875 0
-1819 -1870 -1882 -1825 8864 9106 8876 8869 0
-1819 -1875 -1882 -1820 8869 9106 8876 8864 0
-1820 -1870 -1875 -1825 8864 9106 8869 8876 0
-1819 -1870 -1883 -1826 8864 9107 8877 8870 0
-1819 -1876 -1883 -1820 8870 9107 8877 8864 0
-1820 -1870 -1876 -1826 8864 9107 8870 8877 0
-1819 -1870 -1884 -1827 8864 9108 8878 8871 0
-1819 -1877 -1884 -1820 8871 9108 8878 8864 0
-1820 -1870 -1877 -1827 8864 9108 8871 8878 0
-1819 -1871 -1885 -1822 8865 9109 8879 8866 0
-1819 -1872 -1885 -1821 8866 9109 8879 8865 0
-1821 -1871 -1872 -1822 8865 9109 8866 8879 0
-1819 -1871 -1886 -1823 8865 9110 8880 8867 0
-1819 -1873 -1886 -1821 8867 9110 8880 8865 0
-1821 -1871 -1873 -1823 8865 9110 8867 8880 0
-1819 -1871 -1887 -1824 8865 9111 8881 8868 0
-1819 -1874 -1887 -1821 8868 9111 8881 8865 0
-1821 -1871 -1874 -1824 8865 9111 8868 8881 0
-1819 -1871 -1888 -1825 8865 9112 8882 8869 0
-1819 -1875 -1888 -1821 8869 9112 8882 8865 0
-1821 -1871 -1875 -1825 8865 9112 8869 8882 0
-1819 -1871 -1889 -1826 8865 9113 8883 8870 0
-1819 -1876 -1889 -1821 8870 9113 8883 8865 0
-1821 -1871 -1876 -1826 8865 9113 8870 8883 0
-1819 -1871 -1890 -1827 8865 9114 8884 8871 0
-1819 -1877 -1890 -1821 8871 9114 8884 8865 0
-1821 -1871 -1877 -1827 8865 9114 8871 8884 0
-1819 -1872 -1891 -1823 8866 9115 8885 8867 0
-1819 -1873 -1891 -1822 8867 9115 8885 8866 0
-1822 -1872 -1873 -1823 8866 9115 8867 8885 0
-1819 -1872 -1892 -1824 8866 9116 8886 8868 0
-1819 -1874 -1892 -1822 8868 9116 8886 8866 0
-1822 -1872 -1874 -1824 8866 9116 8868 8886 0
-1819 -1872 -1893 -1825 8866 9117 8887 8869 0
-1819 -1875 -1893 -1822 8869 9117 8887 8866 0
-1822 -1872 -1875 -1825 8866 9117 8869 8887 0
-1819 -1872 -1894 -1826 8866 9118 8888 8870 0
-1819 -1876 -1894 -1822 8870 9118 8888 8866 0
-1822 -1872 -1876 -1826 8866 9118 8870 8888 0
-1819 -1872 -1895 -1827 8866 9119 8889 8871 0
-1819 -1877 -1895 -1822 8871 9119 8889 8866 0
-1822 -1872 -1877 -1827 8866 9119 8871 8889 0
-1819 -1873 -1896 -1824 8867 9120 8890 8868 0
-1819 -1874 -1896 -1823 8868 9120 8890 8867 0
-1823 -1873 -1874 -1824 8867 9120 8868 8890 0
-1819 -1873 -1897 -1825 8867 9121 8891 8869 0
-1819 -1875 -1897 -1823 8869 9121 8891 8867 0
-1823 -1873 -1875 -1825 8867 9121 8869 8891 0
-1819 -1873 -1898 -1826 8867 9122 8892 8870 0
-1819 -1876 -1898 -1823 8870 9122 8892 8867 0
-1823 -1873 -1876 -1826 8867 9122 8870 8892 0
-1819 -1873 -1899 -1827 8867 9123 8893 8871 0
-1819 -1877 -1899 -1823 8871 9123 8893 8867 0
-1823 -1873 -1877 -1827 8867 9123 8871 8893 0
-1819 -1874 -1900 -1825 8868 9124 8894 8869 0
-1819 -1875 -1900 -1824 8869 9124 8894 8868 0
-1824 -1874 -1875 -1825 8868 9124 8869 8894 0
-1819 -1874 -1901 -1826 8868 9125 8895 8870 0
-1819 -1876 -1901 -1824 8870 9125 8895 8868 0
-1824 -1874 -1876 -1826 8868 9125 8870 8895 0
-1819 -1874 -1902 -1827 8868 9126 8896 8871 0
-1819 -1877 -1902 -1824 8871 9126 8896 8868 0
-1824 -1874 -1877 -1827 8868 9126 8871 8896 0
-1819 -1875 -1903 -1826 8869 9127 8897 8870 0
-1819 -1876 -1903 -1825 8870 9127 8897 8869 0
-1825 -1875 -1876 -1826 8869 9127 8870 8897 0
-1819 -1875 -1904 -1827 8869 9128 8898 8871 0
-1819 -1877 -1904 -1825 8871 9128 8898 8869 0
-1825 -1875 -1877 -1827 8869 9128 8871 8898 0
-1819 -1876 -1905 -1827 8870 9129 8899 8871 0
-1819 -1877 -1905 -1826 8871 9129 8899 8870 0
-1826 -1876 -1877 -1827 8870 9129 8871 8899 0
-1820 -1878 -1885 -1822 8872 9130 8879 8873 0
-1820 -1879 -1885 -1821 8873 9130 8879 8872 0
-1821 -1878 -1879 -1822 8872 9130 8873 8879 0
-1820 -1878 -1886 -1823 8872 9131 8880 8874 0
-1820 -1880 -1886 -1821 8874 9131 8880 8872 0
-1821 -1878 -1880 -1823 8872 9131 8874 8880 0
-1820 -1878 -1887 -1824 8872 9132 8881 8875 0
-1820 -1881 -1887 -1821 8875 9132 8881 8872 0
-1821 -1878 -1881 -1824 8872 9132 8875 8881 0
-1820 -1878 -1888 -1825 8872 9133 8882 8876 0
-1820 -1882 -1888 -1821 8876 9133 8882 8872 0
-1821 -1878 -1882 -1825 8872 9133 8876 8882 0
-1820 -1878 -1889 -1826 8872 9134 8883 8877 0
-1820 -1883 -1889 -1821 8877 9134 8883 8872 0
-1821 -1878 -1883 -1826 8872 9134 8877 8883 0
-1820 -1878 -1890 -1827 8872 9135 8884 8878 0
-1820 -1884 -1890 -1821 8878 9135 8884 8872 0
-1821 -1878 -1884 -1827 8872 9135 8878 8884 0
-1820 -1879 -1891 -1823 8873 9136 8885 8874 0
-1820 -1880 -1891 -1822 8874 9136 8885 8873 0
-1822 -1879 -1880 -1823 8873 9136 8874 8885 0
-1820 -1879 -1892 -1824 8873 9137 8886 8875 0
-1820 -1881 -1892 -1822 8875 9137 8886 8873 0
-1822 -1879 -1881 -1824 8873 9137 8875 8886 0
-1820 -1879 -1893 -1825 8873 9138 8887 8876 0
-1820 -1882 -1893 -1822 8876 9138 8887 8873 0
-1822 -1879 -1882 -1825 8873 9138 8876 8887 0
-1820 -1879 -1894 -1826 8873 9139 8888 8877 0
-1820 -1883 -1894 -1822 8877 9139 8888 8873 0
-1822 -1879 -1883 -1826 8873 9139 8877 8888 0
-1820 -1879 -1895 -1827 8873 9140 8889 8878 0
-1820 -1884 -1895 -1822 8878 9140 8889 8873 0
-1822 -1879 -1884 -1827 8873 9140 8878 8889 0
-1820 -1880 -1896 -1824 8874 9141 8890 8875 0
-1820 -1881 -1896 -1823 8875 9141 8890 8874 0
-1823 -1880 -1881 -1824 8874 9141 8875 8890 0
-1820 -1880 -1897 -1825 8874 9142 8891 8876 0
-1820 -1882 -1897 -1823 8876 9142 8891 8874 0
-1823 -1880 -1882 -1825 8874 9142 8876 8891 0
-1820 -1880 -1898 -1826 8874 9143 8892 8877 0
-1820 -1883 -1898 -1823 8877 9143 8892 8874 0
-1823 -1880 -1883 -1826 8874 9143 8877 8892 0
-1820 -1880 -1899 -1827 8874 9144 8893 8878 0
-1820 -1884 -1899 -1823 8878 9144 8893 8874 0
-1823 -1880 -1884 -1827 8874 9144 8878 8893 0
-1820 -1881 -1900 -1825 8875 9145 8894 8876 0
-1820 -1882 -1900 -1824 8876 9145 8894 8875 0
-1824 -1881 -1882 -1825 8875 9145 8876 8894 0
-1820 -1881 -1901 -1826 8875 9146 8895 8877 0
-1820 -1883 -1901 -1824 8877 9146 8895 8875 0
-1824 -1881 -1883 -1826 8875 9146 8877 8895 0
-1820 -1881 -1902 -1827 8875 9147 8896 8878 0
-1820 -1884 -1902 -1824 8878 9147 8896 8875 0
-1824 -1881 -1884 -1827 8875 9147 8878 8896 0
-1820 -1882 -1903 -1826 8876 9148 8897 8877 0
-1820 -1883 -1903 -1825 8877 9148 8897 8876 0
-1825 -1882 -1883 -1826 8876 9148 8877 8897 0
-1820 -1882 -1904 -1827 8876 9149 8898 8878 0
-1820 -1884 -1904 -1825 8878 9149 8898 8876 0
-1825 -1882 -1884 -1827 8876 9149 8878 8898 0
-1820 -1883 -1905 -1827 8877 9150 8899 8878 0
-1820 -1884 -1905 -1826 8878 9150 8899 8877 0
-1826 -1883 -1884 -1827 8877 9150 8878 8899 0
-1821 -1885 -1891 -1823 8879 9151 8885 8880 0
-1821 -1886 -1891 -1822 8880 9151 8885 8879 0
-1822 -1885 -1886 -1823 8879 9151 8880 8885 0
-1821 -1885 -1892 -1824 8879 9152 8886 8881 0
-1821 -1887 -1892 -1822 8881 9152 8886 8879 0
-1822 -1885 -1887 -1824 8879 9152 8881 8886 0
-1821 -1885 -1893 -1825 8879 9153 8887 8882 0
-1821 -1888 -1893 -1822 8882 9153 8887 8879 0
-1822 -1885 -1888 -1825 8879 9153 8882 8887 0
-1821 -1885 -1894 -1826 8879 9154 8888 8883 0
-1821 -1889 -1894 -1822 8883 9154 8888 8879 0
-1822 -1885 -1889 -1826 8879 9154 8883 8888 0
-1821 -1885 -1895 -1827 8879 9155 8889 8884 0
-1821 -1890 -1895 -1822 8884 9155 8889 8879 0
-1822 -1885 -1890 -1827 8879 9155 8884 8889 0
-1821 -1886 -1896 -1824 8880 9156 8890 8881 0
-1821 -1887 -1896 -1823 8881 9156 8890 8880 0
-1823 -1886 -1887 -1824 8880 9156 8881 8890 0
-1821 -1886 -1897 -1825 8880 9157 8891 8882 0
-1821 -1888 -1897 -1823 8882 9157 8891 8880 0
-1823 -1886 -1888 -1825 8880 9157 8882 8891 0
-1821 -1886 -1898 -1826 8880 9158 8892 8883 0
-1821 -1889 -1898 -1823 8883 9158 8892 8880 0
-1823 -1886 -1889 -1826 8880 9158 8883 8892 0
-1821 -1886 -1899 -1827 8880 9159 8893 8884 0
-1821 -1890 -1899 -1823 8884 9159 8893 8880 0
-1823 -1886 -1890 -1827 8880 9159 8884 8893 0
-1821 -1887 -1900 -1825 8881 9160 8894 8882 0
-1821 -1888 -1900 -1824 8882 9160 8894 8881 0
-1824 -1887 -1888 -1825 8881 9160 8882 8894 0
-1821 -1887 -1901 -1826 8881 9161 8895 8883 0
-1821 -1889 -1901 -1824 8883 9161 8895 8881 0
-1824 -1887 -1889 -1826 8881 9161 8883 8895 0
-1821 -1887 -1902 -1827 8881 9162 8896 8884 0
-1821 -1890 -1902 -1824 8884 9162 8896 8881 0
-1824 -1887 -1890 -1827 8881 9162 8884 8896 0
-1821 -1888 -1903 -1826 8882 9163 8897 8883 0
-1821 -1889 -1903 -1825 8883 9163 8897 8882 0
-1825 -1888 -1889 -1826 8882 9163 8883 8897 0
-1821 -1888 -1904 -1827 8882 9164 8898 8884 0
-1821 -1890 -1904 -1825 8884 9164 8898 8882 0
-1825 -1888 -1890 -1827 8882 9164 8884 8898 0
-1821 -1889 -1905 -1827 8883 9165 8899 8884 0
-1821 -1890 -1905 -1826 8884 9165 8899 8883 0
-1826 -1889 -1890 -1827 8883 9165 8884 8899 0
-1822 -1891 -1896 -1824 8885 9166 8890 8886 0
-1822 -1892 -1896 -1823 8886 9166 8890 8885 0
-1823 -1891 -1892 -1824 8885 9166 8886 8890 0
-1822 -1891 -1897 -1825 8885 9167 8891 8887 0
-1822 -1893 -1897 -1823 8887 9167 8891 8885 0
-1823 -1891 -1893 -1825 8885 9167 8887 8891 0
-1822 -1891 -1898 -1826 8885 9168 8892 8888 0
-1822 -1894 -1898 -1823 8888 9168 8892 8885 0
-1823 -1891 -1894 -1826 8885 9168 8888 8892 0
-1822 -1891 -1899 -1827 8885 9169 8893 8889 0
-1822 -1895 -1899 -1823 8889 9169 8893 8885 0
-1823 -1891 -1895 -1827 8885 9169 8889 8893 0
-1822 -1892 -1900 -1825 8886 9170 8894 8887 0
-1822 -1893 -1900 -1824 8887 9170 8894 8886 0
-1824 -1892 -1893 -1825 8886 9170 8887 8894 0
-1822 -1892 -1901 -1826 8886 9171 8895 8888 0
-1822 -1894 -1901 -1824 8888 9171 8895 8886 0
-1824 -1892 -1894 -1826 8886 9171 8888 8895 0
-1822 -1892 -1902 -1827 8886 9172 8896 8889 0
-1822 -1895 -1902 -1824 8889 9172 8896 8886 0
-1824 -1892 -1895 -1827 8886 9172 8889 8896 0
-1822 -1893 -1903 -1826 8887 9173 8897 8888 0
-1822 -1894 -1903 -1825 8888 9173 8897 8887 0
-1825 -1893 -1894 -1826 8887 9173 8888 8897 0
-1822 -1893 -1904 -1827 8887 9174 8898 8889 0
-1822 -1895 -1904 -1825 8889 9174 8898 8887 0
-1825 -1893 -1895 -1827 8887 9174 8889 8898 0
-1822 -1894 -1905 -1827 8888 9175 8899 8889 0
-1822 -1895 -1905 -1826 8889 9175 8899 8888 0
-1826 -1894 -1895 -1827 8888 9175 8889 8899 0
-1823 -1896 -1900 -1825 8890 9176 8894 8891 0
-1823 -1897 -1900 -1824 8891 9176 8894 8890 0
-1824 -1896 -1897 -1825 8890 9176 8891 8894 0
-1823 -1896 -1901 -1826 8890 9177 8895 8892 0
-1823 -1898 -1901 -1824 8892 9177 8895 8890 0
-1824 -1896 -1898 -1826 8890 9177 8892 8895 0
-1823 -1896 -1902 -1827 8890 9178 8896 8893 0
-1823 -1899 -1902 -1824 8893 9178 8896 8890 0
-1824 -1896 -1899 -1827 8890 9178 8893 8896 0
-1823 -1897 -1903 -1826 8891 9179 8897 8892 0
-1823 -1898 -1903 -1825 8892 9179 8897 8891 0
-1825 -1897 -1898 -1826 8891 9179 8892 8897 0
-1823 -1897 -1904 -1827 8891 9180 8898 8893 0
-1823 -1899 -1904 -1825 8893 9180 8898 8891 0
-1825 -1897 -1899 -1827 8891 9180 8893 8898 0
-1823 -1898 -1905 -1827 8892 9181 8899 8893 0
-1823 -1899 -1905 -1826 8893 9181 8899 8892 0
-1826 -1898 -1899 -1827 8892 9181 8893 8899 0
-1824 -1900 -1903 -1826 8894 9182 8897 8895 0
-1824 -1901 -1903 -1825 8895 9182 8897 8894 0
-1825 -1900 -1901 -1826 8894 9182 8895 8897 0
-1824 -1900 -1904 -1827 8894 9183 8898 8896 0
-1824 -1902 -1904 -1825 8896 9183 8898 8894 0
-1825 -1900 -1902 -1827 8894 9183 8896 8898 0
-1824 -1901 -1905 -1827 8895 9184 8899 8896 0
-1824 -1902 -1905 -1826 8896 9184 8899 8895 0
-1826 -1901 -1902 -1827 8895 9184 8896 8899 0
-1825 -1903 -1905 -1827 8897 9185 8899 8898 0
-1825 -1904 -1905 -1826 8898 9185 8899 8897 0
-1826 -1903 -1904 -1827 8897 9185 8898 8899 0
-1828 -1840 -1851 -1830 8900 8966 8911 8901 0
-1828 -1841 -1851 -1829 8901 8966 8911 8900 0
-1829 -1840 -1841 -1830 8900 8966 8901 8911 0
-1828 -1840 -1852 -1831 8900 8967 8912 8902 0
-1828 -1842 -1852 -1829 8902 8967 8912 8900 0
-1829 -1840 -1842 -1831 8900 8967 8902 8912 0
-1828 -1840 -1853 -1832 8900 8968 8913 8903 0
-1828 -1843 -1853 -1829 8903 8968 8913 8900 0
-1829 -1840 -1843 -1832 8900 8968 8903 8913 0
-1828 -1840 -1854 -1833 8900 8969 8914 8904 0
-1828 -1844 -1854 -1829 8904 8969 8914 8900 0
-1829 -1840 -1844 -1833 8900 8969 8904 8914 0
-1828 -1840 -1855 -1834 8900 8970 8915 8905 0
-1828 -1845 -1855 -1829 8905 8970 8915 8900 0
-1829 -1840 -1845 -1834 8900 8970 8905 8915 0
-1828 -1840 -1856 -1835 8900 8971 8916 8906 0
-1828 -1846 -1856 -1829 8906 8971 8916 8900 0
-1829 -1840 -1846 -1835 8900 8971 8906 8916 0
-1828 -1840 -1857 -1836 8900 8972 8917 8907 0
-1828 -1847 -1857 -1829 8907 8972 8917 8900 0
-1829 -1840 -1847 -1836 8900 8972 8907 8917 0
-1828 -1840 -1858 -1837 8900 8973 8918 8908 0
-1828 -1848 -1858 -1829 8908 8973 8918 8900 0
-1829 -1840 -1848 -1837 8900 8973 8908 8918 0
-1828 -1840 -1859 -1838 8900 8974 8919 8909 0
-1828 -1849 -1859 -1829 8909 8974 8919 8900 0
-1829 -1840 -1849 -1838 8900 8974 8909 8919 0
-1828 -1840 -1860 -1839 8900 8975 8920 8910 0
-1828 -1850 -1860 -1829 8910 8975 8920 8900 0
-1829 -1840 -1850 -1839 8900 8975 8910 8920 0
-1828 -1841 -1861 -1831 8901 8976 8921 8902 0
-1828 -1842 -1861 -1830 8902 8976 8921 8901 0
-1830 -1841 -1842 -1831 8901 8976 8902 8921 0
-1828 -1841 -1862 -1832 8901 8977 8922 8903 0
-1828 -1843 -1862 -1830 8903 8977 8922 8901 0
-1830 -1841 -1843 -1832 8901 8977 8903 8922 0
-1828 -1841 -1863 -1833 8901 8978 8923 8904 0
-1828 -1844 -1863 -1830 8904 8978 8923 8901 0
-1830 -1841 -1844 -1833 8901 8978 8904 8923 0
-1828 -1841 -1864 -1834 8901 8979 8924 8905 0
-1828 -1845 -1864 -1830 8905 8979 8924 8901 0
-1830 -1841 -1845 -1834 8901 8979 8905 8924 0
-1828 -1841 -1865 -1835 8901 8980 8925 8906 0
-1828 -1846 -1865 -1830 8906 8980 8925 8901 0
-1830 -1841 -1846 -1835 8901 8980 8906 8925 0
-1828 -1841 -1866 -1836 8901 8981 8926 8907 0
-1828 -1847 -1866 -1830 8907 8981 8926 8901 0
-1830 -1841 -1847 -1836 8901 8981 8907 8926 0
-1828 -1841 -1867 -1837 8901 8982 8927 8908 0
-1828 -1848 -1867 -1830 8908 8982 8927 8901 0
-1830 -1841 -1848 -1837 8901 8982 8908 8927 0
-1828 -1841 -1868 -1838 8901 8983 8928 8909 0
-1828 -1849 -1868 -1830 8909 8983 8928 8901 0
-1830 -1841 -1849 -1838 8901 8983 8909 8928 0
-1828 -1841 -1869 -1839 8901 8984 8929 8910 0
-1828 -1850 -1869 -1830 8910 8984 8929 8901 0
-1830 -1841 -1850 -1839 8901 8984 8910 8929 0
-1828 -1842 -1870 -1832 8902 8985 8930 8903 0
-1828 -1843 -1870 -1831 8903 8985 8930 8902 0
-1831 -1842 -1843 -1832 8902 8985 8903 8930 0
-1828 -1842 -1871 -1833 8902 8986 8931 8904 0
-1828 -1844 -1871 -1831 8904 8986 8931 8902 0
-1831 -1842 -1844 -1833 8902 8986 8904 8931 0
-1828 -1842 -1872 -1834 8902 8987 8932 8905 0
-1828 -1845 -1872 -1831 8905 8987 8932 8902 0
-1831 -1842 -1845 -1834 8902 8987 8905 8932 0
-1828 -1842 -1873 -1835 8902 8988 8933 8906 0
-1828 -1846 -1873 -1831 8906 8988 8933 8902 0
-1831 -1842 -1846 -1835 8902 8988 8906 8933 0
-1828 -1842 -1874 -1836 8902 8989 8934 8907 0
-1828 -1847 -1874 -1831 8907 8989 8934 8902 0
-1831 -1842 -1847 -1836 8902 8989 8907 8934 0
-1828 -1842 -1875 -1837 8902 8990 8935 8908 0
-1828 -1848 -1875 -1831 8908 8990 8935 8902 0
-1831 -1842 -1848 -1837 8902 8990 8908 8935 0
-1828 -1842 -1876 -1838 8902 8991 8936 8909 0
-1828 -1849 -1876 -1831 8909 8991 8936 8902 0
-1831 -1842 -1849 -1838 8902 8991 8909 8936 0
-1828 -1842 -1877 -1839 8902 8992 8937 8910 0
-1828 -1850 -1877 -1831 8910 8992 8937 8902 0
-1831 -1842 -1850 -1839 8902 8992 8910 8937 0
-1828 -1843 -1878 -1833 8903 8993 8938 8904 0
-1828 -1844 -1878 -1832 8904 8993 8938 8903 0
-1832 -1843 -1844 -1833 8903 8993 8904 8938 0
-1828 -1843 -1879 -1834 8903 8994 8939 8905 0
-1828 -1845 -1879 -1832 8905 8994 8939 8903 0
-1832 -1843 -1845 -1834 8903 8994 8905 8939 0
-1828 -1843 -1880 -1835 8903 8995 8940 8906 0
-1828 -1846 -1880 -1832 8906 8995 8940 8903 0
-1832 -1843 -1846 -1835 8903 8995 8906 8940 0
-1828 -1843 -1881 -1836 8903 8996 8941 8907 0
-1828 -1847 -1881 -1832 8907 8996 8941 8903 0
-1832 -1843 -1847 -1836 8903 8996 8907 8941 0
-1828 -1843 -1882 -1837 8903 8997 8942 8908 0
-1828 -1848 -1882 -1832 8908 8997 8942 8903 0
-1832 -1843 -1848 -1837 8903 8997 8908 8942 0
-1828 -1843 -1883 -1838 8903 8998 8943 8909 0
-1828 -1849 -1883 -1832 8909 8998 8943 8903 0
-1832 -1843 -1849 -1838 8903 8998 8909 8943 0
-1828 -1843 -1884 -1839 8903 8999 8944 8910 0
-1828 -1850 -1884 -1832 8910 8999 8944 8903 0
-1832 -1843 -1850 -1839 8903 8999 8910 8944 0
-1828 -1844 -1885 -1834 8904 9000 8945 8905 0
-1828 -1845 -1885 -1833 8905 9000 8945 8904 0
-1833 -1844 -1845 -1834 8904 9000 8905 8945 0
-1828 -1844 -1886 -1835 8904 9001 8946 8906 0
-1828 -1846 -1886 -1833 8906 9001 8946 8904 0
-1833 -1844 -1846 -1835 8904 9001 8906 8946 0
-1828 -1844 -1887 -1836 8904 9002 8947 8907 0
-1828 -1847 -1887 -1833 8907 9002 8947 8904 0
-1833 -1844 -1847 -1836 8904 9002 8907 8947 0
-1828 -1844 -1888 -1837 8904 9003 8948 8908 0
-1828 -1848 -1888 -1833 8908 9003 8948 8904 0
-1833 -1844 -1848 -1837 8904 9003 8908 8948 0
-1828 -1844 -1889 -1838 8904 9004 8949 8909 0
-1828 -1849 -1889 -1833 8909 9004 8949 8904 0
-1833 -1844 -1849 -1838 8904 9004 8909 8949 0
-1828 -1844 -1890 -1839 8904 9005 8950 8910 0
-1828 -1850 -1890 -1833 8910 9005 8950 8904 0
-1833 -1844 -1850 -1839 8904 9005 8910 8950 0
-1828 -1845 -1891 -1835 8905 9006 8951 8906 0
-1828 -1846 -1891 -1834 8906 9006 8951 8905 0
-1834 -1845 -1846 -1835 8905 9006 8906 8951 0
-1828 -1845 -1892 -1836 8905 9007 8952 8907 0
-1828 -1847 -1892 -1834 8907 9007 8952 8905 0
-1834 -1845 -1847 -1836 8905 9007 8907 8952 0
-1828 -1845 -1893 -1837 8905 9008 8953 8908 0
-1828 -1848 -1893 -1834 8908 9008 8953 8905 0
-1834 -1845 -1848 -1837 8905 9008 8908 8953 0
-1828 -1845 -1894 -1838 8905 9009 8954 8909 0
-1828 -1849 -1894 -1834 8909 9009 8954 8905 0
-1834 -1845 -1849 -1838 8905 9009 8909 8954 0
-1828 -1845 -1895 -1839 8905 9010 8955 8910 0
-1828 -1850 -1895 -1834 8910 9010 8955 8905 0
-1834 -1845 -1850 -1839 8905 9010 8910 8955 0
-1828 -1846 -1896 -1836 8906 9011 8956 8907 0
-1828 -1847 -1896 -1835 8907 9011 8956 8906 0
-1835 -1846 -1847 -1836 8906 9011 8907 8956 0
-1828 -1846 -1897 -1837 8906 9012 8957 8908 0
-1828 -1848 -1897 -1835 8908 9012 8957 8906 0
-1835 -1846 -1848 -1837 8906 9012 8908 8957 0
-1828 -1846 -1898 -1838 8906 9013 8958 8909 0
-1828 -1849 -1898 -1835 8909 9013 8958 8906 0
-1835 -1846 -1849 -1838 8906 9013 8909 8958 0
-1828 -1846 -1899 -1839 8906 9014 8959 8910 0
-1828 -1850 -1899 -1835 8910 9014 8959 8906 0
-1835 -1846 -1850 -1839 8906 9014 8910 8959 0
-1828 -1847 -1900 -1837 8907 9015 8960 8908 0
-1828 -1848 -1900 -1836 8908 9015 8960 8907 0
-1836 -1847 -1848 -1837 8907 9015 8908 8960 0
-1828 -1847 -1901 -1838 8907 9016 8961 8909 0
-1828 -1849 -1901 -1836 8909 9016 8961 8907 0
-1836 -1847 -1849 -1838 8907 9016 8909 8961 0
-1828 -1847 -1902 -1839 8907 9017 8962 8910 0
-1828 -1850 -1902 -1836 8910 9017 8962 8907 0
-1836 -1847 -1850 -1839 8907 9017 8910 8962 0
-1828 -1848 -1903 -1838 8908 9018 8963 8909 0
-1828 -1849 -1903 -1837 8909 9018 8963 8908 0
-1837 -1848 -1849 -1838 8908 9018 8909 8963 0
-1828 -1848 -1904 -1839 8908 9019 8964 8910 0
-1828 -1850 -1904 -1837 8910 9019 8964 8908 0
-1837 -1848 -1850 -1839 8908 9019 8910 8964 0
-1828 -1849 -1905 -1839 8909 9020 8965 8910 0
-1828 -1850 -1905 -1838 8910 9020 8965 8909 0
-1838 -1849 -1850 -1839 8909 9020 8910 8965 0
-1829 -1851 -1861 -1831 8911 9021 8921 8912 0
-1829 -1852 -1861 -1830 8912 9021 8921 8911 0
-1830 -1851 -1852 -1831 8911 9021 8912 8921 0
-1829 -1851 -1862 -1832 8911 9022 8922 8913 0
-1829 -1853 -1862 -1830 8913 9022 8922 8911 0
-1830 -1851 -1853 -1832 8911 9022 8913 8922 0
-1829 -1851 -1863 -1833 8911 9023 8923 8914 0
-1829 -1854 -1863 -1830 8914 9023 8923 8911 0
-1830 -1851 -1854 -1833 8911 9023 8914 8923 0
-1829 -1851 -1864 -1834 8911 9024 8924 8915 0
-1829 -1855 -1864 -1830 8915 9024 8924 8911 0
-1830 -1851 -1855 -1834 8911 9024 8915 8924 0
-1829 -1851 -1865 -1835 8911 9025 8925 8916 0
-1829 -1856 -1865 -1830 8916 9025 8925 8911 0
-1830 -1851 -1856 -1835 8911 9025 8916 8925 0
-1829 -1851 -1866 -1836 8911 9026 8926 8917 0
-1829 -1857 -1866 -1830 8917 9026 8926 8911 0
-1830 -1851 -1857 -1836 8911 9026 8917 8926 0
-1829 -1851 -1867 -1837 8911 9027 8927 8918 0
-1829 -1858 -1867 -1830 8918 9027 8927 8911 0
-1830 -1851 -1858 -1837 8911 9027 8918 8927 0
-1829 -1851 -1868 -1838 8911 9028 8928 8919 0
-1829 -1859 -1868 -1830 8919 9028 8928 8911 0
-1830 -1851 -1859 -1838 8911 9028 8919 8928 0
-1829 -1851 -1869 -1839 8911 9029 8929 8920 0
-1829 -1860 -1869 -1830 8920 9029 8929 8911 0
-1830 -1851 -1860 -1839 8911 9029 8920 8929 0
-1829 -1852 -1870 -1832 8912 9030 8930 8913 0
-1829 -1853 -1870 -1831 8913 9030 8930 8912 0
-1831 -1852 -1853 -1832 8912 9030 8913 8930 0
-1829 -1852 -1871 -1833 8912 9031 8931 8914 0
-1829 -1854 -1871 -1831 8914 9031 8931 8912 0
-1831 -1852 -1854 -1833 8912 9031 8914 8931 0
-1829 -1852 -1872 -1834 8912 9032 8932 8915 0
-1829 -1855 -1872 -1831 8915 9032 8932 8912 0
-1831 -1852 -1855 -1834 8912 9032 8915 8932 0
-1829 -1852 -1873 -1835 8912 9033 8933 8916 0
-1829 -1856 -1873 -1831 8916 9033 8933 8912 0
-1831 -1852 -1856 -1835 8912 9033 8916 8933 0
-1829 -1852 -1874 -1836 8912 9034 8934 8917 0
-1829 -1857 -1874 -1831 8917 9034 8934 8912 0
-1831 -1852 -1857 -1836 8912 9034 8917 8934 0
-1829 -1852 -1875 -1837 8912 9035 8935 8918 0
-1829 -1858 -1875 -1831 8918 9035 8935 8912 0
-1831 -1852 -1858 -1837 8912 9035 8918 8935 0
-1829 -1852 -1876 -1838 8912 9036 8936 8919 0
-1829 -1859 -1876 -1831 8919 9036 8936 8912 0
-1831 -1852 -1859 -1838 8912 9036 8919 8936 0
-1829 -1852 -1877 -1839 8912 9037 8937 8920 0
-1829 -1860 -1877 -1831 8920 9037 8937 8912 0
-1831 -1852 -1860 -1839 8912 9037 8920 8937 0
-1829 -1853 -1878 -1833 8913 9038 8938 8914 0
-1829 -1854 -1878 -1832 8914 9038 8938 8913 0
-1832 -1853 -1854 -1833 8913 9038 8914 8938 0
-1829 -1853 -1879 -1834 8913 9039 8939 8915 0
-1829 -1855 -1879 -1832 8915 9039 8939 8913 0
-1832 -1853 -1855 -1834 8913 9039 8915 8939 0
-1829 -1853 -1880 -1835 8913 9040 8940 8916 0
-1829 -1856 -1880 -1832 8916 9040 8940 8913 0
-1832 -1853 -1856 -1835 8913 9040 8916 8940 0
-1829 -1853 -1881 -1836 8913 9041 8941 8917 0
-1829 -1857 -1881 -1832 8917 9041 8941 8913 0
-1832 -1853 -1857 -1836 8913 9041 8917 8941 0
-1829 -1853 -1882 -1837 8913 9042 8942 8918 0
-1829 -1858 -1882 -1832 8918 9042 8942 8913 0
-1832 -1853 -1858 -1837 8913 9042 8918 8942 0
-1829 -1853 -1883 -1838 8913 9043 8943 8919 0
-1829 -1859 -1883 -1832 8919 9043 8943 8913 0
-1832 -1853 -1859 -1838 8913 9043 8919 8943 0
-1829 -1853 -1884 -1839 8913 9044 8944 8920 0
-1829 -1860 -1884 -1832 8920 9044 8944 8913 0
-1832 -1853 -1860 -1839 8913 9044 8920 8944 0
-1829 -1854 -1885 -1834 8914 9045 8945 8915 0
-1829 -1855 -1885 -1833 8915 9045 8945 8914 0
-1833 -1854 -1855 -1834 8914 9045 8915 8945 0
-1829 -1854 -1886 -1835 8914 9046 8946 8916 0
-1829 -1856 -1886 -1833 8916 9046 8946 8914 0
-1833 -1854 -1856 -1835 8914 9046 8916 8946 0
-1829 -1854 -1887 -1836 8914 9047 8947 8917 0
-1829 -1857 -1887 -1833 8917 9047 8947 8914 0
-1833 -1854 -1857 -1836 8914 9047 8917 8947 0
-1829 -1854 -1888 -1837 8914 9048 8948 8918 0
-1829 -1858 -1888 -1833 8918 9048 8948 8914 0
-1833 -1854 -1858 -1837 8914 9048 8918 8948 0
-1829 -1854 -1889 -1838 8914 9049 8949 8919 0
-1829 -1859 -1889 -1833 8919 9049 8949 8914 0
-1833 -1854 -1859 -1838 8914 9049 8919 8949 0
-1829 -1854 -1890 -1839 8914 9050 8950 8920 0
-1829 -1860 -1890 -1833 8920 9050 8950 8914 0
-1833 -1854 -1860 -1839 8914 9050 8920 8950 0
-1829 -1855 -1891 -1835 8915 9051 8951 8916 0
-1829 -1856 -1891 -1834 8916 9051 8951 8915 0
-1834 -1855 -1856 -1835 8915 9051 8916 8951 0
-1829 -1855 -1892 -1836 8915 9052 8952 8917 0
-1829 -1857 -1892 -1834 8917 9052 8952 8915 0
-1834 -1855 -1857 -1836 8915 9052 8917 8952 0
-1829 -1855 -1893 -1837 8915 9053 8953 8918 0
-1829 -1858 -1893 -1834 8918 9053 8953 8915 0
-1834 -1855 -1858 -1837 8915 9053 8918 8953 0
-1829 -1855 -1894 -1838 8915 9054 8954 8919 0
-1829 -1859 -1894 -1834 8919 9054 8954 8915 0
-1834 -1855 -1859 -1838 8915 9054 8919 8954 0
-1829 -1855 -1895 -1839 8915 9055 8955 8920 0
-1829 -1860 -1895 -1834 8920 9055 8955 8915 0
-1834 -1855 -1860 -1839 8915 9055 8920 8955 0
-1829 -1856 -1896 -1836 8916 9056 8956 8917 0
-1829 -1857 -1896 -1835 8917 9056 8956 8916 0
-1835 -1856 -1857 -1836 8916 9056 8917 8956 0
-1829 -1856 -1897 -1837 8916 9057 8957 8918 0
-1829 -1858 -1897 -1835 8918 9057 8957 8916 0
-1835 -1856 -1858 -1837 8916 9057 8918 8957 0
-1829 -1856 -1898 -1838 8916 9058 8958 8919 0
-1829 -1859 -1898 -1835 8919 9058 8958 8916 0
-1835 -1856 -1859 -1838 8916 9058 8919 8958 0
-1829 -1856 -1899 -1839 8916 9059 8959 8920 0
-1829 -1860 -1899 -1835 8920 9059 8959 8916 0
-1835 -1856 -1860 -1839 8916 9059 8920 8959 0
-1829 -1857 -1900 -1837 8917 9060 8960 8918 0
-1829 -1858 -1900 -1836 8918 9060 8960 8917 0
-1836 -1857 -1858 -1837 8917 9060 8918 8960 0
-1829 -1857 -1901 -1838 8917 9061 8961 8919 0
-1829 -1859 -1901 -1836 8919 9061 8961 8917 0
-1836 -1857 -1859 -1838 8917 9061 8919 8961 0
-1829 -1857 -1902 -1839 8917 9062 8962 8920 0
-1829 -1860 -1902 -1836 8920 9062 8962 8917 0
-1836 -1857 -1860 -1839 8917 9062 8920 8962 0
-1829 -1858 -1903 -1838 8918 9063 8963 8919 0
-1829 -1859 -1903 -1837 8919 9063 8963 8918 0
-1837 -1858 -1859 -1838 8918 9063 8919 8963 0
-1829 -1858 -1904 -1839 8918 9064 8964 8920 0
-1829 -1860 -1904 -1837 8920 9064 8964 8918 0
-1837 -1858 -1860 -1839 8918 9064 8920 8964 0
-1829 -1859 -1905 -1839 8919 9065 8965 8920 0
-1829 -1860 -1905 -1838 8920 9065 8965 8919 0
-1838 -1859 -1860 -1839 8919 9065 8920 8965 0
-1830 -1861 -1870 -1832 8921 9066 8930 8922 0
-1830 -1862 -1870 -1831 8922 9066 8930 8921 0
-1831 -1861 -1862 -1832 8921 9066 8922 8930 0
-1830 -1861 -1871 -1833 8921 9067 8931 8923 0
-1830 -1863 -1871 -1831 8923 9067 8931 8921 0
-1831 -1861 -1863 -1833 8921 9067 8923 8931 0
-1830 -1861 -1872 -1834 8921 9068 8932 8924 0
-1830 -1864 -1872 -1831 8924 9068 8932 8921 0
-1831 -1861 -1864 -1834 8921 9068 8924 8932 0
-1830 -1861 -1873 -1835 8921 9069 8933 8925 0
-1830 -1865 -1873 -1831 8925 9069 8933 8921 0
-1831 -1861 -1865 -1835 8921 9069 8925 8933 0
-1830 -1861 -1874 -1836 8921 9070 8934 8926 0
-1830 -1866 -1874 -1831 8926 9070 8934 8921 0
-1831 -1861 -1866 -1836 8921 9070 8926 8934 0
-1830 -1861 -1875 -1837 8921 9071 8935 8927 0
-1830 -1867 -1875 -1831 8927 9071 8935 8921 0
-1831 -1861 -1867 -1837 8921 9071 8927 8935 0
-1830 -1861 -1876 -1838 8921 9072 8936 8928 0
-1830 -1868 -1876 -1831 8928 9072 8936 8921 0
-1831 -1861 -1868 -1838 8921 9072 8928 8936 0
-1830 -1861 -1877 -1839 8921 9073 8937 8929 0
-1830 -1869 -1877 -1831 8929 9073 8937 8921 0
-1831 -1861 -1869 -1839 8921 9073 8929 8937 0
-1830 -1862 -1878 -1833 8922 9074 8938 8923 0
-1830 -1863 -1878 -1832 8923 9074 8938 8922 0
-1832 -1862 -1863 -1833 8922 9074 8923 8938 0
-1830 -1862 -1879 -1834 8922 9075 8939 8924 0
-1830 -1864 -1879 -1832 8924 9075 8939 8922 0
-1832 -1862 -1864 -1834 8922 9075 8924 8939 0
-1830 -1862 -1880 -1835 8922 9076 8940 8925 0
-1830 -1865 -1880 -1832 8925 9076 8940 8922 0
-1832 -1862 -1865 -1835 8922 9076 8925 8940 0
-1830 -1862 -1881 -1836 8922 9077 8941 8926 0
-1830 -1866 -1881 -1832 8926 9077 8941 8922 0
-1832 -1862 -1866 -1836 8922 9077 8926 8941 0
-1830 -1862 -1882 -1837 8922 9078 8942 8927 0
-1830 -1867 -1882 -1832 8927 9078 8942 8922 0
-1832 -1862 -1867 -1837 8922 9078 8927 8942 0
-1830 -1862 -1883 -1838 8922 9079 8943 8928 0
-1830 -1868 -1883 -1832 8928 9079 8943 8922 0
-1832 -1862 -1868 -1838 8922 9079 8928 8943 0
-1830 -1862 -1884 -1839 8922 9080 8944 8929 0
-1830 -1869 -1884 -1832 8929 9080 8944 8922 0
-1832 -1862 -1869 -1839 8922 9080 8929 8944 0
-1830 -1863 -1885 -1834 8923 9081 8945 8924 0
-1830 -1864 -1885 -1833 8924 9081 8945 8923 0
-1833 -1863 -1864 -1834 8923 9081 8924 8945 0
-1830 -1863 -1886 -1835 8923 9082 8946 8925 0
-1830 -1865 -1886 -1833 8925 9082 8946 8923 0
-1833 -1863 -1865 -1835 8923 9082 8925 8946 0
-1830 -1863 -1887 -1836 8923 9083 8947 8926 0
-1830 -1866 -1887 -1833 8926 9083 8947 8923 0
-1833 -1863 -1866 -1836 8923 9083 8926 8947 0
-1830 -1863 -1888 -1837 8923 9084 8948 8927 0
-1830 -1867 -1888 -1833 8927 9084 8948 8923 0
-1833 -1863 -1867 -1837 8923 9084 8927 8948 0
-1830 -1863 -1889 -1838 8923 9085 8949 8928 0
-1830 -1868 -1889 -1833 8928 9085 8949 8923 0
-1833 -1863 -1868 -1838 8923 9085 8928 8949 0
-1830 -1863 -1890 -1839 8923 9086 8950 8929 0
-1830 -1869 -1890 -1833 8929 9086 8950 8923 0
-1833 -1863 -1869 -1839 8923 9086 8929 8950 0
-1830 -1864 -1891 -1835 8924 9087 8951 8925 0
-1830 -1865 -1891 -1834 8925 9087 8951 8924 0
-1834 -1864 -1865 -1835 8924 9087 8925 8951 0
-1830 -1864 -1892 -1836 8924 9088 8952 8926 0
-1830 -1866 -1892 -1834 8926 9088 8952 8924 0
-1834 -1864 -1866 -1836 8924 9088 8926 8952 0
-1830 -1864 -1893 -1837 8924 9089 8953 8927 0
-1830 -1867 -1893 -1834 8927 9089 8953 8924 0
-1834 -1864 -1867 -1837 8924 9089 8927 8953 0
-1830 -1864 -1894 -1838 8924 9090 8954 8928 0
-1830 -1868 -1894 -1834 8928 9090 8954 8924 0
-1834 -1864 -1868 -1838 8924 9090 8928 8954 0
-1830 -1864 -1895 -1839 8924 9091 8955 8929 0
-1830 -1869 -1895 -1834 8929 9091 8955 8924 0
-1834 -1864 -1869 -1839 8924 9091 8929 8955 0
-1830 -1865 -1896 -1836 8925 9092 8956 8926 0
-1830 -1866 -1896 -1835 8926 9092 8956 8925 0
-1835 -1865 -1866 -1836 8925 9092 8926 8956 0
-1830 -1865 -1897 -1837 8925 9093 8957 8927 0
-1830 -1867 -1897 -1835 8927 9093 8957 8925 0
-1835 -1865 -1867 -1837 8925 9093 8927 8957 0
-1830 -1865 -1898 -1838 8925 9094 8958 8928 0
-1830 -1868 -1898 -1835 8928 9094 8958 8925 0
-1835 -1865 -1868 -1838 8925 9094 8928 8958 0
-1830 -1865 -1899 -1839 8925 9095 8959 8929 0
-1830 -1869 -1899 -1835 8929 9095 8959 8925 0
-1835 -1865 -1869 -1839 8925 9095 8929 8959 0
-1830 -1866 -1900 -1837 8926 9096 8960 8927 0
-1830 -1867 -1900 -1836 8927 9096 8960 8926 0
-1836 -1866 -1867 -1837 8926 9096 8927 8960 0
-1830 -1866 -1901 -1838 8926 9097 8961 8928 0
-1830 -1868 -1901 -1836 8928 9097 8961 8926 0
-1836 -1866 -1868 -1838 8926 9097 8928 8961 0
-1830 -1866 -1902 -1839 8926 9098 8962 8929 0
-1830 -1869 -1902 -1836 8929 9098 8962 8926 0
-1836 -1866 -1869 -1839 8926 9098 8929 8962 0
-1830 -1867 -1903 -1838 8927 9099 8963 8928 0
-1830 -1868 -1903 -1837 8928 9099 8963 8927 0
-1837 -1867 -1868 -1838 8927 9099 8928 8963 0
-1830 -1867 -1904 -1839 8927 9100 8964 8929 0
-1830 -1869 -1904 -1837 8929 9100 8964 8927 0
-1837 -1867 -1869 -1839 8927 9100 8929 8964 0
-1830 -1868 -1905 -1839 8928 9101 8965 8929 0
-1830 -1869 -1905 -1838 8929 9101 8965 8928 0
-1838 -1868 -1869 -1839 8928 9101 8929 8965 0
-1831 -1870 -1878 -1833 8930 9102 8938 8931 0
-1831 -1871 -1878 -1832 8931 9102 8938 8930 0
-1832 -1870 -1871 -1833 8930 9102 8931 8938 0
-1831 -1870 -1879 -1834 8930 9103 8939 8932 0
-1831 -1872 -1879 -1832 8932 9103 8939 8930 0
-1832 -1870 -1872 -1834 8930 9103 8932 8939 0
-1831 -1870 -1880 -1835 8930 9104 8940 8933 0
-1831 -1873 -1880 -1832 8933 9104 8940 8930 0
-1832 -1870 -1873 -1835 8930 9104 8933 8940 0
-1831 -1870 -1881 -1836 8930 9105 8941 8934 0
-1831 -1874 -1881 -1832 8934 9105 8941 8930 0
-1832 -1870 -1874 -1836 8930 9105 8934 8941 0
-1831 -1870 -1882 -1837 8930 9106 8942 8935 0
-1831 -1875 -1882 -1832 8935 9106 8942 8930 0
-1832 -1870 -1875 -1837 8930 9106 8935 8942 0
-1831 -1870 -1883 -1838 8930 9107 8943 8936 0
-1831 -1876 -1883 -1832 8936 9107 8943 8930 0
-1832 -1870 -1876 -1838 8930 9107 8936 8943 0
-1831 -1870 -1884 -1839 8930 9108 8944 8937 0
-1831 -1877 -1884 -1832 8937 9108 8944 8930 0
-1832 -1870 -1877 -1839 8930 9108 8937 8944 0
-1831 -1871 -1885 -1834 8931 9109 8945 8932 0
-1831 -1872 -1885 -1833 8932 9109 8945 8931 0
-1833 -1871 -1872 -1834 8931 9109 8932 8945 0
-1831 -1871 -1886 -1835 8931 9110 8946 8933 0
-1831 -1873 -1886 -1833 8933 9110 8946 8931 0
-1833 -1871 -1873 -1835 8931 9110 8933 8946 0
-1831 -1871 -1887 -1836 8931 9111 8947 8934 0
-1831 -1874 -1887 -1833 8934 9111 8947 8931 0
-1833 -1871 -1874 -1836 8931 9111 8934 8947 0
-1831 -1871 -1888 -1837 8931 9112 8948 8935 0
-1831 -1875 -1888 -1833 8935 9112 8948 8931 0
-1833 -1871 -1875 -1837 8931 9112 8935 8948 0
-1831 -1871 -1889 -1838 8931 9113 8949 8936 0
-1831 -1876 -1889 -1833 8936 9113 8949 8931 0
-1833 -1871 -1876 -1838 8931 9113 8936 8949 0
-1831 -1871 -1890 -1839 8931 9114 8950 8937 0
-1831 -1877 -1890 -1833 8937 9114 8950 8931 0
-1833 -1871 -1877 -1839 8931 9114 8937 8950 0
-1831 -1872 -1891 -1835 8932 9115 8951 8933 0
-1831 -1873 -1891 -1834 8933 9115 8951 8932 0
-1834 -1872 -1873 -1835 8932 9115 8933 8951 0
-1831 -1872 -1892 -1836 8932 9116 8952 8934 0
-1831 -1874 -1892 -1834 8934 9116 8952 8932 0
-1834 -1872 -1874 -1836 8932 9116 8934 8952 0
-1831 -1872 -1893 -1837 8932 9117 8953 8935 0
-1831 -1875 -1893 -1834 8935 9117 8953 8932 0
-1834 -1872 -1875 -1837 8932 9117 8935 8953 0
-1831 -1872 -1894 -1838 8932 9118 8954 8936 0
-1831 -1876 -1894 -1834 8936 9118 8954 8932 0
-1834 -1872 -1876 -1838 8932 9118 8936 8954 0
-1831 -1872 -1895 -1839 8932 9119 8955 8937 0
-1831 -1877 -1895 -1834 8937 9119 8955 8932 0
-1834 -1872 -1877 -1839 8932 9119 8937 8955 0
-1831 -1873 -1896 -1836 8933 9120 8956 8934 0
-1831 -1874 -1896 -1835 8934 9120 8956 8933 0
-1835 -1873 -1874 -1836 8933 9120 8934 8956 0
-1831 -1873 -1897 -1837 8933 9121 8957 8935 0
-1831 -1875 -1897 -1835 8935 9121 8957 8933 0
-1835 -1873 -1875 -1837 8933 9121 8935 8957 0
-1831 -1873 -1898 -1838 8933 9122 8958 8936 0
-1831 -1876 -1898 -1835 8936 9122 8958 8933 0
-1835 -1873 -1876 -1838 8933 9122 8936 8958 0
-1831 -1873 -1899 -1839 8933 9123 8959 8937 0
-1831 -1877 -1899 -1835 8937 9123 8959 8933 0
-1835 -1873 -1877 -1839 8933 9123 8937 8959 0
-1831 -1874 -1900 -1837 8934 9124 8960 8935 0
-1831 -1875 -1900 -1836 8935 9124 8960 8934 0
-1836 -1874 -1875 -1837 8934 9124 8935 8960 0
-1831 -1874 -1901 -1838 8934 9125 8961 8936 0
-1831 -1876 -1901 -1836 8936 9125 8961 8934 0
-1836 -1874 -1876 -1838 8934 9125 8936 8961 0
-1831 -1874 -1902 -1839 8934 9126 8962 8937 0
-1831 -1877 -1902 -1836 8937 9126 8962 8934 0
-1836 -1874 -1877 -1839 8934 9126 8937 8962 0
-1831 -1875 -1903 -1838 8935 9127 8963 8936 0
-1831 -1876 -1903 -1837 8936 9127 8963 8935 0
-1837 -1875 -1876 -1838 8935 9127 8936 8963 0
-1831 -1875 -1904 -1839 8935 9128 8964 8937 0
-1831 -1877 -1904 -1837 8937 9128 8964 8935 0
-1837 -1875 -1877 -1839 8935 9128 8937 8964 0
-1831 -1876 -1905 -1839 8936 9129 8965 8937 0
-1831 -1877 -1905 -1838 8937 9129 8965 8936 0
-1838 -1876 -1877 -1839 8936 9129 8937 8965 0
-1832 -1878 -1885 -1834 8938 9130 8945 8939 0
-1832 -1879 -1885 -1833 8939 9130 8945 8938 0
-1833 -1878 -1879 -1834 8938 9130 8939 8945 0
-1832 -1878 -1886 -1835 8938 9131 8946 8940 0
-1832 -1880 -1886 -1833 8940 9131 8946 8938 0
-1833 -1878 -1880 -1835 8938 9131 8940 8946 0
-1832 -1878 -1887 -1836 8938 9132 8947 8941 0
-1832 -1881 -1887 -1833 8941 9132 8947 8938 0
-1833 -1878 -1881 -1836 8938 9132 8941 8947 0
-1832 -1878 -1888 -1837 8938 9133 8948 8942 0
-1832 -1882 -1888 -1833 8942 9133 8948 8938 0
-1833 -1878 -1882 -1837 8938 9133 8942 8948 0
-1832 -1878 -1889 -1838 8938 9134 8949 8943 0
-1832 -1883 -1889 -1833 8943 9134 8949 8938 0
-1833 -1878 -1883 -1838 8938 9134 8943 8949 0
-1832 -1878 -1890 -1839 8938 9135 8950 8944 0
-1832 -1884 -1890 -1833 8944 9135 8950 8938 0
-1833 -1878 -1884 -1839 8938 9135 8944 8950 0
-1832 -1879 -1891 -1835 8939 9136 8951 8940 0
-1832 -1880 -1891 -1834 8940 9136 8951 8939 0
-1834 -1879 -1880 -1835 8939 9136 8940 8951 0
-1832 -1879 -1892 -1836 8939 9137 8952 8941 0
-1832 -1881 -1892 -1834 8941 9137 8952 8939 0
-1834 -1879 -1881 -1836 8939 9137 8941 8952 0
-1832 -1879 -1893 -1837 8939 9138 8953 8942 0
-1832 -1882 -1893 -1834 8942 9138 8953 8939 0
-1834 -1879 -1882 -1837 8939 9138 8942 8953 0
-1832 -1879 -1894 -1838 8939 9139 8954 8943 0
-1832 -1883 -1894 -1834 8943 9139 8954 8939 0
-1834 -1879 -1883 -1838 8939 9139 8943 8954 0
-1832 -1879 -1895 -1839 8939 9140 8955 8944 0
-1832 -1884 -1895 -1834 8944 9140 8955 8939 0
-1834 -1879 -1884 -1839 8939 9140 8944 8955 0
-1832 -1880 -1896 -1836 8940 9141 8956 8941 0
-1832 -1881 -1896 -1835 8941 9141 8956 8940 0
-1835 -1880 -1881 -1836 8940 9141 8941 8956 0
-1832 -1880 -1897 -1837 8940 9142 8957 8942 0
-1832 -1882 -1897 -1835 8942 9142 8957 8940 0
-1835 -1880 -1882 -1837 8940 9142 8942 8957 0
-1832 -1880 -1898 -1838 8940 9143 8958 8943 0
-1832 -1883 -1898 -1835 8943 9143 8958 8940 0
-1835 -1880 -1883 -1838 8940 9143 8943 8958 0
-1832 -1880 -1899 -1839 8940 9144 8959 8944 0
-1832 -1884 -1899 -1835 8944 9144 8959 8940 0
-1835 -1880 -1884 -1839 8940 9144 8944 8959 0
-1832 -1881 -1900 -1837 8941 9145 8960 8942 0
-1832 -1882 -1900 -1836 8942 9145 8960 8941 0
-1836 -1881 -1882 -1837 8941 9145 8942 8960 0
-1832 -1881 -1901 -1838 8941 9146 8961 8943 0
-1832 -1883 -1901 -1836 8943 9146 8961 8941 0
-1836 -1881 -1883 -1838 8941 9146 8943 8961 0
-1832 -1881 -1902 -1839 8941 9147 8962 8944 0
-1832 -1884 -1902 -1836 8944 9147 8962 8941 0
-1836 -1881 -1884 -1839 8941 9147 8944 8962 0
-1832 -1882 -1903 -1838 8942 9148 8963 8943 0
-1832 -1883 -1903 -1837 8943 9148 8963 8942 0
-1837 -1882 -1883 -1838 8942 9148 8943 8963 0
-1832 -1882 -1904 -1839 8942 9149 8964 8944 0
-1832 -1884 -1904 -1837 8944 9149 8964 8942 0
-1837 -1882 -1884 -1839 8942 9149 8944 8964 0
-1832 -1883 -1905 -1839 8943 9150 8965 8944 0
-1832 -1884 -1905 -1838 8944 9150 8965 8943 0
-1838 -1883 -1884 -1839 8943 9150 8944 8965 0
-1833 -1885 -1891 -1835 8945 9151 8951 8946 0
-1833 -1886 -1891 -1834 8946 9151 8951 8945 0
-1834 -1885 -1886 -1835 8945 9151 8946 8951 0
-1833 -1885 -1892 -1836 8945 9152 8952 8947 0
-1833 -1887 -1892 -1834 8947 9152 8952 8945 0
-1834 -1885 -1887 -1836 8945 9152 8947 8952 0
-1833 -1885 -1893 -1837 8945 9153 8953 8948 0
-1833 -1888 -1893 -1834 8948 9153 8953 8945 0
-1834 -1885 -1888 -1837 8945 9153 8948 8953 0
-1833 -1885 -1894 -1838 8945 9154 8954 8949 0
-1833 -1889 -1894 -1834 8949 9154 8954 8945 0
-1834 -1885 -1889 -1838 8945 9154 8949 8954 0
-1833 -1885 -1895 -1839 8945 9155 8955 8950 0
-1833 -1890 -1895 -1834 8950 9155 8955 8945 0
-1834 -1885 -1890 -1839 8945 9155 8950 8955 0
-1833 -1886 -1896 -1836 8946 9156 8956 8947 0
-1833 -1887 -1896 -1835 8947 9156 8956 8946 0
-1835 -1886 -1887 -1836 8946 9156 8947 8956 0
-1833 -1886 -1897 -1837 8946 9157 8957 8948 0
-1833 -1888 -1897 -1835 8948 9157 8957 8946 0
-1835 -1886 -1888 -1837 8946 9157 8948 8957 0
-1833 -1886 -1898 -1838 8946 9158 8958 8949 0
-1833 -1889 -1898 -1835 8949 9158 8958 8946 0
-1835 -1886 -1889 -1838 8946 9158 8949 8958 0
-1833 -1886 -1899 -1839 8946 9159 8959 8950 0
-1833 -1890 -1899 -1835 8950 9159 8959 8946 0
-1835 -1886 -1890 -1839 8946 9159 8950 8959 0
-1833 -1887 -1900 -1837 8947 9160 8960 8948 0
-1833 -1888 -1900 -1836 8948 9160 8960 8947 0
-1836 -1887 -1888 -1837 8947 9160 8948 8960 0
-1833 -1887 -1901 -1838 8947 9161 8961 8949 0
-1833 -1889 -1901 -1836 8949 9161 8961 8947 0
-1836 -1887 -1889 -1838 8947 9161 8949 8961 0
-1833 -1887 -1902 -1839 8947 9162 8962 8950 0
-1833 -1890 -1902 -1836 8950 9162 8962 8947 0
-1836 -1887 -1890 -1839 8947 9162 8950 8962 0
-1833 -1888 -1903 -1838 8948 9163 8963 8949 0
-1833 -1889 -1903 -1837 8949 9163 8963 8948 0
-1837 -1888 -1889 -1838 8948 9163 8949 8963 0
-1833 -1888 -1904 -1839 8948 9164 8964 8950 0
-1833 -1890 -1904 -1837 8950 9164 8964 8948 0
-1837 -1888 -1890 -1839 8948 9164 8950 8964 0
-1833 -1889 -1905 -1839 8949 9165 8965 8950 0
-1833 -1890 -1905 -1838 8950 9165 8965 8949 0
-1838 -1889 -1890 -1839 8949 9165 8950 8965 0
-1834 -1891 -1896 -1836 8951 9166 8956 8952 0
-1834 -1892 -1896 -1835 8952 9166 8956 8951 0
-1835 -1891 -1892 -1836 8951 9166 8952 8956 0
-1834 -1891 -1897 -1837 8951 9167 8957 8953 0
-1834 -1893 -1897 -1835 8953 9167 8957 8951 0
-1835 -1891 -1893 -1837 8951 9167 8953 8957 0
-1834 -1891 -1898 -1838 8951 9168 8958 8954 0
-1834 -1894 -1898 -1835 8954 9168 8958 8951 0
-1835 -1891 -1894 -1838 8951 9168 8954 8958 0
-1834 -1891 -1899 -1839 8951 9169 8959 8955 0
-1834 -1895 -1899 -1835 8955 9169 8959 8951 0
-1835 -1891 -1895 -1839 8951 9169 8955 8959 0
-1834 -1892 -1900 -1837 8952 9170 8960 8953 0
-1834 -1893 -1900 -1836 8953 9170 8960 8952 0
-1836 -1892 -1893 -1837 8952 9170 8953 8960 0
-1834 -1892 -1901 -1838 8952 9171 8961 8954 0
-1834 -1894 -1901 -1836 8954 9171 8961 8952 0
-1836 -1892 -1894 -1838 8952 9171 8954 8961 0
-1834 -1892 -1902 -1839 8952 9172 8962 8955 0
-1834 -1895 -1902 -1836 8955 9172 8962 8952 0
-1836 -1892 -1895 -1839 8952 9172 8955 8962 0
-1834 -1893 -1903 -1838 8953 9173 8963 8954 0
-1834 -1894 -1903 -1837 8954 9173 8963 8953 0
-1837 -1893 -1894 -1838 8953 9173 8954 8963 0
-1834 -1893 -1904 -1839 8953 9174 8964 8955 0
-1834 -1895 -1904 -1837 8955 9174 8964 8953 0
-1837 -1893 -1895 -1839 8953 9174 8955 8964 0
-1834 -1894 -1905 -1839 8954 9175 8965 8955 0
-1834 -1895 -1905 -1838 8955 9175 8965 8954 0
-1838 -1894 -1895 -1839 8954 9175 8955 8965 0
-1835 -1896 -1900 -1837 8956 9176 8960 8957 0
-1835 -1897 -1900 -1836 8957 9176 8960 8956 0
-1836 -1896 -1897 -1837 8956 9176 8957 8960 0
-1835 -1896 -1901 -1838 8956 9177 8961 8958 0
-1835 -1898 -1901 -1836 8958 9177 8961 8956 0
-1836 -1896 -1898 -1838 8956 9177 8958 8961 0
-1835 -1896 -1902 -1839 8956 9178 8962 8959 0
-1835 -1899 -1902 -1836 8959 9178 8962 8956 0
-1836 -1896 -1899 -1839 8956 9178 8959 8962 0
-1835 -1897 -1903 -1838 8957 9179 8963 8958 0
-1835 -1898 -1903 -1837 8958 9179 8963 8957 0
-1837 -1897 -1898 -1838 8957 9179 8958 8963 0
-1835 -1897 -1904 -1839 8957 9180 8964 8959 0
-1835 -1899 -1904 -1837 8959 9180 8964 8957 0
-1837 -1897 -1899 -1839 8957 9180 8959 8964 0
-1835 -1898 -1905 -1839 8958 9181 8965 8959 0
-1835 -1899 -1905 -1838 8959 9181 8965 8958 0
-1838 -1898 -1899 -1839 8958 9181 8959 8965 0
-1836 -1900 -1903 -1838 8960 9182 8963 8961 0
-1836 -1901 -1903 -1837 8961 9182 8963 8960 0
-1837 -1900 -1901 -1838 8960 9182 8961 8963 0
-1836 -1900 -1904 -1839 8960 9183 8964 8962 0
-1836 -1902 -1904 -1837 8962 9183 8964 8960 0
-1837 -1900 -1902 -1839 8960 9183 8962 8964 0
-1836 -1901 -1905 -1839 8961 9184 8965 8962 0
-1836 -1902 -1905 -1838 8962 9184 8965 8961 0
-1838 -1901 -1902 -1839 8961 9184 8962 8965 0
-1837 -1903 -1905 -1839 8963 9185 8965 8964 0
-1837 -1904 -1905 -1838 8964 9185 8965 8963 0
-1838 -1903 -1904 -1839 8963 9185 8964 8965 0
-1840 -1851 -1861 -1842 8966 9021 8976 8967 0
-1840 -1852 -1861 -1841 8967 9021 8976 8966 0
-1841 -1851 -1852 -1842 8966 9021 8967 8976 0
-1840 -1851 -1862 -1843 8966 9022 8977 8968 0
-1840 -1853 -1862 -1841 8968 9022 8977 8966 0
-1841 -1851 -1853 -1843 8966 9022 8968 8977 0
-1840 -1851 -1863 -1844 8966 9023 8978 8969 0
-1840 -1854 -1863 -1841 8969 9023 8978 8966 0
-1841 -1851 -1854 -1844 8966 9023 8969 8978 0
-1840 -1851 -1864 -1845 8966 9024 8979 8970 0
-1840 -1855 -1864 -1841 8970 9024 8979 8966 0
-1841 -1851 -1855 -1845 8966 9024 8970 8979 0
-1840 -1851 -1865 -1846 8966 9025 8980 8971 0
-1840 -1856 -1865 -1841 8971 9025 8980 8966 0
-1841 -1851 -1856 -1846 8966 9025 8971 8980 0
-1840 -1851 -1866 -1847 8966 9026 8981 8972 0
-1840 -1857 -1866 -1841 8972 9026 8981 8966 0
-1841 -1851 -1857 -1847 8966 9026 8972 8981 0
-1840 -1851 -1867 -1848 8966 9027 8982 8973 0
-1840 -1858 -1867 -1841 8973 9027 8982 8966 0
-1841 -1851 -1858 -1848 8966 9027 8973 8982 0
-1840 -1851 -1868 -1849 8966 9028 8983 8974 0
-1840 -1859 -1868 -1841 8974 9028 8983 8966 0
-1841 -1851 -1859 -1849 8966 9028 8974 8983 0
-1840 -1851 -1869 -1850 8966 9029 8984 8975 0
-1840 -1860 -1869 -1841 8975 9029 8984 8966 0
-1841 -1851 -1860 -1850 8966 9029 8975 8984 0
-1840 -1852 -1870 -1843 8967 9030 8985 8968 0
-1840 -1853 -1870 -1842 8968 9030 8985 8967 0
-1842 -1852 -1853 -1843 8967 9030 8968 8985 0
-1840 -1852 -1871 -1844 8967 9031 8986 8969 0
-1840 -1854 -1871 -1842 8969 9031 8986 8967 0
-1842 -1852 -1854 -1844 8967 9031 8969 8986 0
-1840 -1852 -1872 -1845 8967 9032 8987 8970 0
-1840 -1855 -1872 -1842 8970 9032 8987 8967 0
-1842 -1852 -1855 -1845 8967 9032 8970 8987 0
-1840 -1852 -1873 -1846 8967 9033 8988 8971 0
-1840 -1856 -1873 -1842 8971 9033 8988 8967 0
-1842 -1852 -1856 -1846 8967 9033 8971 8988 0
-1840 -1852 -1874 -1847 8967 9034 8989 8972 0
-1840 -1857 -1874 -1842 8972 9034 8989 8967 0
-1842 -1852 -1857 -1847 8967 9034 8972 8989 0
-1840 -1852 -1875 -1848 8967 9035 8990 8973 0
-1840 -1858 -1875 -1842 8973 9035 8990 8967 0
-1842 -1852 -1858 -1848 8967 9035 8973 8990 0
-1840 -1852 -1876 -1849 8967 9036 8991 8974 0
-1840 -1859 -1876 -1842 8974 9036 8991 8967 0
-1842 -1852 -1859 -1849 8967 9036 8974 8991 0
-1840 -1852 -1877 -1850 8967 9037 8992 8975 0
-1840 -1860 -1877 -1842 8975 9037 8992 8967 0
-1842 -1852 -1860 -1850 8967 9037 8975 8992 0
-1840 -1853 -1878 -1844 8968 9038 8993 8969 0
-1840 -1854 -1878 -1843 8969 9038 8993 8968 0
-1843 -1853 -1854 -1844 8968 9038 8969 8993 0
-1840 -1853 -1879 -1845 8968 9039 8994 8970 0
-1840 -1855 -1879 -1843 8970 9039 8994 8968 0
-1843 -1853 -1855 -1845 8968 9039 8970 8994 0
-1840 -1853 -1880 -1846 8968 9040 8995 8971 0
-1840 -1856 -1880 -1843 8971 9040 8995 8968 0
-1843 -1853 -1856 -1846 8968 9040 8971 8995 0
-1840 -1853 -1881 -1847 8968 9041 8996 8972 0
-1840 -1857 -1881 -1843 8972 9041 8996 8968 0
-1843 -1853 -1857 -1847 8968 9041 8972 8996 0
-1840 -1853 -1882 -1848 8968 9042 8997 8973 0
-1840 -1858 -1882 -1843 8973 9042 8997 8968 0
-1843 -1853 -1858 -1848 8968 9042 8973 8997 0
-1840 -1853 -1883 -1849 8968 9043 8998 8974 0
-1840 -1859 -1883 -1843 8974 9043 8998 8968 0
-1843 -1853 -1859 -1849 8968 9043 8974 8998 0
-1840 -1853 -1884 -1850 8968 9044 8999 8975 0
-1840 -1860 -1884 -1843 8975 9044 8999 8968 0
-1843 -1853 -1860 -1850 8968 9044 8975 8999 0
-1840 -1854 -1885 -1845 8969 9045 9000 8970 0
-1840 -1855 -1885 -1844 8970 9045 9000 8969 0
-1844 -1854 -1855 -1845 8969 9045 8970 9000 0
-1840 -1854 -1886 -1846 8969 9046 9001 8971 0
-1840 -1856 -1886 -1844 8971 9046 9001 8969 0
-1844 -1854 -1856 -1846 8969 9046 8971 9001 0
-1840 -1854 -1887 -1847 8969 9047 9002 8972 0
-1840 -1857 -1887 -1844 8972 9047 9002 8969 0
-1844 -1854 -1857 -1847 8969 9047 8972 9002 0
-1840 -1854 -1888 -1848 8969 9048 9003 8973 0
-1840 -1858 -1888 -1844 8973 9048 9003 8969 0
-1844 -1854 -1858 -1848 8969 9048 8973 9003 0
-1840 -1854 -1889 -1849 8969 9049 9004 8974 0
-1840 -1859 -1889 -1844 8974 9049 9004 8969 0
-1844 -1854 -1859 -1849 8969 9049 8974 9004 0
-1840 -1854 -1890 -1850 8969 9050 9005 8975 0
-1840 -1860 -1890 -1844 8975 9050 9005 8969 0
-1844 -1854 -1860 -1850 8969 9050 8975 9005 0
-1840 -1855 -1891 -1846 8970 9051 9006 8971 0
-1840 -1856 -1891 -1845 8971 9051 9006 8970 0
-1845 -1855 -1856 -1846 8970 9051 8971 9006 0
-1840 -1855 -1892 -1847 8970 9052 9007 8972 0
-1840 -1857 -1892 -1845 8972 9052 9007 8970 0
-1845 -1855 -1857 -1847 8970 9052 8972 9007 0
-1840 -1855 -1893 -1848 8970 9053 9008 8973 0
-1840 -1858 -1893 -1845 8973 9053 9008 8970 0
-1845 -1855 -1858 -1848 8970 9053 8973 9008 0
-1840 -1855 -1894 -1849 8970 9054 9009 8974 0
-1840 -1859 -1894 -1845 8974 9054 9009 8970 0
-1845 -1855 -1859 -1849 8970 9054 8974 9009 0
-1840 -1855 -1895 -1850 8970 9055 9010 8975 0
-1840 -1860 -1895 -1845 8975 9055 9010 8970 0
-1845 -1855 -1860 -1850 8970 9055 8975 9010 0
-1840 -1856 -1896 -1847 8971 9056 9011 8972 0
-1840 -1857 -1896 -1846 8972 9056 9011 8971 0
-1846 -1856 -1857 -1847 8971 9056 8972 9011 0
-1840 -1856 -1897 -1848 8971 9057 9012 8973 0
-1840 -1858 -1897 -1846 8973 9057 9012 8971 0
-1846 -1856 -1858 -1848 8971 9057 8973 9012 0
-1840 -1856 -1898 -1849 8971 9058 9013 8974 0
-1840 -1859 -1898 -1846 8974 9058 9013 8971 0
-1846 -1856 -1859 -1849 8971 9058 8974 9013 0
-1840 -1856 -1899 -1850 8971 9059 9014 8975 0
-1840 -1860 -1899 -1846 8975 9059 9014 8971 0
-1846 -1856 -1860 -1850 8971 9059 8975 9014 0
-1840 -1857 -1900 -1848 8972 9060 9015 8973 0
-1840 -1858 -1900 -1847 8973 9060 9015 8972 0
-1847 -1857 -1858 -1848 8972 9060 8973 9015 0
-1840 -1857 -1901 -1849 8972 9061 9016 8974 0
-1840 -1859 -1901 -1847 8974 9061 9016 8972 0
-1847 -1857 -1859 -1849 8972 9061 8974 9016 0
-1840 -1857 -1902 -1850 8972 9062 9017 8975 0
-1840 -1860 -1902 -1847 8975 9062 9017 8972 0
-1847 -1857 -1860 -1850 8972 9062 8975 9017 0
-1840 -1858 -1903 -1849 8973 9063 9018 8974 0
-1840 -1859 -1903 -1848 8974 9063 9018 8973 0
-1848 -1858 -1859 -1849 8973 9063 8974 9018 0
-1840 -1858 -1904 -1850 8973 9064 9019 8975 0
-1840 -1860 -1904 -1848 8975 9064 9019 8973 0
-1848 -1858 -1860 -1850 8973 9064 8975 9019 0
-1840 -1859 -1905 -1850 8974 9065 9020 8975 0
-1840 -1860 -1905 -1849 8975 9065 9020 8974 0
-1849 -1859 -1860 -1850 8974 9065 8975 9020 0
-1841 -1861 -1870 -1843 8976 9066 8985 8977 0
-1841 -1862 -1870 -1842 8977 9066 8985 8976 0
-1842 -1861 -1862 -1843 8976 9066 8977 8985 0
-1841 -1861 -1871 -1844 8976 9067 8986 8978 0
-1841 -1863 -1871 -1842 8978 9067 8986 8976 0
-1842 -1861 -1863 -1844 8976 9067 8978 8986 0
-1841 -1861 -1872 -1845 8976 9068 8987 8979 0
-1841 -1864 -1872 -1842 8979 9068 8987 8976 0
-1842 -1861 -1864 -1845 8976 9068 8979 8987 0
-1841 -1861 -1873 -1846 8976 9069 8988 8980 0
-1841 -1865 -1873 -1842 8980 9069 8988 8976 0
-1842 -1861 -1865 -1846 8976 9069 8980 8988 0
-1841 -1861 -1874 -1847 8976 9070 8989 8981 0
-1841 -1866 -1874 -1842 8981 9070 8989 8976 0
-1842 -1861 -1866 -1847 8976 9070 8981 8989 0
-1841 -1861 -1875 -1848 8976 9071 8990 8982 0
-1841 -1867 -1875 -1842 8982 9071 8990 8976 0
-1842 -1861 -1867 -1848 8976 9071 8982 8990 0
-1841 -1861 -1876 -1849 8976 9072 8991 8983 0
-1841 -1868 -1876 -1842 8983 9072 8991 8976 0
-1842 -1861 -1868 -1849 8976 9072 8983 8991 0
-1841 -1861 -1877 -1850 8976 9073 8992 8984 0
-1841 -1869 -1877 -1842 8984 9073 8992 8976 0
-1842 -1861 -1869 -1850 8976 9073 8984 8992 0
-1841 -1862 -1878 -1844 8977 9074 8993 8978 0
-1841 -1863 -1878 -1843 8978 9074 8993 8977 0
-1843 -1862 -1863 -1844 8977 9074 8978 8993 0
-1841 -1862 -1879 -1845 8977 9075 8994 8979 0
-1841 -1864 -1879 -1843 8979 9075 8994 8977 0
-1843 -1862 -1864 -1845 8977 9075 8979 8994 0
-1841 -1862 -1880 -1846 8977 9076 8995 8980 0
-1841 -1865 -1880 -1843 8980 9076 8995 8977 0
-1843 -1862 -1865 -1846 8977 9076 8980 8995 0
-1841 -1862 -1881 -1847 8977 9077 8996 8981 0
-1841 -1866 -1881 -1843 8981 9077 8996 8977 0
-1843 -1862 -1866 -1847 8977 9077 8981 8996 0
-1841 -1862 -1882 -1848 8977 9078 8997 8982 0
-1841 -1867 -1882 -1843 8982 9078 8997 8977 0
-1843 -1862 -1867 -1848 8977 9078 8982 8997 0
-1841 -1862 -1883 -1849 8977 9079 8998 8983 0
-1841 -1868 -1883 -1843 8983 9079 8998 8977 0
-1843 -1862 -1868 -1849 8977 9079 8983 8998 0
-1841 -1862 -1884 -1850 8977 9080 8999 8984 0
-1841 -1869 -1884 -1843 8984 9080 8999 8977 0
-1843 -1862 -1869 -1850 8977 9080 8984 8999 0
-1841 -1863 -1885 -1845 8978 9081 9000 8979 0
-1841 -1864 -1885 -1844 8979 9081 9000 8978 0
-1844 -1863 -1864 -1845 8978 9081 8979 9000 0
-1841 -1863 -1886 -1846 8978 9082 9001 8980 0
-1841 -1865 -1886 -1844 8980 9082 9001 8978 0
-1844 -1863 -1865 -1846 8978 9082 8980 9001 0
-1841 -1863 -1887 -1847 8978 9083 9002 8981 0
-1841 -1866 -1887 -1844 8981 9083 9002 8978 0
-1844 -1863 -1866 -1847 8978 9083 8981 9002 0
-1841 -1863 -1888 -1848 8978 9084 9003 8982 0
-1841 -1867 -1888 -1844 8982 9084 9003 8978 0
-1844 -1863 -1867 -1848 8978 9084 8982 9003 0
-1841 -1863 -1889 -1849 8978 9085 9004 8983 0
-1841 -1868 -1889 -1844 8983 9085 9004 8978 0
-1844 -1863 -1868 -1849 8978 9085 8983 9004 0
-1841 -1863 -1890 -1850 8978 9086 9005 8984 0
-1841 -1869 -1890 -1844 8984 9086 9005 8978 0
-1844 -1863 -1869 -1850 8978 9086 8984 9005 0
-1841 -1864 -1891 -1846 8979 9087 9006 8980 0
-1841 -1865 -1891 -1845 8980 9087 9006 8979 0
-1845 -1864 -1865 -1846 8979 9087 8980 9006 0
-1841 -1864 -1892 -1847 8979 9088 9007 8981 0
-1841 -1866 -1892 -1845 8981 9088 9007 8979 0
-1845 -1864 -1866 -1847 8979 9088 8981 9007 0
-1841 -1864 -1893 -1848 8979 9089 9008 8982 0
-1841 -1867 -1893 -1845 8982 9089 9008 8979 0
-1845 -1864 -1867 -1848 8979 9089 8982 9008 0
-1841 -1864 -1894 -1849 8979 9090 9009 8983 0
-1841 -1868 -1894 -1845 8983 9090 9009 8979 0
-1845 -1864 -1868 -1849 8979 9090 8983 9009 0
-1841 -1864 -1895 -1850 8979 9091 9010 8984 0
-1841 -1869 -1895 -1845 8984 9091 9010 8979 0
-1845 -1864 -1869 -1850 8979 9091 8984 9010 0
-1841 -1865 -1896 -1847 8980 9092 9011 8981 0
-1841 -1866 -1896 -1846 8981 9092 9011 8980 0
-1846 -1865 -1866 -1847 8980 9092 8981 9011 0
-1841 -1865 -1897 -1848 8980 9093 9012 8982 0
-1841 -1867 -1897 -1846 8982 9093 9012 8980 0
-1846 -1865 -1867 -1848 8980 9093 8982 9012 0
-1841 -1865 -1898 -1849 8980 9094 9013 8983 0
-1841 -1868 -1898 -1846 8983 9094 9013 8980 0
-1846 -1865 -1868 -1849 8980 9094 8983 9013 0
-1841 -1865 -1899 -1850 8980 9095 9014 8984 0
-1841 -1869 -1899 -1846 8984 9095 9014 8980 0
-1846 -1865 -1869 -1850 8980 9095 8984 9014 0
-1841 -1866 -1900 -1848 8981 9096 9015 8982 0
-1841 -1867 -1900 -1847 8982 9096 9015 8981 0
-1847 -1866 -1867 -1848 8981 9096 8982 9015 0
-1841 -1866 -1901 -1849 8981 9097 9016 8983 0
-1841 -1868 -1901 -1847 8983 9097 9016 8981 0
-1847 -1866 -1868 -1849 8981 9097 8983 9016 0
-1841 -1866 -1902 -1850 8981 9098 9017 8984 0
-1841 -1869 -1902 -1847 8984 9098 9017 8981 0
-1847 -1866 -1869 -1850 8981 9098 8984 9017 0
-1841 -1867 -1903 -1849 8982 9099 9018 8983 0
-1841 -1868 -1903 -1848 8983 9099 9018 8982 0
-1848 -1867 -1868 -1849 8982 9099 8983 9018 0
-1841 -1867 -1904 -1850 8982 9100 9019 8984 0
-1841 -1869 -1904 -1848 8984 9100 9019 8982 0
-1848 -1867 -1869 -1850 8982 9100 8984 9019 0
-1841 -1868 -1905 -1850 8983 9101 9020 8984 0
-1841 -1869 -1905 -1849 8984 9101 9020 8983 0
-1849 -1868 -1869 -1850 8983 9101 8984 9020 0
-1842 -1870 -1878 -1844 8985 9102 8993 8986 0
-1842 -1871 -1878 -1843 8986 9102 8993 8985 0
-1843 -1870 -1871 -1844 8985 9102 8986 8993 0
-1842 -1870 -1879 -1845 8985 9103 8994 8987 0
-1842 -1872 -1879 -1843 8987 9103 8994 8985 0
-1843 -1870 -1872 -1845 8985 9103 8987 8994 0
-1842 -1870 -1880 -1846 8985 9104 8995 8988 0
-1842 -1873 -1880 -1843 8988 9104 8995 8985 0
-1843 -1870 -1873 -1846 8985 9104 8988 8995 0
-1842 -1870 -1881 -1847 8985 9105 8996 8989 0
-1842 -1874 -1881 -1843 8989 9105 8996 8985 0
-1843 -1870 -1874 -1847 8985 9105 8989 8996 0
-1842 -1870 -1882 -1848 8985 9106 8997 8990 0
-1842 -1875 -1882 -1843 8990 9106 8997 8985 0
-1843 -1870 -1875 -1848 8985 9106 8990 8997 0
-1842 -1870 -1883 -1849 8985 9107 8998 8991 0
-1842 -1876 -1883 -1843 8991 9107 8998 8985 0
-1843 -1870 -1876 -1849 8985 9107 8991 8998 0
-1842 -1870 -1884 -1850 8985 9108 8999 8992 0
-1842 -1877 -1884 -1843 8992 9108 8999 8985 0
-1843 -1870 -1877 -1850 8985 9108 8992 8999 0
-1842 -1871 -1885 -1845 8986 9109 9000 8987 0
-1842 -1872 -1885 -1844 8987 9109 9000 8986 0
-1844 -1871 -1872 -1845 8986 9109 8987 9000 0
-1842 -1871 -1886 -1846 8986 9110 9001 8988 0
-1842 -1873 -1886 -1844 8988 9110 9001 8986 0
-1844 -1871 -1873 -1846 8986 9110 8988 9001 0
-1842 -1871 -1887 -1847 8986 9111 9002 8989 0
-1842 -1874 -1887 -1844 8989 9111 9002 8986 0
-1844 -1871 -1874 -1847 8986 9111 8989 9002 0
-1842 -1871 -1888 -1848 8986 9112 9003 8990 0
-1842 -1875 -1888 -1844 8990 9112 9003 8986 0
-1844 -1871 -1875 -1848 8986 9112 8990 9003 0
-1842 -1871 -1889 -1849 8986 9113 9004 8991 0
-1842 -1876 -1889 -1844 8991 9113 9004 8986 0
-1844 -1871 -1876 -1849 8986 9113 8991 9004 0
-1842 -1871 -1890 -1850 8986 9114 9005 8992 0
-1842 -1877 -1890 -1844 8992 9114 9005 8986 0
-1844 -1871 -1877 -1850 8986 9114 8992 9005 0
-1842 -1872 -1891 -1846 8987 9115 9006 8988 0
-1842 -1873 -1891 -1845 8988 9115 9006 8987 0
-1845 -1872 -1873 -1846 8987 9115 8988 9006 0
-1842 -1872 -1892 -1847 8987 9116 9007 8989 0
-1842 -1874 -1892 -1845 8989 9116 9007 8987 0
-1845 -1872 -1874 -1847 8987 9116 8989 9007 0
-1842 -1872 -1893 -1848 8987 9117 9008 8990 0
-1842 -1875 -1893 -1845 8990 9117 9008 8987 0
-1845 -1872 -1875 -1848 8987 9117 8990 9008 0
-1842 -1872 -1894 -1849 8987 9118 9009 8991 0
-1842 -1876 -1894 -1845 8991 9118 9009 8987 0
-1845 -1872 -1876 -1849 8987 9118 8991 9009 0
-1842 -1872 -1895 -1850 8987 9119 9010 8992 0
-1842 -1877 -1895 -1845 8992 9119 9010 8987 0
-1845 -1872 -1877 -1850 8987 9119 8992 9010 0
-1842 -1873 -1896 -1847 8988 9120 9011 8989 0
-1842 -1874 -1896 -1846 8989 9120 9011 8988 0
-1846 -1873 -1874 -1847 8988 9120 8989 9011 0
-1842 -1873 -1897 -1848 8988 9121 9012 8990 0
-1842 -1875 -1897 -1846 8990 9121 9012 8988 0
-1846 -1873 -1875 -1848 8988 9121 8990 9012 0
-1842 -1873 -1898 -1849 8988 9122 9013 8991 0
-1842 -1876 -1898 -1846 8991 9122 9013 8988 0
-1846 -1873 -1876 -1849 8988 9122 8991 9013 0
-1842 -1873 -1899 -1850 8988 9123 9014 8992 0
-1842 -1877 -1899 -1846 8992 9123 9014 8988 0
-1846 -1873 -1877 -1850 8988 9123 8992 9014 0
-1842 -1874 -1900 -1848 8989 9124 9015 8990 0
-1842 -1875 -1900 -1847 8990 9124 9015 8989 0
-1847 -1874 -1875 -1848 8989 9124 8990 9015 0
-1842 -1874 -1901 -1849 8989 9125 9016 8991 0
-1842 -1876 -1901 -1847 8991 9125 9016 8989 0
-1847 -1874 -1876 -1849 8989 9125 8991 9016 0
-1842 -1874 -1902 -1850 8989 9126 9017 8992 0
-1842 -1877 -1902 -1847 8992 9126 9017 8989 0
-1847 -1874 -1877 -1850 8989 9126 8992 9017 0
-1842 -1875 -1903 -1849 8990 9127 9018 8991 0
-1842 -1876 -1903 -1848 8991 9127 9018 8990 0
-1848 -1875 -1876 -1849 8990 9127 8991 9018 0
-1842 -1875 -1904 -1850 8990 9128 9019 8992 0
-1842 -1877 -1904 -1848 8992 9128 9019 8990 0
-1848 -1875 -1877 -1850 8990 9128 8992 9019 0
-1842 -1876 -1905 -1850 8991 9129 9020 8992 0
-1842 -1877 -1905 -1849 8992 9129 9020 8991 0
-1849 -1876 -1877 -1850 8991 9129 8992 9020 0
-1843 -1878 -1885 -1845 8993 9130 9000 8994 0
-1843 -1879 -1885 -1844 8994 9130 9000 8993 0
-1844 -1878 -1879 -1845 8993 9130 8994 9000 0
-1843 -1878 -1886 -1846 8993 9131 9001 8995 0
-1843 -1880 -1886 -1844 8995 9131 9001 8993 0
-1844 -1878 -1880 -1846 8993 9131 8995 9001 0
-1843 -1878 -1887 -1847 8993 9132 9002 8996 0
-1843 -1881 -1887 -1844 8996 9132 9002 8993 0
-1844 -1878 -1881 -1847 8993 9132 8996 9002 0
-1843 -1878 -1888 -1848 8993 9133 9003 8997 0
-1843 -1882 -1888 -1844 8997 9133 9003 8993 0
-1844 -1878 -1882 -1848 8993 9133 8997 9003 0
-1843 -1878 -1889 -1849 8993 9134 9004 8998 0
-1843 -1883 -1889 -1844 8998 9134 9004 8993 0
-1844 -1878 -1883 -1849 8993 9134 8998 9004 0
-1843 -1878 -1890 -1850 8993 9135 9005 8999 0
-1843 -1884 -1890 -1844 8999 9135 9005 8993 0
-1844 -1878 -1884 -1850 8993 9135 8999 9005 0
-1843 -1879 -1891 -1846 8994 9136 9006 8995 0
-1843 -1880 -1891 -1845 8995 9136 9006 8994 0
-1845 -1879 -1880 -1846 8994 9136 8995 9006 0
-1843 -1879 -1892 -1847 8994 9137 9007 8996 0
-1843 -1881 -1892 -1845 8996 9137 9007 8994 0
-1845 -1879 -1881 -1847 8994 9137 8996 9007 0
-1843 -1879 -1893 -1848 8994 9138 9008 8997 0
-1843 -1882 -1893 -1845 8997 9138 9008 8994 0
-1845 -1879 -1882 -1848 8994 9138 8997 9008 0
-1843 -1879 -1894 -1849 8994 9139 9009 8998 0
-1843 -1883 -1894 -1845 8998 9139 9009 8994 0
-1845 -1879 -1883 -1849 8994 9139 8998 9009 0
-1843 -1879 -1895 -1850 8994 9140 9010 8999 0
-1843 -1884 -1895 -1845 8999 9140 9010 8994 0
-1845 -1879 -1884 -1850 8994 9140 8999 9010 0
-1843 -1880 -1896 -1847 8995 9141 9011 8996 0
-1843 -1881 -1896 -1846 8996 9141 9011 8995 0
-1846 -1880 -1881 -1847 8995 9141 8996 9011 0
-1843 -1880 -1897 -1848 8995 9142 9012 8997 0
-1843 -1882 -1897 -1846 8997 9142 9012 8995 0
-1846 -1880 -1882 -1848 8995 9142 8997 9012 0
-1843 -1880 -1898 -1849 8995 9143 9013 8998 0
-1843 -1883 -1898 -1846 8998 9143 9013 8995 0
-1846 -1880 -1883 -1849 8995 9143 8998 9013 0
-1843 -1880 -1899 -1850 8995 9144 9014 8999 0
-1843 -1884 -1899 -1846 8999 9144 9014 8995 0
-1846 -1880 -1884 -1850 8995 9144 8999 9014 0
-1843 -1881 -1900 -1848 8996 9145 9015 8997 0
-1843 -1882 -1900 -1847 8997 9145 9015 8996 0
-1847 -1881 -1882 -1848 8996 9145 8997 9015 0
-1843 -1881 -1901 -1849 8996 9146 9016 8998 0
-1843 -1883 -1901 -1847 8998 9146 9016 8996 0
-1847 -1881 -1883 -1849 8996 9146 8998 9016 0
-1843 -1881 -1902 -1850 8996 9147 9017 8999 0
-1843 -1884 -1902 -1847 8999 9147 9017 8996 0
-1847 -1881 -1884 -1850 8996 9147 8999 9017 0
-1843 -1882 -1903 -1849 8997 9148 9018 8998 0
-1843 -1883 -1903 -1848 8998 9148 9018 8997 0
-1848 -1882 -1883 -1849 8997 9148 8998 9018 0
-1843 -1882 -1904 -1850 8997 9149 9019 8999 0
-1843 -1884 -1904 -1848 8999 9149 9019 8997 0
-1848 -1882 -1884 -1850 8997 9149 8999 9019 0
-1843 -1883 -1905 -1850 8998 9150 9020 8999 0
-1843 -1884 -1905 -1849 8999 9150 9020 8998 0
-1849 -1883 -1884 -1850 8998 9150 8999 9020 0
-1844 -1885 -1891 -1846 9000 9151 9006 9001 0
-1844 -1886 -1891 -1845 9001 9151 9006 9000 0
-1845 -1885 -1886 -1846 9000 9151 9001 9006 0
-1844 -1885 -1892 -1847 9000 9152 9007 9002 0
-1844 -1887 -1892 -1845 9002 9152 9007 9000 0
-1845 -1885 -1887 -1847 9000 9152 9002 9007 0
-1844 -1885 -1893 -1848 9000 9153 9008 9003 0
-1844 -1888 -1893 -1845 9003 9153 9008 9000 0
-1845 -1885 -1888 -1848 9000 9153 9003 9008 0
-1844 -1885 -1894 -1849 9000 9154 9009 9004 0
-1844 -1889 -1894 -1845 9004 9154 9009 9000 0
-1845 -1885 -1889 -1849 9000 9154 9004 9009 0
-1844 -1885 -1895 -1850 9000 9155 9010 9005 0
-1844 -1890 -1895 -1845 9005 9155 9010 9000 0
-1845 -1885 -1890 -1850 9000 9155 9005 9010 0
-1844 -1886 -1896 -1847 9001 9156 9011 9002 0
-1844 -1887 -1896 -1846 9002 9156 9011 9001 0
-1846 -1886 -1887 -1847 9001 9156 9002 9011 0
-1844 -1886 -1897 -1848 9001 9157 9012 9003 0
-1844 -1888 -1897 -1846 9003 9157 9012 9001 0
-1846 -1886 -1888 -1848 9001 9157 9003 9012 0
-1844 -1886 -1898 -1849 9001 9158 9013 9004 0
-1844 -1889 -1898 -1846 9004 9158 9013 9001 0
-1846 -1886 -1889 -1849 9001 9158 9004 9013 0
-1844 -1886 -1899 -1850 9001 9159 9014 9005 0
-1844 -1890 -1899 -1846 9005 9159 9014 9001 0
-1846 -1886 -1890 -1850 9001 9159 9005 9014 0
-1844 -1887 -1900 -1848 9002 9160 9015 9003 0
-1844 -1888 -1900 -1847 9003 9160 9015 9002 0
-1847 -1887 -1888 -1848 9002 9160 9003 9015 0
-1844 -1887 -1901 -1849 9002 9161 9016 9004 0
-1844 -1889 -1901 -1847 9004 9161 9016 9002 0
-1847 -1887 -1889 -1849 9002 9161 9004 9016 0
-1844 -1887 -1902 -1850 9002 9162 9017 9005 0
-1844 -1890 -1902 -1847 9005 9162 9017 9002 0
-1847 -1887 -1890 -1850 9002 9162 9005 9017 0
-1844 -1888 -1903 -1849 9003 9163 9018 9004 0
-1844 -1889 -1903 -1848 9004 9163 9018 9003 0
-1848 -1888 -1889 -1849 9003 9163 9004 9018 0
-1844 -1888 -1904 -1850 9003 9164 9019 9005 0
-1844 -1890 -1904 -1848 9005 9164 9019 9003 0
-1848 -1888 -1890 -1850 9003 9164 9005 9019 0
-1844 -1889 -1905 -1850 9004 9165 9020 9005 0
-1844 -1890 -1905 -1849 9005 9165 9020 9004 0
-1849 -1889 -1890 -1850 9004 9165 9005 9020 0
-1845 -1891 -1896 -1847 9006 9166 9011 9007 0
-1845 -1892 -1896 -1846 9007 9166 9011 9006 0
-1846 -1891 -1892 -1847 9006 9166 9007 9011 0
-1845 -1891 -1897 -1848 9006 9167 9012 9008 0
-1845 -1893 -1897 -1846 9008 9167 9012 9006 0
-1846 -1891 -1893 -1848 9006 9167 9008 9012 0
-1845 -1891 -1898 -1849 9006 9168 9013 9009 0
-1845 -1894 -1898 -1846 9009 9168 9013 9006 0
-1846 -1891 -1894 -1849 9006 9168 9009 9013 0
-1845 -1891 -1899 -1850 9006 9169 9014 9010 0
-1845 -1895 -1899 -1846 9010 9169 9014 9006 0
-1846 -1891 -1895 -1850 9006 9169 9010 9014 0
-1845 -1892 -1900 -1848 9007 9170 9015 9008 0
-1845 -1893 -1900 -1847 9008 9170 9015 9007 0
-1847 -1892 -1893 -1848 9007 9170 9008 9015 0
-1845 -1892 -1901 -1849 9007 9171 9016 9009 0
-1845 -1894 -1901 -1847 9009 9171 9016 9007 0
-1847 -1892 -1894 -1849 9007 9171 9009 9016 0
-1845 -1892 -1902 -1850 9007 9172 9017 9010 0
-1845 -1895 -1902 -1847 9010 9172 9017 9007 0
-1847 -1892 -1895 -1850 9007 9172 9010 9017 0
-1845 -1893 -1903 -1849 9008 9173 9018 9009 0
-1845 -1894 -1903 -1848 9009 9173 9018 9008 0
-1848 -1893 -1894 -1849 9008 9173 9009 9018 0
-1845 -1893 -1904 -1850 9008 9174 9019 9010 0
-1845 -1895 -1904 -1848 9010 9174 9019 9008 0
-1848 -1893 -1895 -1850 9008 9174 9010 9019 0
-1845 -1894 -1905 -1850 9009 9175 9020 9010 0
-1845 -1895 -1905 -1849 9010 9175 9020 9009 0
-1849 -1894 -1895 -1850 9009 9175 9010 9020 0
-1846 -1896 -1900 -1848 9011 9176 9015 9012 0
-1846 -1897 -1900 -1847 9012 9176 9015 9011 0
-1847 -1896 -1897 -1848 9011 9176 9012 9015 0
-1846 -1896 -1901 -1849 9011 9177 9016 9013 0
-1846 -1898 -1901 -1847 9013 9177 9016 9011 0
-1847 -1896 -1898 -1849 9011 9177 9013 9016 0
-1846 -1896 -1902 -1850 9011 9178 9017 9014 0
-1846 -1899 -1902 -1847 9014 9178 9017 9011 0
-1847 -1896 -1899 -1850 9011 9178 9014 9017 0
-1846 -1897 -1903 -1849 9012 9179 9018 9013 0
-1846 -1898 -1903 -1848 9013 9179 9018 9012 0
-1848 -1897 -1898 -1849 9012 9179 9013 9018 0
-1846 -1897 -1904 -1850 9012 9180 9019 9014 0
-1846 -1899 -1904 -1848 9014 9180 9019 9012 0
-1848 -1897 -1899 -1850 9012 9180 9014 9019 0
-1846 -1898 -1905 -1850 9013 9181 9020 9014 0
-1846 -1899 -1905 -1849 9014 9181 9020 9013 0
-1849 -1898 -1899 -1850 9013 9181 9014 9020 0
-1847 -1900 -1903 -1849 9015 9182 9018 9016 0
-1847 -1901 -1903 -1848 9016 9182 9018 9015 0
-1848 -1900 -1901 -1849 9015 9182 9016 9018 0
-1847 -1900 -1904 -1850 9015 9183 9019 9017 0
-1847 -1902 -1904 -1848 9017 9183 9019 9015 0
-1848 -1900 -1902 -1850 9015 9183 9017 9019 0
-1847 -1901 -1905 -1850 9016 9184 9020 9017 0
-1847 -1902 -1905 -1849 9017 9184 9020 9016 0
-1849 -1901 -1902 -1850 9016 9184 9017 9020 0
-1848 -1903 -1905 -1850 9018 9185 9020 9019 0
-1848 -1904 -1905 -1849 9019 9185 9020 9018 0
-1849 -1903 -1904 -1850 9018 9185 9019 9020 0
-1851 -1861 -1870 -1853 9021 9066 9030 9022 0
-1851 -1862 -1870 -1852 9022 9066 9030 9021 0
-1852 -1861 -1862 -1853 9021 9066 9022 9030 0
-1851 -1861 -1871 -1854 9021 9067 9031 9023 0
-1851 -1863 -1871 -1852 9023 9067 9031 9021 0
-1852 -1861 -1863 -1854 9021 9067 9023 9031 0
-1851 -1861 -1872 -1855 9021 9068 9032 9024 0
-1851 -1864 -1872 -1852 9024 9068 9032 9021 0
-1852 -1861 -1864 -1855 9021 9068 9024 9032 0
-1851 -1861 -1873 -1856 9021 9069 9033 9025 0
-1851 -1865 -1873 -1852 9025 9069 9033 9021 0
-1852 -1861 -1865 -1856 9021 9069 9025 9033 0
-1851 -1861 -1874 -1857 9021 9070 9034 9026 0
-1851 -1866 -1874 -1852 9026 9070 9034 9021 0
-1852 -1861 -1866 -1857 9021 9070 9026 9034 0
-1851 -1861 -1875 -1858 9021 9071 9035 9027 0
-1851 -1867 -1875 -1852 9027 9071 9035 9021 0
-1852 -1861 -1867 -1858 9021 9071 9027 9035 0
-1851 -1861 -1876 -1859 9021 9072 9036 9028 0
-1851 -1868 -1876 -1852 9028 9072 9036 9021 0
-1852 -1861 -1868 -1859 9021 9072 9028 9036 0
-1851 -1861 -1877 -1860 9021 9073 9037 9029 0
-1851 -1869 -1877 -1852 9029 9073 9037 9021 0
-1852 -1861 -1869 -1860 9021 9073 9029 9037 0
-1851 -1862 -1878 -1854 9022 9074 9038 9023 0
-1851 -1863 -1878 -1853 9023 9074 9038 9022 0
-1853 -1862 -1863 -1854 9022 9074 9023 9038 0
-1851 -1862 -1879 -1855 9022 9075 9039 9024 0
-1851 -1864 -1879 -1853 9024 9075 9039 9022 0
-1853 -1862 -1864 -1855 9022 9075 9024 9039 0
-1851 -1862 -1880 -1856 9022 9076 9040 9025 0
-1851 -1865 -1880 -1853 9025 9076 9040 9022 0
-1853 -1862 -1865 -1856 9022 9076 9025 9040 0
-1851 -1862 -1881 -1857 9022 9077 9041 9026 0
-1851 -1866 -1881 -1853 9026 9077 9041 9022 0
-1853 -1862 -1866 -1857 9022 9077 9026 9041 0
-1851 -1862 -1882 -1858 9022 9078 9042 9027 0
-1851 -1867 -1882 -1853 9027 9078 9042 9022 0
-1853 -1862 -1867 -1858 9022 9078 9027 9042 0
-1851 -1862 -1883 -1859 9022 9079 9043 9028 0
-1851 -1868 -1883 -1853 9028 9079 9043 9022 0
-1853 -1862 -1868 -1859 9022 9079 9028 9043 0
-1851 -1862 -1884 -1860 9022 9080 9044 9029 0
-1851 -1869 -1884 -1853 9029 9080 9044 9022 0
-1853 -1862 -1869 -1860 9022 9080 9029 9044 0
-1851 -1863 -1885 -1855 9023 9081 9045 9024 0
-1851 -1864 -1885 -1854 9024 9081 9045 9023 0
-1854 -1863 -1864 -1855 9023 9081 9024 9045 0
-1851 -1863 -1886 -1856 9023 9082 9046 9025 0
-1851 -1865 -1886 -1854 9025 9082 9046 9023 0
-1854 -1863 -1865 -1856 9023 9082 9025 9046 0
-1851 -1863 -1887 -1857 9023 9083 9047 9026 0
-1851 -1866 -1887 -1854 9026 9083 9047 9023 0
-1854 -1863 -1866 -1857 9023 9083 9026 9047 0
-1851 -1863 -1888 -1858 9023 9084 9048 9027 0
-1851 -1867 -1888 -1854 9027 9084 9048 9023 0
-1854 -1863 -1867 -1858 9023 9084 9027 9048 0
-1851 -1863 -1889 -1859 9023 9085 9049 9028 0
-1851 -1868 -1889 -1854 9028 9085 9049 9023 0
-1854 -1863 -1868 -1859 9023 9085 9028 9049 0
-1851 -1863 -1890 -1860 9023 9086 9050 9029 0
-1851 -1869 -1890 -1854 9029 9086 9050 9023 0
-1854 -1863 -1869 -1860 9023 9086 9029 9050 0
-1851 -1864 -1891 -1856 9024 9087 9051 9025 0
-1851 -1865 -1891 -1855 9025 9087 9051 9024 0
-1855 -1864 -1865 -1856 9024 9087 9025 9051 0
-1851 -1864 -1892 -1857 9024 9088 9052 9026 0
-1851 -1866 -1892 -1855 9026 9088 9052 9024 0
-1855 -1864 -1866 -1857 9024 9088 9026 9052 0
-1851 -1864 -1893 -1858 9024 9089 9053 9027 0
-1851 -1867 -1893 -1855 9027 9089 9053 9024 0
-1855 -1864 -1867 -1858 9024 9089 9027 9053 0
-1851 -1864 -1894 -1859 9024 9090 9054 9028 0
-1851 -1868 -1894 -1855 9028 9090 9054 9024 0
-1855 -1864 -1868 -1859 9024 9090 9028 9054 0
-1851 -1864 -1895 -1860 9024 9091 9055 9029 0
-1851 -1869 -1895 -1855 9029 9091 9055 9024 0
-1855 -1864 -1869 -1860 9024 9091 9029 9055 0
-1851 -1865 -1896 -1857 9025 9092 9056 9026 0
-1851 -1866 -1896 -1856 9026 9092 9056 9025 0
-1856 -1865 -1866 -1857 9025 9092 9026 9056 0
-1851 -1865 -1897 -1858 9025 9093 9057 9027 0
-1851 -1867 -1897 -1856 9027 9093 9057 9025 0
-1856 -1865 -1867 -1858 9025 9093 9027 9057 0
-1851 -1865 -1898 -1859 9025 9094 9058 9028 0
-1851 -1868 -1898 -1856 9028 9094 9058 9025 0
-1856 -1865 -1868 -1859 9025 9094 9028 9058 0
-1851 -1865 -1899 -1860 9025 9095 9059 9029 0
-1851 -1869 -1899 -1856 9029 9095 9059 9025 0
-1856 -1865 -1869 -1860 9025 9095 9029 9059 0
-1851 -1866 -1900 -1858 9026 9096 9060 9027 0
-1851 -1867 -1900 -1857 9027 9096 9060 9026 0
-1857 -1866 -1867 -1858 9026 9096 9027 9060 0
-1851 -1866 -1901 -1859 9026 9097 9061 9028 0
-1851 -1868 -1901 -1857 9028 9097 9061 9026 0
-1857 -1866 -1868 -1859 9026 9097 9028 9061 0
-1851 -1866 -1902 -1860 9026 9098 9062 9029 0
-1851 -1869 -1902 -1857 9029 9098 9062 9026 0
-1857 -1866 -1869 -1860 9026 9098 9029 9062 0
-1851 -1867 -1903 -1859 9027 9099 9063 9028 0
-1851 -1868 -1903 -1858 9028 9099 9063 9027 0
-1858 -1867 -1868 -1859 9027 9099 9028 9063 0
-1851 -1867 -1904 -1860 9027 9100 9064 9029 0
-1851 -1869 -1904 -1858 9029 9100 9064 9027 0
-1858 -1867 -1869 -1860 9027 9100 9029 9064 0
-1851 -1868 -1905 -1860 9028 9101 9065 9029 0
-1851 -1869 -1905 -1859 9029 9101 9065 9028 0
-1859 -1868 -1869 -1860 9028 9101 9029 9065 0
-1852 -1870 -1878 -1854 9030 9102 9038 9031 0
-1852 -1871 -1878 -1853 9031 9102 9038 9030 0
-1853 -1870 -1871 -1854 9030 9102 9031 9038 0
-1852 -1870 -1879 -1855 9030 9103 9039 9032 0
-1852 -1872 -1879 -1853 9032 9103 9039 9030 0
-1853 -1870 -1872 -1855 9030 9103 9032 9039 0
-1852 -1870 -1880 -1856 9030 9104 9040 9033 0
-1852 -1873 -1880 -1853 9033 9104 9040 9030 0
-1853 -1870 -1873 -1856 9030 9104 9033 9040 0
-1852 -1870 -1881 -1857 9030 9105 9041 9034 0
-1852 -1874 -1881 -1853 9034 9105 9041 9030 0
-1853 -1870 -1874 -1857 9030 9105 9034 9041 0
-1852 -1870 -1882 -1858 9030 9106 9042 9035 0
-1852 -1875 -1882 -1853 9035 9106 9042 9030 0
-1853 -1870 -1875 -1858 9030 9106 9035 9042 0
-1852 -1870 -1883 -1859 9030 9107 9043 9036 0
-1852 -1876 -1883 -1853 9036 9107 9043 9030 0
-1853 -1870 -1876 -1859 9030 9107 9036 9043 0
-1852 -1870 -1884 -1860 9030 9108 9044 9037 0
-1852 -1877 -1884 -1853 9037 9108 9044 9030 0
-1853 -1870 -1877 -1860 9030 9108 9037 9044 0
-1852 -1871 -1885 -1855 9031 9109 9045 9032 0
-1852 -1872 -1885 -1854 9032 9109 9045 9031 0
-1854 -1871 -1872 -1855 9031 9109 9032 9045 0
-1852 -1871 -1886 -1856 9031 9110 9046 9033 0
-1852 -1873 -1886 -1854 9033 9110 9046 9031 0
-1854 -1871 -1873 -1856 9031 9110 9033 9046 0
-1852 -1871 -1887 -1857 9031 9111 9047 9034 0
-1852 -1874 -1887 -1854 9034 9111 9047 9031 0
-1854 -1871 -1874 -1857 9031 9111 9034 9047 0
-1852 -1871 -1888 -1858 9031 9112 9048 9035 0
-1852 -1875 -1888 -1854 9035 9112 9048 9031 0
-1854 -1871 -1875 -1858 9031 9112 9035 9048 0
-1852 -1871 -1889 -1859 9031 9113 9049 9036 0
-1852 -1876 -1889 -1854 9036 9113 9049 9031 0
-1854 -1871 -1876 -1859 9031 9113 9036 9049 0
-1852 -1871 -1890 -1860 9031 9114 9050 9037 0
-1852 -1877 -1890 -1854 9037 9114 9050 9031 0
-1854 -1871 -1877 -1860 9031 9114 9037 9050 0
-1852 -1872 -1891 -1856 9032 9115 9051 9033 0
-1852 -1873 -1891 -1855 9033 9115 9051 9032 0
-1855 -1872 -1873 -1856 9032 9115 9033 9051 0
-1852 -1872 -1892 -1857 9032 9116 9052 9034 0
-1852 -1874 -1892 -1855 9034 9116 9052 9032 0
-1855 -1872 -1874 -1857 9032 9116 9034 9052 0
-1852 -1872 -1893 -1858 9032 9117 9053 9035 0
-1852 -1875 -1893 -1855 9035 9117 9053 9032 0
-1855 -1872 -1875 -1858 9032 9117 9035 9053 0
-1852 -1872 -1894 -1859 9032 9118 9054 9036 0
-1852 -1876 -1894 -1855 9036 9118 9054 9032 0
-1855 -1872 -1876 -1859 9032 9118 9036 9054 0
-1852 -1872 -1895 -1860 9032 9119 9055 9037 0
-1852 -1877 -1895 -1855 9037 9119 9055 9032 0
-1855 -1872 -1877 -1860 9032 9119 9037 9055 0
-1852 -1873 -1896 -1857 9033 9120 9056 9034 0
-1852 -1874 -1896 -1856 9034 9120 9056 9033 0
-1856 -1873 -1874 -1857 9033 9120 9034 9056 0
-1852 -1873 -1897 -1858 9033 9121 9057 9035 0
-1852 -1875 -1897 -1856 9035 9121 9057 9033 0
-1856 -1873 -1875 -1858 9033 9121 9035 9057 0
-1852 -1873 -1898 -1859 9033 9122 9058 9036 0
-1852 -1876 -1898 -1856 9036 9122 9058 9033 0
-1856 -1873 -1876 -1859 9033 9122 9036 9058 0
-1852 -1873 -1899 -1860 9033 9123 9059 9037 0
-1852 -1877 -1899 -1856 9037 9123 9059 9033 0
-1856 -1873 -1877 -1860 9033 9123 9037 9059 0
-1852 -1874 -1900 -1858 9034 9124 9060 9035 0
-1852 -1875 -1900 -1857 9035 9124 9060 9034 0
-1857 -1874 -1875 -1858 9034 9124 9035 9060 0
-1852 -1874 -1901 -1859 9034 9125 9061 9036 0
-1852 -1876 -1901 -1857 9036 9125 9061 9034 0
-1857 -1874 -1876 -1859 9034 9125 9036 9061 0
-1852 -1874 -1902 -1860 9034 9126 9062 9037 0
-1852 -1877 -1902 -1857 9037 9126 9062 9034 0
-1857 -1874 -1877 -1860 9034 9126 9037 9062 0
-1852 -1875 -1903 -1859 9035 9127 9063 9036 0
-1852 -1876 -1903 -1858 9036 9127 9063 9035 0
-1858 -1875 -1876 -1859 9035 9127 9036 9063 0
-1852 -1875 -1904 -1860 9035 9128 9064 9037 0
-1852 -1877 -1904 -1858 9037 9128 9064 9035 0
-1858 -1875 -1877 -1860 9035 9128 9037 9064 0
-1852 -1876 -1905 -1860 9036 9129 9065 9037 0
-1852 -1877 -1905 -1859 9037 9129 9065 9036 0
-1859 -1876 -1877 -1860 9036 9129 9037 9065 0
-1853 -1878 -1885 -1855 9038 9130 9045 9039 0
-1853 -1879 -1885 -1854 9039 9130 9045 9038 0
-1854 -1878 -1879 -1855 9038 9130 9039 9045 0
-1853 -1878 -1886 -1856 9038 9131 9046 9040 0
-1853 -1880 -1886 -1854 9040 9131 9046 9038 0
-1854 -1878 -1880 -1856 9038 9131 9040 9046 0
-1853 -1878 -1887 -1857 9038 9132 9047 9041 0
-1853 -1881 -1887 -1854 9041 9132 9047 9038 0
-1854 -1878 -1881 -1857 9038 9132 9041 9047 0
-1853 -1878 -1888 -1858 9038 9133 9048 9042 0
-1853 -1882 -1888 -1854 9042 9133 9048 9038 0
-1854 -1878 -1882 -1858 9038 9133 9042 9048 0
-1853 -1878 -1889 -1859 9038 9134 9049 9043 0
-1853 -1883 -1889 -1854 9043 9134 9049 9038 0
-1854 -1878 -1883 -1859 9038 9134 9043 9049 0
-1853 -1878 -1890 -1860 9038 9135 9050 9044 0
-1853 -1884 -1890 -1854 9044 9135 9050 9038 0
-1854 -1878 -1884 -1860 9038 9135 9044 9050 0
-1853 -1879 -1891 -1856 9039 9136 9051 9040 0
-1853 -1880 -1891 -1855 9040 9136 9051 9039 0
-1855 -1879 -1880 -1856 9039 9136 9040 9051 0
-1853 -1879 -1892 -1857 9039 9137 9052 9041 0
-1853 -1881 -1892 -1855 9041 9137 9052 9039 0
-1855 -1879 -1881 -1857 9039 9137 9041 9052 0
-1853 -1879 -1893 -1858 9039 9138 9053 9042 0
-1853 -1882 -1893 -1855 9042 9138 9053 9039 0
-1855 -1879 -1882 -1858 9039 9138 9042 9053 0
-1853 -1879 -1894 -1859 9039 9139 9054 9043 0
-1853 -1883 -1894 -1855 9043 9139 9054 9039 0
-1855 -1879 -1883 -1859 9039 9139 9043 9054 0
-1853 -1879 -1895 -1860 9039 9140 9055 9044 0
-1853 -1884 -1895 -1855 9044 9140 9055 9039 0
-1855 -1879 -1884 -1860 9039 9140 9044 9055 0
-1853 -1880 -1896 -1857 9040 9141 9056 9041 0
-1853 -1881 -1896 -1856 9041 9141 9056 9040 0
-1856 -1880 -1881 -1857 9040 9141 9041 9056 0
-1853 -1880 -1897 -1858 9040 9142 9057 9042 0
-1853 -1882 -1897 -1856 9042 9142 9057 9040 0
-1856 -1880 -1882 -1858 9040 9142 9042 9057 0
-1853 -1880 -1898 -1859 9040 9143 9058 9043 0
-1853 -1883 -1898 -1856 9043 9143 9058 9040 0
-1856 -1880 -1883 -1859 9040 9143 9043 9058 0
-1853 -1880 -1899 -1860 9040 9144 9059 9044 0
-1853 -1884 -1899 -1856 9044 9144 9059 9040 0
-1856 -1880 -1884 -1860 9040 9144 9044 9059 0
-1853 -1881 -1900 -1858 9041 9145 9060 9042 0
-1853 -1882 -1900 -1857 9042 9145 9060 9041 0
-1857 -1881 -1882 -1858 9041 9145 9042 9060 0
-1853 -1881 -1901 -1859 9041 9146 9061 9043 0
-1853 -1883 -1901 -1857 9043 9146 9061 9041 0
-1857 -1881 -1883 -1859 9041 9146 9043 9061 0
-1853 -1881 -1902 -1860 9041 9147 9062 9044 0
-1853 -1884 -1902 -1857 9044 9147 9062 9041 0
-1857 -1881 -1884 -1860 9041 9147 9044 9062 0
-1853 -1882 -1903 -1859 9042 9148 9063 9043 0
-1853 -1883 -1903 -1858 9043 9148 9063 9042 0
-1858 -1882 -1883 -1859 9042 9148 9043 9063 0
-1853 -1882 -1904 -1860 9042 9149 9064 9044 0
-1853 -1884 -1904 -1858 9044 9149 9064 9042 0
-1858 -1882 -1884 -1860 9042 9149 9044 9064 0
-1853 -1883 -1905 -1860 9043 9150 9065 9044 0
-1853 -1884 -1905 -1859 9044 9150 9065 9043 0
-1859 -1883 -1884 -1860 9043 9150 9044 9065 0
-1854 -1885 -1891 -1856 9045 9151 9051 9046 0
-1854 -1886 -1891 -1855 9046 9151 9051 9045 0
-1855 -1885 -1886 -1856 9045 9151 9046 9051 0
-1854 -1885 -1892 -1857 9045 9152 9052 9047 0
-1854 -1887 -1892 -1855 9047 9152 9052 9045 0
-1855 -1885 -1887 -1857 9045 9152 9047 9052 0
-1854 -1885 -1893 -1858 9045 9153 9053 9048 0
-1854 -1888 -1893 -1855 9048 9153 9053 9045 0
-1855 -1885 -1888 -1858 9045 9153 9048 9053 0
-1854 -1885 -1894 -1859 9045 9154 9054 9049 0
-1854 -1889 -1894 -1855 9049 9154 9054 9045 0
-1855 -1885 -1889 -1859 9045 9154 9049 9054 0
-1854 -1885 -1895 -1860 9045 9155 9055 9050 0
-1854 -1890 -1895 -1855 9050 9155 9055 9045 0
-1855 -1885 -1890 -1860 9045 9155 9050 9055 0
-1854 -1886 -1896 -1857 9046 9156 9056 9047 0
-1854 -1887 -1896 -1856 9047 9156 9056 9046 0
-1856 -1886 -1887 -1857 9046 9156 9047 9056 0
-1854 -1886 -1897 -1858 9046 9157 9057 9048 0
-1854 -1888 -1897 -1856 9048 9157 9057 9046 0
-1856 -1886 -1888 -1858 9046 9157 9048 9057 0
-1854 -1886 -1898 -1859 9046 9158 9058 9049 0
-1854 -1889 -1898 -1856 9049 9158 9058 9046 0
-1856 -1886 -1889 -1859 9046 9158 9049 9058 0
-1854 -1886 -1899 -1860 9046 9159 9059 9050 0
-1854 -1890 -1899 -1856 9050 9159 9059 9046 0
-1856 -1886 -1890 -1860 9046 9159 9050 9059 0
-1854 -1887 -1900 -1858 9047 9160 9060 9048 0
-1854 -1888 -1900 -1857 9048 9160 9060 9047 0
-1857 -1887 -1888 -1858 9047 9160 9048 9060 0
-1854 -1887 -1901 -1859 9047 9161 9061 9049 0
-1854 -1889 -1901 -1857 9049 9161 9061 9047 0
-1857 -1887 -1889 -1859 9047 9161 9049 9061 0
-1854 -1887 -1902 -1860 9047 9162 9062 9050 0
-1854 -1890 -1902 -1857 9050 9162 9062 9047 0
-1857 -1887 -1890 -1860 9047 9162 9050 9062 0
-1854 -1888 -1903 -1859 9048 9163 9063 9049 0
-1854 -1889 -1903 -1858 9049 9163 9063 9048 0
-1858 -1888 -1889 -1859 9048 9163 9049 9063 0
-1854 -1888 -1904 -1860 9048 9164 9064 9050 0
-1854 -1890 -1904 -1858 9050 9164 9064 9048 0
-1858 -1888 -1890 -1860 9048 9164 9050 9064 0
-1854 -1889 -1905 -1860 9049 9165 9065 9050 0
-1854 -1890 -1905 -1859 9050 9165 9065 9049 0
-1859 -1889 -1890 -1860 9049 9165 9050 9065 0
-1855 -1891 -1896 -1857 9051 9166 9056 9052 0
-1855 -1892 -1896 -1856 9052 9166 9056 9051 0
-1856 -1891 -1892 -1857 9051 9166 9052 9056 0
-1855 -1891 -1897 -1858 9051 9167 9057 9053 0
-1855 -1893 -1897 -1856 9053 9167 9057 9051 0
-1856 -1891 -1893 -1858 9051 9167 9053 9057 0
-1855 -1891 -1898 -1859 9051 9168 9058 9054 0
-1855 -1894 -1898 -1856 9054 9168 9058 9051 0
-1856 -1891 -1894 -1859 9051 9168 9054 9058 0
-1855 -1891 -1899 -1860 9051 9169 9059 9055 0
-1855 -1895 -1899 -1856 9055 9169 9059 9051 0
-1856 -1891 -1895 -1860 9051 9169 9055 9059 0
-1855 -1892 -1900 -1858 9052 9170 9060 9053 0
-1855 -1893 -1900 -1857 9053 9170 9060 9052 0
-1857 -1892 -1893 -1858 9052 9170 9053 9060 0
-1855 -1892 -1901 -1859 9052 9171 9061 9054 0
-1855 -1894 -1901 -1857 9054 9171 9061 9052 0
-1857 -1892 -1894 -1859 9052 9171 9054 9061 0
-1855 -1892 -1902 -1860 9052 9172 9062 9055 0
-1855 -1895 -1902 -1857 9055 9172 9062 9052 0
-1857 -1892 -1895 -1860 9052 9172 9055 9062 0
-1855 -1893 -1903 -1859 9053 9173 9063 9054 0
-1855 -1894 -1903 -1858 9054 9173 9063 9053 0
-1858 -1893 -1894 -1859 9053 9173 9054 9063 0
-1855 -1893 -1904 -1860 9053 9174 9064 9055 0
-1855 -1895 -1904 -1858 9055 9174 9064 9053 0
-1858 -1893 -1895 -1860 9053 9174 9055 9064 0
-1855 -1894 -1905 -1860 9054 9175 9065 9055 0
-1855 -1895 -1905 -1859 9055 9175 9065 9054 0
-1859 -1894 -1895 -1860 9054 9175 9055 9065 0
-1856 -1896 -1900 -1858 9056 9176 9060 9057 0
-1856 -1897 -1900 -1857 9057 9176 9060 9056 0
-1857 -1896 -1897 -1858 9056 9176 9057 9060 0
-1856 -1896 -1901 -1859 9056 9177 9061 9058 0
-1856 -1898 -1901 -1857 9058 9177 9061 9056 0
-1857 -1896 -1898 -1859 9056 9177 9058 9061 0
-1856 -1896 -1902 -1860 9056 9178 9062 9059 0
-1856 -1899 -1902 -1857 9059 9178 9062 9056 0
-1857 -1896 -1899 -1860 9056 9178 9059 9062 0
-1856 -1897 -1903 -1859 9057 9179 9063 9058 0
-1856 -1898 -1903 -1858 9058 9179 9063 9057 0
-1858 -1897 -1898 -1859 9057 9179 9058 9063 0
-1856 -1897 -1904 -1860 9057 9180 9064 9059 0
-1856 -1899 -1904 -1858 9059 9180 9064 9057 0
-1858 -1897 -1899 -1860 9057 9180 9059 9064 0
-1856 -1898 -1905 -1860 9058 9181 9065 9059 0
-1856 -1899 -1905 -1859 9059 9181 9065 9058 0
-1859 -1898 -1899 -1860 9058 9181 9059 9065 0
-1857 -1900 -1903 -1859 9060 9182 9063 9061 0
-1857 -1901 -1903 -1858 9061 9182 9063 9060 0
-1858 -1900 -1901 -1859 9060 9182 9061 9063 0
-1857 -1900 -1904 -1860 9060 9183 9064 9062 0
-1857 -1902 -1904 -1858 9062 9183 9064 9060 0
-1858 -1900 -1902 -1860 9060 9183 9062 9064 0
-1857 -1901 -1905 -1860 9061 9184 9065 9062 0
-1857 -1902 -1905 -1859 9062 9184 9065 9061 0
-1859 -1901 -1902 -1860 9061 9184 9062 9065 0
-1858 -1903 -1905 -1860 9063 9185 9065 9064 0
-1858 -1904 -1905 -1859 9064 9185 9065 9063 0
-1859 -1903 -1904 -1860 9063 9185 9064 9065 0
-1861 -1870 -1878 -1863 9066 9102 9074 9067 0
-1861 -1871 -1878 -1862 9067 9102 9074 9066 0
-1862 -1870 -1871 -1863 9066 9102 9067 9074 0
-1861 -1870 -1879 -1864 9066 9103 9075 9068 0
-1861 -1872 -1879 -1862 9068 9103 9075 9066 0
-1862 -1870 -1872 -1864 9066 9103 9068 9075 0
-1861 -1870 -1880 -1865 9066 9104 9076 9069 0
-1861 -1873 -1880 -1862 9069 9104 9076 9066 0
-1862 -1870 -1873 -1865 9066 9104 9069 9076 0
-1861 -1870 -1881 -1866 9066 9105 9077 9070 0
-1861 -1874 -1881 -1862 9070 9105 9077 9066 0
-1862 -1870 -1874 -1866 9066 9105 9070 9077 0
-1861 -1870 -1882 -1867 9066 9106 9078 9071 0
-1861 -1875 -1882 -1862 9071 9106 9078 9066 0
-1862 -1870 -1875 -1867 9066 9106 9071 9078 0
-1861 -1870 -1883 -1868 9066 9107 9079 9072 0
-1861 -1876 -1883 -1862 9072 9107 9079 9066 0
-1862 -1870 -1876 -1868 9066 9107 9072 9079 0
-1861 -1870 -1884 -1869 9066 9108 9080 9073 0
-1861 -1877 -1884 -1862 9073 9108 9080 9066 0
-1862 -1870 -1877 -1869 9066 9108 9073 9080 0
-1861 -1871 -1885 -1864 9067 9109 9081 9068 0
-1861 -1872 -1885 -1863 9068 9109 9081 9067 0
-1863 -1871 -1872 -1864 9067 9109 9068 9081 0
-1861 -1871 -1886 -1865 9067 9110 9082 9069 0
-1861 -1873 -1886 -1863 9069 9110 9082 9067 0
-1863 -1871 -1873 -1865 9067 9110 9069 9082 0
-1861 -1871 -1887 -1866 9067 9111 9083 9070 0
-1861 -1874 -1887 -1863 9070 9111 9083 9067 0
-1863 -1871 -1874 -1866 9067 9111 9070 9083 0
-1861 -1871 -1888 -1867 9067 9112 9084 9071 0
-1861 -1875 -1888 -1863 9071 9112 9084 9067 0
-1863 -1871 -1875 -1867 9067 9112 9071 9084 0
-1861 -1871 -1889 -1868 9067 9113 9085 9072 0
-1861 -1876 -1889 -1863 9072 9113 9085 9067 0
-1863 -1871 -1876 -1868 9067 9113 9072 9085 0
-1861 -1871 -1890 -1869 9067 9114 9086 9073 0
-1861 -1877 -1890 -1863 9073 9114 9086 9067 0
-1863 -1871 -1877 -1869 9067 9114 9073 9086 0
-1861 -1872 -1891 -1865 9068 9115 9087 9069 0
-1861 -1873 -1891 -1864 9069 9115 9087 9068 0
-1864 -1872 -1873 -1865 9068 9115 9069 9087 0
-1861 -1872 -1892 -1866 9068 9116 9088 9070 0
-1861 -1874 -1892 -1864 9070 9116 9088 9068 0
-1864 -1872 -1874 -1866 9068 9116 9070 9088 0
-1861 -1872 -1893 -1867 9068 9117 9089 9071 0
-1861 -1875 -1893 -1864 9071 9117 9089 9068 0
-1864 -1872 -1875 -1867 9068 9117 9071 9089 0
-1861 -1872 -1894 -1868 9068 9118 9090 9072 0
-1861 -1876 -1894 -1864 9072 9118 9090 9068 0
-1864 -1872 -1876 -1868 9068 9118 9072 9090 0
-1861 -1872 -1895 -1869 9068 9119 9091 9073 0
-1861 -1877 -1895 -1864 9073 9119 9091 9068 0
-1864 -1872 -1877 -1869 9068 9119 9073 9091 0
-1861 -1873 -1896 -1866 9069 9120 9092 9070 0
-1861 -1874 -1896 -1865 9070 9120 9092 9069 0
-1865 -1873 -1874 -1866 9069 9120 9070 9092 0
-1861 -1873 -1897 -1867 9069 9121 9093 9071 0
-1861 -1875 -1897 -1865 9071 9121 9093 9069 0
-1865 -1873 -1875 -1867 9069 9121 9071 9093 0
-1861 -1873 -1898 -1868 9069 9122 9094 9072 0
-1861 -1876 -1898 -1865 9072 9122 9094 9069 0
-1865 -1873 -1876 -1868 9069 9122 9072 9094 0
-1861 -1873 -1899 -1869 9069 9123 9095 9073 0
-1861 -1877 -1899 -1865 9073 9123 9095 9069 0
-1865 -1873 -1877 -1869 9069 9123 9073 9095 0
-1861 -1874 -1900 -1867 9070 9124 9096 9071 0
-1861 -1875 -1900 -1866 9071 9124 9096 9070 0
-1866 -1874 -1875 -1867 9070 9124 9071 9096 0
-1861 -1874 -1901 -1868 9070 9125 9097 9072 0
-1861 -1876 -1901 -1866 9072 9125 9097 9070 0
-1866 -1874 -1876 -1868 9070 9125 9072 9097 0
-1861 -1874 -1902 -1869 9070 9126 9098 9073 0
-1861 -1877 -1902 -1866 9073 9126 9098 9070 0
-1866 -1874 -1877 -1869 9070 9126 9073 9098 0
-1861 -1875 -1903 -1868 9071 9127 9099 9072 0
-1861 -1876 -1903 -1867 9072 9127 9099 9071 0
-1867 -1875 -1876 -1868 9071 9127 9072 9099 0
-1861 -1875 -1904 -1869 9071 9128 9100 9073 0
-1861 -1877 -1904 -1867 9073 9128 9100 9071 0
-1867 -1875 -1877 -1869 9071 9128 9073 9100 0
-1861 -1876 -1905 -1869 9072 9129 9101 9073 0
-1861 -1877 -1905 -1868 9073 9129 9101 9072 0
-1868 -1876 -1877 -1869 9072 9129 9073 9101 0
-1862 -1878 -1885 -1864 9074 9130 9081 9075 0
-1862 -1879 -1885 -1863 9075 9130 9081 9074 0
-1863 -1878 -1879 -1864 9074 9130 9075 9081 0
-1862 -1878 -1886 -1865 9074 9131 9082 9076 0
-1862 -1880 -1886 -1863 9076 9131 9082 9074 0
-1863 -1878 -1880 -1865 9074 9131 9076 9082 0
-1862 -1878 -1887 -1866 9074 9132 9083 9077 0
-1862 -1881 -1887 -1863 9077 9132 9083 9074 0
-1863 -1878 -1881 -1866 9074 9132 9077 9083 0
-1862 -1878 -1888 -1867 9074 9133 9084 9078 0
-1862 -1882 -1888 -1863 9078 9133 9084 9074 0
-1863 -1878 -1882 -1867 9074 9133 9078 9084 0
-1862 -1878 -1889 -1868 9074 9134 9085 9079 0
-1862 -1883 -1889 -1863 9079 9134 9085 9074 0
-1863 -1878 -1883 -1868 9074 9134 9079 9085 0
-1862 -1878 -1890 -1869 9074 9135 9086 9080 0
-1862 -1884 -1890 -1863 9080 9135 9086 9074 0
-1863 -1878 -1884 -1869 9074 9135 9080 9086 0
-1862 -1879 -1891 -1865 9075 9136 9087 9076 0
-1862 -1880 -1891 -1864 9076 9136 9087 9075 0
-1864 -1879 -1880 -1865 9075 9136 9076 9087 0
-1862 -1879 -1892 -1866 9075 9137 9088 9077 0
-1862 -1881 -1892 -1864 9077 9137 9088 9075 0
-1864 -1879 -1881 -1866 9075 9137 9077 9088 0
-1862 -1879 -1893 -1867 9075 9138 9089 9078 0
-1862 -1882 -1893 -1864 9078 9138 9089 9075 0
-1864 -1879 -1882 -1867 9075 9138 9078 9089 0
-1862 -1879 -1894 -1868 9075 9139 9090 9079 0
-1862 -1883 -1894 -1864 9079 9139 9090 9075 0
-1864 -1879 -1883 -1868 9075 9139 9079 9090 0
-1862 -1879 -1895 -1869 9075 9140 9091 9080 0
-1862 -1884 -1895 -1864 9080 9140 9091 9075 0
-1864 -1879 -1884 -1869 9075 9140 9080 9091 0
-1862 -1880 -1896 -1866 9076 9141 9092 9077 0
-1862 -1881 -1896 -1865 9077 9141 9092 9076 0
-1865 -1880 -1881 -1866 9076 9141 9077 9092 0
-1862 -1880 -1897 -1867 9076 9142 9093 9078 0
-1862 -1882 -1897 -1865 9078 9142 9093 9076 0
-1865 -1880 -1882 -1867 9076 9142 9078 9093 0
-1862 -1880 -1898 -1868 9076 9143 9094 9079 0
-1862 -1883 -1898 -1865 9079 9143 9094 9076 0
-1865 -1880 -1883 -1868 9076 9143 9079 9094 0
-1862 -1880 -1899 -1869 9076 9144 9095 9080 0
-1862 -1884 -1899 -1865 9080 9144 9095 9076 0
-1865 -1880 -1884 -1869 9076 9144 9080 9095 0
-1862 -1881 -1900 -1867 9077 9145 9096 9078 0
-1862 -1882 -1900 -1866 9078 9145 9096 9077 0
-1866 -1881 -1882 -1867 9077 9145 9078 9096 0
-1862 -1881 -1901 -1868 9077 9146 9097 9079 0
-1862 -1883 -1901 -1866 9079 9146 9097 9077 0
-1866 -1881 -1883 -1868 9077 9146 9079 9097 0
-1862 -1881 -1902 -1869 9077 9147 9098 9080 0
-1862 -1884 -1902 -1866 9080 9147 9098 9077 0
-1866 -1881 -1884 -1869 9077 9147 9080 9098 0
-1862 -1882 -1903 -1868 9078 9148 9099 9079 0
-1862 -1883 -1903 -1867 9079 9148 9099 9078 0
-1867 -1882 -1883 -1868 9078 9148 9079 9099 0
-1862 -1882 -1904 -1869 9078 9149 9100 9080 0
-1862 -1884 -1904 -1867 9080 9149 9100 9078 0
-1867 -1882 -1884 -1869 9078 9149 9080 9100 0
-1862 -1883 -1905 -1869 9079 9150 9101 9080 0
-1862 -1884 -1905 -1868 9080 9150 9101 9079 0
-1868 -1883 -1884 -1869 9079 9150 9080 9101 0
-1863 -1885 -1891 -1865 9081 9151 9087 9082 0
-1863 -1886 -1891 -1864 9082 9151 9087 9081 0
-1864 -1885 -1886 -1865 9081 9151 9082 9087 0
-1863 -1885 -1892 -1866 9081 9152 9088 9083 0
-1863 -1887 -1892 -1864 9083 9152 9088 9081 0
-1864 -1885 -1887 -1866 9081 9152 9083 9088 0
-1863 -1885 -1893 -1867 9081 9153 9089 9084 0
-1863 -1888 -1893 -1864 9084 9153 9089 9081 0
-1864 -1885 -1888 -1867 9081 9153 9084 9089 0
-1863 -1885 -1894 -1868 9081 9154 9090 9085 0
-1863 -1889 -1894 -1864 9085 9154 9090 9081 0
-1864 -1885 -1889 -1868 9081 9154 9085 9090 0
-1863 -1885 -1895 -1869 9081 9155 9091 9086 0
-1863 -1890 -1895 -1864 9086 9155 9091 9081 0
-1864 -1885 -1890 -1869 9081 9155 9086 9091 0
-1863 -1886 -1896 -1866 9082 9156 9092 9083 0
-1863 -1887 -1896 -1865 9083 9156 9092 9082 0
-1865 -1886 -1887 -1866 9082 9156 9083 9092 0
-1863 -1886 -1897 -1867 9082 9157 9093 9084 0
-1863 -1888 -1897 -1865 9084 9157 9093 9082 0
-1865 -1886 -1888 -1867 9082 9157 9084 9093 0
-1863 -1886 -1898 -1868 9082 9158 9094 9085 0
-1863 -1889 -1898 -1865 9085 9158 9094 9082 0
-1865 -1886 -1889 -1868 9082 9158 9085 9094 0
-1863 -1886 -1899 -1869 9082 9159 9095 9086 0
-1863 -1890 -1899 -1865 9086 9159 9095 9082 0
-1865 -1886 -1890 -1869 9082 9159 9086 9095 0
-1863 -1887 -1900 -1867 9083 9160 9096 9084 0
-1863 -1888 -1900 -1866 9084 9160 9096 9083 0
-1866 -1887 -1888 -1867 9083 9160 9084 9096 0
-1863 -1887 -1901 -1868 9083 9161 9097 9085 0
-1863 -1889 -1901 -1866 9085 9161 9097 9083 0
-1866 -1887 -1889 -1868 9083 9161 9085 9097 0
-1863 -1887 -1902 -1869 9083 9162 9098 9086 0
-1863 -1890 -1902 -1866 9086 9162 9098 9083 0
-1866 -1887 -1890 -1869 9083 9162 9086 9098 0
-1863 -1888 -1903 -1868 9084 9163 9099 9085 0
-1863 -1889 -1903 -1867 9085 9163 9099 9084 0
-1867 -1888 -1889 -1868 9084 9163 9085 9099 0
-1863 -1888 -1904 -1869 9084 9164 9100 9086 0
-1863 -1890 -1904 -1867 9086 9164 9100 9084 0
-1867 -1888 -1890 -1869 9084 9164 9086 9100 0
-1863 -1889 -1905 -1869 9085 9165 9101 9086 0
-1863 -1890 -1905 -1868 9086 9165 9101 9085 0
-1868 -1889 -1890 -1869 9085 9165 9086 9101 0
-1864 -1891 -1896 -1866 9087 9166 9092 9088 0
-1864 -1892 -1896 -1865 9088 9166 9092 9087 0
-1865 -1891 -1892 -1866 9087 9166 9088 9092 0
-1864 -1891 -1897 -1867 9087 9167 9093 9089 0
-1864 -1893 -1897 -1865 9089 9167 9093 9087 0
-1865 -1891 -1893 -1867 9087 9167 9089 9093 0
-1864 -1891 -1898 -1868 9087 9168 9094 9090 0
-1864 -1894 -1898 -1865 9090 9168 9094 9087 0
-1865 -1891 -1894 -1868 9087 9168 9090 9094 0
-1864 -1891 -1899 -1869 9087 9169 9095 9091 0
-1864 -1895 -1899 -1865 9091 9169 9095 9087 0
-1865 -1891 -1895 -1869 9087 9169 9091 9095 0
-1864 -1892 -1900 -1867 9088 9170 9096 9089 0
-1864 -1893 -1900 -1866 9089 9170 9096 9088 0
-1866 -1892 -1893 -1867 9088 9170 9089 9096 0
-1864 -1892 -1901 -1868 9088 9171 9097 9090 0
-1864 -1894 -1901 -1866 9090 9171 9097 9088 0
-1866 -1892 -1894 -1868 9088 9171 9090 9097 0
-1864 -1892 -1902 -1869 9088 9172 9098 9091 0
-1864 -1895 -1902 -1866 9091 9172 9098 9088 0
-1866 -1892 -1895 -1869 9088 9172 9091 9098 0
-1864 -1893 -1903 -1868 9089 9173 9099 9090 0
-1864 -1894 -1903 -1867 9090 9173 9099 9089 0
-1867 -1893 -1894 -1868 9089 9173 9090 9099 0
-1864 -1893 -1904 -1869 9089 9174 9100 9091 0
-1864 -1895 -1904 -1867 9091 9174 9100 9089 0
-1867 -1893 -1895 -1869 9089 9174 9091 9100 0
-1864 -1894 -1905 -1869 9090 9175 9101 9091 0
-1864 -1895 -1905 -1868 9091 9175 9101 9090 0
-1868 -1894 -1895 -1869 9090 9175 9091 9101 0
-1865 -1896 -1900 -1867 9092 9176 9096 9093 0
-1865 -1897 -1900 -1866 9093 9176 9096 9092 0
-1866 -1896 -1897 -1867 9092 9176 9093 9096 0
-1865 -1896 -1901 -1868 9092 9177 9097 9094 0
-1865 -1898 -1901 -1866 9094 9177 9097 9092 0
-1866 -1896 -1898 -1868 9092 9177 9094 9097 0
-1865 -1896 -1902 -1869 9092 9178 9098 9095 0
-1865 -1899 -1902 -1866 9095 9178 9098 9092 0
-1866 -1896 -1899 -1869 9092 9178 9095 9098 0
-1865 -1897 -1903 -1868 9093 9179 9099 9094 0
-1865 -1898 -1903 -1867 9094 9179 9099 9093 0
-1867 -1897 -1898 -1868 9093 9179 9094 9099 0
-1865 -1897 -1904 -1869 9093 9180 9100 9095 0
-1865 -1899 -1904 -1867 9095 9180 9100 9093 0
-1867 -1897 -1899 -1869 9093 9180 9095 9100 0
-1865 -1898 -1905 -1869 9094 9181 9101 9095 0
-1865 -1899 -1905 -1868 9095 9181 9101 9094 0
-1868 -1898 -1899 -1869 9094 9181 9095 9101 0
-1866 -1900 -1903 -1868 9096 9182 9099 9097 0
-1866 -1901 -1903 -1867 9097 9182 9099 9096 0
-1867 -1900 -1901 -1868 9096 9182 9097 9099 0
-1866 -1900 -1904 -1869 9096 9183 9100 9098 0
-1866 -1902 -1904 -1867 9098 9183 9100 9096 0
-1867 -1900 -1902 -1869 9096 9183 9098 9100 0
-1866 -1901 -1905 -1869 9097 9184 9101 9098 0
-1866 -1902 -1905 -1868 9098 9184 9101 9097 0
-1868 -1901 -1902 -1869 9097 9184 9098 9101 0
-1867 -1903 -1905 -1869 9099 9185 9101 9100 0
-1867 -1904 -1905 -1868 9100 9185 9101 9099 0
-1868 -1903 -1904 -1869 9099 9185 9100 9101 0
-1870 -1878 -1885 -1872 9102 9130 9109 9103 0
-1870 -1879 -1885 -1871 9103 9130 9109 9102 0
-1871 -1878 -1879 -1872 9102 9130 9103 9109 0
-1870 -1878 -1886 -1873 9102 9131 9110 9104 0
-1870 -1880 -1886 -1871 9104 9131 9110 9102 0
-1871 -1878 -1880 -1873 9102 9131 9104 9110 0
-1870 -1878 -1887 -1874 9102 9132 9111 9105 0
-1870 -1881 -1887 -1871 9105 9132 9111 9102 0
-1871 -1878 -1881 -1874 9102 9132 9105 9111 0
-1870 -1878 -1888 -1875 9102 9133 9112 9106 0
-1870 -1882 -1888 -1871 9106 9133 9112 9102 0
-1871 -1878 -1882 -1875 9102 9133 9106 9112 0
-1870 -1878 -1889 -1876 9102 9134 9113 9107 0
-1870 -1883 -1889 -1871 9107 9134 9113 9102 0
-1871 -1878 -1883 -1876 9102 9134 9107 9113 0
-1870 -1878 -1890 -1877 9102 9135 9114 9108 0
-1870 -1884 -1890 -1871 9108 9135 9114 9102 0
-1871 -1878 -1884 -1877 9102 9135 9108 9114 0
-1870 -1879 -1891 -1873 9103 9136 9115 9104 0
-1870 -1880 -1891 -1872 9104 9136 9115 9103 0
-1872 -1879 -1880 -1873 9103 9136 9104 9115 0
-1870 -1879 -1892 -1874 9103 9137 9116 9105 0
-1870 -1881 -1892 -1872 9105 9137 9116 9103 0
-1872 -1879 -1881 -1874 9103 9137 9105 9116 0
-1870 -1879 -1893 -1875 9103 9138 9117 9106 0
-1870 -1882 -1893 -1872 9106 9138 9117 9103 0
-1872 -1879 -1882 -1875 9103 9138 9106 9117 0
-1870 -1879 -1894 -1876 9103 9139 9118 9107 0
-1870 -1883 -1894 -1872 9107 9139 9118 9103 0
-1872 -1879 -1883 -1876 9103 9139 9107 9118 0
-1870 -1879 -1895 -1877 9103 9140 9119 9108 0
-1870 -1884 -1895 -1872 9108 9140 9119 9103 0
-1872 -1879 -1884 -1877 9103 9140 9108 9119 0
-1870 -1880 -1896 -1874 9104 9141 9120 9105 0
-1870 -1881 -1896 -1873 9105 9141 9120 9104 0
-1873 -1880 -1881 -1874 9104 9141 9105 9120 0
-1870 -1880 -1897 -1875 9104 9142 9121 9106 0
-1870 -1882 -1897 -1873 9106 9142 9121 9104 0
-1873 -1880 -1882 -1875 9104 9142 9106 9121 0
-1870 -1880 -1898 -1876 9104 9143 9122 9107 0
-1870 -1883 -1898 -1873 9107 9143 9122 9104 0
-1873 -1880 -1883 -1876 9104 9143 9107 9122 0
-1870 -1880 -1899 -1877 9104 9144 9123 9108 0
-1870 -1884 -1899 -1873 9108 9144 9123 9104 0
-1873 -1880 -1884 -1877 9104 9144 9108 9123 0
-1870 -1881 -1900 -1875 9105 9145 9124 9106 0
-1870 -1882 -1900 -1874 9106 9145 9124 9105 0
-1874 -1881 -1882 -1875 9105 9145 9106 9124 0
-1870 -1881 -1901 -1876 9105 9146 9125 9107 0
-1870 -1883 -1901 -1874 9107 9146 9125 9105 0
-1874 -1881 -1883 -1876 9105 9146 9107 9125 0
-1870 -1881 -1902 -1877 9105 9147 9126 9108 0
-1870 -1884 -1902 -1874 9108 9147 9126 9105 0
-1874 -1881 -1884 -1877 9105 9147 9108 9126 0
-1870 -1882 -1903 -1876 9106 9148 9127 9107 0
-1870 -1883 -1903 -1875 9107 9148 9127 9106 0
-1875 -1882 -1883 -1876 9106 9148 9107 9127 0
-1870 -1882 -1904 -1877 9106 9149 9128 9108 0
-1870 -1884 -1904 -1875 9108 9149 9128 9106 0
-1875 -1882 -1884 -1877 9106 9149 9108 9128 0
-1870 -1883 -1905 -1877 9107 9150 9129 9108 0
-1870 -1884 -1905 -1876 9108 9150 9129 9107 0
-1876 -1883 -1884 -1877 9107 9150 9108 9129 0
-1871 -1885 -1891 -1873 9109 9151 9115 9110 0
-1871 -1886 -1891 -1872 9110 9151 9115 9109 0
-1872 -1885 -1886 -1873 9109 9151 9110 9115 0
-1871 -1885 -1892 -1874 9109 9152 9116 9111 0
-1871 -1887 -1892 -1872 9111 9152 9116 9109 0
-1872 -1885 -1887 -1874 9109 9152 9111 9116 0
-1871 -1885 -1893 -1875 9109 9153 9117 9112 0
-1871 -1888 -1893 -1872 9112 9153 9117 9109 0
-1872 -1885 -1888 -1875 9109 9153 9112 9117 0
-1871 -1885 -1894 -1876 9109 9154 9118 9113 0
-1871 -1889 -1894 -1872 9113 9154 9118 9109 0
-1872 -1885 -1889 -1876 9109 9154 9113 9118 0
-1871 -1885 -1895 -1877 9109 9155 9119 9114 0
-1871 -1890 -1895 -1872 9114 9155 9119 9109 0
-1872 -1885 -1890 -1877 9109 9155 9114 9119 0
-1871 -1886 -1896 -1874 9110 9156 9120 9111 0
-1871 -1887 -1896 -1873 9111 9156 9120 9110 0
-1873 -1886 -1887 -1874 9110 9156 9111 9120 0
-1871 -1886 -1897 -1875 9110 9157 9121 9112 0
-1871 -1888 -1897 -1873 9112 9157 9121 9110 0
-1873 -1886 -1888 -1875 9110 9157 9112 9121 0
-1871 -1886 -1898 -1876 9110 9158 9122 9113 0
-1871 -1889 -1898 -1873 9113 9158 9122 9110 0
-1873 -1886 -1889 -1876 9110 9158 9113 9122 0
-1871 -1886 -1899 -1877 9110 9159 9123 9114 0
-1871 -1890 -1899 -1873 9114 9159 9123 9110 0
-1873 -1886 -1890 -1877 9110 9159 9114 9123 0
-1871 -1887 -1900 -1875 9111 9160 9124 9112 0
-1871 -1888 -1900 -1874 9112 9160 9124 9111 0
-1874 -1887 -1888 -1875 9111 9160 9112 9124 0
-1871 -1887 -1901 -1876 9111 9161 9125 9113 0
-1871 -1889 -1901 -1874 9113 9161 9125 9111 0
-1874 -1887 -1889 -1876 9111 9161 9113 9125 0
-1871 -1887 -1902 -1877 9111 9162 9126 9114 0
-1871 -1890 -1902 -1874 9114 9162 9126 9111 0
-1874 -1887 -1890 -1877 9111 9162 9114 9126 0
-1871 -1888 -1903 -1876 9112 9163 9127 9113 0
-1871 -1889 -1903 -1875 9113 9163 9127 9112 0
-1875 -1888 -1889 -1876 9112 9163 9113 9127 0
-1871 -1888 -1904 -1877 9112 9164 9128 9114 0
-1871 -1890 -1904 -1875 9114 9164 9128 9112 0
-1875 -1888 -1890 -1877 9112 9164 9114 9128 0
-1871 -1889 -1905 -1877 9113 9165 9129 9114 0
-1871 -1890 -1905 -1876 9114 9165 9129 9113 0
-1876 -1889 -1890 -1877 9113 9165 9114 9129 0
-1872 -1891 -1896 -1874 9115 9166 9120 9116 0
-1872 -1892 -1896 -1873 9116 9166 9120 9115 0
-1873 -1891 -1892 -1874 9115 9166 9116 9120 0
-1872 -1891 -1897 -1875 9115 9167 9121 9117 0
-1872 -1893 -1897 -1873 9117 9167 9121 9115 0
-1873 -1891 -1893 -1875 9115 9167 9117 9121 0
-1872 -1891 -1898 -1876 9115 9168 9122 9118 0
-1872 -1894 -1898 -1873 9118 9168 9122 9115 0
-1873 -1891 -1894 -1876 9115 9168 9118 9122 0
-1872 -1891 -1899 -1877 9115 9169 9123 9119 0
-1872 -1895 -1899 -1873 9119 9169 9123 9115 0
-1873 -1891 -1895 -1877 9115 9169 9119 9123 0
-1872 -1892 -1900 -1875 9116 9170 9124 9117 0
-1872 -1893 -1900 -1874 9117 9170 9124 9116 0
-1874 -1892 -1893 -1875 9116 9170 9117 9124 0
-1872 -1892 -1901 -1876 9116 9171 9125 9118 0
-1872 -1894 -1901 -1874 9118 9171 9125 9116 0
-1874 -1892 -1894 -1876 9116 9171 9118 9125 0
-1872 -1892 -1902 -1877 9116 9172 9126 9119 0
-1872 -1895 -1902 -1874 9119 9172 9126 9116 0
-1874 -1892 -1895 -1877 9116 9172 9119 9126 0
-1872 -1893 -1903 -1876 9117 9173 9127 9118 0
-1872 -1894 -1903 -1875 9118 9173 9127 9117 0
-1875 -1893 -1894 -1876 9117 9173 9118 9127 0
-1872 -1893 -1904 -1877 9117 9174 9128 9119 0
-1872 -1895 -1904 -1875 9119 9174 9128 9117 0
-1875 -1893 -1895 -1877 9117 9174 9119 9128 0
-1872 -1894 -1905 -1877 9118 9175 9129 9119 0
-1872 -1895 -1905 -1876 9119 9175 9129 9118 0
-1876 -1894 -1895 -1877 9118 9175 9119 9129 0
-1873 -1896 -1900 -1875 9120 9176 9124 9121 0
-1873 -1897 -1900 -1874 9121 9176 9124 9120 0
-1874 -1896 -1897 -1875 9120 9176 9121 9124 0
-1873 -1896 -1901 -1876 9120 9177 9125 9122 0
-1873 -1898 -1901 -1874 9122 9177 9125 9120 0
-1874 -1896 -1898 -1876 9120 9177 9122 9125 0
-1873 -1896 -1902 -1877 9120 9178 9126 9123 0
-1873 -1899 -1902 -1874 9123 9178 9126 9120 0
-1874 -1896 -1899 -1877 9120 9178 9123 9126 0
-1873 -1897 -1903 -1876 9121 9179 9127 9122 0
-1873 -1898 -1903 -1875 9122 9179 9127 9121 0
-1875 -1897 -1898 -1876 9121 9179 9122 9127 0
-1873 -1897 -1904 -1877 9121 9180 9128 9123 0
-1873 -1899 -1904 -1875 9123 9180 9128 9121 0
-1875 -1897 -1899 -1877 9121 9180 9123 9128 0
-1873 -1898 -1905 -1877 9122 9181 9129 9123 0
-1873 -1899 -1905 -1876 9123 9181 9129 9122 0
-1876 -1898 -1899 -1877 9122 9181 9123 9129 0
-1874 -1900 -1903 -1876 9124 9182 9127 9125 0
-1874 -1901 -1903 -1875 9125 9182 9127 9124 0
-1875 -1900 -1901 -1876 9124 9182 9125 9127 0
-1874 -1900 -1904 -1877 9124 9183 9128 9126 0
-1874 -1902 -1904 -1875 9126 9183 9128 9124 0
-1875 -1900 -1902 -1877 9124 9183 9126 9128 0
-1874 -1901 -1905 -1877 9125 9184 9129 9126 0
-1874 -1902 -1905 -1876 9126 9184 9129 9125 0
-1876 -1901 -1902 -1877 9125 9184 9126 9129 0
-1875 -1903 -1905 -1877 9127 9185 9129 9128 0
-1875 -1904 -1905 -1876 9128 9185 9129 9127 0
-1876 -1903 -1904 -1877 9127 9185 9128 9129 0
-1878 -1885 -1891 -1880 9130 9151 9136 9131 0
-1878 -1886 -1891 -1879 9131 9151 9136 9130 0
-1879 -1885 -1886 -1880 9130 9151 9131 9136 0
-1878 -1885 -1892 -1881 9130 9152 9137 9132 0
-1878 -1887 -1892 -1879 9132 9152 9137 9130 0
-1879 -1885 -1887 -1881 9130 9152 9132 9137 0
-1878 -1885 -1893 -1882 9130 9153 9138 9133 0
-1878 -1888 -1893 -1879 9133 9153 9138 9130 0
-1879 -1885 -1888 -1882 9130 9153 9133 9138 0
-1878 -1885 -1894 -1883 9130 9154 9139 9134 0
-1878 -1889 -1894 -1879 9134 9154 9139 9130 0
-1879 -1885 -1889 -1883 9130 9154 9134 9139 0
-1878 -1885 -1895 -1884 9130 9155 9140 9135 0
-1878 -1890 -1895 -1879 9135 9155 9140 9130 0
-1879 -1885 -1890 -1884 9130 9155 9135 9140 0
-1878 -1886 -1896 -1881 9131 9156 9141 9132 0
-1878 -1887 -1896 -1880 9132 9156 9141 9131 0
-1880 -1886 -1887 -1881 9131 9156 9132 9141 0
-1878 -1886 -1897 -1882 9131 9157 9142 9133 0
-1878 -1888 -1897 -1880 9133 9157 9142 9131 0
-1880 -1886 -1888 -1882 9131 9157 9133 9142 0
-1878 -1886 -1898 -1883 9131 9158 9143 9134 0
-1878 -1889 -1898 -1880 9134 9158 9143 9131 0
-1880 -1886 -1889 -1883 9131 9158 9134 9143 0
-1878 -1886 -1899 -1884 9131 9159 9144 9135 0
-1878 -1890 -1899 -1880 9135 9159 9144 9131 0
-1880 -1886 -1890 -1884 9131 9159 9135 9144 0
-1878 -1887 -1900 -1882 9132 9160 9145 9133 0
-1878 -1888 -1900 -1881 9133 9160 9145 9132 0
-1881 -1887 -1888 -1882 9132 9160 9133 9145 0
-1878 -1887 -1901 -1883 9132 9161 9146 9134 0
-1878 -1889 -1901 -1881 9134 9161 9146 9132 0
-1881 -1887 -1889 -1883 9132 9161 9134 9146 0
-1878 -1887 -1902 -1884 9132 9162 9147 9135 0
-1878 -1890 -1902 -1881 9135 9162 9147 9132 0
-1881 -1887 -1890 -1884 9132 9162 9135 9147 0
-1878 -1888 -1903 -1883 9133 9163 9148 9134 0
-1878 -1889 -1903 -1882 9134 9163 9148 9133 0
-1882 -1888 -1889 -1883 9133 9163 9134 9148 0
-1878 -1888 -1904 -1884 9133 9164 9149 9135 0
-1878 -1890 -1904 -1882 9135 9164 9149 9133 0
-1882 -1888 -1890 -1884 9133 9164 9135 9149 0
-1878 -1889 -1905 -1884 9134 9165 9150 9135 0
-1878 -1890 -1905 -1883 9135 9165 9150 9134 0
-1883 -1889 -1890 -1884 9134 9165 9135 9150 0
-1879 -1891 -1896 -1881 9136 9166 9141 9137 0
-1879 -1892 -1896 -1880 9137 9166 9141 9136 0
-1880 -1891 -1892 -1881 9136 9166 9137 9141 0
-1879 -1891 -1897 -1882 9136 9167 9142 9138 0
-1879 -1893 -1897 -1880 9138 9167 9142 9136 0
-1880 -1891 -1893 -1882 9136 9167 9138 9142 0
-1879 -1891 -1898 -1883 9136 9168 9143 9139 0
-1879 -1894 -1898 -1880 9139 9168 9143 9136 0
-1880 -1891 -1894 -1883 9136 9168 9139 9143 0
-1879 -1891 -1899 -1884 9136 9169 9144 9140 0
-1879 -1895 -1899 -1880 9140 9169 9144 9136 0
-1880 -1891 -1895 -1884 9136 9169 9140 9144 0
-1879 -1892 -1900 -1882 9137 9170 9145 9138 0
-1879 -1893 -1900 -1881 9138 9170 9145 9137 0
-1881 -1892 -1893 -1882 9137 9170 9138 9145 0
-1879 -1892 -1901 -1883 9137 9171 9146 9139 0
-1879 -1894 -1901 -1881 9139 9171 9146 9137 0
-1881 -1892 -1894 -1883 9137 9171 9139 9146 0
-1879 -1892 -1902 -1884 9137 9172 9147 9140 0
-1879 -1895 -1902 -1881 9140 9172 9147 9137 0
-1881 -1892 -1895 -1884 9137 9172 9140 9147 0
-1879 -1893 -1903 -1883 9138 9173 9148 9139 0
-1879 -1894 -1903 -1882 9139 9173 9148 9138 0
-1882 -1893 -1894 -1883 9138 9173 9139 9148 0
-1879 -1893 -1904 -1884 9138 9174 9149 9140 0
-1879 -1895 -1904 -1882 9140 9174 9149 9138 0
-1882 -1893 -1895 -1884 9138 9174 9140 9149 0
-1879 -1894 -1905 -1884 9139 9175 9150 9140 0
-1879 -1895 -1905 -1883 9140 9175 9150 9139 0
-1883 -1894 -1895 -1884 9139 9175 9140 9150 0
-1880 -1896 -1900 -1882 9141 9176 9145 9142 0
-1880 -1897 -1900 -1881 9142 9176 9145 9141 0
-1881 -1896 -1897 -1882 9141 9176 9142 9145 0
-1880 -1896 -1901 -1883 9141 9177 9146 9143 0
-1880 -1898 -1901 -1881 9143 9177 9146 9141 0
-1881 -1896 -1898 -1883 9141 9177 9143 9146 0
-1880 -1896 -1902 -1884 9141 9178 9147 9144 0
-1880 -1899 -1902 -1881 9144 9178 9147 9141 0
-1881 -1896 -1899 -1884 9141 9178 9144 9147 0
-1880 -1897 -1903 -1883 9142 9179 9148 9143 0
-1880 -1898 -1903 -1882 9143 9179 9148 9142 0
-1882 -1897 -1898 -1883 9142 9179 9143 9148 0
-1880 -1897 -1904 -1884 9142 9180 9149 9144 0
-1880 -1899 -1904 -1882 9144 9180 9149 9142 0
-1882 -1897 -1899 -1884 9142 9180 9144 9149 0
-1880 -1898 -1905 -1884 9143 9181 9150 9144 0
-1880 -1899 -1905 -1883 9144 9181 9150 9143 0
-1883 -1898 -1899 -1884 9143 9181 9144 9150 0
-1881 -1900 -1903 -1883 9145 9182 9148 9146 0
-1881 -1901 -1903 -1882 9146 9182 9148 9145 0
-1882 -1900 -1901 -1883 9145 9182 9146 9148 0
-1881 -1900 -1904 -1884 9145 9183 9149 9147 0
-1881 -1902 -1904 -1882 9147 9183 9149 9145 0
-1882 -1900 -1902 -1884 9145 9183 9147 9149 0
-1881 -1901 -1905 -1884 9146 9184 9150 9147 0
-1881 -1902 -1905 -1883 9147 9184 9150 9146 0
-1883 -1901 -1902 -1884 9146 9184 9147 9150 0
-1882 -1903 -1905 -1884 9148 9185 9150 9149 0
-1882 -1904 -1905 -1883 9149 9185 9150 9148 0
-1883 -1903 -1904 -1884 9148 9185 9149 9150 0
-1885 -1891 -1896 -1887 9151 9166 9156 9152 0
-1885 -1892 -1896 -1886 9152 9166 9156 9151 0
-1886 -1891 -1892 -1887 9151 9166 9152 9156 0
-1885 -1891 -1897 -1888 9151 9167 9157 9153 0
-1885 -1893 -1897 -1886 9153 9167 9157 9151 0
-1886 -1891 -1893 -1888 9151 9167 9153 9157 0
-1885 -1891 -1898 -1889 9151 9168 9158 9154 0
-1885 -1894 -1898 -1886 9154 9168 9158 9151 0
-1886 -1891 -1894 -1889 9151 9168 9154 9158 0
-1885 -1891 -1899 -1890 9151 9169 9159 9155 0
-1885 -1895 -1899 -1886 9155 9169 9159 9151 0
-1886 -1891 -1895 -1890 9151 9169 9155 9159 0
-1885 -1892 -1900 -1888 9152 9170 9160 9153 0
-1885 -1893 -1900 -1887 9153 9170 9160 9152 0
-1887 -1892 -1893 -1888 9152 9170 9153 9160 0
-1885 -1892 -1901 -1889 9152 9171 9161 9154 0
-1885 -1894 -1901 -1887 9154 9171 9161 9152 0
-1887 -1892 -1894 -1889 9152 9171 9154 9161 0
-1885 -1892 -1902 -1890 9152 9172 9162 9155 0
-1885 -1895 -1902 -1887 9155 9172 9162 9152 0
-1887 -1892 -1895 -1890 9152 9172 9155 9162 0
-1885 -1893 -1903 -1889 9153 9173 9163 9154 0
-1885 -1894 -1903 -1888 9154 9173 9163 9153 0
-1888 -1893 -1894 -1889 9153 9173 9154 9163 0
-1885 -1893 -1904 -1890 9153 9174 9164 9155 0
-1885 -1895 -1904 -1888 9155 9174 9164 9153 0
-1888 -1893 -1895 -1890 9153 9174 9155 9164 0
-1885 -1894 -1905 -1890 9154 9175 9165 9155 0
-1885 -1895 -1905 -1889 9155 9175 9165 9154 0
-1889 -1894 -1895 -1890 9154 9175 9155 9165 0
-1886 -1896 -1900 -1888 9156 9176 9160 9157 0
-1886 -1897 -1900 -1887 9157 9176 9160 9156 0
-1887 -1896 -1897 -1888 9156 9176 9157 9160 0
-1886 -1896 -1901 -1889 9156 9177 9161 9158 0
-1886 -1898 -1901 -1887 9158 9177 9161 9156 0
-1887 -1896 -1898 -1889 9156 9177 9158 9161 0
-1886 -1896 -1902 -1890 9156 9178 9162 9159 0
-1886 -1899 -1902 -1887 9159 9178 9162 9156 0
-1887 -1896 -1899 -1890 9156 9178 9159 9162 0
-1886 -1897 -1903 -1889 9157 9179 9163 9158 0
-1886 -1898 -1903 -1888 9158 9179 9163 9157 0
-1888 -1897 -1898 -1889 9157 9179 9158 9163 0
-1886 -1897 -1904 -1890 9157 9180 9164 9159 0
-1886 -1899 -1904 -1888 9159 9180 9164 9157 0
-1888 -1897 -1899 -1890 9157 9180 9159 9164 0
-1886 -1898 -1905 -1890 9158 9181 9165 9159 0
-1886 -1899 -1905 -1889 9159 9181 9165 9158 0
-1889 -1898 -1899 -1890 9158 9181 9159 9165 0
-1887 -1900 -1903 -1889 9160 9182 9163 9161 0
-1887 -1901 -1903 -1888 9161 9182 9163 9160 0
-1888 -1900 -1901 -1889 9160 9182 9161 9163 0
-1887 -1900 -1904 -1890 9160 9183 9164 9162 0
-1887 -1902 -1904 -1888 9162 9183 9164 9160 0
-1888 -1900 -1902 -1890 9160 9183 9162 9164 0
-1887 -1901 -1905 -1890 9161 9184 9165 9162 0
-1887 -1902 -1905 -1889 9162 9184 9165 9161 0
-1889 -1901 -1902 -1890 9161 9184 9162 9165 0
-1888 -1903 -1905 -1890 9163 9185 9165 9164 0
-1888 -1904 -1905 -1889 9164 9185 9165 9163 0
-1889 -1903 -1904 -1890 9163 9185 9164 9165 0
-1891 -1896 -1900 -1893 9166 9176 9170 9167 0
-1891 -1897 -1900 -1892 9167 9176 9170 9166 0
-1892 -1896 -1897 -1893 9166 9176 9167 9170 0
-1891 -1896 -1901 -1894 9166 9177 9171 9168 0
-1891 -1898 -1901 -1892 9168 9177 9171 9166 0
-1892 -1896 -1898 -1894 9166 9177 9168 9171 0
-1891 -1896 -1902 -1895 9166 9178 9172 9169 0
-1891 -1899 -1902 -1892 9169 9178 9172 9166 0
-1892 -1896 -1899 -1895 9166 9178 9169 9172 0
-1891 -1897 -1903 -1894 9167 9179 9173 9168 0
-1891 -1898 -1903 -1893 9168 9179 9173 9167 0
-1893 -1897 -1898 -1894 9167 9179 9168 9173 0
-1891 -1897 -1904 -1895 9167 9180 9174 9169 0
-1891 -1899 -1904 -1893 9169 9180 9174 9167 0
-1893 -1897 -1899 -1895 9167 9180 9169 9174 0
-1891 -1898 -1905 -1895 9168 9181 9175 9169 0
-1891 -1899 -1905 -1894 9169 9181 9175 9168 0
-1894 -1898 -1899 -1895 9168 9181 9169 9175 0
-1892 -1900 -1903 -1894 9170 9182 9173 9171 0
-1892 -1901 -1903 -1893 9171 9182 9173 9170 0
-1893 -1900 -1901 -1894 9170 9182 9171 9173 0
-1892 -1900 -1904 -1895 9170 9183 9174 9172 0
-1892 -1902 -1904 -1893 9172 9183 9174 9170 0
-1893 -1900 -1902 -1895 9170 9183 9172 9174 0
-1892 -1901 -1905 -1895 9171 9184 9175 9172 0
-1892 -1902 -1905 -1894 9172 9184 9175 9171 0
-1894 -1901 -1902 -1895 9171 9184 9172 9175 0
-1893 -1903 -1905 -1895 9173 9185 9175 9174 0
-1893 -1904 -1905 -1894 9174 9185 9175 9173 0
-1894 -1903 -1904 -1895 9173 9185 9174 9175 0
-1896 -1900 -1903 -1898 9176 9182 9179 9177 0
-1896 -1901 -1903 -1897 9177 9182 9179 9176 0
-1897 -1900 -1901 -1898 9176 9182 9177 9179 0
-1896 -1900 -1904 -1899 9176 9183 9180 9178 0
-1896 -1902 -1904 -1897 9178 9183 9180 9176 0
-1897 -1900 -1902 -1899 9176 9183 9178 9180 0
-1896 -1901 -1905 -1899 9177 9184 9181 9178 0
-1896 -1902 -1905 -1898 9178 9184 9181 9177 0
-1898 -1901 -1902 -1899 9177 9184 9178 9181 0
-1897 -1903 -1905 -1899 9179 9185 9181 9180 0
-1897 -1904 -1905 -1898 9180 9185 9181 9179 0
-1898 -1903 -1904 -1899 9179 9185 9180 9181 0
-1900 -1903 -1905 -1902 9182 9185 9184 9183 0
-1900 -1904 -1905 -1901 9183 9185 9184 9182 0
-1901 -1903 -1904 -1902 9182 9185 9183 9184 0
12776 0
-12776 2 -3 0
-12777 12776 0
-12777 2 -3 0
-12777 -2 3 0
-12776 -2 -3 12777 0
-12776 2 3 12777 0
-12777 17 -18 0
-12778 12777 0
-12778 17 -18 0
-12778 -17 18 0
-12777 -17 -18 12778 0
-12777 17 18 12778 0
-12778 32 -33 0
-12779 12778 0
-12779 32 -33 0
-12779 -32 33 0
-12778 -32 -33 12779 0
-12778 32 33 12779 0
-12779 47 -48 0
-12780 12779 0
-12780 47 -48 0
-12780 -47 48 0
-12779 -47 -48 12780 0
-12779 47 48 12780 0
-12780 62 -63 0
-12781 12780 0
-12781 62 -63 0
-12781 -62 63 0
-12780 -62 -63 12781 0
-12780 62 63 12781 0
-12781 77 -78 0
-12782 12781 0
-12782 77 -78 0
-12782 -77 78 0
-12781 -77 -78 12782 0
-12781 77 78 12782 0
-12782 92 -93 0
-12783 12782 0
-12783 92 -93 0
-12783 -92 93 0
-12782 -92 -93 12783 0
-12782 92 93 12783 0
-12783 107 -108 0
-12784 12783 0
-12784 107 -108 0
-12784 -107 108 0
-12783 -107 -108 12784 0
-12783 107 108 12784 0
-12784 122 -123 0
-12785 12784 0
-12785 122 -123 0
-12785 -122 123 0
-12784 -122 -123 12785 0
-12784 122 123 12785 0
-12785 137 -138 0
-12786 12785 0
-12786 137 -138 0
-12786 -137 138 0
-12785 -137 -138 12786 0
-12785 137 138 12786 0
-12786 152 -153 0
-12787 12786 0
-12787 152 -153 0
-12787 -152 153 0
-12786 -152 -153 12787 0
-12786 152 153 12787 0
-12787 167 -168 0
-12788 12787 0
-12788 167 -168 0
-12788 -167 168 0
-12787 -167 -168 12788 0
-12787 167 168 12788 0
-12788 182 -183 0
-12789 12788 0
-12789 182 -183 0
-12789 -182 183 0
-12788 -182 -183 12789 0
-12788 182 183 12789 0
-12789 197 -198 0
-12790 12789 0
-12790 197 -198 0
-12790 -197 198 0
-12789 -197 -198 12790 0
-12789 197 198 12790 0
-12790 212 -213 0
-12791 12790 0
-12791 212 -213 0
-12791 -212 213 0
-12790 -212 -213 12791 0
-12790 212 213 12791 0
12792 0
-12792 3 -4 0
-12793 12792 0
-12793 3 -4 0
-12793 -3 4 0
-12792 -3 -4 12793 0
-12792 3 4 12793 0
-12793 18 -19 0
-12794 12793 0
-12794 18 -19 0
-12794 -18 19 0
-12793 -18 -19 12794 0
-12793 18 19 12794 0
-12794 33 -34 0
-12795 12794 0
-12795 33 -34 0
-12795 -33 34 0
-12794 -33 -34 12795 0
-12794 33 34 12795 0
-12795 48 -49 0
-12796 12795 0
-12796 48 -49 0
-12796 -48 49 0
-12795 -48 -49 12796 0
-12795 48 49 12796 0
-12796 63 -64 0
-12797 12796 0
-12797 63 -64 0
-12797 -63 64 0
-12796 -63 -64 12797 0
-12796 63 64 12797 0
-12797 78 -79 0
-12798 12797 0
-12798 78 -79 0
-12798 -78 79 0
-12797 -78 -79 12798 0
-12797 78 79 12798 0
-12798 93 -94 0
-12799 12798 0
-12799 93 -94 0
-12799 -93 94 0
-12798 -93 -94 12799 0
-12798 93 94 12799 0
-12799 108 -109 0
-12800 12799 0
-12800 108 -109 0
-12800 -108 109 0
-12799 -108 -109 12800 0
-12799 108 109 12800 0
-12800 123 -124 0
-12801 12800 0
-12801 123 -124 0
-12801 -123 124 0
-12800 -123 -124 12801 0
-12800 123 124 12801 0
-12801 138 -139 0
-12802 12801 0
-12802 138 -139 0
-12802 -138 139 0
-12801 -138 -139 12802 0
-12801 138 139 12802 0
-12802 153 -154 0
-12803 12802 0
-12803 153 -154 0
-12803 -153 154 0
-12802 -153 -154 12803 0
-12802 153 154 12803 0
-12803 168 -169 0
-12804 12803 0
-12804 168 -169 0
-12804 -168 169 0
-12803 -168 -169 12804 0
-12803 168 169 12804 0
-12804 183 -184 0
-12805 12804 0
-12805 183 -184 0
-12805 -183 184 0
-12804 -183 -184 12805 0
-12804 183 184 12805 0
-12805 198 -199 0
-12806 12805 0
-12806 198 -199 0
-12806 -198 199 0
-12805 -198 -199 12806 0
-12805 198 199 12806 0
-12806 213 -214 0
-12807 12806 0
-12807 213 -214 0
-12807 -213 214 0
-12806 -213 -214 12807 0
-12806 213 214 12807 0
12808 0
-12808 4 -5 0
-12809 12808 0
-12809 4 -5 0
-12809 -4 5 0
-12808 -4 -5 12809 0
-12808 4 5 12809 0
-12809 19 -20 0
-12810 12809 0
-12810 19 -20 0
-12810 -19 20 0
-12809 -19 -20 12810 0
-12809 19 20 12810 0
-12810 34 -35 0
-12811 12810 0
-12811 34 -35 0
-12811 -34 35 0
-12810 -34 -35 12811 0
-12810 34 35 12811 0
-12811 49 -50 0
-12812 12811 0
-12812 49 -50 0
-12812 -49 50 0
-12811 -49 -50 12812 0
-12811 49 50 12812 0
-12812 64 -65 0
-12813 12812 0
-12813 64 -65 0
-12813 -64 65 0
-12812 -64 -65 12813 0
-12812 64 65 12813 0
-12813 79 -80 0
-12814 12813 0
-12814 79 -80 0
-12814 -79 80 0
-12813 -79 -80 12814 0
-12813 79 80 12814 0
-12814 94 -95 0
-12815 12814 0
-12815 94 -95 0
-12815 -94 95 0
-12814 -94 -95 12815 0
-12814 94 95 12815 0
-12815 109 -110 0
-12816 12815 0
-12816 109 -110 0
-12816 -109 110 0
-12815 -109 -110 12816 0
-12815 109 110 12816 0
-12816 124 -125 0
-12817 12816 0
-12817 124 -125 0
-12817 -124 125 0
-12816 -124 -125 12817 0
-12816 124 125 12817 0
-12817 139 -140 0
-12818 12817 0
-12818 139 -140 0
-12818 -139 140 0
-12817 -139 -140 12818 0
-12817 139 140 12818 0
-12818 154 -155 0
-12819 12818 0
-12819 154 -155 0
-12819 -154 155 0
-12818 -154 -155 12819 0
-12818 154 155 12819 0
-12819 169 -170 0
-12820 12819 0
-12820 169 -170 0
-12820 -169 170 0
-12819 -169 -170 12820 0
-12819 169 170 12820 0
-12820 184 -185 0
-12821 12820 0
-12821 184 -185 0
-12821 -184 185 0
-12820 -184 -185 12821 0
-12820 184 185 12821 0
-12821 199 -200 0
-12822 12821 0
-12822 199 -200 0
-12822 -199 200 0
-12821 -199 -200 12822 0
-12821 199 200 12822 0
-12822 214 -215 0
-12823 12822 0
-12823 214 -215 0
-12823 -214 215 0
-12822 -214 -215 12823 0
-12822 214 215 12823 0
12824 0
-12824 5 -6 0
-12825 12824 0
-12825 5 -6 0
-12825 -5 6 0
-12824 -5 -6 12825 0
-12824 5 6 12825 0
-12825 20 -21 0
-12826 12825 0
-12826 20 -21 0
-12826 -20 21 0
-12825 -20 -21 12826 0
-12825 20 21 12826 0
-12826 35 -36 0
-12827 12826 0
-12827 35 -36 0
-12827 -35 36 0
-12826 -35 -36 12827 0
-12826 35 36 12827 0
-12827 50 -51 0
-12828 12827 0
-12828 50 -51 0
-12828 -50 51 0
-12827 -50 -51 12828 0
-12827 50 51 12828 0
-12828 65 -66 0
-12829 12828 0
-12829 65 -66 0
-12829 -65 66 0
-12828 -65 -66 12829 0
-12828 65 66 12829 0
-12829 80 -81 0
-12830 12829 0
-12830 80 -81 0
-12830 -80 81 0
-12829 -80 -81 12830 0
-12829 80 81 12830 0
-12830 95 -96 0
-12831 12830 0
-12831 95 -96 0
-12831 -95 96 0
-12830 -95 -96 12831 0
-12830 95 96 12831 0
-12831 110 -111 0
-12832 12831 0
-12832 110 -111 0
-12832 -110 111 0
-12831 -110 -111 12832 0
-12831 110 111 12832 0
-12832 125 -126 0
-12833 12832 0
-12833 125 -126 0
-12833 -125 126 0
-12832 -125 -126 12833 0
-12832 125 126 12833 0
-12833 140 -141 0
-12834 12833 0
-12834 140 -141 0
-12834 -140 141 0
-12833 -140 -141 12834 0
-12833 140 141 12834 0
-12834 155 -156 0
-12835 12834 0
-12835 155 -156 0
-12835 -155 156 0
-12834 -155 -156 12835 0
-12834 155 156 12835 0
-12835 170 -171 0
-12836 12835 0
-12836 170 -171 0
-12836 -170 171 0
-12835 -170 -171 12836 0
-12835 170 171 12836 0
-12836 185 -186 0
-12837 12836 0
-12837 185 -186 0
-12837 -185 186 0
-12836 -185 -186 12837 0
-12836 185 186 12837 0
-12837 200 -201 0
-12838 12837 0
-12838 200 -201 0
-12838 -200 201 0
-12837 -200 -201 12838 0
-12837 200 201 12838 0
-12838 215 -216 0
-12839 12838 0
-12839 215 -216 0
-12839 -215 216 0
-12838 -215 -216 12839 0
-12838 215 216 12839 0
12840 0
-12840 6 -7 0
-12841 12840 0
-12841 6 -7 0
-12841 -6 7 0
-12840 -6 -7 12841 0
-12840 6 7 12841 0
-12841 21 -22 0
-12842 12841 0
-12842 21 -22 0
-12842 -21 22 0
-12841 -21 -22 12842 0
-12841 21 22 12842 0
-12842 36 -37 0
-12843 12842 0
-12843 36 -37 0
-12843 -36 37 0
-12842 -36 -37 12843 0
-12842 36 37 12843 0
-12843 51 -52 0
-12844 12843 0
-12844 51 -52 0
-12844 -51 52 0
-12843 -51 -52 12844 0
-12843 51 52 12844 0
-12844 66 -67 0
-12845 12844 0
-12845 66 -67 0
-12845 -66 67 0
-12844 -66 -67 12845 0
-12844 66 67 12845 0
-12845 81 -82 0
-12846 12845 0
-12846 81 -82 0
-12846 -81 82 0
-12845 -81 -82 12846 0
-12845 81 82 12846 0
-12846 96 -97 0
-12847 12846 0
-12847 96 -97 0
-12847 -96 97 0
-12846 -96 -97 12847 0
-12846 96 97 12847 0
-12847 111 -112 0
-12848 12847 0
-12848 111 -112 0
-12848 -111 112 0
-12847 -111 -112 12848 0
-12847 111 112 12848 0
-12848 126 -127 0
-12849 12848 0
-12849 126 -127 0
-12849 -126 127 0
-12848 -126 -127 12849 0
-12848 126 127 12849 0
-12849 141 -142 0
-12850 12849 0
-12850 141 -142 0
-12850 -141 142 0
-12849 -141 -142 12850 0
-12849 141 142 12850 0
-12850 156 -157 0
-12851 12850 0
-12851 156 -157 0
-12851 -156 157 0
-12850 -156 -157 12851 0
-12850 156 157 12851 0
-12851 171 -172 0
-12852 12851 0
-12852 171 -172 0
-12852 -171 172 0
-12851 -171 -172 12852 0
-12851 171 172 12852 0
-12852 186 -187 0
-12853 12852 0
-12853 186 -187 0
-12853 -186 187 0
-12852 -186 -187 12853 0
-12852 186 187 12853 0
-12853 201 -202 0
-12854 12853 0
-12854 201 -202 0
-12854 -201 202 0
-12853 -201 -202 12854 0
-12853 201 202 12854 0
-12854 216 -217 0
-12855 12854 0
-12855 216 -217 0
-12855 -216 217 0
-12854 -216 -217 12855 0
-12854 216 217 12855 0
12856 0
-12856 7 -8 0
-12857 12856 0
-12857 7 -8 0
-12857 -7 8 0
-12856 -7 -8 12857 0
-12856 7 8 12857 0
-12857 22 -23 0
-12858 12857 0
-12858 22 -23 0
-12858 -22 23 0
-12857 -22 -23 12858 0
-12857 22 23 12858 0
-12858 37 -38 0
-12859 12858 0
-12859 37 -38 0
-12859 -37 38 0
-12858 -37 -38 12859 0
-12858 37 38 12859 0
-12859 52 -53 0
-12860 12859 0
-12860 52 -53 0
-12860 -52 53 0
-12859 -52 -53 12860 0
-12859 52 53 12860 0
-12860 67 -68 0
-12861 12860 0
-12861 67 -68 0
-12861 -67 68 0
-12860 -67 -68 12861 0
-12860 67 68 12861 0
-12861 82 -83 0
-12862 12861 0
-12862 82 -83 0
-12862 -82 83 0
-12861 -82 -83 12862 0
-12861 82 83 12862 0
-12862 97 -98 0
-12863 12862 0
-12863 97 -98 0
-12863 -97 98 0
-12862 -97 -98 12863 0
-12862 97 98 12863 0
-12863 112 -113 0
-12864 12863 0
-12864 112 -113 0
-12864 -112 113 0
-12863 -112 -113 12864 0
-12863 112 113 12864 0
-12864 127 -128 0
-12865 12864 0
-12865 127 -128 0
-12865 -127 128 0
-12864 -127 -128 12865 0
-12864 127 128 12865 0
-12865 142 -143 0
-12866 12865 0
-12866 142 -143 0
-12866 -142 143 0
-12865 -142 -143 12866 0
-12865 142 143 12866 0
-12866 157 -158 0
-12867 12866 0
-12867 157 -158 0
-12867 -157 158 0
-12866 -157 -158 12867 0
-12866 157 158 12867 0
-12867 172 -173 0
-12868 12867 0
-12868 172 -173 0
-12868 -172 173 0
-12867 -172 -173 12868 0
-12867 172 173 12868 0
-12868 187 -188 0
-12869 12868 0
-12869 187 -188 0
-12869 -187 188 0
-12868 -187 -188 12869 0
-12868 187 188 12869 0
-12869 202 -203 0
-12870 12869 0
-12870 202 -203 0
-12870 -202 203 0
-12869 -202 -203 12870 0
-12869 202 203 12870 0
-12870 217 -218 0
-12871 12870 0
-12871 217 -218 0
-12871 -217 218 0
-12870 -217 -218 12871 0
-12870 217 218 12871 0
12872 0
-12872 8 -9 0
-12873 12872 0
-12873 8 -9 0
-12873 -8 9 0
-12872 -8 -9 12873 0
-12872 8 9 12873 0
-12873 23 -24 0
-12874 12873 0
-12874 23 -24 0
-12874 -23 24 0
-12873 -23 -24 12874 0
-12873 23 24 12874 0
-12874 38 -39 0
-12875 12874 0
-12875 38 -39 0
-12875 -38 39 0
-12874 -38 -39 12875 0
-12874 38 39 12875 0
-12875 53 -54 0
-12876 12875 0
-12876 53 -54 0
-12876 -53 54 0
-12875 -53 -54 12876 0
-12875 53 54 12876 0
-12876 68 -69 0
-12877 12876 0
-12877 68 -69 0
-12877 -68 69 0
-12876 -68 -69 12877 0
-12876 68 69 12877 0
-12877 83 -84 0
-12878 12877 0
-12878 83 -84 0
-12878 -83 84 0
-12877 -83 -84 12878 0
-12877 83 84 12878 0
-12878 98 -99 0
-12879 12878 0
-12879 98 -99 0
-12879 -98 99 0
-12878 -98 -99 12879 0
-12878 98 99 12879 0
-12879 113 -114 0
-12880 12879 0
-12880 113 -114 0
-12880 -113 114 0
-12879 -113 -114 12880 0
-12879 113 114 12880 0
-12880 128 -129 0
-12881 12880 0
-12881 128 -129 0
-12881 -128 129 0
-12880 -128 -129 12881 0
-12880 128 129 12881 0
-12881 143 -144 0
-12882 12881 0
-12882 143 -144 0
-12882 -143 144 0
-12881 -143 -144 12882 0
-12881 143 144 12882 0
-12882 158 -159 0
-12883 12882 0
-12883 158 -159 0
-12883 -158 159 0
-12882 -158 -159 12883 0
-12882 158 159 12883 0
-12883 173 -174 0
-12884 12883 0
-12884 173 -174 0
-12884 -173 174 0
-12883 -173 -174 12884 0
-12883 173 174 12884 0
-12884 188 -189 0
-12885 12884 0
-12885 188 -189 0
-12885 -188 189 0
-12884 -188 -189 12885 0
-12884 188 189 12885 0
-12885 203 -204 0
-12886 12885 0
-12886 203 -204 0
-12886 -203 204 0
-12885 -203 -204 12886 0
-12885 203 204 12886 0
-12886 218 -219 0
-12887 12886 0
-12887 218 -219 0
-12887 -218 219 0
-12886 -218 -219 12887 0
-12886 218 219 12887 0
12888 0
-12888 9 -10 0
-12889 12888 0
-12889 9 -10 0
-12889 -9 10 0
-12888 -9 -10 12889 0
-12888 9 10 12889 0
-12889 24 -25 0
-12890 12889 0
-12890 24 -25 0
-12890 -24 25 0
-12889 -24 -25 12890 0
-12889 24 25 12890 0
-12890 39 -40 0
-12891 12890 0
-12891 39 -40 0
-12891 -39 40 0
-12890 -39 -40 12891 0
-12890 39 40 12891 0
-12891 54 -55 0
-12892 12891 0
-12892 54 -55 0
-12892 -54 55 0
-12891 -54 -55 12892 0
-12891 54 55 12892 0
-12892 69 -70 0
-12893 12892 0
-12893 69 -70 0
-12893 -69 70 0
-12892 -69 -70 12893 0
-12892 69 70 12893 0
-12893 84 -85 0
-12894 12893 0
-12894 84 -85 0
-12894 -84 85 0
-12893 -84 -85 12894 0
-12893 84 85 12894 0
-12894 99 -100 0
-12895 12894 0
-12895 99 -100 0
-12895 -99 100 0
-12894 -99 -100 12895 0
-12894 99 100 12895 0
-12895 114 -115 0
-12896 12895 0
-12896 114 -115 0
-12896 -114 115 0
-12895 -114 -115 12896 0
-12895 114 115 12896 0
-12896 129 -130 0
-12897 12896 0
-12897 129 -130 0
-12897 -129 130 0
-12896 -129 -130 12897 0
-12896 129 130 12897 0
-12897 144 -145 0
-12898 12897 0
-12898 144 -145 0
-12898 -144 145 0
-12897 -144 -145 12898 0
-12897 144 145 12898 0
-12898 159 -160 0
-12899 12898 0
-12899 159 -160 0
-12899 -159 160 0
-12898 -159 -160 12899 0
-12898 159 160 12899 0
-12899 174 -175 0
-12900 12899 0
-12900 174 -175 0
-12900 -174 175 0
-12899 -174 -175 12900 0
-12899 174 175 12900 0
-12900 189 -190 0
-12901 12900 0
-12901 189 -190 0
-12901 -189 190 0
-12900 -189 -190 12901 0
-12900 189 190 12901 0
-12901 204 -205 0
-12902 12901 0
-12902 204 -205 0
-12902 -204 205 0
-12901 -204 -205 12902 0
-12901 204 205 12902 0
-12902 219 -220 0
-12903 12902 0
-12903 219 -220 0
-12903 -219 220 0
-12902 -219 -220 12903 0
-12902 219 220 12903 0
12904 0
-12904 10 -11 0
-12905 12904 0
-12905 10 -11 0
-12905 -10 11 0
-12904 -10 -11 12905 0
-12904 10 11 12905 0
-12905 25 -26 0
-12906 12905 0
-12906 25 -26 0
-12906 -25 26 0
-12905 -25 -26 12906 0
-12905 25 26 12906 0
-12906 40 -41 0
-12907 12906 0
-12907 40 -41 0
-12907 -40 41 0
-12906 -40 -41 12907 0
-12906 40 41 12907 0
-12907 55 -56 0
-12908 12907 0
-12908 55 -56 0
-12908 -55 56 0
-12907 -55 -56 12908 0
-12907 55 56 12908 0
-12908 70 -71 0
-12909 12908 0
-12909 70 -71 0
-12909 -70 71 0
-12908 -70 -71 12909 0
-12908 70 71 12909 0
-12909 85 -86 0
-12910 12909 0
-12910 85 -86 0
-12910 -85 86 0
-12909 -85 -86 12910 0
-12909 85 86 12910 0
-12910 100 -101 0
-12911 12910 0
-12911 100 -101 0
-12911 -100 101 0
-12910 -100 -101 12911 0
-12910 100 101 12911 0
-12911 115 -116 0
-12912 12911 0
-12912 115 -116 0
-12912 -115 116 0
-12911 -115 -116 12912 0
-12911 115 116 12912 0
-12912 130 -131 0
-12913 12912 0
-12913 130 -131 0
-12913 -130 131 0
-12912 -130 -131 12913 0
-12912 130 131 12913 0
-12913 145 -146 0
-12914 12913 0
-12914 145 -146 0
-12914 -145 146 0
-12913 -145 -146 12914 0
-12913 145 146 12914 0
-12914 160 -161 0
-12915 12914 0
-12915 160 -161 0
-12915 -160 161 0
-12914 -160 -161 12915 0
-12914 160 161 12915 0
-12915 175 -176 0
-12916 12915 0
-12916 175 -176 0
-12916 -175 176 0
-12915 -175 -176 12916 0
-12915 175 176 12916 0
-12916 190 -191 0
-12917 12916 0
-12917 190 -191 0
-12917 -190 191 0
-12916 -190 -191 12917 0
-12916 190 191 12917 0
-12917 205 -206 0
-12918 12917 0
-12918 205 -206 0
-12918 -205 206 0
-12917 -205 -206 12918 0
-12917 205 206 12918 0
-12918 220 -221 0
-12919 12918 0
-12919 220 -221 0
-12919 -220 221 0
-12918 -220 -221 12919 0
-12918 220 221 12919 0
12920 0
-12920 11 -12 0
-12921 12920 0
-12921 11 -12 0
-12921 -11 12 0
-12920 -11 -12 12921 0
-12920 11 12 12921 0
-12921 26 -27 0
-12922 12921 0
-12922 26 -27 0
-12922 -26 27 0
-12921 -26 -27 12922 0
-12921 26 27 12922 0
-12922 41 -42 0
-12923 12922 0
-12923 41 -42 0
-12923 -41 42 0
-12922 -41 -42 12923 0
-12922 41 42 12923 0
-12923 56 -57 0
-12924 12923 0
-12924 56 -57 0
-12924 -56 57 0
-12923 -56 -57 12924 0
-12923 56 57 12924 0
-12924 71 -72 0
-12925 12924 0
-12925 71 -72 0
-12925 -71 72 0
-12924 -71 -72 12925 0
-12924 71 72 12925 0
-12925 86 -87 0
-12926 12925 0
-12926 86 -87 0
-12926 -86 87 0
-12925 -86 -87 12926 0
-12925 86 87 12926 0
-12926 101 -102 0
-12927 12926 0
-12927 101 -102 0
-12927 -101 102 0
-12926 -101 -102 12927 0
-12926 101 102 12927 0
-12927 116 -117 0
-12928 12927 0
-12928 116 -117 0
-12928 -116 117 0
-12927 -116 -117 12928 0
-12927 116 117 12928 0
-12928 131 -132 0
-12929 12928 0
-12929 131 -132 0
-12929 -131 132 0
-12928 -131 -132 12929 0
-12928 131 132 12929 0
-12929 146 -147 0
-12930 12929 0
-12930 146 -147 0
-12930 -146 147 0
-12929 -146 -147 12930 0
-12929 146 147 12930 0
-12930 161 -162 0
-12931 12930 0
-12931 161 -162 0
-12931 -161 162 0
-12930 -161 -162 12931 0
-12930 161 162 12931 0
-12931 176 -177 0
-12932 12931 0
-12932 176 -177 0
-12932 -176 177 0
-12931 -176 -177 12932 0
-12931 176 177 12932 0
-12932 191 -192 0
-12933 12932 0
-12933 191 -192 0
-12933 -191 192 0
-12932 -191 -192 12933 0
-12932 191 192 12933 0
-12933 206 -207 0
-12934 12933 0
-12934 206 -207 0
-12934 -206 207 0
-12933 -206 -207 12934 0
-12933 206 207 12934 0
-12934 221 -222 0
-12935 12934 0
-12935 221 -222 0
-12935 -221 222 0
-12934 -221 -222 12935 0
-12934 221 222 12935 0
12936 0
-12936 12 -13 0
-12937 12936 0
-12937 12 -13 0
-12937 -12 13 0
-12936 -12 -13 12937 0
-12936 12 13 12937 0
-12937 27 -28 0
-12938 12937 0
-12938 27 -28 0
-12938 -27 28 0
-12937 -27 -28 12938 0
-12937 27 28 12938 0
-12938 42 -43 0
-12939 12938 0
-12939 42 -43 0
-12939 -42 43 0
-12938 -42 -43 12939 0
-12938 42 43 12939 0
-12939 57 -58 0
-12940 12939 0
-12940 57 -58 0
-12940 -57 58 0
-12939 -57 -58 12940 0
-12939 57 58 12940 0
-12940 72 -73 0
-12941 12940 0
-12941 72 -73 0
-12941 -72 73 0
-12940 -72 -73 12941 0
-12940 72 73 12941 0
-12941 87 -88 0
-12942 12941 0
-12942 87 -88 0
-12942 -87 88 0
-12941 -87 -88 12942 0
-12941 87 88 12942 0
-12942 102 -103 0
-12943 12942 0
-12943 102 -103 0
-12943 -102 103 0
-12942 -102 -103 12943 0
-12942 102 103 12943 0
-12943 117 -118 0
-12944 12943 0
-12944 117 -118 0
-12944 -117 118 0
-12943 -117 -118 12944 0
-12943 117 118 12944 0
-12944 132 -133 0
-12945 12944 0
-12945 132 -133 0
-12945 -132 133 0
-12944 -132 -133 12945 0
-12944 132 133 12945 0
-12945 147 -148 0
-12946 12945 0
-12946 147 -148 0
-12946 -147 148 0
-12945 -147 -148 12946 0
-12945 147 148 12946 0
-12946 162 -163 0
-12947 12946 0
-12947 162 -163 0
-12947 -162 163 0
-12946 -162 -163 12947 0
-12946 162 163 12947 0
-12947 177 -178 0
-12948 12947 0
-12948 177 -178 0
-12948 -177 178 0
-12947 -177 -178 12948 0
-12947 177 178 12948 0
-12948 192 -193 0
-12949 12948 0
-12949 192 -193 0
-12949 -192 193 0
-12948 -192 -193 12949 0
-12948 192 193 12949 0
-12949 207 -208 0
-12950 12949 0
-12950 207 -208 0
-12950 -207 208 0
-12949 -207 -208 12950 0
-12949 207 208 12950 0
-12950 222 -223 0
-12951 12950 0
-12951 222 -223 0
-12951 -222 223 0
-12950 -222 -223 12951 0
-12950 222 223 12951 0
12952 0
-12952 13 -14 0
-12953 12952 0
-12953 13 -14 0
-12953 -13 14 0
-12952 -13 -14 12953 0
-12952 13 14 12953 0
-12953 28 -29 0
-12954 12953 0
-12954 28 -29 0
-12954 -28 29 0
-12953 -28 -29 12954 0
-12953 28 29 12954 0
-12954 43 -44 0
-12955 12954 0
-12955 43 -44 0
-12955 -43 44 0
-12954 -43 -44 12955 0
-12954 43 44 12955 0
-12955 58 -59 0
-12956 12955 0
-12956 58 -59 0
-12956 -58 59 0
-12955 -58 -59 12956 0
-12955 58 59 12956 0
-12956 73 -74 0
-12957 12956 0
-12957 73 -74 0
-12957 -73 74 0
-12956 -73 -74 12957 0
-12956 73 74 12957 0
-12957 88 -89 0
-12958 12957 0
-12958 88 -89 0
-12958 -88 89 0
-12957 -88 -89 12958 0
-12957 88 89 12958 0
-12958 103 -104 0
-12959 12958 0
-12959 103 -104 0
-12959 -103 104 0
-12958 -103 -104 12959 0
-12958 103 104 12959 0
-12959 118 -119 0
-12960 12959 0
-12960 118 -119 0
-12960 -118 119 0
-12959 -118 -119 12960 0
-12959 118 119 12960 0
-12960 133 -134 0
-12961 12960 0
-12961 133 -134 0
-12961 -133 134 0
-12960 -133 -134 12961 0
-12960 133 134 12961 0
-12961 148 -149 0
-12962 12961 0
-12962 148 -149 0
-12962 -148 149 0
-12961 -148 -149 12962 0
-12961 148 149 12962 0
-12962 163 -164 0
-12963 12962 0
-12963 163 -164 0
-12963 -163 164 0
-12962 -163 -164 12963 0
-12962 163 164 12963 0
-12963 178 -179 0
-12964 12963 0
-12964 178 -179 0
-12964 -178 179 0
-12963 -178 -179 12964 0
-12963 178 179 12964 0
-12964 193 -194 0
-12965 12964 0
-12965 193 -194 0
-12965 -193 194 0
-12964 -193 -194 12965 0
-12964 193 194 12965 0
-12965 208 -209 0
-12966 12965 0
-12966 208 -209 0
-12966 -208 209 0
-12965 -208 -209 12966 0
-12965 208 209 12966 0
-12966 223 -224 0
-12967 12966 0
-12967 223 -224 0
-12967 -223 224 0
-12966 -223 -224 12967 0
-12966 223 224 12967 0
12968 0
-12968 14 -15 0
-12969 12968 0
-12969 14 -15 0
-12969 -14 15 0
-12968 -14 -15 12969 0
-12968 14 15 12969 0
-12969 29 -30 0
-12970 12969 0
-12970 29 -30 0
-12970 -29 30 0
-12969 -29 -30 12970 0
-12969 29 30 12970 0
-12970 44 -45 0
-12971 12970 0
-12971 44 -45 0
-12971 -44 45 0
-12970 -44 -45 12971 0
-12970 44 45 12971 0
-12971 59 -60 0
-12972 12971 0
-12972 59 -60 0
-12972 -59 60 0
-12971 -59 -60 12972 0
-12971 59 60 12972 0
-12972 74 -75 0
-12973 12972 0
-12973 74 -75 0
-12973 -74 75 0
-12972 -74 -75 12973 0
-12972 74 75 12973 0
-12973 89 -90 0
-12974 12973 0
-12974 89 -90 0
-12974 -89 90 0
-12973 -89 -90 12974 0
-12973 89 90 12974 0
-12974 104 -105 0
-12975 12974 0
-12975 104 -105 0
-12975 -104 105 0
-12974 -104 -105 12975 0
-12974 104 105 12975 0
-12975 119 -120 0
-12976 12975 0
-12976 119 -120 0
-12976 -119 120 0
-12975 -119 -120 12976 0
-12975 119 120 12976 0
-12976 134 -135 0
-12977 12976 0
-12977 134 -135 0
-12977 -134 135 0
-12976 -134 -135 12977 0
-12976 134 135 12977 0
-12977 149 -150 0
-12978 12977 0
-12978 149 -150 0
-12978 -149 150 0
-12977 -149 -150 12978 0
-12977 149 150 12978 0
-12978 164 -165 0
-12979 12978 0
-12979 164 -165 0
-12979 -164 165 0
-12978 -164 -165 12979 0
-12978 164 165 12979 0
-12979 179 -180 0
-12980 12979 0
-12980 179 -180 0
-12980 -179 180 0
-12979 -179 -180 12980 0
-12979 179 180 12980 0
-12980 194 -195 0
-12981 12980 0
-12981 194 -195 0
-12981 -194 195 0
-12980 -194 -195 12981 0
-12980 194 195 12981 0
-12981 209 -210 0
-12982 12981 0
-12982 209 -210 0
-12982 -209 210 0
-12981 -209 -210 12982 0
-12981 209 210 12982 0
-12982 224 -225 0
-12983 12982 0
-12983 224 -225 0
-12983 -224 225 0
-12982 -224 -225 12983 0
-12982 224 225 12983 0
12984 0
-12984 16 -31 0
-12985 12984 0
-12985 16 -31 0
-12985 -16 31 0
-12984 -16 -31 12985 0
-12984 16 31 12985 0
-12985 17 -32 0
-12986 12985 0
-12986 17 -32 0
-12986 -17 32 0
-12985 -17 -32 12986 0
-12985 17 32 12986 0
-12986 18 -33 0
-12987 12986 0
-12987 18 -33 0
-12987 -18 33 0
-12986 -18 -33 12987 0
-12986 18 33 12987 0
-12987 19 -34 0
-12988 12987 0
-12988 19 -34 0
-12988 -19 34 0
-12987 -19 -34 12988 0
-12987 19 34 12988 0
-12988 20 -35 0
-12989 12988 0
-12989 20 -35 0
-12989 -20 35 0
-12988 -20 -35 12989 0
-12988 20 35 12989 0
-12989 21 -36 0
-12990 12989 0
-12990 21 -36 0
-12990 -21 36 0
-12989 -21 -36 12990 0
-12989 21 36 12990 0
-12990 22 -37 0
-12991 12990 0
-12991 22 -37 0
-12991 -22 37 0
-12990 -22 -37 12991 0
-12990 22 37 12991 0
-12991 23 -38 0
-12992 12991 0
-12992 23 -38 0
-12992 -23 38 0
-12991 -23 -38 12992 0
-12991 23 38 12992 0
-12992 24 -39 0
-12993 12992 0
-12993 24 -39 0
-12993 -24 39 0
-12992 -24 -39 12993 0
-12992 24 39 12993 0
-12993 25 -40 0
-12994 12993 0
-12994 25 -40 0
-12994 -25 40 0
-12993 -25 -40 12994 0
-12993 25 40 12994 0
-12994 26 -41 0
-12995 12994 0
-12995 26 -41 0
-12995 -26 41 0
-12994 -26 -41 12995 0
-12994 26 41 12995 0
-12995 27 -42 0
-12996 12995 0
-12996 27 -42 0
-12996 -27 42 0
-12995 -27 -42 12996 0
-12995 27 42 12996 0
-12996 28 -43 0
-12997 12996 0
-12997 28 -43 0
-12997 -28 43 0
-12996 -28 -43 12997 0
-12996 28 43 12997 0
-12997 29 -44 0
-12998 12997 0
-12998 29 -44 0
-12998 -29 44 0
-12997 -29 -44 12998 0
-12997 29 44 12998 0
-12998 30 -45 0
-12999 12998 0
-12999 30 -45 0
-12999 -30 45 0
-12998 -30 -45 12999 0
-12998 30 45 12999 0
13000 0
-13000 31 -46 0
-13001 13000 0
-13001 31 -46 0
-13001 -31 46 0
-13000 -31 -46 13001 0
-13000 31 46 13001 0
-13001 32 -47 0
-13002 13001 0
-13002 32 -47 0
-13002 -32 47 0
-13001 -32 -47 13002 0
-13001 32 47 13002 0
-13002 33 -48 0
-13003 13002 0
-13003 33 -48 0
-13003 -33 48 0
-13002 -33 -48 13003 0
-13002 33 48 13003 0
-13003 34 -49 0
-13004 13003 0
-13004 34 -49 0
-13004 -34 49 0
-13003 -34 -49 13004 0
-13003 34 49 13004 0
-13004 35 -50 0
-13005 13004 0
-13005 35 -50 0
-13005 -35 50 0
-13004 -35 -50 13005 0
-13004 35 50 13005 0
-13005 36 -51 0
-13006 13005 0
-13006 36 -51 0
-13006 -36 51 0
-13005 -36 -51 13006 0
-13005 36 51 13006 0
-13006 37 -52 0
-13007 13006 0
-13007 37 -52 0
-13007 -37 52 0
-13006 -37 -52 13007 0
-13006 37 52 13007 0
-13007 38 -53 0
-13008 13007 0
-13008 38 -53 0
-13008 -38 53 0
-13007 -38 -53 13008 0
-13007 38 53 13008 0
-13008 39 -54 0
-13009 13008 0
-13009 39 -54 0
-13009 -39 54 0
-13008 -39 -54 13009 0
-13008 39 54 13009 0
-13009 40 -55 0
-13010 13009 0
-13010 40 -55 0
-13010 -40 55 0
-13009 -40 -55 13010 0
-13009 40 55 13010 0
-13010 41 -56 0
-13011 13010 0
-13011 41 -56 0
-13011 -41 56 0
-13010 -41 -56 13011 0
-13010 41 56 13011 0
-13011 42 -57 0
-13012 13011 0
-13012 42 -57 0
-13012 -42 57 0
-13011 -42 -57 13012 0
-13011 42 57 13012 0
-13012 43 -58 0
-13013 13012 0
-13013 43 -58 0
-13013 -43 58 0
-13012 -43 -58 13013 0
-13012 43 58 13013 0
-13013 44 -59 0
-13014 13013 0
-13014 44 -59 0
-13014 -44 59 0
-13013 -44 -59 13014 0
-13013 44 59 13014 0
-13014 45 -60 0
-13015 13014 0
-13015 45 -60 0
-13015 -45 60 0
-13014 -45 -60 13015 0
-13014 45 60 13015 0
13016 0
-13016 46 -61 0
-13017 13016 0
-13017 46 -61 0
-13017 -46 61 0
-13016 -46 -61 13017 0
-13016 46 61 13017 0
-13017 47 -62 0
-13018 13017 0
-13018 47 -62 0
-13018 -47 62 0
-13017 -47 -62 13018 0
-13017 47 62 13018 0
-13018 48 -63 0
-13019 13018 0
-13019 48 -63 0
-13019 -48 63 0
-13018 -48 -63 13019 0
-13018 48 63 13019 0
-13019 49 -64 0
-13020 13019 0
-13020 49 -64 0
-13020 -49 64 0
-13019 -49 -64 13020 0
-13019 49 64 13020 0
-13020 50 -65 0
-13021 13020 0
-13021 50 -65 0
-13021 -50 65 0
-13020 -50 -65 13021 0
-13020 50 65 13021 0
-13021 51 -66 0
-13022 13021 0
-13022 51 -66 0
-13022 -51 66 0
-13021 -51 -66 13022 0
-13021 51 66 13022 0
-13022 52 -67 0
-13023 13022 0
-13023 52 -67 0
-13023 -52 67 0
-13022 -52 -67 13023 0
-13022 52 67 13023 0
-13023 53 -68 0
-13024 13023 0
-13024 53 -68 0
-13024 -53 68 0
-13023 -53 -68 13024 0
-13023 53 68 13024 0
-13024 54 -69 0
-13025 13024 0
-13025 54 -69 0
-13025 -54 69 0
-13024 -54 -69 13025 0
-13024 54 69 13025 0
-13025 55 -70 0
-13026 13025 0
-13026 55 -70 0
-13026 -55 70 0
-13025 -55 -70 13026 0
-13025 55 70 13026 0
-13026 56 -71 0
-13027 13026 0
-13027 56 -71 0
-13027 -56 71 0
-13026 -56 -71 13027 0
-13026 56 71 13027 0
-13027 57 -72 0
-13028 13027 0
-13028 57 -72 0
-13028 -57 72 0
-13027 -57 -72 13028 0
-13027 57 72 13028 0
-13028 58 -73 0
-13029 13028 0
-13029 58 -73 0
-13029 -58 73 0
-13028 -58 -73 13029 0
-13028 58 73 13029 0
-13029 59 -74 0
-13030 13029 0
-13030 59 -74 0
-13030 -59 74 0
-13029 -59 -74 13030 0
-13029 59 74 13030 0
-13030 60 -75 0
-13031 13030 0
-13031 60 -75 0
-13031 -60 75 0
-13030 -60 -75 13031 0
-13030 60 75 13031 0
13032 0
-13032 61 -76 0
-13033 13032 0
-13033 61 -76 0
-13033 -61 76 0
-13032 -61 -76 13033 0
-13032 61 76 13033 0
-13033 62 -77 0
-13034 13033 0
-13034 62 -77 0
-13034 -62 77 0
-13033 -62 -77 13034 0
-13033 62 77 13034 0
-13034 63 -78 0
-13035 13034 0
-13035 63 -78 0
-13035 -63 78 0
-13034 -63 -78 13035 0
-13034 63 78 13035 0
-13035 64 -79 0
-13036 13035 0
-13036 64 -79 0
-13036 -64 79 0
-13035 -64 -79 13036 0
-13035 64 79 13036 0
-13036 65 -80 0
-13037 13036 0
-13037 65 -80 0
-13037 -65 80 0
-13036 -65 -80 13037 0
-13036 65 80 13037 0
-13037 66 -81 0
-13038 13037 0
-13038 66 -81 0
-13038 -66 81 0
-13037 -66 -81 13038 0
-13037 66 81 13038 0
-13038 67 -82 0
-13039 13038 0
-13039 67 -82 0
-13039 -67 82 0
-13038 -67 -82 13039 0
-13038 67 82 13039 0
-13039 68 -83 0
-13040 13039 0
-13040 68 -83 0
-13040 -68 83 0
-13039 -68 -83 13040 0
-13039 68 83 13040 0
-13040 69 -84 0
-13041 13040 0
-13041 69 -84 0
-13041 -69 84 0
-13040 -69 -84 13041 0
-13040 69 84 13041 0
-13041 70 -85 0
-13042 13041 0
-13042 70 -85 0
-13042 -70 85 0
-13041 -70 -85 13042 0
-13041 70 85 13042 0
-13042 71 -86 0
-13043 13042 0
-13043 71 -86 0
-13043 -71 86 0
-13042 -71 -86 13043 0
-13042 71 86 13043 0
-13043 72 -87 0
-13044 13043 0
-13044 72 -87 0
-13044 -72 87 0
-13043 -72 -87 13044 0
-13043 72 87 13044 0
-13044 73 -88 0
-13045 13044 0
-13045 73 -88 0
-13045 -73 88 0
-13044 -73 -88 13045 0
-13044 73 88 13045 0
-13045 74 -89 0
-13046 13045 0
-13046 74 -89 0
-13046 -74 89 0
-13045 -74 -89 13046 0
-13045 74 89 13046 0
-13046 75 -90 0
-13047 13046 0
-13047 75 -90 0
-13047 -75 90 0
-13046 -75 -90 13047 0
-13046 75 90 13047 0
13048 0
-13048 76 -91 0
-13049 13048 0
-13049 76 -91 0
-13049 -76 91 0
-13048 -76 -91 13049 0
-13048 76 91 13049 0
-13049 77 -92 0
-13050 13049 0
-13050 77 -92 0
-13050 -77 92 0
-13049 -77 -92 13050 0
-13049 77 92 13050 0
-13050 78 -93 0
-13051 13050 0
-13051 78 -93 0
-13051 -78 93 0
-13050 -78 -93 13051 0
-13050 78 93 13051 0
-13051 79 -94 0
-13052 13051 0
-13052 79 -94 0
-13052 -79 94 0
-13051 -79 -94 13052 0
-13051 79 94 13052 0
-13052 80 -95 0
-13053 13052 0
-13053 80 -95 0
-13053 -80 95 0
-13052 -80 -95 13053 0
-13052 80 95 13053 0
-13053 81 -96 0
-13054 13053 0
-13054 81 -96 0
-13054 -81 96 0
-13053 -81 -96 13054 0
-13053 81 96 13054 0
-13054 82 -97 0
-13055 13054 0
-13055 82 -97 0
-13055 -82 97 0
-13054 -82 -97 13055 0
-13054 82 97 13055 0
-13055 83 -98 0
-13056 13055 0
-13056 83 -98 0
-13056 -83 98 0
-13055 -83 -98 13056 0
-13055 83 98 13056 0
-13056 84 -99 0
-13057 13056 0
-13057 84 -99 0
-13057 -84 99 0
-13056 -84 -99 13057 0
-13056 84 99 13057 0
-13057 85 -100 0
-13058 13057 0
-13058 85 -100 0
-13058 -85 100 0
-13057 -85 -100 13058 0
-13057 85 100 13058 0
-13058 86 -101 0
-13059 13058 0
-13059 86 -101 0
-13059 -86 101 0
-13058 -86 -101 13059 0
-13058 86 101 13059 0
-13059 87 -102 0
-13060 13059 0
-13060 87 -102 0
-13060 -87 102 0
-13059 -87 -102 13060 0
-13059 87 102 13060 0
-13060 88 -103 0
-13061 13060 0
-13061 88 -103 0
-13061 -88 103 0
-13060 -88 -103 13061 0
-13060 88 103 13061 0
-13061 89 -104 0
-13062 13061 0
-13062 89 -104 0
-13062 -89 104 0
-13061 -89 -104 13062 0
-13061 89 104 13062 0
-13062 90 -105 0
-13063 13062 0
-13063 90 -105 0
-13063 -90 105 0
-13062 -90 -105 13063 0
-13062 90 105 13063 0
13064 0
-13064 91 -106 0
-13065 13064 0
-13065 91 -106 0
-13065 -91 106 0
-13064 -91 -106 13065 0
-13064 91 106 13065 0
-13065 92 -107 0
-13066 13065 0
-13066 92 -107 0
-13066 -92 107 0
-13065 -92 -107 13066 0
-13065 92 107 13066 0
-13066 93 -108 0
-13067 13066 0
-13067 93 -108 0
-13067 -93 108 0
-13066 -93 -108 13067 0
-13066 93 108 13067 0
-13067 94 -109 0
-13068 13067 0
-13068 94 -109 0
-13068 -94 109 0
-13067 -94 -109 13068 0
-13067 94 109 13068 0
-13068 95 -110 0
-13069 13068 0
-13069 95 -110 0
-13069 -95 110 0
-13068 -95 -110 13069 0
-13068 95 110 13069 0
-13069 96 -111 0
-13070 13069 0
-13070 96 -111 0
-13070 -96 111 0
-13069 -96 -111 13070 0
-13069 96 111 13070 0
-13070 97 -112 0
-13071 13070 0
-13071 97 -112 0
-13071 -97 112 0
-13070 -97 -112 13071 0
-13070 97 112 13071 0
-13071 98 -113 0
-13072 13071 0
-13072 98 -113 0
-13072 -98 113 0
-13071 -98 -113 13072 0
-13071 98 113 13072 0
-13072 99 -114 0
-13073 13072 0
-13073 99 -114 0
-13073 -99 114 0
-13072 -99 -114 13073 0
-13072 99 114 13073 0
-13073 100 -115 0
-13074 13073 0
-13074 100 -115 0
-13074 -100 115 0
-13073 -100 -115 13074 0
-13073 100 115 13074 0
-13074 101 -116 0
-13075 13074 0
-13075 101 -116 0
-13075 -101 116 0
-13074 -101 -116 13075 0
-13074 101 116 13075 0
-13075 102 -117 0
-13076 13075 0
-13076 102 -117 0
-13076 -102 117 0
-13075 -102 -117 13076 0
-13075 102 117 13076 0
-13076 103 -118 0
-13077 13076 0
-13077 103 -118 0
-13077 -103 118 0
-13076 -103 -118 13077 0
-13076 103 118 13077 0
-13077 104 -119 0
-13078 13077 0
-13078 104 -119 0
-13078 -104 119 0
-13077 -104 -119 13078 0
-13077 104 119 13078 0
-13078 105 -120 0
-13079 13078 0
-13079 105 -120 0
-13079 -105 120 0
-13078 -105 -120 13079 0
-13078 105 120 13079 0
13080 0
-13080 106 -121 0
-13081 13080 0
-13081 106 -121 0
-13081 -106 121 0
-13080 -106 -121 13081 0
-13080 106 121 13081 0
-13081 107 -122 0
-13082 13081 0
-13082 107 -122 0
-13082 -107 122 0
-13081 -107 -122 13082 0
-13081 107 122 13082 0
-13082 108 -123 0
-13083 13082 0
-13083 108 -123 0
-13083 -108 123 0
-13082 -108 -123 13083 0
-13082 108 123 13083 0
-13083 109 -124 0
-13084 13083 0
-13084 109 -124 0
-13084 -109 124 0
-13083 -109 -124 13084 0
-13083 109 124 13084 0
-13084 110 -125 0
-13085 13084 0
-13085 110 -125 0
-13085 -110 125 0
-13084 -110 -125 13085 0
-13084 110 125 13085 0
-13085 111 -126 0
-13086 13085 0
-13086 111 -126 0
-13086 -111 126 0
-13085 -111 -126 13086 0
-13085 111 126 13086 0
-13086 112 -127 0
-13087 13086 0
-13087 112 -127 0
-13087 -112 127 0
-13086 -112 -127 13087 0
-13086 112 127 13087 0
-13087 113 -128 0
-13088 13087 0
-13088 113 -128 0
-13088 -113 128 0
-13087 -113 -128 13088 0
-13087 113 128 13088 0
-13088 114 -129 0
-13089 13088 0
-13089 114 -129 0
-13089 -114 129 0
-13088 -114 -129 13089 0
-13088 114 129 13089 0
-13089 115 -130 0
-13090 13089 0
-13090 115 -130 0
-13090 -115 130 0
-13089 -115 -130 13090 0
-13089 115 130 13090 0
-13090 116 -131 0
-13091 13090 0
-13091 116 -131 0
-13091 -116 131 0
-13090 -116 -131 13091 0
-13090 116 131 13091 0
-13091 117 -132 0
-13092 13091 0
-13092 117 -132 0
-13092 -117 132 0
-13091 -117 -132 13092 0
-13091 117 132 13092 0
-13092 118 -133 0
-13093 13092 0
-13093 118 -133 0
-13093 -118 133 0
-13092 -118 -133 13093 0
-13092 118 133 13093 0
-13093 119 -134 0
-13094 13093 0
-13094 119 -134 0
-13094 -119 134 0
-13093 -119 -134 13094 0
-13093 119 134 13094 0
-13094 120 -135 0
-13095 13094 0
-13095 120 -135 0
-13095 -120 135 0
-13094 -120 -135 13095 0
-13094 120 135 13095 0
13096 0
-13096 121 -136 0
-13097 13096 0
-13097 121 -136 0
-13097 -121 136 0
-13096 -121 -136 13097 0
-13096 121 136 13097 0
-13097 122 -137 0
-13098 13097 0
-13098 122 -137 0
-13098 -122 137 0
-13097 -122 -137 13098 0
-13097 122 137 13098 0
-13098 123 -138 0
-13099 13098 0
-13099 123 -138 0
-13099 -123 138 0
-13098 -123 -138 13099 0
-13098 123 138 13099 0
-13099 124 -139 0
-13100 13099 0
-13100 124 -139 0
-13100 -124 139 0
-13099 -124 -139 13100 0
-13099 124 139 13100 0
-13100 125 -140 0
-13101 13100 0
-13101 125 -140 0
-13101 -125 140 0
-13100 -125 -140 13101 0
-13100 125 140 13101 0
-13101 126 -141 0
-13102 13101 0
-13102 126 -141 0
-13102 -126 141 0
-13101 -126 -141 13102 0
-13101 126 141 13102 0
-13102 127 -142 0
-13103 13102 0
-13103 127 -142 0
-13103 -127 142 0
-13102 -127 -142 13103 0
-13102 127 142 13103 0
-13103 128 -143 0
-13104 13103 0
-13104 128 -143 0
-13104 -128 143 0
-13103 -128 -143 13104 0
-13103 128 143 13104 0
-13104 129 -144 0
-13105 13104 0
-13105 129 -144 0
-13105 -129 144 0
-13104 -129 -144 13105 0
-13104 129 144 13105 0
-13105 130 -145 0
-13106 13105 0
-13106 130 -145 0
-13106 -130 145 0
-13105 -130 -145 13106 0
-13105 130 145 13106 0
-13106 131 -146 0
-13107 13106 0
-13107 131 -146 0
-13107 -131 146 0
-13106 -131 -146 13107 0
-13106 131 146 13107 0
-13107 132 -147 0
-13108 13107 0
-13108 132 -147 0
-13108 -132 147 0
-13107 -132 -147 13108 0
-13107 132 147 13108 0
-13108 133 -148 0
-13109 13108 0
-13109 133 -148 0
-13109 -133 148 0
-13108 -133 -148 13109 0
-13108 133 148 13109 0
-13109 134 -149 0
-13110 13109 0
-13110 134 -149 0
-13110 -134 149 0
-13109 -134 -149 13110 0
-13109 134 149 13110 0
-13110 135 -150 0
-13111 13110 0
-13111 135 -150 0
-13111 -135 150 0
-13110 -135 -150 13111 0
-13110 135 150 13111 0
13112 0
-13112 136 -151 0
-13113 13112 0
-13113 136 -151 0
-13113 -136 151 0
-13112 -136 -151 13113 0
-13112 136 151 13113 0
-13113 137 -152 0
-13114 13113 0
-13114 137 -152 0
-13114 -137 152 0
-13113 -137 -152 13114 0
-13113 137 152 13114 0
-13114 138 -153 0
-13115 13114 0
-13115 138 -153 0
-13115 -138 153 0
-13114 -138 -153 13115 0
-13114 138 153 13115 0
-13115 139 -154 0
-13116 13115 0
-13116 139 -154 0
-13116 -139 154 0
-13115 -139 -154 13116 0
-13115 139 154 13116 0
-13116 140 -155 0
-13117 13116 0
-13117 140 -155 0
-13117 -140 155 0
-13116 -140 -155 13117 0
-13116 140 155 13117 0
-13117 141 -156 0
-13118 13117 0
-13118 141 -156 0
-13118 -141 156 0
-13117 -141 -156 13118 0
-13117 141 156 13118 0
-13118 142 -157 0
-13119 13118 0
-13119 142 -157 0
-13119 -142 157 0
-13118 -142 -157 13119 0
-13118 142 157 13119 0
-13119 143 -158 0
-13120 13119 0
-13120 143 -158 0
-13120 -143 158 0
-13119 -143 -158 13120 0
-13119 143 158 13120 0
-13120 144 -159 0
-13121 13120 0
-13121 144 -159 0
-13121 -144 159 0
-13120 -144 -159 13121 0
-13120 144 159 13121 0
-13121 145 -160 0
-13122 13121 0
-13122 145 -160 0
-13122 -145 160 0
-13121 -145 -160 13122 0
-13121 145 160 13122 0
-13122 146 -161 0
-13123 13122 0
-13123 146 -161 0
-13123 -146 161 0
-13122 -146 -161 13123 0
-13122 146 161 13123 0
-13123 147 -162 0
-13124 13123 0
-13124 147 -162 0
-13124 -147 162 0
-13123 -147 -162 13124 0
-13123 147 162 13124 0
-13124 148 -163 0
-13125 13124 0
-13125 148 -163 0
-13125 -148 163 0
-13124 -148 -163 13125 0
-13124 148 163 13125 0
-13125 149 -164 0
-13126 13125 0
-13126 149 -164 0
-13126 -149 164 0
-13125 -149 -164 13126 0
-13125 149 164 13126 0
-13126 150 -165 0
-13127 13126 0
-13127 150 -165 0
-13127 -150 165 0
-13126 -150 -165 13127 0
-13126 150 165 13127 0
13128 0
-13128 151 -166 0
-13129 13128 0
-13129 151 -166 0
-13129 -151 166 0
-13128 -151 -166 13129 0
-13128 151 166 13129 0
-13129 152 -167 0
-13130 13129 0
-13130 152 -167 0
-13130 -152 167 0
-13129 -152 -167 13130 0
-13129 152 167 13130 0
-13130 153 -168 0
-13131 13130 0
-13131 153 -168 0
-13131 -153 168 0
-13130 -153 -168 13131 0
-13130 153 168 13131 0
-13131 154 -169 0
-13132 13131 0
-13132 154 -169 0
-13132 -154 169 0
-13131 -154 -169 13132 0
-13131 154 169 13132 0
-13132 155 -170 0
-13133 13132 0
-13133 155 -170 0
-13133 -155 170 0
-13132 -155 -170 13133 0
-13132 155 170 13133 0
-13133 156 -171 0
-13134 13133 0
-13134 156 -171 0
-13134 -156 171 0
-13133 -156 -171 13134 0
-13133 156 171 13134 0
-13134 157 -172 0
-13135 13134 0
-13135 157 -172 0
-13135 -157 172 0
-13134 -157 -172 13135 0
-13134 157 172 13135 0
-13135 158 -173 0
-13136 13135 0
-13136 158 -173 0
-13136 -158 173 0
-13135 -158 -173 13136 0
-13135 158 173 13136 0
-13136 159 -174 0
-13137 13136 0
-13137 159 -174 0
-13137 -159 174 0
-13136 -159 -174 13137 0
-13136 159 174 13137 0
-13137 160 -175 0
-13138 13137 0
-13138 160 -175 0
-13138 -160 175 0
-13137 -160 -175 13138 0
-13137 160 175 13138 0
-13138 161 -176 0
-13139 13138 0
-13139 161 -176 0
-13139 -161 176 0
-13138 -161 -176 13139 0
-13138 161 176 13139 0
-13139 162 -177 0
-13140 13139 0
-13140 162 -177 0
-13140 -162 177 0
-13139 -162 -177 13140 0
-13139 162 177 13140 0
-13140 163 -178 0
-13141 13140 0
-13141 163 -178 0
-13141 -163 178 0
-13140 -163 -178 13141 0
-13140 163 178 13141 0
-13141 164 -179 0
-13142 13141 0
-13142 164 -179 0
-13142 -164 179 0
-13141 -164 -179 13142 0
-13141 164 179 13142 0
-13142 165 -180 0
-13143 13142 0
-13143 165 -180 0
-13143 -165 180 0
-13142 -165 -180 13143 0
-13142 165 180 13143 0
13144 0
-13144 166 -181 0
-13145 13144 0
-13145 166 -181 0
-13145 -166 181 0
-13144 -166 -181 13145 0
-13144 166 181 13145 0
-13145 167 -182 0
-13146 13145 0
-13146 167 -182 0
-13146 -167 182 0
-13145 -167 -182 13146 0
-13145 167 182 13146 0
-13146 168 -183 0
-13147 13146 0
-13147 168 -183 0
-13147 -168 183 0
-13146 -168 -183 13147 0
-13146 168 183 13147 0
-13147 169 -184 0
-13148 13147 0
-13148 169 -184 0
-13148 -169 184 0
-13147 -169 -184 13148 0
-13147 169 184 13148 0
-13148 170 -185 0
-13149 13148 0
-13149 170 -185 0
-13149 -170 185 0
-13148 -170 -185 13149 0
-13148 170 185 13149 0
-13149 171 -186 0
-13150 13149 0
-13150 171 -186 0
-13150 -171 186 0
-13149 -171 -186 13150 0
-13149 171 186 13150 0
-13150 172 -187 0
-13151 13150 0
-13151 172 -187 0
-13151 -172 187 0
-13150 -172 -187 13151 0
-13150 172 187 13151 0
-13151 173 -188 0
-13152 13151 0
-13152 173 -188 0
-13152 -173 188 0
-13151 -173 -188 13152 0
-13151 173 188 13152 0
-13152 174 -189 0
-13153 13152 0
-13153 174 -189 0
-13153 -174 189 0
-13152 -174 -189 13153 0
-13152 174 189 13153 0
-13153 175 -190 0
-13154 13153 0
-13154 175 -190 0
-13154 -175 190 0
-13153 -175 -190 13154 0
-13153 175 190 13154 0
-13154 176 -191 0
-13155 13154 0
-13155 176 -191 0
-13155 -176 191 0
-13154 -176 -191 13155 0
-13154 176 191 13155 0
-13155 177 -192 0
-13156 13155 0
-13156 177 -192 0
-13156 -177 192 0
-13155 -177 -192 13156 0
-13155 177 192 13156 0
-13156 178 -193 0
-13157 13156 0
-13157 178 -193 0
-13157 -178 193 0
-13156 -178 -193 13157 0
-13156 178 193 13157 0
-13157 179 -194 0
-13158 13157 0
-13158 179 -194 0
-13158 -179 194 0
-13157 -179 -194 13158 0
-13157 179 194 13158 0
-13158 180 -195 0
-13159 13158 0
-13159 180 -195 0
-13159 -180 195 0
-13158 -180 -195 13159 0
-13158 180 195 13159 0
13160 0
-13160 181 -196 0
-13161 13160 0
-13161 181 -196 0
-13161 -181 196 0
-13160 -181 -196 13161 0
-13160 181 196 13161 0
-13161 182 -197 0
-13162 13161 0
-13162 182 -197 0
-13162 -182 197 0
-13161 -182 -197 13162 0
-13161 182 197 13162 0
-13162 183 -198 0
-13163 13162 0
-13163 183 -198 0
-13163 -183 198 0
-13162 -183 -198 13163 0
-13162 183 198 13163 0
-13163 184 -199 0
-13164 13163 0
-13164 184 -199 0
-13164 -184 199 0
-13163 -184 -199 13164 0
-13163 184 199 13164 0
-13164 185 -200 0
-13165 13164 0
-13165 185 -200 0
-13165 -185 200 0
-13164 -185 -200 13165 0
-13164 185 200 13165 0
-13165 186 -201 0
-13166 13165 0
-13166 186 -201 0
-13166 -186 201 0
-13165 -186 -201 13166 0
-13165 186 201 13166 0
-13166 187 -202 0
-13167 13166 0
-13167 187 -202 0
-13167 -187 202 0
-13166 -187 -202 13167 0
-13166 187 202 13167 0
-13167 188 -203 0
-13168 13167 0
-13168 188 -203 0
-13168 -188 203 0
-13167 -188 -203 13168 0
-13167 188 203 13168 0
-13168 189 -204 0
-13169 13168 0
-13169 189 -204 0
-13169 -189 204 0
-13168 -189 -204 13169 0
-13168 189 204 13169 0
-13169 190 -205 0
-13170 13169 0
-13170 190 -205 0
-13170 -190 205 0
-13169 -190 -205 13170 0
-13169 190 205 13170 0
-13170 191 -206 0
-13171 13170 0
-13171 191 -206 0
-13171 -191 206 0
-13170 -191 -206 13171 0
-13170 191 206 13171 0
-13171 192 -207 0
-13172 13171 0
-13172 192 -207 0
-13172 -192 207 0
-13171 -192 -207 13172 0
-13171 192 207 13172 0
-13172 193 -208 0
-13173 13172 0
-13173 193 -208 0
-13173 -193 208 0
-13172 -193 -208 13173 0
-13172 193 208 13173 0
-13173 194 -209 0
-13174 13173 0
-13174 194 -209 0
-13174 -194 209 0
-13173 -194 -209 13174 0
-13173 194 209 13174 0
-13174 195 -210 0
-13175 13174 0
-13175 195 -210 0
-13175 -195 210 0
-13174 -195 -210 13175 0
-13174 195 210 13175 0
13176 0
-13176 196 -211 0
-13177 13176 0
-13177 196 -211 0
-13177 -196 211 0
-13176 -196 -211 13177 0
-13176 196 211 13177 0
-13177 197 -212 0
-13178 13177 0
-13178 197 -212 0
-13178 -197 212 0
-13177 -197 -212 13178 0
-13177 197 212 13178 0
-13178 198 -213 0
-13179 13178 0
-13179 198 -213 0
-13179 -198 213 0
-13178 -198 -213 13179 0
-13178 198 213 13179 0
-13179 199 -214 0
-13180 13179 0
-13180 199 -214 0
-13180 -199 214 0
-13179 -199 -214 13180 0
-13179 199 214 13180 0
-13180 200 -215 0
-13181 13180 0
-13181 200 -215 0
-13181 -200 215 0
-13180 -200 -215 13181 0
-13180 200 215 13181 0
-13181 201 -216 0
-13182 13181 0
-13182 201 -216 0
-13182 -201 216 0
-13181 -201 -216 13182 0
-13181 201 216 13182 0
-13182 202 -217 0
-13183 13182 0
-13183 202 -217 0
-13183 -202 217 0
-13182 -202 -217 13183 0
-13182 202 217 13183 0
-13183 203 -218 0
-13184 13183 0
-13184 203 -218 0
-13184 -203 218 0
-13183 -203 -218 13184 0
-13183 203 218 13184 0
-13184 204 -219 0
-13185 13184 0
-13185 204 -219 0
-13185 -204 219 0
-13184 -204 -219 13185 0
-13184 204 219 13185 0
-13185 205 -220 0
-13186 13185 0
-13186 205 -220 0
-13186 -205 220 0
-13185 -205 -220 13186 0
-13185 205 220 13186 0
-13186 206 -221 0
-13187 13186 0
-13187 206 -221 0
-13187 -206 221 0
-13186 -206 -221 13187 0
-13186 206 221 13187 0
-13187 207 -222 0
-13188 13187 0
-13188 207 -222 0
-13188 -207 222 0
-13187 -207 -222 13188 0
-13187 207 222 13188 0
-13188 208 -223 0
-13189 13188 0
-13189 208 -223 0
-13189 -208 223 0
-13188 -208 -223 13189 0
-13188 208 223 13189 0
-13189 209 -224 0
-13190 13189 0
-13190 209 -224 0
-13190 -209 224 0
-13189 -209 -224 13190 0
-13189 209 224 13190 0
-13190 210 -225 0
-13191 13190 0
-13191 210 -225 0
-13191 -210 225 0
-13190 -210 -225 13191 0
-13190 210 225 13191 0
