p cnf 8037 32679
1 5266 0
-5266 5267 0
14 -5266 5268 0
-5268 5269 0
27 -5268 5270 0
-5270 5271 0
40 -5270 5272 0
-5272 5273 0
53 -5272 5274 0
-5274 5275 0
66 -5274 5276 0
-5276 5277 0
79 -5276 5278 0
-5278 5279 0
92 -5278 5280 0
-5280 5281 0
105 -5280 5282 0
-5282 5283 0
118 -5282 5284 0
-5284 5285 0
131 -5284 5286 0
-5286 5287 0
144 -5286 0
14 5267 0
27 -5267 5269 0
40 -5269 5271 0
53 -5271 5273 0
66 -5273 5275 0
79 -5275 5277 0
92 -5277 5279 0
105 -5279 5281 0
118 -5281 5283 0
131 -5283 5285 0
144 -5285 5287 0
157 -5287 0
-1 5288 0
-5288 5289 0
-14 -5288 5290 0
-5290 5291 0
-27 -5290 0
-14 5289 0
-5289 5292 0
-27 -5289 5291 0
-5291 5293 0
-40 -5291 0
-27 5292 0
-5292 5294 0
-40 -5292 5293 0
-5293 5295 0
-53 -5293 0
-40 5294 0
-5294 5296 0
-53 -5294 5295 0
-5295 5297 0
-66 -5295 0
-53 5296 0
-5296 5298 0
-66 -5296 5297 0
-5297 5299 0
-79 -5297 0
-66 5298 0
-5298 5300 0
-79 -5298 5299 0
-5299 5301 0
-92 -5299 0
-79 5300 0
-5300 5302 0
-92 -5300 5301 0
-5301 5303 0
-105 -5301 0
-92 5302 0
-5302 5304 0
-105 -5302 5303 0
-5303 5305 0
-118 -5303 0
-105 5304 0
-5304 5306 0
-118 -5304 5305 0
-5305 5307 0
-131 -5305 0
-118 5306 0
-5306 5308 0
-131 -5306 5307 0
-5307 5309 0
-144 -5307 0
-131 5308 0
-144 -5308 5309 0
-157 -5309 0
2 5310 0
-5310 5311 0
15 -5310 5312 0
-5312 5313 0
28 -5312 5314 0
-5314 5315 0
41 -5314 5316 0
-5316 5317 0
54 -5316 5318 0
-5318 5319 0
67 -5318 5320 0
-5320 5321 0
80 -5320 5322 0
-5322 5323 0
93 -5322 5324 0
-5324 5325 0
106 -5324 5326 0
-5326 5327 0
119 -5326 5328 0
-5328 5329 0
132 -5328 0
15 5311 0
-5311 5330 0
28 -5311 5313 0
-5313 5331 0
41 -5313 5315 0
-5315 5332 0
54 -5315 5317 0
-5317 5333 0
67 -5317 5319 0
-5319 5334 0
80 -5319 5321 0
-5321 5335 0
93 -5321 5323 0
-5323 5336 0
106 -5323 5325 0
-5325 5337 0
119 -5325 5327 0
-5327 5338 0
132 -5327 5329 0
-5329 5339 0
145 -5329 0
28 5330 0
41 -5330 5331 0
54 -5331 5332 0
67 -5332 5333 0
80 -5333 5334 0
93 -5334 5335 0
106 -5335 5336 0
119 -5336 5337 0
132 -5337 5338 0
145 -5338 5339 0
158 -5339 0
-2 5340 0
-5340 5341 0
-15 -5340 5342 0
-5342 5343 0
-28 -5342 5344 0
-5344 5345 0
-41 -5344 0
-15 5341 0
-5341 5346 0
-28 -5341 5343 0
-5343 5347 0
-41 -5343 5345 0
-5345 5348 0
-54 -5345 0
-28 5346 0
-5346 5349 0
-41 -5346 5347 0
-5347 5350 0
-54 -5347 5348 0
-5348 5351 0
-67 -5348 0
-41 5349 0
-5349 5352 0
-54 -5349 5350 0
-5350 5353 0
-67 -5350 5351 0
-5351 5354 0
-80 -5351 0
-54 5352 0
-5352 5355 0
-67 -5352 5353 0
-5353 5356 0
-80 -5353 5354 0
-5354 5357 0
-93 -5354 0
-67 5355 0
-5355 5358 0
-80 -5355 5356 0
-5356 5359 0
-93 -5356 5357 0
-5357 5360 0
-106 -5357 0
-80 5358 0
-5358 5361 0
-93 -5358 5359 0
-5359 5362 0
-106 -5359 5360 0
-5360 5363 0
-119 -5360 0
-93 5361 0
-5361 5364 0
-106 -5361 5362 0
-5362 5365 0
-119 -5362 5363 0
-5363 5366 0
-132 -5363 0
-106 5364 0
-5364 5367 0
-119 -5364 5365 0
-5365 5368 0
-132 -5365 5366 0
-5366 5369 0
-145 -5366 0
-119 5367 0
-132 -5367 5368 0
-145 -5368 5369 0
-158 -5369 0
3 5370 0
-5370 5371 0
16 -5370 5372 0
-5372 5373 0
29 -5372 5374 0
-5374 5375 0
42 -5374 5376 0
-5376 5377 0
55 -5376 5378 0
-5378 5379 0
68 -5378 5380 0
-5380 5381 0
81 -5380 5382 0
-5382 5383 0
94 -5382 5384 0
-5384 5385 0
107 -5384 5386 0
-5386 5387 0
120 -5386 5388 0
-5388 5389 0
133 -5388 0
16 5371 0
-5371 5390 0
29 -5371 5373 0
-5373 5391 0
42 -5373 5375 0
-5375 5392 0
55 -5375 5377 0
-5377 5393 0
68 -5377 5379 0
-5379 5394 0
81 -5379 5381 0
-5381 5395 0
94 -5381 5383 0
-5383 5396 0
107 -5383 5385 0
-5385 5397 0
120 -5385 5387 0
-5387 5398 0
133 -5387 5389 0
-5389 5399 0
146 -5389 0
29 5390 0
42 -5390 5391 0
55 -5391 5392 0
68 -5392 5393 0
81 -5393 5394 0
94 -5394 5395 0
107 -5395 5396 0
120 -5396 5397 0
133 -5397 5398 0
146 -5398 5399 0
159 -5399 0
-3 5400 0
-5400 5401 0
-16 -5400 5402 0
-5402 5403 0
-29 -5402 5404 0
-5404 5405 0
-42 -5404 0
-16 5401 0
-5401 5406 0
-29 -5401 5403 0
-5403 5407 0
-42 -5403 5405 0
-5405 5408 0
-55 -5405 0
-29 5406 0
-5406 5409 0
-42 -5406 5407 0
-5407 5410 0
-55 -5407 5408 0
-5408 5411 0
-68 -5408 0
-42 5409 0
-5409 5412 0
-55 -5409 5410 0
-5410 5413 0
-68 -5410 5411 0
-5411 5414 0
-81 -5411 0
-55 5412 0
-5412 5415 0
-68 -5412 5413 0
-5413 5416 0
-81 -5413 5414 0
-5414 5417 0
-94 -5414 0
-68 5415 0
-5415 5418 0
-81 -5415 5416 0
-5416 5419 0
-94 -5416 5417 0
-5417 5420 0
-107 -5417 0
-81 5418 0
-5418 5421 0
-94 -5418 5419 0
-5419 5422 0
-107 -5419 5420 0
-5420 5423 0
-120 -5420 0
-94 5421 0
-5421 5424 0
-107 -5421 5422 0
-5422 5425 0
-120 -5422 5423 0
-5423 5426 0
-133 -5423 0
-107 5424 0
-5424 5427 0
-120 -5424 5425 0
-5425 5428 0
-133 -5425 5426 0
-5426 5429 0
-146 -5426 0
-120 5427 0
-133 -5427 5428 0
-146 -5428 5429 0
-159 -5429 0
4 5430 0
-5430 5431 0
17 -5430 5432 0
-5432 5433 0
30 -5432 5434 0
-5434 5435 0
43 -5434 5436 0
-5436 5437 0
56 -5436 5438 0
-5438 5439 0
69 -5438 5440 0
-5440 5441 0
82 -5440 5442 0
-5442 5443 0
95 -5442 5444 0
-5444 5445 0
108 -5444 5446 0
-5446 5447 0
121 -5446 5448 0
-5448 5449 0
134 -5448 0
17 5431 0
-5431 5450 0
30 -5431 5433 0
-5433 5451 0
43 -5433 5435 0
-5435 5452 0
56 -5435 5437 0
-5437 5453 0
69 -5437 5439 0
-5439 5454 0
82 -5439 5441 0
-5441 5455 0
95 -5441 5443 0
-5443 5456 0
108 -5443 5445 0
-5445 5457 0
121 -5445 5447 0
-5447 5458 0
134 -5447 5449 0
-5449 5459 0
147 -5449 0
30 5450 0
43 -5450 5451 0
56 -5451 5452 0
69 -5452 5453 0
82 -5453 5454 0
95 -5454 5455 0
108 -5455 5456 0
121 -5456 5457 0
134 -5457 5458 0
147 -5458 5459 0
160 -5459 0
-4 5460 0
-5460 5461 0
-17 -5460 5462 0
-5462 5463 0
-30 -5462 5464 0
-5464 5465 0
-43 -5464 0
-17 5461 0
-5461 5466 0
-30 -5461 5463 0
-5463 5467 0
-43 -5463 5465 0
-5465 5468 0
-56 -5465 0
-30 5466 0
-5466 5469 0
-43 -5466 5467 0
-5467 5470 0
-56 -5467 5468 0
-5468 5471 0
-69 -5468 0
-43 5469 0
-5469 5472 0
-56 -5469 5470 0
-5470 5473 0
-69 -5470 5471 0
-5471 5474 0
-82 -5471 0
-56 5472 0
-5472 5475 0
-69 -5472 5473 0
-5473 5476 0
-82 -5473 5474 0
-5474 5477 0
-95 -5474 0
-69 5475 0
-5475 5478 0
-82 -5475 5476 0
-5476 5479 0
-95 -5476 5477 0
-5477 5480 0
-108 -5477 0
-82 5478 0
-5478 5481 0
-95 -5478 5479 0
-5479 5482 0
-108 -5479 5480 0
-5480 5483 0
-121 -5480 0
-95 5481 0
-5481 5484 0
-108 -5481 5482 0
-5482 5485 0
-121 -5482 5483 0
-5483 5486 0
-134 -5483 0
-108 5484 0
-5484 5487 0
-121 -5484 5485 0
-5485 5488 0
-134 -5485 5486 0
-5486 5489 0
-147 -5486 0
-121 5487 0
-134 -5487 5488 0
-147 -5488 5489 0
-160 -5489 0
5 5490 0
-5490 5491 0
18 -5490 5492 0
-5492 5493 0
31 -5492 5494 0
-5494 5495 0
44 -5494 5496 0
-5496 5497 0
57 -5496 5498 0
-5498 5499 0
70 -5498 5500 0
-5500 5501 0
83 -5500 5502 0
-5502 5503 0
96 -5502 5504 0
-5504 5505 0
109 -5504 5506 0
-5506 5507 0
122 -5506 5508 0
-5508 5509 0
135 -5508 0
18 5491 0
-5491 5510 0
31 -5491 5493 0
-5493 5511 0
44 -5493 5495 0
-5495 5512 0
57 -5495 5497 0
-5497 5513 0
70 -5497 5499 0
-5499 5514 0
83 -5499 5501 0
-5501 5515 0
96 -5501 5503 0
-5503 5516 0
109 -5503 5505 0
-5505 5517 0
122 -5505 5507 0
-5507 5518 0
135 -5507 5509 0
-5509 5519 0
148 -5509 0
31 5510 0
44 -5510 5511 0
57 -5511 5512 0
70 -5512 5513 0
83 -5513 5514 0
96 -5514 5515 0
109 -5515 5516 0
122 -5516 5517 0
135 -5517 5518 0
148 -5518 5519 0
161 -5519 0
-5 5520 0
-5520 5521 0
-18 -5520 5522 0
-5522 5523 0
-31 -5522 5524 0
-5524 5525 0
-44 -5524 0
-18 5521 0
-5521 5526 0
-31 -5521 5523 0
-5523 5527 0
-44 -5523 5525 0
-5525 5528 0
-57 -5525 0
-31 5526 0
-5526 5529 0
-44 -5526 5527 0
-5527 5530 0
-57 -5527 5528 0
-5528 5531 0
-70 -5528 0
-44 5529 0
-5529 5532 0
-57 -5529 5530 0
-5530 5533 0
-70 -5530 5531 0
-5531 5534 0
-83 -5531 0
-57 5532 0
-5532 5535 0
-70 -5532 5533 0
-5533 5536 0
-83 -5533 5534 0
-5534 5537 0
-96 -5534 0
-70 5535 0
-5535 5538 0
-83 -5535 5536 0
-5536 5539 0
-96 -5536 5537 0
-5537 5540 0
-109 -5537 0
-83 5538 0
-5538 5541 0
-96 -5538 5539 0
-5539 5542 0
-109 -5539 5540 0
-5540 5543 0
-122 -5540 0
-96 5541 0
-5541 5544 0
-109 -5541 5542 0
-5542 5545 0
-122 -5542 5543 0
-5543 5546 0
-135 -5543 0
-109 5544 0
-5544 5547 0
-122 -5544 5545 0
-5545 5548 0
-135 -5545 5546 0
-5546 5549 0
-148 -5546 0
-122 5547 0
-135 -5547 5548 0
-148 -5548 5549 0
-161 -5549 0
6 5550 0
-5550 5551 0
19 -5550 5552 0
-5552 5553 0
32 -5552 5554 0
-5554 5555 0
45 -5554 5556 0
-5556 5557 0
58 -5556 5558 0
-5558 5559 0
71 -5558 5560 0
-5560 5561 0
84 -5560 5562 0
-5562 5563 0
97 -5562 5564 0
-5564 5565 0
110 -5564 5566 0
-5566 5567 0
123 -5566 5568 0
-5568 5569 0
136 -5568 0
19 5551 0
-5551 5570 0
32 -5551 5553 0
-5553 5571 0
45 -5553 5555 0
-5555 5572 0
58 -5555 5557 0
-5557 5573 0
71 -5557 5559 0
-5559 5574 0
84 -5559 5561 0
-5561 5575 0
97 -5561 5563 0
-5563 5576 0
110 -5563 5565 0
-5565 5577 0
123 -5565 5567 0
-5567 5578 0
136 -5567 5569 0
-5569 5579 0
149 -5569 0
32 5570 0
45 -5570 5571 0
58 -5571 5572 0
71 -5572 5573 0
84 -5573 5574 0
97 -5574 5575 0
110 -5575 5576 0
123 -5576 5577 0
136 -5577 5578 0
149 -5578 5579 0
162 -5579 0
-6 5580 0
-5580 5581 0
-19 -5580 5582 0
-5582 5583 0
-32 -5582 5584 0
-5584 5585 0
-45 -5584 0
-19 5581 0
-5581 5586 0
-32 -5581 5583 0
-5583 5587 0
-45 -5583 5585 0
-5585 5588 0
-58 -5585 0
-32 5586 0
-5586 5589 0
-45 -5586 5587 0
-5587 5590 0
-58 -5587 5588 0
-5588 5591 0
-71 -5588 0
-45 5589 0
-5589 5592 0
-58 -5589 5590 0
-5590 5593 0
-71 -5590 5591 0
-5591 5594 0
-84 -5591 0
-58 5592 0
-5592 5595 0
-71 -5592 5593 0
-5593 5596 0
-84 -5593 5594 0
-5594 5597 0
-97 -5594 0
-71 5595 0
-5595 5598 0
-84 -5595 5596 0
-5596 5599 0
-97 -5596 5597 0
-5597 5600 0
-110 -5597 0
-84 5598 0
-5598 5601 0
-97 -5598 5599 0
-5599 5602 0
-110 -5599 5600 0
-5600 5603 0
-123 -5600 0
-97 5601 0
-5601 5604 0
-110 -5601 5602 0
-5602 5605 0
-123 -5602 5603 0
-5603 5606 0
-136 -5603 0
-110 5604 0
-5604 5607 0
-123 -5604 5605 0
-5605 5608 0
-136 -5605 5606 0
-5606 5609 0
-149 -5606 0
-123 5607 0
-136 -5607 5608 0
-149 -5608 5609 0
-162 -5609 0
7 5610 0
-5610 5611 0
20 -5610 5612 0
-5612 5613 0
33 -5612 5614 0
-5614 5615 0
46 -5614 5616 0
-5616 5617 0
59 -5616 5618 0
-5618 5619 0
72 -5618 5620 0
-5620 5621 0
85 -5620 5622 0
-5622 5623 0
98 -5622 5624 0
-5624 5625 0
111 -5624 5626 0
-5626 5627 0
124 -5626 5628 0
-5628 5629 0
137 -5628 0
20 5611 0
-5611 5630 0
33 -5611 5613 0
-5613 5631 0
46 -5613 5615 0
-5615 5632 0
59 -5615 5617 0
-5617 5633 0
72 -5617 5619 0
-5619 5634 0
85 -5619 5621 0
-5621 5635 0
98 -5621 5623 0
-5623 5636 0
111 -5623 5625 0
-5625 5637 0
124 -5625 5627 0
-5627 5638 0
137 -5627 5629 0
-5629 5639 0
150 -5629 0
33 5630 0
46 -5630 5631 0
59 -5631 5632 0
72 -5632 5633 0
85 -5633 5634 0
98 -5634 5635 0
111 -5635 5636 0
124 -5636 5637 0
137 -5637 5638 0
150 -5638 5639 0
163 -5639 0
-7 5640 0
-5640 5641 0
-20 -5640 5642 0
-5642 5643 0
-33 -5642 5644 0
-5644 5645 0
-46 -5644 0
-20 5641 0
-5641 5646 0
-33 -5641 5643 0
-5643 5647 0
-46 -5643 5645 0
-5645 5648 0
-59 -5645 0
-33 5646 0
-5646 5649 0
-46 -5646 5647 0
-5647 5650 0
-59 -5647 5648 0
-5648 5651 0
-72 -5648 0
-46 5649 0
-5649 5652 0
-59 -5649 5650 0
-5650 5653 0
-72 -5650 5651 0
-5651 5654 0
-85 -5651 0
-59 5652 0
-5652 5655 0
-72 -5652 5653 0
-5653 5656 0
-85 -5653 5654 0
-5654 5657 0
-98 -5654 0
-72 5655 0
-5655 5658 0
-85 -5655 5656 0
-5656 5659 0
-98 -5656 5657 0
-5657 5660 0
-111 -5657 0
-85 5658 0
-5658 5661 0
-98 -5658 5659 0
-5659 5662 0
-111 -5659 5660 0
-5660 5663 0
-124 -5660 0
-98 5661 0
-5661 5664 0
-111 -5661 5662 0
-5662 5665 0
-124 -5662 5663 0
-5663 5666 0
-137 -5663 0
-111 5664 0
-5664 5667 0
-124 -5664 5665 0
-5665 5668 0
-137 -5665 5666 0
-5666 5669 0
-150 -5666 0
-124 5667 0
-137 -5667 5668 0
-150 -5668 5669 0
-163 -5669 0
8 5670 0
-5670 5671 0
21 -5670 5672 0
-5672 5673 0
34 -5672 5674 0
-5674 5675 0
47 -5674 5676 0
-5676 5677 0
60 -5676 5678 0
-5678 5679 0
73 -5678 5680 0
-5680 5681 0
86 -5680 5682 0
-5682 5683 0
99 -5682 5684 0
-5684 5685 0
112 -5684 5686 0
-5686 5687 0
125 -5686 5688 0
-5688 5689 0
138 -5688 0
21 5671 0
-5671 5690 0
34 -5671 5673 0
-5673 5691 0
47 -5673 5675 0
-5675 5692 0
60 -5675 5677 0
-5677 5693 0
73 -5677 5679 0
-5679 5694 0
86 -5679 5681 0
-5681 5695 0
99 -5681 5683 0
-5683 5696 0
112 -5683 5685 0
-5685 5697 0
125 -5685 5687 0
-5687 5698 0
138 -5687 5689 0
-5689 5699 0
151 -5689 0
34 5690 0
47 -5690 5691 0
60 -5691 5692 0
73 -5692 5693 0
86 -5693 5694 0
99 -5694 5695 0
112 -5695 5696 0
125 -5696 5697 0
138 -5697 5698 0
151 -5698 5699 0
164 -5699 0
-8 5700 0
-5700 5701 0
-21 -5700 5702 0
-5702 5703 0
-34 -5702 5704 0
-5704 5705 0
-47 -5704 0
-21 5701 0
-5701 5706 0
-34 -5701 5703 0
-5703 5707 0
-47 -5703 5705 0
-5705 5708 0
-60 -5705 0
-34 5706 0
-5706 5709 0
-47 -5706 5707 0
-5707 5710 0
-60 -5707 5708 0
-5708 5711 0
-73 -5708 0
-47 5709 0
-5709 5712 0
-60 -5709 5710 0
-5710 5713 0
-73 -5710 5711 0
-5711 5714 0
-86 -5711 0
-60 5712 0
-5712 5715 0
-73 -5712 5713 0
-5713 5716 0
-86 -5713 5714 0
-5714 5717 0
-99 -5714 0
-73 5715 0
-5715 5718 0
-86 -5715 5716 0
-5716 5719 0
-99 -5716 5717 0
-5717 5720 0
-112 -5717 0
-86 5718 0
-5718 5721 0
-99 -5718 5719 0
-5719 5722 0
-112 -5719 5720 0
-5720 5723 0
-125 -5720 0
-99 5721 0
-5721 5724 0
-112 -5721 5722 0
-5722 5725 0
-125 -5722 5723 0
-5723 5726 0
-138 -5723 0
-112 5724 0
-5724 5727 0
-125 -5724 5725 0
-5725 5728 0
-138 -5725 5726 0
-5726 5729 0
-151 -5726 0
-125 5727 0
-138 -5727 5728 0
-151 -5728 5729 0
-164 -5729 0
9 5730 0
-5730 5731 0
22 -5730 5732 0
-5732 5733 0
35 -5732 5734 0
-5734 5735 0
48 -5734 5736 0
-5736 5737 0
61 -5736 5738 0
-5738 5739 0
74 -5738 5740 0
-5740 5741 0
87 -5740 5742 0
-5742 5743 0
100 -5742 5744 0
-5744 5745 0
113 -5744 5746 0
-5746 5747 0
126 -5746 5748 0
-5748 5749 0
139 -5748 0
22 5731 0
-5731 5750 0
35 -5731 5733 0
-5733 5751 0
48 -5733 5735 0
-5735 5752 0
61 -5735 5737 0
-5737 5753 0
74 -5737 5739 0
-5739 5754 0
87 -5739 5741 0
-5741 5755 0
100 -5741 5743 0
-5743 5756 0
113 -5743 5745 0
-5745 5757 0
126 -5745 5747 0
-5747 5758 0
139 -5747 5749 0
-5749 5759 0
152 -5749 0
35 5750 0
48 -5750 5751 0
61 -5751 5752 0
74 -5752 5753 0
87 -5753 5754 0
100 -5754 5755 0
113 -5755 5756 0
126 -5756 5757 0
139 -5757 5758 0
152 -5758 5759 0
165 -5759 0
-9 5760 0
-5760 5761 0
-22 -5760 5762 0
-5762 5763 0
-35 -5762 5764 0
-5764 5765 0
-48 -5764 0
-22 5761 0
-5761 5766 0
-35 -5761 5763 0
-5763 5767 0
-48 -5763 5765 0
-5765 5768 0
-61 -5765 0
-35 5766 0
-5766 5769 0
-48 -5766 5767 0
-5767 5770 0
-61 -5767 5768 0
-5768 5771 0
-74 -5768 0
-48 5769 0
-5769 5772 0
-61 -5769 5770 0
-5770 5773 0
-74 -5770 5771 0
-5771 5774 0
-87 -5771 0
-61 5772 0
-5772 5775 0
-74 -5772 5773 0
-5773 5776 0
-87 -5773 5774 0
-5774 5777 0
-100 -5774 0
-74 5775 0
-5775 5778 0
-87 -5775 5776 0
-5776 5779 0
-100 -5776 5777 0
-5777 5780 0
-113 -5777 0
-87 5778 0
-5778 5781 0
-100 -5778 5779 0
-5779 5782 0
-113 -5779 5780 0
-5780 5783 0
-126 -5780 0
-100 5781 0
-5781 5784 0
-113 -5781 5782 0
-5782 5785 0
-126 -5782 5783 0
-5783 5786 0
-139 -5783 0
-113 5784 0
-5784 5787 0
-126 -5784 5785 0
-5785 5788 0
-139 -5785 5786 0
-5786 5789 0
-152 -5786 0
-126 5787 0
-139 -5787 5788 0
-152 -5788 5789 0
-165 -5789 0
10 5790 0
-5790 5791 0
23 -5790 5792 0
-5792 5793 0
36 -5792 5794 0
-5794 5795 0
49 -5794 5796 0
-5796 5797 0
62 -5796 5798 0
-5798 5799 0
75 -5798 5800 0
-5800 5801 0
88 -5800 5802 0
-5802 5803 0
101 -5802 5804 0
-5804 5805 0
114 -5804 5806 0
-5806 5807 0
127 -5806 5808 0
-5808 5809 0
140 -5808 0
23 5791 0
-5791 5810 0
36 -5791 5793 0
-5793 5811 0
49 -5793 5795 0
-5795 5812 0
62 -5795 5797 0
-5797 5813 0
75 -5797 5799 0
-5799 5814 0
88 -5799 5801 0
-5801 5815 0
101 -5801 5803 0
-5803 5816 0
114 -5803 5805 0
-5805 5817 0
127 -5805 5807 0
-5807 5818 0
140 -5807 5809 0
-5809 5819 0
153 -5809 0
36 5810 0
49 -5810 5811 0
62 -5811 5812 0
75 -5812 5813 0
88 -5813 5814 0
101 -5814 5815 0
114 -5815 5816 0
127 -5816 5817 0
140 -5817 5818 0
153 -5818 5819 0
166 -5819 0
-10 5820 0
-5820 5821 0
-23 -5820 5822 0
-5822 5823 0
-36 -5822 5824 0
-5824 5825 0
-49 -5824 0
-23 5821 0
-5821 5826 0
-36 -5821 5823 0
-5823 5827 0
-49 -5823 5825 0
-5825 5828 0
-62 -5825 0
-36 5826 0
-5826 5829 0
-49 -5826 5827 0
-5827 5830 0
-62 -5827 5828 0
-5828 5831 0
-75 -5828 0
-49 5829 0
-5829 5832 0
-62 -5829 5830 0
-5830 5833 0
-75 -5830 5831 0
-5831 5834 0
-88 -5831 0
-62 5832 0
-5832 5835 0
-75 -5832 5833 0
-5833 5836 0
-88 -5833 5834 0
-5834 5837 0
-101 -5834 0
-75 5835 0
-5835 5838 0
-88 -5835 5836 0
-5836 5839 0
-101 -5836 5837 0
-5837 5840 0
-114 -5837 0
-88 5838 0
-5838 5841 0
-101 -5838 5839 0
-5839 5842 0
-114 -5839 5840 0
-5840 5843 0
-127 -5840 0
-101 5841 0
-5841 5844 0
-114 -5841 5842 0
-5842 5845 0
-127 -5842 5843 0
-5843 5846 0
-140 -5843 0
-114 5844 0
-5844 5847 0
-127 -5844 5845 0
-5845 5848 0
-140 -5845 5846 0
-5846 5849 0
-153 -5846 0
-127 5847 0
-140 -5847 5848 0
-153 -5848 5849 0
-166 -5849 0
11 5850 0
-5850 5851 0
24 -5850 5852 0
-5852 5853 0
37 -5852 5854 0
-5854 5855 0
50 -5854 5856 0
-5856 5857 0
63 -5856 5858 0
-5858 5859 0
76 -5858 5860 0
-5860 5861 0
89 -5860 5862 0
-5862 5863 0
102 -5862 5864 0
-5864 5865 0
115 -5864 5866 0
-5866 5867 0
128 -5866 5868 0
-5868 5869 0
141 -5868 0
24 5851 0
-5851 5870 0
37 -5851 5853 0
-5853 5871 0
50 -5853 5855 0
-5855 5872 0
63 -5855 5857 0
-5857 5873 0
76 -5857 5859 0
-5859 5874 0
89 -5859 5861 0
-5861 5875 0
102 -5861 5863 0
-5863 5876 0
115 -5863 5865 0
-5865 5877 0
128 -5865 5867 0
-5867 5878 0
141 -5867 5869 0
-5869 5879 0
154 -5869 0
37 5870 0
50 -5870 5871 0
63 -5871 5872 0
76 -5872 5873 0
89 -5873 5874 0
102 -5874 5875 0
115 -5875 5876 0
128 -5876 5877 0
141 -5877 5878 0
154 -5878 5879 0
167 -5879 0
-11 5880 0
-5880 5881 0
-24 -5880 5882 0
-5882 5883 0
-37 -5882 5884 0
-5884 5885 0
-50 -5884 0
-24 5881 0
-5881 5886 0
-37 -5881 5883 0
-5883 5887 0
-50 -5883 5885 0
-5885 5888 0
-63 -5885 0
-37 5886 0
-5886 5889 0
-50 -5886 5887 0
-5887 5890 0
-63 -5887 5888 0
-5888 5891 0
-76 -5888 0
-50 5889 0
-5889 5892 0
-63 -5889 5890 0
-5890 5893 0
-76 -5890 5891 0
-5891 5894 0
-89 -5891 0
-63 5892 0
-5892 5895 0
-76 -5892 5893 0
-5893 5896 0
-89 -5893 5894 0
-5894 5897 0
-102 -5894 0
-76 5895 0
-5895 5898 0
-89 -5895 5896 0
-5896 5899 0
-102 -5896 5897 0
-5897 5900 0
-115 -5897 0
-89 5898 0
-5898 5901 0
-102 -5898 5899 0
-5899 5902 0
-115 -5899 5900 0
-5900 5903 0
-128 -5900 0
-102 5901 0
-5901 5904 0
-115 -5901 5902 0
-5902 5905 0
-128 -5902 5903 0
-5903 5906 0
-141 -5903 0
-115 5904 0
-5904 5907 0
-128 -5904 5905 0
-5905 5908 0
-141 -5905 5906 0
-5906 5909 0
-154 -5906 0
-128 5907 0
-141 -5907 5908 0
-154 -5908 5909 0
-167 -5909 0
12 5910 0
-5910 5911 0
25 -5910 5912 0
-5912 5913 0
38 -5912 5914 0
-5914 5915 0
51 -5914 5916 0
-5916 5917 0
64 -5916 5918 0
-5918 5919 0
77 -5918 5920 0
-5920 5921 0
90 -5920 5922 0
-5922 5923 0
103 -5922 5924 0
-5924 5925 0
116 -5924 5926 0
-5926 5927 0
129 -5926 5928 0
-5928 5929 0
142 -5928 0
25 5911 0
-5911 5930 0
38 -5911 5913 0
-5913 5931 0
51 -5913 5915 0
-5915 5932 0
64 -5915 5917 0
-5917 5933 0
77 -5917 5919 0
-5919 5934 0
90 -5919 5921 0
-5921 5935 0
103 -5921 5923 0
-5923 5936 0
116 -5923 5925 0
-5925 5937 0
129 -5925 5927 0
-5927 5938 0
142 -5927 5929 0
-5929 5939 0
155 -5929 0
38 5930 0
51 -5930 5931 0
64 -5931 5932 0
77 -5932 5933 0
90 -5933 5934 0
103 -5934 5935 0
116 -5935 5936 0
129 -5936 5937 0
142 -5937 5938 0
155 -5938 5939 0
168 -5939 0
-12 5940 0
-5940 5941 0
-25 -5940 5942 0
-5942 5943 0
-38 -5942 5944 0
-5944 5945 0
-51 -5944 0
-25 5941 0
-5941 5946 0
-38 -5941 5943 0
-5943 5947 0
-51 -5943 5945 0
-5945 5948 0
-64 -5945 0
-38 5946 0
-5946 5949 0
-51 -5946 5947 0
-5947 5950 0
-64 -5947 5948 0
-5948 5951 0
-77 -5948 0
-51 5949 0
-5949 5952 0
-64 -5949 5950 0
-5950 5953 0
-77 -5950 5951 0
-5951 5954 0
-90 -5951 0
-64 5952 0
-5952 5955 0
-77 -5952 5953 0
-5953 5956 0
-90 -5953 5954 0
-5954 5957 0
-103 -5954 0
-77 5955 0
-5955 5958 0
-90 -5955 5956 0
-5956 5959 0
-103 -5956 5957 0
-5957 5960 0
-116 -5957 0
-90 5958 0
-5958 5961 0
-103 -5958 5959 0
-5959 5962 0
-116 -5959 5960 0
-5960 5963 0
-129 -5960 0
-103 5961 0
-5961 5964 0
-116 -5961 5962 0
-5962 5965 0
-129 -5962 5963 0
-5963 5966 0
-142 -5963 0
-116 5964 0
-5964 5967 0
-129 -5964 5965 0
-5965 5968 0
-142 -5965 5966 0
-5966 5969 0
-155 -5966 0
-129 5967 0
-142 -5967 5968 0
-155 -5968 5969 0
-168 -5969 0
13 5970 0
-5970 5971 0
26 -5970 5972 0
-5972 5973 0
39 -5972 5974 0
-5974 5975 0
52 -5974 5976 0
-5976 5977 0
65 -5976 5978 0
-5978 5979 0
78 -5978 5980 0
-5980 5981 0
91 -5980 5982 0
-5982 5983 0
104 -5982 5984 0
-5984 5985 0
117 -5984 5986 0
-5986 5987 0
130 -5986 5988 0
-5988 5989 0
143 -5988 0
26 5971 0
-5971 5990 0
39 -5971 5973 0
-5973 5991 0
52 -5973 5975 0
-5975 5992 0
65 -5975 5977 0
-5977 5993 0
78 -5977 5979 0
-5979 5994 0
91 -5979 5981 0
-5981 5995 0
104 -5981 5983 0
-5983 5996 0
117 -5983 5985 0
-5985 5997 0
130 -5985 5987 0
-5987 5998 0
143 -5987 5989 0
-5989 5999 0
156 -5989 0
39 5990 0
52 -5990 5991 0
65 -5991 5992 0
78 -5992 5993 0
91 -5993 5994 0
104 -5994 5995 0
117 -5995 5996 0
130 -5996 5997 0
143 -5997 5998 0
156 -5998 5999 0
169 -5999 0
-13 6000 0
-6000 6001 0
-26 -6000 6002 0
-6002 6003 0
-39 -6002 6004 0
-6004 6005 0
-52 -6004 0
-26 6001 0
-6001 6006 0
-39 -6001 6003 0
-6003 6007 0
-52 -6003 6005 0
-6005 6008 0
-65 -6005 0
-39 6006 0
-6006 6009 0
-52 -6006 6007 0
-6007 6010 0
-65 -6007 6008 0
-6008 6011 0
-78 -6008 0
-52 6009 0
-6009 6012 0
-65 -6009 6010 0
-6010 6013 0
-78 -6010 6011 0
-6011 6014 0
-91 -6011 0
-65 6012 0
-6012 6015 0
-78 -6012 6013 0
-6013 6016 0
-91 -6013 6014 0
-6014 6017 0
-104 -6014 0
-78 6015 0
-6015 6018 0
-91 -6015 6016 0
-6016 6019 0
-104 -6016 6017 0
-6017 6020 0
-117 -6017 0
-91 6018 0
-6018 6021 0
-104 -6018 6019 0
-6019 6022 0
-117 -6019 6020 0
-6020 6023 0
-130 -6020 0
-104 6021 0
-6021 6024 0
-117 -6021 6022 0
-6022 6025 0
-130 -6022 6023 0
-6023 6026 0
-143 -6023 0
-117 6024 0
-6024 6027 0
-130 -6024 6025 0
-6025 6028 0
-143 -6025 6026 0
-6026 6029 0
-156 -6026 0
-130 6027 0
-143 -6027 6028 0
-156 -6028 6029 0
-169 -6029 0
1 6030 0
-6030 6031 0
2 -6030 6032 0
-6032 6033 0
3 -6032 6034 0
-6034 6035 0
4 -6034 6036 0
-6036 6037 0
5 -6036 6038 0
-6038 6039 0
6 -6038 6040 0
-6040 6041 0
7 -6040 6042 0
-6042 6043 0
8 -6042 6044 0
-6044 6045 0
9 -6044 6046 0
-6046 6047 0
10 -6046 6048 0
-6048 6049 0
11 -6048 6050 0
-6050 6051 0
12 -6050 0
2 6031 0
3 -6031 6033 0
4 -6033 6035 0
5 -6035 6037 0
6 -6037 6039 0
7 -6039 6041 0
8 -6041 6043 0
9 -6043 6045 0
10 -6045 6047 0
11 -6047 6049 0
12 -6049 6051 0
13 -6051 0
-1 6052 0
-6052 6053 0
-2 -6052 6054 0
-6054 6055 0
-3 -6054 0
-2 6053 0
-6053 6056 0
-3 -6053 6055 0
-6055 6057 0
-4 -6055 0
-3 6056 0
-6056 6058 0
-4 -6056 6057 0
-6057 6059 0
-5 -6057 0
-4 6058 0
-6058 6060 0
-5 -6058 6059 0
-6059 6061 0
-6 -6059 0
-5 6060 0
-6060 6062 0
-6 -6060 6061 0
-6061 6063 0
-7 -6061 0
-6 6062 0
-6062 6064 0
-7 -6062 6063 0
-6063 6065 0
-8 -6063 0
-7 6064 0
-6064 6066 0
-8 -6064 6065 0
-6065 6067 0
-9 -6065 0
-8 6066 0
-6066 6068 0
-9 -6066 6067 0
-6067 6069 0
-10 -6067 0
-9 6068 0
-6068 6070 0
-10 -6068 6069 0
-6069 6071 0
-11 -6069 0
-10 6070 0
-6070 6072 0
-11 -6070 6071 0
-6071 6073 0
-12 -6071 0
-11 6072 0
-12 -6072 6073 0
-13 -6073 0
14 6074 0
-6074 6075 0
15 -6074 6076 0
-6076 6077 0
16 -6076 6078 0
-6078 6079 0
17 -6078 6080 0
-6080 6081 0
18 -6080 6082 0
-6082 6083 0
19 -6082 6084 0
-6084 6085 0
20 -6084 6086 0
-6086 6087 0
21 -6086 6088 0
-6088 6089 0
22 -6088 6090 0
-6090 6091 0
23 -6090 6092 0
-6092 6093 0
24 -6092 0
15 6075 0
-6075 6094 0
16 -6075 6077 0
-6077 6095 0
17 -6077 6079 0
-6079 6096 0
18 -6079 6081 0
-6081 6097 0
19 -6081 6083 0
-6083 6098 0
20 -6083 6085 0
-6085 6099 0
21 -6085 6087 0
-6087 6100 0
22 -6087 6089 0
-6089 6101 0
23 -6089 6091 0
-6091 6102 0
24 -6091 6093 0
-6093 6103 0
25 -6093 0
16 6094 0
17 -6094 6095 0
18 -6095 6096 0
19 -6096 6097 0
20 -6097 6098 0
21 -6098 6099 0
22 -6099 6100 0
23 -6100 6101 0
24 -6101 6102 0
25 -6102 6103 0
26 -6103 0
-14 6104 0
-6104 6105 0
-15 -6104 6106 0
-6106 6107 0
-16 -6106 6108 0
-6108 6109 0
-17 -6108 0
-15 6105 0
-6105 6110 0
-16 -6105 6107 0
-6107 6111 0
-17 -6107 6109 0
-6109 6112 0
-18 -6109 0
-16 6110 0
-6110 6113 0
-17 -6110 6111 0
-6111 6114 0
-18 -6111 6112 0
-6112 6115 0
-19 -6112 0
-17 6113 0
-6113 6116 0
-18 -6113 6114 0
-6114 6117 0
-19 -6114 6115 0
-6115 6118 0
-20 -6115 0
-18 6116 0
-6116 6119 0
-19 -6116 6117 0
-6117 6120 0
-20 -6117 6118 0
-6118 6121 0
-21 -6118 0
-19 6119 0
-6119 6122 0
-20 -6119 6120 0
-6120 6123 0
-21 -6120 6121 0
-6121 6124 0
-22 -6121 0
-20 6122 0
-6122 6125 0
-21 -6122 6123 0
-6123 6126 0
-22 -6123 6124 0
-6124 6127 0
-23 -6124 0
-21 6125 0
-6125 6128 0
-22 -6125 6126 0
-6126 6129 0
-23 -6126 6127 0
-6127 6130 0
-24 -6127 0
-22 6128 0
-6128 6131 0
-23 -6128 6129 0
-6129 6132 0
-24 -6129 6130 0
-6130 6133 0
-25 -6130 0
-23 6131 0
-24 -6131 6132 0
-25 -6132 6133 0
-26 -6133 0
27 6134 0
-6134 6135 0
28 -6134 6136 0
-6136 6137 0
29 -6136 6138 0
-6138 6139 0
30 -6138 6140 0
-6140 6141 0
31 -6140 6142 0
-6142 6143 0
32 -6142 6144 0
-6144 6145 0
33 -6144 6146 0
-6146 6147 0
34 -6146 6148 0
-6148 6149 0
35 -6148 6150 0
-6150 6151 0
36 -6150 6152 0
-6152 6153 0
37 -6152 0
28 6135 0
-6135 6154 0
29 -6135 6137 0
-6137 6155 0
30 -6137 6139 0
-6139 6156 0
31 -6139 6141 0
-6141 6157 0
32 -6141 6143 0
-6143 6158 0
33 -6143 6145 0
-6145 6159 0
34 -6145 6147 0
-6147 6160 0
35 -6147 6149 0
-6149 6161 0
36 -6149 6151 0
-6151 6162 0
37 -6151 6153 0
-6153 6163 0
38 -6153 0
29 6154 0
30 -6154 6155 0
31 -6155 6156 0
32 -6156 6157 0
33 -6157 6158 0
34 -6158 6159 0
35 -6159 6160 0
36 -6160 6161 0
37 -6161 6162 0
38 -6162 6163 0
39 -6163 0
-27 6164 0
-6164 6165 0
-28 -6164 6166 0
-6166 6167 0
-29 -6166 6168 0
-6168 6169 0
-30 -6168 0
-28 6165 0
-6165 6170 0
-29 -6165 6167 0
-6167 6171 0
-30 -6167 6169 0
-6169 6172 0
-31 -6169 0
-29 6170 0
-6170 6173 0
-30 -6170 6171 0
-6171 6174 0
-31 -6171 6172 0
-6172 6175 0
-32 -6172 0
-30 6173 0
-6173 6176 0
-31 -6173 6174 0
-6174 6177 0
-32 -6174 6175 0
-6175 6178 0
-33 -6175 0
-31 6176 0
-6176 6179 0
-32 -6176 6177 0
-6177 6180 0
-33 -6177 6178 0
-6178 6181 0
-34 -6178 0
-32 6179 0
-6179 6182 0
-33 -6179 6180 0
-6180 6183 0
-34 -6180 6181 0
-6181 6184 0
-35 -6181 0
-33 6182 0
-6182 6185 0
-34 -6182 6183 0
-6183 6186 0
-35 -6183 6184 0
-6184 6187 0
-36 -6184 0
-34 6185 0
-6185 6188 0
-35 -6185 6186 0
-6186 6189 0
-36 -6186 6187 0
-6187 6190 0
-37 -6187 0
-35 6188 0
-6188 6191 0
-36 -6188 6189 0
-6189 6192 0
-37 -6189 6190 0
-6190 6193 0
-38 -6190 0
-36 6191 0
-37 -6191 6192 0
-38 -6192 6193 0
-39 -6193 0
40 6194 0
-6194 6195 0
41 -6194 6196 0
-6196 6197 0
42 -6196 6198 0
-6198 6199 0
43 -6198 6200 0
-6200 6201 0
44 -6200 6202 0
-6202 6203 0
45 -6202 6204 0
-6204 6205 0
46 -6204 6206 0
-6206 6207 0
47 -6206 6208 0
-6208 6209 0
48 -6208 6210 0
-6210 6211 0
49 -6210 6212 0
-6212 6213 0
50 -6212 0
41 6195 0
-6195 6214 0
42 -6195 6197 0
-6197 6215 0
43 -6197 6199 0
-6199 6216 0
44 -6199 6201 0
-6201 6217 0
45 -6201 6203 0
-6203 6218 0
46 -6203 6205 0
-6205 6219 0
47 -6205 6207 0
-6207 6220 0
48 -6207 6209 0
-6209 6221 0
49 -6209 6211 0
-6211 6222 0
50 -6211 6213 0
-6213 6223 0
51 -6213 0
42 6214 0
43 -6214 6215 0
44 -6215 6216 0
45 -6216 6217 0
46 -6217 6218 0
47 -6218 6219 0
48 -6219 6220 0
49 -6220 6221 0
50 -6221 6222 0
51 -6222 6223 0
52 -6223 0
-40 6224 0
-6224 6225 0
-41 -6224 6226 0
-6226 6227 0
-42 -6226 6228 0
-6228 6229 0
-43 -6228 0
-41 6225 0
-6225 6230 0
-42 -6225 6227 0
-6227 6231 0
-43 -6227 6229 0
-6229 6232 0
-44 -6229 0
-42 6230 0
-6230 6233 0
-43 -6230 6231 0
-6231 6234 0
-44 -6231 6232 0
-6232 6235 0
-45 -6232 0
-43 6233 0
-6233 6236 0
-44 -6233 6234 0
-6234 6237 0
-45 -6234 6235 0
-6235 6238 0
-46 -6235 0
-44 6236 0
-6236 6239 0
-45 -6236 6237 0
-6237 6240 0
-46 -6237 6238 0
-6238 6241 0
-47 -6238 0
-45 6239 0
-6239 6242 0
-46 -6239 6240 0
-6240 6243 0
-47 -6240 6241 0
-6241 6244 0
-48 -6241 0
-46 6242 0
-6242 6245 0
-47 -6242 6243 0
-6243 6246 0
-48 -6243 6244 0
-6244 6247 0
-49 -6244 0
-47 6245 0
-6245 6248 0
-48 -6245 6246 0
-6246 6249 0
-49 -6246 6247 0
-6247 6250 0
-50 -6247 0
-48 6248 0
-6248 6251 0
-49 -6248 6249 0
-6249 6252 0
-50 -6249 6250 0
-6250 6253 0
-51 -6250 0
-49 6251 0
-50 -6251 6252 0
-51 -6252 6253 0
-52 -6253 0
53 6254 0
-6254 6255 0
54 -6254 6256 0
-6256 6257 0
55 -6256 6258 0
-6258 6259 0
56 -6258 6260 0
-6260 6261 0
57 -6260 6262 0
-6262 6263 0
58 -6262 6264 0
-6264 6265 0
59 -6264 6266 0
-6266 6267 0
60 -6266 6268 0
-6268 6269 0
61 -6268 6270 0
-6270 6271 0
62 -6270 6272 0
-6272 6273 0
63 -6272 0
54 6255 0
-6255 6274 0
55 -6255 6257 0
-6257 6275 0
56 -6257 6259 0
-6259 6276 0
57 -6259 6261 0
-6261 6277 0
58 -6261 6263 0
-6263 6278 0
59 -6263 6265 0
-6265 6279 0
60 -6265 6267 0
-6267 6280 0
61 -6267 6269 0
-6269 6281 0
62 -6269 6271 0
-6271 6282 0
63 -6271 6273 0
-6273 6283 0
64 -6273 0
55 6274 0
56 -6274 6275 0
57 -6275 6276 0
58 -6276 6277 0
59 -6277 6278 0
60 -6278 6279 0
61 -6279 6280 0
62 -6280 6281 0
63 -6281 6282 0
64 -6282 6283 0
65 -6283 0
-53 6284 0
-6284 6285 0
-54 -6284 6286 0
-6286 6287 0
-55 -6286 6288 0
-6288 6289 0
-56 -6288 0
-54 6285 0
-6285 6290 0
-55 -6285 6287 0
-6287 6291 0
-56 -6287 6289 0
-6289 6292 0
-57 -6289 0
-55 6290 0
-6290 6293 0
-56 -6290 6291 0
-6291 6294 0
-57 -6291 6292 0
-6292 6295 0
-58 -6292 0
-56 6293 0
-6293 6296 0
-57 -6293 6294 0
-6294 6297 0
-58 -6294 6295 0
-6295 6298 0
-59 -6295 0
-57 6296 0
-6296 6299 0
-58 -6296 6297 0
-6297 6300 0
-59 -6297 6298 0
-6298 6301 0
-60 -6298 0
-58 6299 0
-6299 6302 0
-59 -6299 6300 0
-6300 6303 0
-60 -6300 6301 0
-6301 6304 0
-61 -6301 0
-59 6302 0
-6302 6305 0
-60 -6302 6303 0
-6303 6306 0
-61 -6303 6304 0
-6304 6307 0
-62 -6304 0
-60 6305 0
-6305 6308 0
-61 -6305 6306 0
-6306 6309 0
-62 -6306 6307 0
-6307 6310 0
-63 -6307 0
-61 6308 0
-6308 6311 0
-62 -6308 6309 0
-6309 6312 0
-63 -6309 6310 0
-6310 6313 0
-64 -6310 0
-62 6311 0
-63 -6311 6312 0
-64 -6312 6313 0
-65 -6313 0
66 6314 0
-6314 6315 0
67 -6314 6316 0
-6316 6317 0
68 -6316 6318 0
-6318 6319 0
69 -6318 6320 0
-6320 6321 0
70 -6320 6322 0
-6322 6323 0
71 -6322 6324 0
-6324 6325 0
72 -6324 6326 0
-6326 6327 0
73 -6326 6328 0
-6328 6329 0
74 -6328 6330 0
-6330 6331 0
75 -6330 6332 0
-6332 6333 0
76 -6332 0
67 6315 0
-6315 6334 0
68 -6315 6317 0
-6317 6335 0
69 -6317 6319 0
-6319 6336 0
70 -6319 6321 0
-6321 6337 0
71 -6321 6323 0
-6323 6338 0
72 -6323 6325 0
-6325 6339 0
73 -6325 6327 0
-6327 6340 0
74 -6327 6329 0
-6329 6341 0
75 -6329 6331 0
-6331 6342 0
76 -6331 6333 0
-6333 6343 0
77 -6333 0
68 6334 0
69 -6334 6335 0
70 -6335 6336 0
71 -6336 6337 0
72 -6337 6338 0
73 -6338 6339 0
74 -6339 6340 0
75 -6340 6341 0
76 -6341 6342 0
77 -6342 6343 0
78 -6343 0
-66 6344 0
-6344 6345 0
-67 -6344 6346 0
-6346 6347 0
-68 -6346 6348 0
-6348 6349 0
-69 -6348 0
-67 6345 0
-6345 6350 0
-68 -6345 6347 0
-6347 6351 0
-69 -6347 6349 0
-6349 6352 0
-70 -6349 0
-68 6350 0
-6350 6353 0
-69 -6350 6351 0
-6351 6354 0
-70 -6351 6352 0
-6352 6355 0
-71 -6352 0
-69 6353 0
-6353 6356 0
-70 -6353 6354 0
-6354 6357 0
-71 -6354 6355 0
-6355 6358 0
-72 -6355 0
-70 6356 0
-6356 6359 0
-71 -6356 6357 0
-6357 6360 0
-72 -6357 6358 0
-6358 6361 0
-73 -6358 0
-71 6359 0
-6359 6362 0
-72 -6359 6360 0
-6360 6363 0
-73 -6360 6361 0
-6361 6364 0
-74 -6361 0
-72 6362 0
-6362 6365 0
-73 -6362 6363 0
-6363 6366 0
-74 -6363 6364 0
-6364 6367 0
-75 -6364 0
-73 6365 0
-6365 6368 0
-74 -6365 6366 0
-6366 6369 0
-75 -6366 6367 0
-6367 6370 0
-76 -6367 0
-74 6368 0
-6368 6371 0
-75 -6368 6369 0
-6369 6372 0
-76 -6369 6370 0
-6370 6373 0
-77 -6370 0
-75 6371 0
-76 -6371 6372 0
-77 -6372 6373 0
-78 -6373 0
79 6374 0
-6374 6375 0
80 -6374 6376 0
-6376 6377 0
81 -6376 6378 0
-6378 6379 0
82 -6378 6380 0
-6380 6381 0
83 -6380 6382 0
-6382 6383 0
84 -6382 6384 0
-6384 6385 0
85 -6384 6386 0
-6386 6387 0
86 -6386 6388 0
-6388 6389 0
87 -6388 6390 0
-6390 6391 0
88 -6390 6392 0
-6392 6393 0
89 -6392 0
80 6375 0
-6375 6394 0
81 -6375 6377 0
-6377 6395 0
82 -6377 6379 0
-6379 6396 0
83 -6379 6381 0
-6381 6397 0
84 -6381 6383 0
-6383 6398 0
85 -6383 6385 0
-6385 6399 0
86 -6385 6387 0
-6387 6400 0
87 -6387 6389 0
-6389 6401 0
88 -6389 6391 0
-6391 6402 0
89 -6391 6393 0
-6393 6403 0
90 -6393 0
81 6394 0
82 -6394 6395 0
83 -6395 6396 0
84 -6396 6397 0
85 -6397 6398 0
86 -6398 6399 0
87 -6399 6400 0
88 -6400 6401 0
89 -6401 6402 0
90 -6402 6403 0
91 -6403 0
-79 6404 0
-6404 6405 0
-80 -6404 6406 0
-6406 6407 0
-81 -6406 6408 0
-6408 6409 0
-82 -6408 0
-80 6405 0
-6405 6410 0
-81 -6405 6407 0
-6407 6411 0
-82 -6407 6409 0
-6409 6412 0
-83 -6409 0
-81 6410 0
-6410 6413 0
-82 -6410 6411 0
-6411 6414 0
-83 -6411 6412 0
-6412 6415 0
-84 -6412 0
-82 6413 0
-6413 6416 0
-83 -6413 6414 0
-6414 6417 0
-84 -6414 6415 0
-6415 6418 0
-85 -6415 0
-83 6416 0
-6416 6419 0
-84 -6416 6417 0
-6417 6420 0
-85 -6417 6418 0
-6418 6421 0
-86 -6418 0
-84 6419 0
-6419 6422 0
-85 -6419 6420 0
-6420 6423 0
-86 -6420 6421 0
-6421 6424 0
-87 -6421 0
-85 6422 0
-6422 6425 0
-86 -6422 6423 0
-6423 6426 0
-87 -6423 6424 0
-6424 6427 0
-88 -6424 0
-86 6425 0
-6425 6428 0
-87 -6425 6426 0
-6426 6429 0
-88 -6426 6427 0
-6427 6430 0
-89 -6427 0
-87 6428 0
-6428 6431 0
-88 -6428 6429 0
-6429 6432 0
-89 -6429 6430 0
-6430 6433 0
-90 -6430 0
-88 6431 0
-89 -6431 6432 0
-90 -6432 6433 0
-91 -6433 0
92 6434 0
-6434 6435 0
93 -6434 6436 0
-6436 6437 0
94 -6436 6438 0
-6438 6439 0
95 -6438 6440 0
-6440 6441 0
96 -6440 6442 0
-6442 6443 0
97 -6442 6444 0
-6444 6445 0
98 -6444 6446 0
-6446 6447 0
99 -6446 6448 0
-6448 6449 0
100 -6448 6450 0
-6450 6451 0
101 -6450 6452 0
-6452 6453 0
102 -6452 0
93 6435 0
-6435 6454 0
94 -6435 6437 0
-6437 6455 0
95 -6437 6439 0
-6439 6456 0
96 -6439 6441 0
-6441 6457 0
97 -6441 6443 0
-6443 6458 0
98 -6443 6445 0
-6445 6459 0
99 -6445 6447 0
-6447 6460 0
100 -6447 6449 0
-6449 6461 0
101 -6449 6451 0
-6451 6462 0
102 -6451 6453 0
-6453 6463 0
103 -6453 0
94 6454 0
95 -6454 6455 0
96 -6455 6456 0
97 -6456 6457 0
98 -6457 6458 0
99 -6458 6459 0
100 -6459 6460 0
101 -6460 6461 0
102 -6461 6462 0
103 -6462 6463 0
104 -6463 0
-92 6464 0
-6464 6465 0
-93 -6464 6466 0
-6466 6467 0
-94 -6466 6468 0
-6468 6469 0
-95 -6468 0
-93 6465 0
-6465 6470 0
-94 -6465 6467 0
-6467 6471 0
-95 -6467 6469 0
-6469 6472 0
-96 -6469 0
-94 6470 0
-6470 6473 0
-95 -6470 6471 0
-6471 6474 0
-96 -6471 6472 0
-6472 6475 0
-97 -6472 0
-95 6473 0
-6473 6476 0
-96 -6473 6474 0
-6474 6477 0
-97 -6474 6475 0
-6475 6478 0
-98 -6475 0
-96 6476 0
-6476 6479 0
-97 -6476 6477 0
-6477 6480 0
-98 -6477 6478 0
-6478 6481 0
-99 -6478 0
-97 6479 0
-6479 6482 0
-98 -6479 6480 0
-6480 6483 0
-99 -6480 6481 0
-6481 6484 0
-100 -6481 0
-98 6482 0
-6482 6485 0
-99 -6482 6483 0
-6483 6486 0
-100 -6483 6484 0
-6484 6487 0
-101 -6484 0
-99 6485 0
-6485 6488 0
-100 -6485 6486 0
-6486 6489 0
-101 -6486 6487 0
-6487 6490 0
-102 -6487 0
-100 6488 0
-6488 6491 0
-101 -6488 6489 0
-6489 6492 0
-102 -6489 6490 0
-6490 6493 0
-103 -6490 0
-101 6491 0
-102 -6491 6492 0
-103 -6492 6493 0
-104 -6493 0
105 6494 0
-6494 6495 0
106 -6494 6496 0
-6496 6497 0
107 -6496 6498 0
-6498 6499 0
108 -6498 6500 0
-6500 6501 0
109 -6500 6502 0
-6502 6503 0
110 -6502 6504 0
-6504 6505 0
111 -6504 6506 0
-6506 6507 0
112 -6506 6508 0
-6508 6509 0
113 -6508 6510 0
-6510 6511 0
114 -6510 6512 0
-6512 6513 0
115 -6512 0
106 6495 0
-6495 6514 0
107 -6495 6497 0
-6497 6515 0
108 -6497 6499 0
-6499 6516 0
109 -6499 6501 0
-6501 6517 0
110 -6501 6503 0
-6503 6518 0
111 -6503 6505 0
-6505 6519 0
112 -6505 6507 0
-6507 6520 0
113 -6507 6509 0
-6509 6521 0
114 -6509 6511 0
-6511 6522 0
115 -6511 6513 0
-6513 6523 0
116 -6513 0
107 6514 0
108 -6514 6515 0
109 -6515 6516 0
110 -6516 6517 0
111 -6517 6518 0
112 -6518 6519 0
113 -6519 6520 0
114 -6520 6521 0
115 -6521 6522 0
116 -6522 6523 0
117 -6523 0
-105 6524 0
-6524 6525 0
-106 -6524 6526 0
-6526 6527 0
-107 -6526 6528 0
-6528 6529 0
-108 -6528 0
-106 6525 0
-6525 6530 0
-107 -6525 6527 0
-6527 6531 0
-108 -6527 6529 0
-6529 6532 0
-109 -6529 0
-107 6530 0
-6530 6533 0
-108 -6530 6531 0
-6531 6534 0
-109 -6531 6532 0
-6532 6535 0
-110 -6532 0
-108 6533 0
-6533 6536 0
-109 -6533 6534 0
-6534 6537 0
-110 -6534 6535 0
-6535 6538 0
-111 -6535 0
-109 6536 0
-6536 6539 0
-110 -6536 6537 0
-6537 6540 0
-111 -6537 6538 0
-6538 6541 0
-112 -6538 0
-110 6539 0
-6539 6542 0
-111 -6539 6540 0
-6540 6543 0
-112 -6540 6541 0
-6541 6544 0
-113 -6541 0
-111 6542 0
-6542 6545 0
-112 -6542 6543 0
-6543 6546 0
-113 -6543 6544 0
-6544 6547 0
-114 -6544 0
-112 6545 0
-6545 6548 0
-113 -6545 6546 0
-6546 6549 0
-114 -6546 6547 0
-6547 6550 0
-115 -6547 0
-113 6548 0
-6548 6551 0
-114 -6548 6549 0
-6549 6552 0
-115 -6549 6550 0
-6550 6553 0
-116 -6550 0
-114 6551 0
-115 -6551 6552 0
-116 -6552 6553 0
-117 -6553 0
118 6554 0
-6554 6555 0
119 -6554 6556 0
-6556 6557 0
120 -6556 6558 0
-6558 6559 0
121 -6558 6560 0
-6560 6561 0
122 -6560 6562 0
-6562 6563 0
123 -6562 6564 0
-6564 6565 0
124 -6564 6566 0
-6566 6567 0
125 -6566 6568 0
-6568 6569 0
126 -6568 6570 0
-6570 6571 0
127 -6570 6572 0
-6572 6573 0
128 -6572 0
119 6555 0
-6555 6574 0
120 -6555 6557 0
-6557 6575 0
121 -6557 6559 0
-6559 6576 0
122 -6559 6561 0
-6561 6577 0
123 -6561 6563 0
-6563 6578 0
124 -6563 6565 0
-6565 6579 0
125 -6565 6567 0
-6567 6580 0
126 -6567 6569 0
-6569 6581 0
127 -6569 6571 0
-6571 6582 0
128 -6571 6573 0
-6573 6583 0
129 -6573 0
120 6574 0
121 -6574 6575 0
122 -6575 6576 0
123 -6576 6577 0
124 -6577 6578 0
125 -6578 6579 0
126 -6579 6580 0
127 -6580 6581 0
128 -6581 6582 0
129 -6582 6583 0
130 -6583 0
-118 6584 0
-6584 6585 0
-119 -6584 6586 0
-6586 6587 0
-120 -6586 6588 0
-6588 6589 0
-121 -6588 0
-119 6585 0
-6585 6590 0
-120 -6585 6587 0
-6587 6591 0
-121 -6587 6589 0
-6589 6592 0
-122 -6589 0
-120 6590 0
-6590 6593 0
-121 -6590 6591 0
-6591 6594 0
-122 -6591 6592 0
-6592 6595 0
-123 -6592 0
-121 6593 0
-6593 6596 0
-122 -6593 6594 0
-6594 6597 0
-123 -6594 6595 0
-6595 6598 0
-124 -6595 0
-122 6596 0
-6596 6599 0
-123 -6596 6597 0
-6597 6600 0
-124 -6597 6598 0
-6598 6601 0
-125 -6598 0
-123 6599 0
-6599 6602 0
-124 -6599 6600 0
-6600 6603 0
-125 -6600 6601 0
-6601 6604 0
-126 -6601 0
-124 6602 0
-6602 6605 0
-125 -6602 6603 0
-6603 6606 0
-126 -6603 6604 0
-6604 6607 0
-127 -6604 0
-125 6605 0
-6605 6608 0
-126 -6605 6606 0
-6606 6609 0
-127 -6606 6607 0
-6607 6610 0
-128 -6607 0
-126 6608 0
-6608 6611 0
-127 -6608 6609 0
-6609 6612 0
-128 -6609 6610 0
-6610 6613 0
-129 -6610 0
-127 6611 0
-128 -6611 6612 0
-129 -6612 6613 0
-130 -6613 0
131 6614 0
-6614 6615 0
132 -6614 6616 0
-6616 6617 0
133 -6616 6618 0
-6618 6619 0
134 -6618 6620 0
-6620 6621 0
135 -6620 6622 0
-6622 6623 0
136 -6622 6624 0
-6624 6625 0
137 -6624 6626 0
-6626 6627 0
138 -6626 6628 0
-6628 6629 0
139 -6628 6630 0
-6630 6631 0
140 -6630 6632 0
-6632 6633 0
141 -6632 0
132 6615 0
-6615 6634 0
133 -6615 6617 0
-6617 6635 0
134 -6617 6619 0
-6619 6636 0
135 -6619 6621 0
-6621 6637 0
136 -6621 6623 0
-6623 6638 0
137 -6623 6625 0
-6625 6639 0
138 -6625 6627 0
-6627 6640 0
139 -6627 6629 0
-6629 6641 0
140 -6629 6631 0
-6631 6642 0
141 -6631 6633 0
-6633 6643 0
142 -6633 0
133 6634 0
134 -6634 6635 0
135 -6635 6636 0
136 -6636 6637 0
137 -6637 6638 0
138 -6638 6639 0
139 -6639 6640 0
140 -6640 6641 0
141 -6641 6642 0
142 -6642 6643 0
143 -6643 0
-131 6644 0
-6644 6645 0
-132 -6644 6646 0
-6646 6647 0
-133 -6646 6648 0
-6648 6649 0
-134 -6648 0
-132 6645 0
-6645 6650 0
-133 -6645 6647 0
-6647 6651 0
-134 -6647 6649 0
-6649 6652 0
-135 -6649 0
-133 6650 0
-6650 6653 0
-134 -6650 6651 0
-6651 6654 0
-135 -6651 6652 0
-6652 6655 0
-136 -6652 0
-134 6653 0
-6653 6656 0
-135 -6653 6654 0
-6654 6657 0
-136 -6654 6655 0
-6655 6658 0
-137 -6655 0
-135 6656 0
-6656 6659 0
-136 -6656 6657 0
-6657 6660 0
-137 -6657 6658 0
-6658 6661 0
-138 -6658 0
-136 6659 0
-6659 6662 0
-137 -6659 6660 0
-6660 6663 0
-138 -6660 6661 0
-6661 6664 0
-139 -6661 0
-137 6662 0
-6662 6665 0
-138 -6662 6663 0
-6663 6666 0
-139 -6663 6664 0
-6664 6667 0
-140 -6664 0
-138 6665 0
-6665 6668 0
-139 -6665 6666 0
-6666 6669 0
-140 -6666 6667 0
-6667 6670 0
-141 -6667 0
-139 6668 0
-6668 6671 0
-140 -6668 6669 0
-6669 6672 0
-141 -6669 6670 0
-6670 6673 0
-142 -6670 0
-140 6671 0
-141 -6671 6672 0
-142 -6672 6673 0
-143 -6673 0
144 6674 0
-6674 6675 0
145 -6674 6676 0
-6676 6677 0
146 -6676 6678 0
-6678 6679 0
147 -6678 6680 0
-6680 6681 0
148 -6680 6682 0
-6682 6683 0
149 -6682 6684 0
-6684 6685 0
150 -6684 6686 0
-6686 6687 0
151 -6686 6688 0
-6688 6689 0
152 -6688 6690 0
-6690 6691 0
153 -6690 6692 0
-6692 6693 0
154 -6692 0
145 6675 0
-6675 6694 0
146 -6675 6677 0
-6677 6695 0
147 -6677 6679 0
-6679 6696 0
148 -6679 6681 0
-6681 6697 0
149 -6681 6683 0
-6683 6698 0
150 -6683 6685 0
-6685 6699 0
151 -6685 6687 0
-6687 6700 0
152 -6687 6689 0
-6689 6701 0
153 -6689 6691 0
-6691 6702 0
154 -6691 6693 0
-6693 6703 0
155 -6693 0
146 6694 0
147 -6694 6695 0
148 -6695 6696 0
149 -6696 6697 0
150 -6697 6698 0
151 -6698 6699 0
152 -6699 6700 0
153 -6700 6701 0
154 -6701 6702 0
155 -6702 6703 0
156 -6703 0
-144 6704 0
-6704 6705 0
-145 -6704 6706 0
-6706 6707 0
-146 -6706 6708 0
-6708 6709 0
-147 -6708 0
-145 6705 0
-6705 6710 0
-146 -6705 6707 0
-6707 6711 0
-147 -6707 6709 0
-6709 6712 0
-148 -6709 0
-146 6710 0
-6710 6713 0
-147 -6710 6711 0
-6711 6714 0
-148 -6711 6712 0
-6712 6715 0
-149 -6712 0
-147 6713 0
-6713 6716 0
-148 -6713 6714 0
-6714 6717 0
-149 -6714 6715 0
-6715 6718 0
-150 -6715 0
-148 6716 0
-6716 6719 0
-149 -6716 6717 0
-6717 6720 0
-150 -6717 6718 0
-6718 6721 0
-151 -6718 0
-149 6719 0
-6719 6722 0
-150 -6719 6720 0
-6720 6723 0
-151 -6720 6721 0
-6721 6724 0
-152 -6721 0
-150 6722 0
-6722 6725 0
-151 -6722 6723 0
-6723 6726 0
-152 -6723 6724 0
-6724 6727 0
-153 -6724 0
-151 6725 0
-6725 6728 0
-152 -6725 6726 0
-6726 6729 0
-153 -6726 6727 0
-6727 6730 0
-154 -6727 0
-152 6728 0
-6728 6731 0
-153 -6728 6729 0
-6729 6732 0
-154 -6729 6730 0
-6730 6733 0
-155 -6730 0
-153 6731 0
-154 -6731 6732 0
-155 -6732 6733 0
-156 -6733 0
157 6734 0
-6734 6735 0
158 -6734 6736 0
-6736 6737 0
159 -6736 6738 0
-6738 6739 0
160 -6738 6740 0
-6740 6741 0
161 -6740 6742 0
-6742 6743 0
162 -6742 6744 0
-6744 6745 0
163 -6744 6746 0
-6746 6747 0
164 -6746 6748 0
-6748 6749 0
165 -6748 6750 0
-6750 6751 0
166 -6750 6752 0
-6752 6753 0
167 -6752 0
158 6735 0
-6735 6754 0
159 -6735 6737 0
-6737 6755 0
160 -6737 6739 0
-6739 6756 0
161 -6739 6741 0
-6741 6757 0
162 -6741 6743 0
-6743 6758 0
163 -6743 6745 0
-6745 6759 0
164 -6745 6747 0
-6747 6760 0
165 -6747 6749 0
-6749 6761 0
166 -6749 6751 0
-6751 6762 0
167 -6751 6753 0
-6753 6763 0
168 -6753 0
159 6754 0
160 -6754 6755 0
161 -6755 6756 0
162 -6756 6757 0
163 -6757 6758 0
164 -6758 6759 0
165 -6759 6760 0
166 -6760 6761 0
167 -6761 6762 0
168 -6762 6763 0
169 -6763 0
-157 6764 0
-6764 6765 0
-158 -6764 6766 0
-6766 6767 0
-159 -6766 6768 0
-6768 6769 0
-160 -6768 0
-158 6765 0
-6765 6770 0
-159 -6765 6767 0
-6767 6771 0
-160 -6767 6769 0
-6769 6772 0
-161 -6769 0
-159 6770 0
-6770 6773 0
-160 -6770 6771 0
-6771 6774 0
-161 -6771 6772 0
-6772 6775 0
-162 -6772 0
-160 6773 0
-6773 6776 0
-161 -6773 6774 0
-6774 6777 0
-162 -6774 6775 0
-6775 6778 0
-163 -6775 0
-161 6776 0
-6776 6779 0
-162 -6776 6777 0
-6777 6780 0
-163 -6777 6778 0
-6778 6781 0
-164 -6778 0
-162 6779 0
-6779 6782 0
-163 -6779 6780 0
-6780 6783 0
-164 -6780 6781 0
-6781 6784 0
-165 -6781 0
-163 6782 0
-6782 6785 0
-164 -6782 6783 0
-6783 6786 0
-165 -6783 6784 0
-6784 6787 0
-166 -6784 0
-164 6785 0
-6785 6788 0
-165 -6785 6786 0
-6786 6789 0
-166 -6786 6787 0
-6787 6790 0
-167 -6787 0
-165 6788 0
-6788 6791 0
-166 -6788 6789 0
-6789 6792 0
-167 -6789 6790 0
-6790 6793 0
-168 -6790 0
-166 6791 0
-167 -6791 6792 0
-168 -6792 6793 0
-169 -6793 0
-170 1 0
-170 14 0
-1 -14 170 0
-171 2 0
-171 15 0
-2 -15 171 0
-172 3 0
-172 16 0
-3 -16 172 0
-173 4 0
-173 17 0
-4 -17 173 0
-174 5 0
-174 18 0
-5 -18 174 0
-175 6 0
-175 19 0
-6 -19 175 0
-176 7 0
-176 20 0
-7 -20 176 0
-177 8 0
-177 21 0
-8 -21 177 0
-178 9 0
-178 22 0
-9 -22 178 0
-179 10 0
-179 23 0
-10 -23 179 0
-180 11 0
-180 24 0
-11 -24 180 0
-181 12 0
-181 25 0
-12 -25 181 0
-182 13 0
-182 26 0
-13 -26 182 0
-170 6794 0
-6794 6795 0
-171 -6794 0
-171 6795 0
-6795 6796 0
-172 -6795 0
-172 6796 0
-6796 6797 0
-173 -6796 0
-173 6797 0
-6797 6798 0
-174 -6797 0
-174 6798 0
-6798 6799 0
-175 -6798 0
-175 6799 0
-6799 6800 0
-176 -6799 0
-176 6800 0
-6800 6801 0
-177 -6800 0
-177 6801 0
-6801 6802 0
-178 -6801 0
-178 6802 0
-6802 6803 0
-179 -6802 0
-179 6803 0
-6803 6804 0
-180 -6803 0
-180 6804 0
-6804 6805 0
-181 -6804 0
-181 6805 0
-182 -6805 0
-170 1184 0
-171 1184 0
-172 1184 0
-173 1184 0
-174 1184 0
-175 1184 0
-176 1184 0
-177 1184 0
-178 1184 0
-179 1184 0
-180 1184 0
-181 1184 0
-182 1184 0
-1184 170 171 172 173 174 175 176 177 178 179 180 181 182 0
-183 1 0
-183 27 0
-1 -27 183 0
-184 2 0
-184 28 0
-2 -28 184 0
-185 3 0
-185 29 0
-3 -29 185 0
-186 4 0
-186 30 0
-4 -30 186 0
-187 5 0
-187 31 0
-5 -31 187 0
-188 6 0
-188 32 0
-6 -32 188 0
-189 7 0
-189 33 0
-7 -33 189 0
-190 8 0
-190 34 0
-8 -34 190 0
-191 9 0
-191 35 0
-9 -35 191 0
-192 10 0
-192 36 0
-10 -36 192 0
-193 11 0
-193 37 0
-11 -37 193 0
-194 12 0
-194 38 0
-12 -38 194 0
-195 13 0
-195 39 0
-13 -39 195 0
-183 6806 0
-6806 6807 0
-184 -6806 0
-184 6807 0
-6807 6808 0
-185 -6807 0
-185 6808 0
-6808 6809 0
-186 -6808 0
-186 6809 0
-6809 6810 0
-187 -6809 0
-187 6810 0
-6810 6811 0
-188 -6810 0
-188 6811 0
-6811 6812 0
-189 -6811 0
-189 6812 0
-6812 6813 0
-190 -6812 0
-190 6813 0
-6813 6814 0
-191 -6813 0
-191 6814 0
-6814 6815 0
-192 -6814 0
-192 6815 0
-6815 6816 0
-193 -6815 0
-193 6816 0
-6816 6817 0
-194 -6816 0
-194 6817 0
-195 -6817 0
-183 1185 0
-184 1185 0
-185 1185 0
-186 1185 0
-187 1185 0
-188 1185 0
-189 1185 0
-190 1185 0
-191 1185 0
-192 1185 0
-193 1185 0
-194 1185 0
-195 1185 0
-1185 183 184 185 186 187 188 189 190 191 192 193 194 195 0
-196 1 0
-196 40 0
-1 -40 196 0
-197 2 0
-197 41 0
-2 -41 197 0
-198 3 0
-198 42 0
-3 -42 198 0
-199 4 0
-199 43 0
-4 -43 199 0
-200 5 0
-200 44 0
-5 -44 200 0
-201 6 0
-201 45 0
-6 -45 201 0
-202 7 0
-202 46 0
-7 -46 202 0
-203 8 0
-203 47 0
-8 -47 203 0
-204 9 0
-204 48 0
-9 -48 204 0
-205 10 0
-205 49 0
-10 -49 205 0
-206 11 0
-206 50 0
-11 -50 206 0
-207 12 0
-207 51 0
-12 -51 207 0
-208 13 0
-208 52 0
-13 -52 208 0
-196 6818 0
-6818 6819 0
-197 -6818 0
-197 6819 0
-6819 6820 0
-198 -6819 0
-198 6820 0
-6820 6821 0
-199 -6820 0
-199 6821 0
-6821 6822 0
-200 -6821 0
-200 6822 0
-6822 6823 0
-201 -6822 0
-201 6823 0
-6823 6824 0
-202 -6823 0
-202 6824 0
-6824 6825 0
-203 -6824 0
-203 6825 0
-6825 6826 0
-204 -6825 0
-204 6826 0
-6826 6827 0
-205 -6826 0
-205 6827 0
-6827 6828 0
-206 -6827 0
-206 6828 0
-6828 6829 0
-207 -6828 0
-207 6829 0
-208 -6829 0
-196 1186 0
-197 1186 0
-198 1186 0
-199 1186 0
-200 1186 0
-201 1186 0
-202 1186 0
-203 1186 0
-204 1186 0
-205 1186 0
-206 1186 0
-207 1186 0
-208 1186 0
-1186 196 197 198 199 200 201 202 203 204 205 206 207 208 0
-209 1 0
-209 53 0
-1 -53 209 0
-210 2 0
-210 54 0
-2 -54 210 0
-211 3 0
-211 55 0
-3 -55 211 0
-212 4 0
-212 56 0
-4 -56 212 0
-213 5 0
-213 57 0
-5 -57 213 0
-214 6 0
-214 58 0
-6 -58 214 0
-215 7 0
-215 59 0
-7 -59 215 0
-216 8 0
-216 60 0
-8 -60 216 0
-217 9 0
-217 61 0
-9 -61 217 0
-218 10 0
-218 62 0
-10 -62 218 0
-219 11 0
-219 63 0
-11 -63 219 0
-220 12 0
-220 64 0
-12 -64 220 0
-221 13 0
-221 65 0
-13 -65 221 0
-209 6830 0
-6830 6831 0
-210 -6830 0
-210 6831 0
-6831 6832 0
-211 -6831 0
-211 6832 0
-6832 6833 0
-212 -6832 0
-212 6833 0
-6833 6834 0
-213 -6833 0
-213 6834 0
-6834 6835 0
-214 -6834 0
-214 6835 0
-6835 6836 0
-215 -6835 0
-215 6836 0
-6836 6837 0
-216 -6836 0
-216 6837 0
-6837 6838 0
-217 -6837 0
-217 6838 0
-6838 6839 0
-218 -6838 0
-218 6839 0
-6839 6840 0
-219 -6839 0
-219 6840 0
-6840 6841 0
-220 -6840 0
-220 6841 0
-221 -6841 0
-209 1187 0
-210 1187 0
-211 1187 0
-212 1187 0
-213 1187 0
-214 1187 0
-215 1187 0
-216 1187 0
-217 1187 0
-218 1187 0
-219 1187 0
-220 1187 0
-221 1187 0
-1187 209 210 211 212 213 214 215 216 217 218 219 220 221 0
-222 1 0
-222 66 0
-1 -66 222 0
-223 2 0
-223 67 0
-2 -67 223 0
-224 3 0
-224 68 0
-3 -68 224 0
-225 4 0
-225 69 0
-4 -69 225 0
-226 5 0
-226 70 0
-5 -70 226 0
-227 6 0
-227 71 0
-6 -71 227 0
-228 7 0
-228 72 0
-7 -72 228 0
-229 8 0
-229 73 0
-8 -73 229 0
-230 9 0
-230 74 0
-9 -74 230 0
-231 10 0
-231 75 0
-10 -75 231 0
-232 11 0
-232 76 0
-11 -76 232 0
-233 12 0
-233 77 0
-12 -77 233 0
-234 13 0
-234 78 0
-13 -78 234 0
-222 6842 0
-6842 6843 0
-223 -6842 0
-223 6843 0
-6843 6844 0
-224 -6843 0
-224 6844 0
-6844 6845 0
-225 -6844 0
-225 6845 0
-6845 6846 0
-226 -6845 0
-226 6846 0
-6846 6847 0
-227 -6846 0
-227 6847 0
-6847 6848 0
-228 -6847 0
-228 6848 0
-6848 6849 0
-229 -6848 0
-229 6849 0
-6849 6850 0
-230 -6849 0
-230 6850 0
-6850 6851 0
-231 -6850 0
-231 6851 0
-6851 6852 0
-232 -6851 0
-232 6852 0
-6852 6853 0
-233 -6852 0
-233 6853 0
-234 -6853 0
-222 1188 0
-223 1188 0
-224 1188 0
-225 1188 0
-226 1188 0
-227 1188 0
-228 1188 0
-229 1188 0
-230 1188 0
-231 1188 0
-232 1188 0
-233 1188 0
-234 1188 0
-1188 222 223 224 225 226 227 228 229 230 231 232 233 234 0
-235 1 0
-235 79 0
-1 -79 235 0
-236 2 0
-236 80 0
-2 -80 236 0
-237 3 0
-237 81 0
-3 -81 237 0
-238 4 0
-238 82 0
-4 -82 238 0
-239 5 0
-239 83 0
-5 -83 239 0
-240 6 0
-240 84 0
-6 -84 240 0
-241 7 0
-241 85 0
-7 -85 241 0
-242 8 0
-242 86 0
-8 -86 242 0
-243 9 0
-243 87 0
-9 -87 243 0
-244 10 0
-244 88 0
-10 -88 244 0
-245 11 0
-245 89 0
-11 -89 245 0
-246 12 0
-246 90 0
-12 -90 246 0
-247 13 0
-247 91 0
-13 -91 247 0
-235 6854 0
-6854 6855 0
-236 -6854 0
-236 6855 0
-6855 6856 0
-237 -6855 0
-237 6856 0
-6856 6857 0
-238 -6856 0
-238 6857 0
-6857 6858 0
-239 -6857 0
-239 6858 0
-6858 6859 0
-240 -6858 0
-240 6859 0
-6859 6860 0
-241 -6859 0
-241 6860 0
-6860 6861 0
-242 -6860 0
-242 6861 0
-6861 6862 0
-243 -6861 0
-243 6862 0
-6862 6863 0
-244 -6862 0
-244 6863 0
-6863 6864 0
-245 -6863 0
-245 6864 0
-6864 6865 0
-246 -6864 0
-246 6865 0
-247 -6865 0
-235 1189 0
-236 1189 0
-237 1189 0
-238 1189 0
-239 1189 0
-240 1189 0
-241 1189 0
-242 1189 0
-243 1189 0
-244 1189 0
-245 1189 0
-246 1189 0
-247 1189 0
-1189 235 236 237 238 239 240 241 242 243 244 245 246 247 0
-248 1 0
-248 92 0
-1 -92 248 0
-249 2 0
-249 93 0
-2 -93 249 0
-250 3 0
-250 94 0
-3 -94 250 0
-251 4 0
-251 95 0
-4 -95 251 0
-252 5 0
-252 96 0
-5 -96 252 0
-253 6 0
-253 97 0
-6 -97 253 0
-254 7 0
-254 98 0
-7 -98 254 0
-255 8 0
-255 99 0
-8 -99 255 0
-256 9 0
-256 100 0
-9 -100 256 0
-257 10 0
-257 101 0
-10 -101 257 0
-258 11 0
-258 102 0
-11 -102 258 0
-259 12 0
-259 103 0
-12 -103 259 0
-260 13 0
-260 104 0
-13 -104 260 0
-248 6866 0
-6866 6867 0
-249 -6866 0
-249 6867 0
-6867 6868 0
-250 -6867 0
-250 6868 0
-6868 6869 0
-251 -6868 0
-251 6869 0
-6869 6870 0
-252 -6869 0
-252 6870 0
-6870 6871 0
-253 -6870 0
-253 6871 0
-6871 6872 0
-254 -6871 0
-254 6872 0
-6872 6873 0
-255 -6872 0
-255 6873 0
-6873 6874 0
-256 -6873 0
-256 6874 0
-6874 6875 0
-257 -6874 0
-257 6875 0
-6875 6876 0
-258 -6875 0
-258 6876 0
-6876 6877 0
-259 -6876 0
-259 6877 0
-260 -6877 0
-248 1190 0
-249 1190 0
-250 1190 0
-251 1190 0
-252 1190 0
-253 1190 0
-254 1190 0
-255 1190 0
-256 1190 0
-257 1190 0
-258 1190 0
-259 1190 0
-260 1190 0
-1190 248 249 250 251 252 253 254 255 256 257 258 259 260 0
-261 1 0
-261 105 0
-1 -105 261 0
-262 2 0
-262 106 0
-2 -106 262 0
-263 3 0
-263 107 0
-3 -107 263 0
-264 4 0
-264 108 0
-4 -108 264 0
-265 5 0
-265 109 0
-5 -109 265 0
-266 6 0
-266 110 0
-6 -110 266 0
-267 7 0
-267 111 0
-7 -111 267 0
-268 8 0
-268 112 0
-8 -112 268 0
-269 9 0
-269 113 0
-9 -113 269 0
-270 10 0
-270 114 0
-10 -114 270 0
-271 11 0
-271 115 0
-11 -115 271 0
-272 12 0
-272 116 0
-12 -116 272 0
-273 13 0
-273 117 0
-13 -117 273 0
-261 6878 0
-6878 6879 0
-262 -6878 0
-262 6879 0
-6879 6880 0
-263 -6879 0
-263 6880 0
-6880 6881 0
-264 -6880 0
-264 6881 0
-6881 6882 0
-265 -6881 0
-265 6882 0
-6882 6883 0
-266 -6882 0
-266 6883 0
-6883 6884 0
-267 -6883 0
-267 6884 0
-6884 6885 0
-268 -6884 0
-268 6885 0
-6885 6886 0
-269 -6885 0
-269 6886 0
-6886 6887 0
-270 -6886 0
-270 6887 0
-6887 6888 0
-271 -6887 0
-271 6888 0
-6888 6889 0
-272 -6888 0
-272 6889 0
-273 -6889 0
-261 1191 0
-262 1191 0
-263 1191 0
-264 1191 0
-265 1191 0
-266 1191 0
-267 1191 0
-268 1191 0
-269 1191 0
-270 1191 0
-271 1191 0
-272 1191 0
-273 1191 0
-1191 261 262 263 264 265 266 267 268 269 270 271 272 273 0
-274 1 0
-274 118 0
-1 -118 274 0
-275 2 0
-275 119 0
-2 -119 275 0
-276 3 0
-276 120 0
-3 -120 276 0
-277 4 0
-277 121 0
-4 -121 277 0
-278 5 0
-278 122 0
-5 -122 278 0
-279 6 0
-279 123 0
-6 -123 279 0
-280 7 0
-280 124 0
-7 -124 280 0
-281 8 0
-281 125 0
-8 -125 281 0
-282 9 0
-282 126 0
-9 -126 282 0
-283 10 0
-283 127 0
-10 -127 283 0
-284 11 0
-284 128 0
-11 -128 284 0
-285 12 0
-285 129 0
-12 -129 285 0
-286 13 0
-286 130 0
-13 -130 286 0
-274 6890 0
-6890 6891 0
-275 -6890 0
-275 6891 0
-6891 6892 0
-276 -6891 0
-276 6892 0
-6892 6893 0
-277 -6892 0
-277 6893 0
-6893 6894 0
-278 -6893 0
-278 6894 0
-6894 6895 0
-279 -6894 0
-279 6895 0
-6895 6896 0
-280 -6895 0
-280 6896 0
-6896 6897 0
-281 -6896 0
-281 6897 0
-6897 6898 0
-282 -6897 0
-282 6898 0
-6898 6899 0
-283 -6898 0
-283 6899 0
-6899 6900 0
-284 -6899 0
-284 6900 0
-6900 6901 0
-285 -6900 0
-285 6901 0
-286 -6901 0
-274 1192 0
-275 1192 0
-276 1192 0
-277 1192 0
-278 1192 0
-279 1192 0
-280 1192 0
-281 1192 0
-282 1192 0
-283 1192 0
-284 1192 0
-285 1192 0
-286 1192 0
-1192 274 275 276 277 278 279 280 281 282 283 284 285 286 0
-287 1 0
-287 131 0
-1 -131 287 0
-288 2 0
-288 132 0
-2 -132 288 0
-289 3 0
-289 133 0
-3 -133 289 0
-290 4 0
-290 134 0
-4 -134 290 0
-291 5 0
-291 135 0
-5 -135 291 0
-292 6 0
-292 136 0
-6 -136 292 0
-293 7 0
-293 137 0
-7 -137 293 0
-294 8 0
-294 138 0
-8 -138 294 0
-295 9 0
-295 139 0
-9 -139 295 0
-296 10 0
-296 140 0
-10 -140 296 0
-297 11 0
-297 141 0
-11 -141 297 0
-298 12 0
-298 142 0
-12 -142 298 0
-299 13 0
-299 143 0
-13 -143 299 0
-287 6902 0
-6902 6903 0
-288 -6902 0
-288 6903 0
-6903 6904 0
-289 -6903 0
-289 6904 0
-6904 6905 0
-290 -6904 0
-290 6905 0
-6905 6906 0
-291 -6905 0
-291 6906 0
-6906 6907 0
-292 -6906 0
-292 6907 0
-6907 6908 0
-293 -6907 0
-293 6908 0
-6908 6909 0
-294 -6908 0
-294 6909 0
-6909 6910 0
-295 -6909 0
-295 6910 0
-6910 6911 0
-296 -6910 0
-296 6911 0
-6911 6912 0
-297 -6911 0
-297 6912 0
-6912 6913 0
-298 -6912 0
-298 6913 0
-299 -6913 0
-287 1193 0
-288 1193 0
-289 1193 0
-290 1193 0
-291 1193 0
-292 1193 0
-293 1193 0
-294 1193 0
-295 1193 0
-296 1193 0
-297 1193 0
-298 1193 0
-299 1193 0
-1193 287 288 289 290 291 292 293 294 295 296 297 298 299 0
-300 1 0
-300 144 0
-1 -144 300 0
-301 2 0
-301 145 0
-2 -145 301 0
-302 3 0
-302 146 0
-3 -146 302 0
-303 4 0
-303 147 0
-4 -147 303 0
-304 5 0
-304 148 0
-5 -148 304 0
-305 6 0
-305 149 0
-6 -149 305 0
-306 7 0
-306 150 0
-7 -150 306 0
-307 8 0
-307 151 0
-8 -151 307 0
-308 9 0
-308 152 0
-9 -152 308 0
-309 10 0
-309 153 0
-10 -153 309 0
-310 11 0
-310 154 0
-11 -154 310 0
-311 12 0
-311 155 0
-12 -155 311 0
-312 13 0
-312 156 0
-13 -156 312 0
-300 6914 0
-6914 6915 0
-301 -6914 0
-301 6915 0
-6915 6916 0
-302 -6915 0
-302 6916 0
-6916 6917 0
-303 -6916 0
-303 6917 0
-6917 6918 0
-304 -6917 0
-304 6918 0
-6918 6919 0
-305 -6918 0
-305 6919 0
-6919 6920 0
-306 -6919 0
-306 6920 0
-6920 6921 0
-307 -6920 0
-307 6921 0
-6921 6922 0
-308 -6921 0
-308 6922 0
-6922 6923 0
-309 -6922 0
-309 6923 0
-6923 6924 0
-310 -6923 0
-310 6924 0
-6924 6925 0
-311 -6924 0
-311 6925 0
-312 -6925 0
-300 1194 0
-301 1194 0
-302 1194 0
-303 1194 0
-304 1194 0
-305 1194 0
-306 1194 0
-307 1194 0
-308 1194 0
-309 1194 0
-310 1194 0
-311 1194 0
-312 1194 0
-1194 300 301 302 303 304 305 306 307 308 309 310 311 312 0
-313 1 0
-313 157 0
-1 -157 313 0
-314 2 0
-314 158 0
-2 -158 314 0
-315 3 0
-315 159 0
-3 -159 315 0
-316 4 0
-316 160 0
-4 -160 316 0
-317 5 0
-317 161 0
-5 -161 317 0
-318 6 0
-318 162 0
-6 -162 318 0
-319 7 0
-319 163 0
-7 -163 319 0
-320 8 0
-320 164 0
-8 -164 320 0
-321 9 0
-321 165 0
-9 -165 321 0
-322 10 0
-322 166 0
-10 -166 322 0
-323 11 0
-323 167 0
-11 -167 323 0
-324 12 0
-324 168 0
-12 -168 324 0
-325 13 0
-325 169 0
-13 -169 325 0
-313 6926 0
-6926 6927 0
-314 -6926 0
-314 6927 0
-6927 6928 0
-315 -6927 0
-315 6928 0
-6928 6929 0
-316 -6928 0
-316 6929 0
-6929 6930 0
-317 -6929 0
-317 6930 0
-6930 6931 0
-318 -6930 0
-318 6931 0
-6931 6932 0
-319 -6931 0
-319 6932 0
-6932 6933 0
-320 -6932 0
-320 6933 0
-6933 6934 0
-321 -6933 0
-321 6934 0
-6934 6935 0
-322 -6934 0
-322 6935 0
-6935 6936 0
-323 -6935 0
-323 6936 0
-6936 6937 0
-324 -6936 0
-324 6937 0
-325 -6937 0
-313 1195 0
-314 1195 0
-315 1195 0
-316 1195 0
-317 1195 0
-318 1195 0
-319 1195 0
-320 1195 0
-321 1195 0
-322 1195 0
-323 1195 0
-324 1195 0
-325 1195 0
-1195 313 314 315 316 317 318 319 320 321 322 323 324 325 0
-326 14 0
-326 27 0
-14 -27 326 0
-327 15 0
-327 28 0
-15 -28 327 0
-328 16 0
-328 29 0
-16 -29 328 0
-329 17 0
-329 30 0
-17 -30 329 0
-330 18 0
-330 31 0
-18 -31 330 0
-331 19 0
-331 32 0
-19 -32 331 0
-332 20 0
-332 33 0
-20 -33 332 0
-333 21 0
-333 34 0
-21 -34 333 0
-334 22 0
-334 35 0
-22 -35 334 0
-335 23 0
-335 36 0
-23 -36 335 0
-336 24 0
-336 37 0
-24 -37 336 0
-337 25 0
-337 38 0
-25 -38 337 0
-338 26 0
-338 39 0
-26 -39 338 0
-326 6938 0
-6938 6939 0
-327 -6938 0
-327 6939 0
-6939 6940 0
-328 -6939 0
-328 6940 0
-6940 6941 0
-329 -6940 0
-329 6941 0
-6941 6942 0
-330 -6941 0
-330 6942 0
-6942 6943 0
-331 -6942 0
-331 6943 0
-6943 6944 0
-332 -6943 0
-332 6944 0
-6944 6945 0
-333 -6944 0
-333 6945 0
-6945 6946 0
-334 -6945 0
-334 6946 0
-6946 6947 0
-335 -6946 0
-335 6947 0
-6947 6948 0
-336 -6947 0
-336 6948 0
-6948 6949 0
-337 -6948 0
-337 6949 0
-338 -6949 0
-326 1196 0
-327 1196 0
-328 1196 0
-329 1196 0
-330 1196 0
-331 1196 0
-332 1196 0
-333 1196 0
-334 1196 0
-335 1196 0
-336 1196 0
-337 1196 0
-338 1196 0
-1196 326 327 328 329 330 331 332 333 334 335 336 337 338 0
-339 14 0
-339 40 0
-14 -40 339 0
-340 15 0
-340 41 0
-15 -41 340 0
-341 16 0
-341 42 0
-16 -42 341 0
-342 17 0
-342 43 0
-17 -43 342 0
-343 18 0
-343 44 0
-18 -44 343 0
-344 19 0
-344 45 0
-19 -45 344 0
-345 20 0
-345 46 0
-20 -46 345 0
-346 21 0
-346 47 0
-21 -47 346 0
-347 22 0
-347 48 0
-22 -48 347 0
-348 23 0
-348 49 0
-23 -49 348 0
-349 24 0
-349 50 0
-24 -50 349 0
-350 25 0
-350 51 0
-25 -51 350 0
-351 26 0
-351 52 0
-26 -52 351 0
-339 6950 0
-6950 6951 0
-340 -6950 0
-340 6951 0
-6951 6952 0
-341 -6951 0
-341 6952 0
-6952 6953 0
-342 -6952 0
-342 6953 0
-6953 6954 0
-343 -6953 0
-343 6954 0
-6954 6955 0
-344 -6954 0
-344 6955 0
-6955 6956 0
-345 -6955 0
-345 6956 0
-6956 6957 0
-346 -6956 0
-346 6957 0
-6957 6958 0
-347 -6957 0
-347 6958 0
-6958 6959 0
-348 -6958 0
-348 6959 0
-6959 6960 0
-349 -6959 0
-349 6960 0
-6960 6961 0
-350 -6960 0
-350 6961 0
-351 -6961 0
-339 1197 0
-340 1197 0
-341 1197 0
-342 1197 0
-343 1197 0
-344 1197 0
-345 1197 0
-346 1197 0
-347 1197 0
-348 1197 0
-349 1197 0
-350 1197 0
-351 1197 0
-1197 339 340 341 342 343 344 345 346 347 348 349 350 351 0
-352 14 0
-352 53 0
-14 -53 352 0
-353 15 0
-353 54 0
-15 -54 353 0
-354 16 0
-354 55 0
-16 -55 354 0
-355 17 0
-355 56 0
-17 -56 355 0
-356 18 0
-356 57 0
-18 -57 356 0
-357 19 0
-357 58 0
-19 -58 357 0
-358 20 0
-358 59 0
-20 -59 358 0
-359 21 0
-359 60 0
-21 -60 359 0
-360 22 0
-360 61 0
-22 -61 360 0
-361 23 0
-361 62 0
-23 -62 361 0
-362 24 0
-362 63 0
-24 -63 362 0
-363 25 0
-363 64 0
-25 -64 363 0
-364 26 0
-364 65 0
-26 -65 364 0
-352 6962 0
-6962 6963 0
-353 -6962 0
-353 6963 0
-6963 6964 0
-354 -6963 0
-354 6964 0
-6964 6965 0
-355 -6964 0
-355 6965 0
-6965 6966 0
-356 -6965 0
-356 6966 0
-6966 6967 0
-357 -6966 0
-357 6967 0
-6967 6968 0
-358 -6967 0
-358 6968 0
-6968 6969 0
-359 -6968 0
-359 6969 0
-6969 6970 0
-360 -6969 0
-360 6970 0
-6970 6971 0
-361 -6970 0
-361 6971 0
-6971 6972 0
-362 -6971 0
-362 6972 0
-6972 6973 0
-363 -6972 0
-363 6973 0
-364 -6973 0
-352 1198 0
-353 1198 0
-354 1198 0
-355 1198 0
-356 1198 0
-357 1198 0
-358 1198 0
-359 1198 0
-360 1198 0
-361 1198 0
-362 1198 0
-363 1198 0
-364 1198 0
-1198 352 353 354 355 356 357 358 359 360 361 362 363 364 0
-365 14 0
-365 66 0
-14 -66 365 0
-366 15 0
-366 67 0
-15 -67 366 0
-367 16 0
-367 68 0
-16 -68 367 0
-368 17 0
-368 69 0
-17 -69 368 0
-369 18 0
-369 70 0
-18 -70 369 0
-370 19 0
-370 71 0
-19 -71 370 0
-371 20 0
-371 72 0
-20 -72 371 0
-372 21 0
-372 73 0
-21 -73 372 0
-373 22 0
-373 74 0
-22 -74 373 0
-374 23 0
-374 75 0
-23 -75 374 0
-375 24 0
-375 76 0
-24 -76 375 0
-376 25 0
-376 77 0
-25 -77 376 0
-377 26 0
-377 78 0
-26 -78 377 0
-365 6974 0
-6974 6975 0
-366 -6974 0
-366 6975 0
-6975 6976 0
-367 -6975 0
-367 6976 0
-6976 6977 0
-368 -6976 0
-368 6977 0
-6977 6978 0
-369 -6977 0
-369 6978 0
-6978 6979 0
-370 -6978 0
-370 6979 0
-6979 6980 0
-371 -6979 0
-371 6980 0
-6980 6981 0
-372 -6980 0
-372 6981 0
-6981 6982 0
-373 -6981 0
-373 6982 0
-6982 6983 0
-374 -6982 0
-374 6983 0
-6983 6984 0
-375 -6983 0
-375 6984 0
-6984 6985 0
-376 -6984 0
-376 6985 0
-377 -6985 0
-365 1199 0
-366 1199 0
-367 1199 0
-368 1199 0
-369 1199 0
-370 1199 0
-371 1199 0
-372 1199 0
-373 1199 0
-374 1199 0
-375 1199 0
-376 1199 0
-377 1199 0
-1199 365 366 367 368 369 370 371 372 373 374 375 376 377 0
-378 14 0
-378 79 0
-14 -79 378 0
-379 15 0
-379 80 0
-15 -80 379 0
-380 16 0
-380 81 0
-16 -81 380 0
-381 17 0
-381 82 0
-17 -82 381 0
-382 18 0
-382 83 0
-18 -83 382 0
-383 19 0
-383 84 0
-19 -84 383 0
-384 20 0
-384 85 0
-20 -85 384 0
-385 21 0
-385 86 0
-21 -86 385 0
-386 22 0
-386 87 0
-22 -87 386 0
-387 23 0
-387 88 0
-23 -88 387 0
-388 24 0
-388 89 0
-24 -89 388 0
-389 25 0
-389 90 0
-25 -90 389 0
-390 26 0
-390 91 0
-26 -91 390 0
-378 6986 0
-6986 6987 0
-379 -6986 0
-379 6987 0
-6987 6988 0
-380 -6987 0
-380 6988 0
-6988 6989 0
-381 -6988 0
-381 6989 0
-6989 6990 0
-382 -6989 0
-382 6990 0
-6990 6991 0
-383 -6990 0
-383 6991 0
-6991 6992 0
-384 -6991 0
-384 6992 0
-6992 6993 0
-385 -6992 0
-385 6993 0
-6993 6994 0
-386 -6993 0
-386 6994 0
-6994 6995 0
-387 -6994 0
-387 6995 0
-6995 6996 0
-388 -6995 0
-388 6996 0
-6996 6997 0
-389 -6996 0
-389 6997 0
-390 -6997 0
-378 1200 0
-379 1200 0
-380 1200 0
-381 1200 0
-382 1200 0
-383 1200 0
-384 1200 0
-385 1200 0
-386 1200 0
-387 1200 0
-388 1200 0
-389 1200 0
-390 1200 0
-1200 378 379 380 381 382 383 384 385 386 387 388 389 390 0
-391 14 0
-391 92 0
-14 -92 391 0
-392 15 0
-392 93 0
-15 -93 392 0
-393 16 0
-393 94 0
-16 -94 393 0
-394 17 0
-394 95 0
-17 -95 394 0
-395 18 0
-395 96 0
-18 -96 395 0
-396 19 0
-396 97 0
-19 -97 396 0
-397 20 0
-397 98 0
-20 -98 397 0
-398 21 0
-398 99 0
-21 -99 398 0
-399 22 0
-399 100 0
-22 -100 399 0
-400 23 0
-400 101 0
-23 -101 400 0
-401 24 0
-401 102 0
-24 -102 401 0
-402 25 0
-402 103 0
-25 -103 402 0
-403 26 0
-403 104 0
-26 -104 403 0
-391 6998 0
-6998 6999 0
-392 -6998 0
-392 6999 0
-6999 7000 0
-393 -6999 0
-393 7000 0
-7000 7001 0
-394 -7000 0
-394 7001 0
-7001 7002 0
-395 -7001 0
-395 7002 0
-7002 7003 0
-396 -7002 0
-396 7003 0
-7003 7004 0
-397 -7003 0
-397 7004 0
-7004 7005 0
-398 -7004 0
-398 7005 0
-7005 7006 0
-399 -7005 0
-399 7006 0
-7006 7007 0
-400 -7006 0
-400 7007 0
-7007 7008 0
-401 -7007 0
-401 7008 0
-7008 7009 0
-402 -7008 0
-402 7009 0
-403 -7009 0
-391 1201 0
-392 1201 0
-393 1201 0
-394 1201 0
-395 1201 0
-396 1201 0
-397 1201 0
-398 1201 0
-399 1201 0
-400 1201 0
-401 1201 0
-402 1201 0
-403 1201 0
-1201 391 392 393 394 395 396 397 398 399 400 401 402 403 0
-404 14 0
-404 105 0
-14 -105 404 0
-405 15 0
-405 106 0
-15 -106 405 0
-406 16 0
-406 107 0
-16 -107 406 0
-407 17 0
-407 108 0
-17 -108 407 0
-408 18 0
-408 109 0
-18 -109 408 0
-409 19 0
-409 110 0
-19 -110 409 0
-410 20 0
-410 111 0
-20 -111 410 0
-411 21 0
-411 112 0
-21 -112 411 0
-412 22 0
-412 113 0
-22 -113 412 0
-413 23 0
-413 114 0
-23 -114 413 0
-414 24 0
-414 115 0
-24 -115 414 0
-415 25 0
-415 116 0
-25 -116 415 0
-416 26 0
-416 117 0
-26 -117 416 0
-404 7010 0
-7010 7011 0
-405 -7010 0
-405 7011 0
-7011 7012 0
-406 -7011 0
-406 7012 0
-7012 7013 0
-407 -7012 0
-407 7013 0
-7013 7014 0
-408 -7013 0
-408 7014 0
-7014 7015 0
-409 -7014 0
-409 7015 0
-7015 7016 0
-410 -7015 0
-410 7016 0
-7016 7017 0
-411 -7016 0
-411 7017 0
-7017 7018 0
-412 -7017 0
-412 7018 0
-7018 7019 0
-413 -7018 0
-413 7019 0
-7019 7020 0
-414 -7019 0
-414 7020 0
-7020 7021 0
-415 -7020 0
-415 7021 0
-416 -7021 0
-404 1202 0
-405 1202 0
-406 1202 0
-407 1202 0
-408 1202 0
-409 1202 0
-410 1202 0
-411 1202 0
-412 1202 0
-413 1202 0
-414 1202 0
-415 1202 0
-416 1202 0
-1202 404 405 406 407 408 409 410 411 412 413 414 415 416 0
-417 14 0
-417 118 0
-14 -118 417 0
-418 15 0
-418 119 0
-15 -119 418 0
-419 16 0
-419 120 0
-16 -120 419 0
-420 17 0
-420 121 0
-17 -121 420 0
-421 18 0
-421 122 0
-18 -122 421 0
-422 19 0
-422 123 0
-19 -123 422 0
-423 20 0
-423 124 0
-20 -124 423 0
-424 21 0
-424 125 0
-21 -125 424 0
-425 22 0
-425 126 0
-22 -126 425 0
-426 23 0
-426 127 0
-23 -127 426 0
-427 24 0
-427 128 0
-24 -128 427 0
-428 25 0
-428 129 0
-25 -129 428 0
-429 26 0
-429 130 0
-26 -130 429 0
-417 7022 0
-7022 7023 0
-418 -7022 0
-418 7023 0
-7023 7024 0
-419 -7023 0
-419 7024 0
-7024 7025 0
-420 -7024 0
-420 7025 0
-7025 7026 0
-421 -7025 0
-421 7026 0
-7026 7027 0
-422 -7026 0
-422 7027 0
-7027 7028 0
-423 -7027 0
-423 7028 0
-7028 7029 0
-424 -7028 0
-424 7029 0
-7029 7030 0
-425 -7029 0
-425 7030 0
-7030 7031 0
-426 -7030 0
-426 7031 0
-7031 7032 0
-427 -7031 0
-427 7032 0
-7032 7033 0
-428 -7032 0
-428 7033 0
-429 -7033 0
-417 1203 0
-418 1203 0
-419 1203 0
-420 1203 0
-421 1203 0
-422 1203 0
-423 1203 0
-424 1203 0
-425 1203 0
-426 1203 0
-427 1203 0
-428 1203 0
-429 1203 0
-1203 417 418 419 420 421 422 423 424 425 426 427 428 429 0
-430 14 0
-430 131 0
-14 -131 430 0
-431 15 0
-431 132 0
-15 -132 431 0
-432 16 0
-432 133 0
-16 -133 432 0
-433 17 0
-433 134 0
-17 -134 433 0
-434 18 0
-434 135 0
-18 -135 434 0
-435 19 0
-435 136 0
-19 -136 435 0
-436 20 0
-436 137 0
-20 -137 436 0
-437 21 0
-437 138 0
-21 -138 437 0
-438 22 0
-438 139 0
-22 -139 438 0
-439 23 0
-439 140 0
-23 -140 439 0
-440 24 0
-440 141 0
-24 -141 440 0
-441 25 0
-441 142 0
-25 -142 441 0
-442 26 0
-442 143 0
-26 -143 442 0
-430 7034 0
-7034 7035 0
-431 -7034 0
-431 7035 0
-7035 7036 0
-432 -7035 0
-432 7036 0
-7036 7037 0
-433 -7036 0
-433 7037 0
-7037 7038 0
-434 -7037 0
-434 7038 0
-7038 7039 0
-435 -7038 0
-435 7039 0
-7039 7040 0
-436 -7039 0
-436 7040 0
-7040 7041 0
-437 -7040 0
-437 7041 0
-7041 7042 0
-438 -7041 0
-438 7042 0
-7042 7043 0
-439 -7042 0
-439 7043 0
-7043 7044 0
-440 -7043 0
-440 7044 0
-7044 7045 0
-441 -7044 0
-441 7045 0
-442 -7045 0
-430 1204 0
-431 1204 0
-432 1204 0
-433 1204 0
-434 1204 0
-435 1204 0
-436 1204 0
-437 1204 0
-438 1204 0
-439 1204 0
-440 1204 0
-441 1204 0
-442 1204 0
-1204 430 431 432 433 434 435 436 437 438 439 440 441 442 0
-443 14 0
-443 144 0
-14 -144 443 0
-444 15 0
-444 145 0
-15 -145 444 0
-445 16 0
-445 146 0
-16 -146 445 0
-446 17 0
-446 147 0
-17 -147 446 0
-447 18 0
-447 148 0
-18 -148 447 0
-448 19 0
-448 149 0
-19 -149 448 0
-449 20 0
-449 150 0
-20 -150 449 0
-450 21 0
-450 151 0
-21 -151 450 0
-451 22 0
-451 152 0
-22 -152 451 0
-452 23 0
-452 153 0
-23 -153 452 0
-453 24 0
-453 154 0
-24 -154 453 0
-454 25 0
-454 155 0
-25 -155 454 0
-455 26 0
-455 156 0
-26 -156 455 0
-443 7046 0
-7046 7047 0
-444 -7046 0
-444 7047 0
-7047 7048 0
-445 -7047 0
-445 7048 0
-7048 7049 0
-446 -7048 0
-446 7049 0
-7049 7050 0
-447 -7049 0
-447 7050 0
-7050 7051 0
-448 -7050 0
-448 7051 0
-7051 7052 0
-449 -7051 0
-449 7052 0
-7052 7053 0
-450 -7052 0
-450 7053 0
-7053 7054 0
-451 -7053 0
-451 7054 0
-7054 7055 0
-452 -7054 0
-452 7055 0
-7055 7056 0
-453 -7055 0
-453 7056 0
-7056 7057 0
-454 -7056 0
-454 7057 0
-455 -7057 0
-443 1205 0
-444 1205 0
-445 1205 0
-446 1205 0
-447 1205 0
-448 1205 0
-449 1205 0
-450 1205 0
-451 1205 0
-452 1205 0
-453 1205 0
-454 1205 0
-455 1205 0
-1205 443 444 445 446 447 448 449 450 451 452 453 454 455 0
-456 14 0
-456 157 0
-14 -157 456 0
-457 15 0
-457 158 0
-15 -158 457 0
-458 16 0
-458 159 0
-16 -159 458 0
-459 17 0
-459 160 0
-17 -160 459 0
-460 18 0
-460 161 0
-18 -161 460 0
-461 19 0
-461 162 0
-19 -162 461 0
-462 20 0
-462 163 0
-20 -163 462 0
-463 21 0
-463 164 0
-21 -164 463 0
-464 22 0
-464 165 0
-22 -165 464 0
-465 23 0
-465 166 0
-23 -166 465 0
-466 24 0
-466 167 0
-24 -167 466 0
-467 25 0
-467 168 0
-25 -168 467 0
-468 26 0
-468 169 0
-26 -169 468 0
-456 7058 0
-7058 7059 0
-457 -7058 0
-457 7059 0
-7059 7060 0
-458 -7059 0
-458 7060 0
-7060 7061 0
-459 -7060 0
-459 7061 0
-7061 7062 0
-460 -7061 0
-460 7062 0
-7062 7063 0
-461 -7062 0
-461 7063 0
-7063 7064 0
-462 -7063 0
-462 7064 0
-7064 7065 0
-463 -7064 0
-463 7065 0
-7065 7066 0
-464 -7065 0
-464 7066 0
-7066 7067 0
-465 -7066 0
-465 7067 0
-7067 7068 0
-466 -7067 0
-466 7068 0
-7068 7069 0
-467 -7068 0
-467 7069 0
-468 -7069 0
-456 1206 0
-457 1206 0
-458 1206 0
-459 1206 0
-460 1206 0
-461 1206 0
-462 1206 0
-463 1206 0
-464 1206 0
-465 1206 0
-466 1206 0
-467 1206 0
-468 1206 0
-1206 456 457 458 459 460 461 462 463 464 465 466 467 468 0
-469 27 0
-469 40 0
-27 -40 469 0
-470 28 0
-470 41 0
-28 -41 470 0
-471 29 0
-471 42 0
-29 -42 471 0
-472 30 0
-472 43 0
-30 -43 472 0
-473 31 0
-473 44 0
-31 -44 473 0
-474 32 0
-474 45 0
-32 -45 474 0
-475 33 0
-475 46 0
-33 -46 475 0
-476 34 0
-476 47 0
-34 -47 476 0
-477 35 0
-477 48 0
-35 -48 477 0
-478 36 0
-478 49 0
-36 -49 478 0
-479 37 0
-479 50 0
-37 -50 479 0
-480 38 0
-480 51 0
-38 -51 480 0
-481 39 0
-481 52 0
-39 -52 481 0
-469 7070 0
-7070 7071 0
-470 -7070 0
-470 7071 0
-7071 7072 0
-471 -7071 0
-471 7072 0
-7072 7073 0
-472 -7072 0
-472 7073 0
-7073 7074 0
-473 -7073 0
-473 7074 0
-7074 7075 0
-474 -7074 0
-474 7075 0
-7075 7076 0
-475 -7075 0
-475 7076 0
-7076 7077 0
-476 -7076 0
-476 7077 0
-7077 7078 0
-477 -7077 0
-477 7078 0
-7078 7079 0
-478 -7078 0
-478 7079 0
-7079 7080 0
-479 -7079 0
-479 7080 0
-7080 7081 0
-480 -7080 0
-480 7081 0
-481 -7081 0
-469 1207 0
-470 1207 0
-471 1207 0
-472 1207 0
-473 1207 0
-474 1207 0
-475 1207 0
-476 1207 0
-477 1207 0
-478 1207 0
-479 1207 0
-480 1207 0
-481 1207 0
-1207 469 470 471 472 473 474 475 476 477 478 479 480 481 0
-482 27 0
-482 53 0
-27 -53 482 0
-483 28 0
-483 54 0
-28 -54 483 0
-484 29 0
-484 55 0
-29 -55 484 0
-485 30 0
-485 56 0
-30 -56 485 0
-486 31 0
-486 57 0
-31 -57 486 0
-487 32 0
-487 58 0
-32 -58 487 0
-488 33 0
-488 59 0
-33 -59 488 0
-489 34 0
-489 60 0
-34 -60 489 0
-490 35 0
-490 61 0
-35 -61 490 0
-491 36 0
-491 62 0
-36 -62 491 0
-492 37 0
-492 63 0
-37 -63 492 0
-493 38 0
-493 64 0
-38 -64 493 0
-494 39 0
-494 65 0
-39 -65 494 0
-482 7082 0
-7082 7083 0
-483 -7082 0
-483 7083 0
-7083 7084 0
-484 -7083 0
-484 7084 0
-7084 7085 0
-485 -7084 0
-485 7085 0
-7085 7086 0
-486 -7085 0
-486 7086 0
-7086 7087 0
-487 -7086 0
-487 7087 0
-7087 7088 0
-488 -7087 0
-488 7088 0
-7088 7089 0
-489 -7088 0
-489 7089 0
-7089 7090 0
-490 -7089 0
-490 7090 0
-7090 7091 0
-491 -7090 0
-491 7091 0
-7091 7092 0
-492 -7091 0
-492 7092 0
-7092 7093 0
-493 -7092 0
-493 7093 0
-494 -7093 0
-482 1208 0
-483 1208 0
-484 1208 0
-485 1208 0
-486 1208 0
-487 1208 0
-488 1208 0
-489 1208 0
-490 1208 0
-491 1208 0
-492 1208 0
-493 1208 0
-494 1208 0
-1208 482 483 484 485 486 487 488 489 490 491 492 493 494 0
-495 27 0
-495 66 0
-27 -66 495 0
-496 28 0
-496 67 0
-28 -67 496 0
-497 29 0
-497 68 0
-29 -68 497 0
-498 30 0
-498 69 0
-30 -69 498 0
-499 31 0
-499 70 0
-31 -70 499 0
-500 32 0
-500 71 0
-32 -71 500 0
-501 33 0
-501 72 0
-33 -72 501 0
-502 34 0
-502 73 0
-34 -73 502 0
-503 35 0
-503 74 0
-35 -74 503 0
-504 36 0
-504 75 0
-36 -75 504 0
-505 37 0
-505 76 0
-37 -76 505 0
-506 38 0
-506 77 0
-38 -77 506 0
-507 39 0
-507 78 0
-39 -78 507 0
-495 7094 0
-7094 7095 0
-496 -7094 0
-496 7095 0
-7095 7096 0
-497 -7095 0
-497 7096 0
-7096 7097 0
-498 -7096 0
-498 7097 0
-7097 7098 0
-499 -7097 0
-499 7098 0
-7098 7099 0
-500 -7098 0
-500 7099 0
-7099 7100 0
-501 -7099 0
-501 7100 0
-7100 7101 0
-502 -7100 0
-502 7101 0
-7101 7102 0
-503 -7101 0
-503 7102 0
-7102 7103 0
-504 -7102 0
-504 7103 0
-7103 7104 0
-505 -7103 0
-505 7104 0
-7104 7105 0
-506 -7104 0
-506 7105 0
-507 -7105 0
-495 1209 0
-496 1209 0
-497 1209 0
-498 1209 0
-499 1209 0
-500 1209 0
-501 1209 0
-502 1209 0
-503 1209 0
-504 1209 0
-505 1209 0
-506 1209 0
-507 1209 0
-1209 495 496 497 498 499 500 501 502 503 504 505 506 507 0
-508 27 0
-508 79 0
-27 -79 508 0
-509 28 0
-509 80 0
-28 -80 509 0
-510 29 0
-510 81 0
-29 -81 510 0
-511 30 0
-511 82 0
-30 -82 511 0
-512 31 0
-512 83 0
-31 -83 512 0
-513 32 0
-513 84 0
-32 -84 513 0
-514 33 0
-514 85 0
-33 -85 514 0
-515 34 0
-515 86 0
-34 -86 515 0
-516 35 0
-516 87 0
-35 -87 516 0
-517 36 0
-517 88 0
-36 -88 517 0
-518 37 0
-518 89 0
-37 -89 518 0
-519 38 0
-519 90 0
-38 -90 519 0
-520 39 0
-520 91 0
-39 -91 520 0
-508 7106 0
-7106 7107 0
-509 -7106 0
-509 7107 0
-7107 7108 0
-510 -7107 0
-510 7108 0
-7108 7109 0
-511 -7108 0
-511 7109 0
-7109 7110 0
-512 -7109 0
-512 7110 0
-7110 7111 0
-513 -7110 0
-513 7111 0
-7111 7112 0
-514 -7111 0
-514 7112 0
-7112 7113 0
-515 -7112 0
-515 7113 0
-7113 7114 0
-516 -7113 0
-516 7114 0
-7114 7115 0
-517 -7114 0
-517 7115 0
-7115 7116 0
-518 -7115 0
-518 7116 0
-7116 7117 0
-519 -7116 0
-519 7117 0
-520 -7117 0
-508 1210 0
-509 1210 0
-510 1210 0
-511 1210 0
-512 1210 0
-513 1210 0
-514 1210 0
-515 1210 0
-516 1210 0
-517 1210 0
-518 1210 0
-519 1210 0
-520 1210 0
-1210 508 509 510 511 512 513 514 515 516 517 518 519 520 0
-521 27 0
-521 92 0
-27 -92 521 0
-522 28 0
-522 93 0
-28 -93 522 0
-523 29 0
-523 94 0
-29 -94 523 0
-524 30 0
-524 95 0
-30 -95 524 0
-525 31 0
-525 96 0
-31 -96 525 0
-526 32 0
-526 97 0
-32 -97 526 0
-527 33 0
-527 98 0
-33 -98 527 0
-528 34 0
-528 99 0
-34 -99 528 0
-529 35 0
-529 100 0
-35 -100 529 0
-530 36 0
-530 101 0
-36 -101 530 0
-531 37 0
-531 102 0
-37 -102 531 0
-532 38 0
-532 103 0
-38 -103 532 0
-533 39 0
-533 104 0
-39 -104 533 0
-521 7118 0
-7118 7119 0
-522 -7118 0
-522 7119 0
-7119 7120 0
-523 -7119 0
-523 7120 0
-7120 7121 0
-524 -7120 0
-524 7121 0
-7121 7122 0
-525 -7121 0
-525 7122 0
-7122 7123 0
-526 -7122 0
-526 7123 0
-7123 7124 0
-527 -7123 0
-527 7124 0
-7124 7125 0
-528 -7124 0
-528 7125 0
-7125 7126 0
-529 -7125 0
-529 7126 0
-7126 7127 0
-530 -7126 0
-530 7127 0
-7127 7128 0
-531 -7127 0
-531 7128 0
-7128 7129 0
-532 -7128 0
-532 7129 0
-533 -7129 0
-521 1211 0
-522 1211 0
-523 1211 0
-524 1211 0
-525 1211 0
-526 1211 0
-527 1211 0
-528 1211 0
-529 1211 0
-530 1211 0
-531 1211 0
-532 1211 0
-533 1211 0
-1211 521 522 523 524 525 526 527 528 529 530 531 532 533 0
-534 27 0
-534 105 0
-27 -105 534 0
-535 28 0
-535 106 0
-28 -106 535 0
-536 29 0
-536 107 0
-29 -107 536 0
-537 30 0
-537 108 0
-30 -108 537 0
-538 31 0
-538 109 0
-31 -109 538 0
-539 32 0
-539 110 0
-32 -110 539 0
-540 33 0
-540 111 0
-33 -111 540 0
-541 34 0
-541 112 0
-34 -112 541 0
-542 35 0
-542 113 0
-35 -113 542 0
-543 36 0
-543 114 0
-36 -114 543 0
-544 37 0
-544 115 0
-37 -115 544 0
-545 38 0
-545 116 0
-38 -116 545 0
-546 39 0
-546 117 0
-39 -117 546 0
-534 7130 0
-7130 7131 0
-535 -7130 0
-535 7131 0
-7131 7132 0
-536 -7131 0
-536 7132 0
-7132 7133 0
-537 -7132 0
-537 7133 0
-7133 7134 0
-538 -7133 0
-538 7134 0
-7134 7135 0
-539 -7134 0
-539 7135 0
-7135 7136 0
-540 -7135 0
-540 7136 0
-7136 7137 0
-541 -7136 0
-541 7137 0
-7137 7138 0
-542 -7137 0
-542 7138 0
-7138 7139 0
-543 -7138 0
-543 7139 0
-7139 7140 0
-544 -7139 0
-544 7140 0
-7140 7141 0
-545 -7140 0
-545 7141 0
-546 -7141 0
-534 1212 0
-535 1212 0
-536 1212 0
-537 1212 0
-538 1212 0
-539 1212 0
-540 1212 0
-541 1212 0
-542 1212 0
-543 1212 0
-544 1212 0
-545 1212 0
-546 1212 0
-1212 534 535 536 537 538 539 540 541 542 543 544 545 546 0
-547 27 0
-547 118 0
-27 -118 547 0
-548 28 0
-548 119 0
-28 -119 548 0
-549 29 0
-549 120 0
-29 -120 549 0
-550 30 0
-550 121 0
-30 -121 550 0
-551 31 0
-551 122 0
-31 -122 551 0
-552 32 0
-552 123 0
-32 -123 552 0
-553 33 0
-553 124 0
-33 -124 553 0
-554 34 0
-554 125 0
-34 -125 554 0
-555 35 0
-555 126 0
-35 -126 555 0
-556 36 0
-556 127 0
-36 -127 556 0
-557 37 0
-557 128 0
-37 -128 557 0
-558 38 0
-558 129 0
-38 -129 558 0
-559 39 0
-559 130 0
-39 -130 559 0
-547 7142 0
-7142 7143 0
-548 -7142 0
-548 7143 0
-7143 7144 0
-549 -7143 0
-549 7144 0
-7144 7145 0
-550 -7144 0
-550 7145 0
-7145 7146 0
-551 -7145 0
-551 7146 0
-7146 7147 0
-552 -7146 0
-552 7147 0
-7147 7148 0
-553 -7147 0
-553 7148 0
-7148 7149 0
-554 -7148 0
-554 7149 0
-7149 7150 0
-555 -7149 0
-555 7150 0
-7150 7151 0
-556 -7150 0
-556 7151 0
-7151 7152 0
-557 -7151 0
-557 7152 0
-7152 7153 0
-558 -7152 0
-558 7153 0
-559 -7153 0
-547 1213 0
-548 1213 0
-549 1213 0
-550 1213 0
-551 1213 0
-552 1213 0
-553 1213 0
-554 1213 0
-555 1213 0
-556 1213 0
-557 1213 0
-558 1213 0
-559 1213 0
-1213 547 548 549 550 551 552 553 554 555 556 557 558 559 0
-560 27 0
-560 131 0
-27 -131 560 0
-561 28 0
-561 132 0
-28 -132 561 0
-562 29 0
-562 133 0
-29 -133 562 0
-563 30 0
-563 134 0
-30 -134 563 0
-564 31 0
-564 135 0
-31 -135 564 0
-565 32 0
-565 136 0
-32 -136 565 0
-566 33 0
-566 137 0
-33 -137 566 0
-567 34 0
-567 138 0
-34 -138 567 0
-568 35 0
-568 139 0
-35 -139 568 0
-569 36 0
-569 140 0
-36 -140 569 0
-570 37 0
-570 141 0
-37 -141 570 0
-571 38 0
-571 142 0
-38 -142 571 0
-572 39 0
-572 143 0
-39 -143 572 0
-560 7154 0
-7154 7155 0
-561 -7154 0
-561 7155 0
-7155 7156 0
-562 -7155 0
-562 7156 0
-7156 7157 0
-563 -7156 0
-563 7157 0
-7157 7158 0
-564 -7157 0
-564 7158 0
-7158 7159 0
-565 -7158 0
-565 7159 0
-7159 7160 0
-566 -7159 0
-566 7160 0
-7160 7161 0
-567 -7160 0
-567 7161 0
-7161 7162 0
-568 -7161 0
-568 7162 0
-7162 7163 0
-569 -7162 0
-569 7163 0
-7163 7164 0
-570 -7163 0
-570 7164 0
-7164 7165 0
-571 -7164 0
-571 7165 0
-572 -7165 0
-560 1214 0
-561 1214 0
-562 1214 0
-563 1214 0
-564 1214 0
-565 1214 0
-566 1214 0
-567 1214 0
-568 1214 0
-569 1214 0
-570 1214 0
-571 1214 0
-572 1214 0
-1214 560 561 562 563 564 565 566 567 568 569 570 571 572 0
-573 27 0
-573 144 0
-27 -144 573 0
-574 28 0
-574 145 0
-28 -145 574 0
-575 29 0
-575 146 0
-29 -146 575 0
-576 30 0
-576 147 0
-30 -147 576 0
-577 31 0
-577 148 0
-31 -148 577 0
-578 32 0
-578 149 0
-32 -149 578 0
-579 33 0
-579 150 0
-33 -150 579 0
-580 34 0
-580 151 0
-34 -151 580 0
-581 35 0
-581 152 0
-35 -152 581 0
-582 36 0
-582 153 0
-36 -153 582 0
-583 37 0
-583 154 0
-37 -154 583 0
-584 38 0
-584 155 0
-38 -155 584 0
-585 39 0
-585 156 0
-39 -156 585 0
-573 7166 0
-7166 7167 0
-574 -7166 0
-574 7167 0
-7167 7168 0
-575 -7167 0
-575 7168 0
-7168 7169 0
-576 -7168 0
-576 7169 0
-7169 7170 0
-577 -7169 0
-577 7170 0
-7170 7171 0
-578 -7170 0
-578 7171 0
-7171 7172 0
-579 -7171 0
-579 7172 0
-7172 7173 0
-580 -7172 0
-580 7173 0
-7173 7174 0
-581 -7173 0
-581 7174 0
-7174 7175 0
-582 -7174 0
-582 7175 0
-7175 7176 0
-583 -7175 0
-583 7176 0
-7176 7177 0
-584 -7176 0
-584 7177 0
-585 -7177 0
-573 1215 0
-574 1215 0
-575 1215 0
-576 1215 0
-577 1215 0
-578 1215 0
-579 1215 0
-580 1215 0
-581 1215 0
-582 1215 0
-583 1215 0
-584 1215 0
-585 1215 0
-1215 573 574 575 576 577 578 579 580 581 582 583 584 585 0
-586 27 0
-586 157 0
-27 -157 586 0
-587 28 0
-587 158 0
-28 -158 587 0
-588 29 0
-588 159 0
-29 -159 588 0
-589 30 0
-589 160 0
-30 -160 589 0
-590 31 0
-590 161 0
-31 -161 590 0
-591 32 0
-591 162 0
-32 -162 591 0
-592 33 0
-592 163 0
-33 -163 592 0
-593 34 0
-593 164 0
-34 -164 593 0
-594 35 0
-594 165 0
-35 -165 594 0
-595 36 0
-595 166 0
-36 -166 595 0
-596 37 0
-596 167 0
-37 -167 596 0
-597 38 0
-597 168 0
-38 -168 597 0
-598 39 0
-598 169 0
-39 -169 598 0
-586 7178 0
-7178 7179 0
-587 -7178 0
-587 7179 0
-7179 7180 0
-588 -7179 0
-588 7180 0
-7180 7181 0
-589 -7180 0
-589 7181 0
-7181 7182 0
-590 -7181 0
-590 7182 0
-7182 7183 0
-591 -7182 0
-591 7183 0
-7183 7184 0
-592 -7183 0
-592 7184 0
-7184 7185 0
-593 -7184 0
-593 7185 0
-7185 7186 0
-594 -7185 0
-594 7186 0
-7186 7187 0
-595 -7186 0
-595 7187 0
-7187 7188 0
-596 -7187 0
-596 7188 0
-7188 7189 0
-597 -7188 0
-597 7189 0
-598 -7189 0
-586 1216 0
-587 1216 0
-588 1216 0
-589 1216 0
-590 1216 0
-591 1216 0
-592 1216 0
-593 1216 0
-594 1216 0
-595 1216 0
-596 1216 0
-597 1216 0
-598 1216 0
-1216 586 587 588 589 590 591 592 593 594 595 596 597 598 0
-599 40 0
-599 53 0
-40 -53 599 0
-600 41 0
-600 54 0
-41 -54 600 0
-601 42 0
-601 55 0
-42 -55 601 0
-602 43 0
-602 56 0
-43 -56 602 0
-603 44 0
-603 57 0
-44 -57 603 0
-604 45 0
-604 58 0
-45 -58 604 0
-605 46 0
-605 59 0
-46 -59 605 0
-606 47 0
-606 60 0
-47 -60 606 0
-607 48 0
-607 61 0
-48 -61 607 0
-608 49 0
-608 62 0
-49 -62 608 0
-609 50 0
-609 63 0
-50 -63 609 0
-610 51 0
-610 64 0
-51 -64 610 0
-611 52 0
-611 65 0
-52 -65 611 0
-599 7190 0
-7190 7191 0
-600 -7190 0
-600 7191 0
-7191 7192 0
-601 -7191 0
-601 7192 0
-7192 7193 0
-602 -7192 0
-602 7193 0
-7193 7194 0
-603 -7193 0
-603 7194 0
-7194 7195 0
-604 -7194 0
-604 7195 0
-7195 7196 0
-605 -7195 0
-605 7196 0
-7196 7197 0
-606 -7196 0
-606 7197 0
-7197 7198 0
-607 -7197 0
-607 7198 0
-7198 7199 0
-608 -7198 0
-608 7199 0
-7199 7200 0
-609 -7199 0
-609 7200 0
-7200 7201 0
-610 -7200 0
-610 7201 0
-611 -7201 0
-599 1217 0
-600 1217 0
-601 1217 0
-602 1217 0
-603 1217 0
-604 1217 0
-605 1217 0
-606 1217 0
-607 1217 0
-608 1217 0
-609 1217 0
-610 1217 0
-611 1217 0
-1217 599 600 601 602 603 604 605 606 607 608 609 610 611 0
-612 40 0
-612 66 0
-40 -66 612 0
-613 41 0
-613 67 0
-41 -67 613 0
-614 42 0
-614 68 0
-42 -68 614 0
-615 43 0
-615 69 0
-43 -69 615 0
-616 44 0
-616 70 0
-44 -70 616 0
-617 45 0
-617 71 0
-45 -71 617 0
-618 46 0
-618 72 0
-46 -72 618 0
-619 47 0
-619 73 0
-47 -73 619 0
-620 48 0
-620 74 0
-48 -74 620 0
-621 49 0
-621 75 0
-49 -75 621 0
-622 50 0
-622 76 0
-50 -76 622 0
-623 51 0
-623 77 0
-51 -77 623 0
-624 52 0
-624 78 0
-52 -78 624 0
-612 7202 0
-7202 7203 0
-613 -7202 0
-613 7203 0
-7203 7204 0
-614 -7203 0
-614 7204 0
-7204 7205 0
-615 -7204 0
-615 7205 0
-7205 7206 0
-616 -7205 0
-616 7206 0
-7206 7207 0
-617 -7206 0
-617 7207 0
-7207 7208 0
-618 -7207 0
-618 7208 0
-7208 7209 0
-619 -7208 0
-619 7209 0
-7209 7210 0
-620 -7209 0
-620 7210 0
-7210 7211 0
-621 -7210 0
-621 7211 0
-7211 7212 0
-622 -7211 0
-622 7212 0
-7212 7213 0
-623 -7212 0
-623 7213 0
-624 -7213 0
-612 1218 0
-613 1218 0
-614 1218 0
-615 1218 0
-616 1218 0
-617 1218 0
-618 1218 0
-619 1218 0
-620 1218 0
-621 1218 0
-622 1218 0
-623 1218 0
-624 1218 0
-1218 612 613 614 615 616 617 618 619 620 621 622 623 624 0
-625 40 0
-625 79 0
-40 -79 625 0
-626 41 0
-626 80 0
-41 -80 626 0
-627 42 0
-627 81 0
-42 -81 627 0
-628 43 0
-628 82 0
-43 -82 628 0
-629 44 0
-629 83 0
-44 -83 629 0
-630 45 0
-630 84 0
-45 -84 630 0
-631 46 0
-631 85 0
-46 -85 631 0
-632 47 0
-632 86 0
-47 -86 632 0
-633 48 0
-633 87 0
-48 -87 633 0
-634 49 0
-634 88 0
-49 -88 634 0
-635 50 0
-635 89 0
-50 -89 635 0
-636 51 0
-636 90 0
-51 -90 636 0
-637 52 0
-637 91 0
-52 -91 637 0
-625 7214 0
-7214 7215 0
-626 -7214 0
-626 7215 0
-7215 7216 0
-627 -7215 0
-627 7216 0
-7216 7217 0
-628 -7216 0
-628 7217 0
-7217 7218 0
-629 -7217 0
-629 7218 0
-7218 7219 0
-630 -7218 0
-630 7219 0
-7219 7220 0
-631 -7219 0
-631 7220 0
-7220 7221 0
-632 -7220 0
-632 7221 0
-7221 7222 0
-633 -7221 0
-633 7222 0
-7222 7223 0
-634 -7222 0
-634 7223 0
-7223 7224 0
-635 -7223 0
-635 7224 0
-7224 7225 0
-636 -7224 0
-636 7225 0
-637 -7225 0
-625 1219 0
-626 1219 0
-627 1219 0
-628 1219 0
-629 1219 0
-630 1219 0
-631 1219 0
-632 1219 0
-633 1219 0
-634 1219 0
-635 1219 0
-636 1219 0
-637 1219 0
-1219 625 626 627 628 629 630 631 632 633 634 635 636 637 0
-638 40 0
-638 92 0
-40 -92 638 0
-639 41 0
-639 93 0
-41 -93 639 0
-640 42 0
-640 94 0
-42 -94 640 0
-641 43 0
-641 95 0
-43 -95 641 0
-642 44 0
-642 96 0
-44 -96 642 0
-643 45 0
-643 97 0
-45 -97 643 0
-644 46 0
-644 98 0
-46 -98 644 0
-645 47 0
-645 99 0
-47 -99 645 0
-646 48 0
-646 100 0
-48 -100 646 0
-647 49 0
-647 101 0
-49 -101 647 0
-648 50 0
-648 102 0
-50 -102 648 0
-649 51 0
-649 103 0
-51 -103 649 0
-650 52 0
-650 104 0
-52 -104 650 0
-638 7226 0
-7226 7227 0
-639 -7226 0
-639 7227 0
-7227 7228 0
-640 -7227 0
-640 7228 0
-7228 7229 0
-641 -7228 0
-641 7229 0
-7229 7230 0
-642 -7229 0
-642 7230 0
-7230 7231 0
-643 -7230 0
-643 7231 0
-7231 7232 0
-644 -7231 0
-644 7232 0
-7232 7233 0
-645 -7232 0
-645 7233 0
-7233 7234 0
-646 -7233 0
-646 7234 0
-7234 7235 0
-647 -7234 0
-647 7235 0
-7235 7236 0
-648 -7235 0
-648 7236 0
-7236 7237 0
-649 -7236 0
-649 7237 0
-650 -7237 0
-638 1220 0
-639 1220 0
-640 1220 0
-641 1220 0
-642 1220 0
-643 1220 0
-644 1220 0
-645 1220 0
-646 1220 0
-647 1220 0
-648 1220 0
-649 1220 0
-650 1220 0
-1220 638 639 640 641 642 643 644 645 646 647 648 649 650 0
-651 40 0
-651 105 0
-40 -105 651 0
-652 41 0
-652 106 0
-41 -106 652 0
-653 42 0
-653 107 0
-42 -107 653 0
-654 43 0
-654 108 0
-43 -108 654 0
-655 44 0
-655 109 0
-44 -109 655 0
-656 45 0
-656 110 0
-45 -110 656 0
-657 46 0
-657 111 0
-46 -111 657 0
-658 47 0
-658 112 0
-47 -112 658 0
-659 48 0
-659 113 0
-48 -113 659 0
-660 49 0
-660 114 0
-49 -114 660 0
-661 50 0
-661 115 0
-50 -115 661 0
-662 51 0
-662 116 0
-51 -116 662 0
-663 52 0
-663 117 0
-52 -117 663 0
-651 7238 0
-7238 7239 0
-652 -7238 0
-652 7239 0
-7239 7240 0
-653 -7239 0
-653 7240 0
-7240 7241 0
-654 -7240 0
-654 7241 0
-7241 7242 0
-655 -7241 0
-655 7242 0
-7242 7243 0
-656 -7242 0
-656 7243 0
-7243 7244 0
-657 -7243 0
-657 7244 0
-7244 7245 0
-658 -7244 0
-658 7245 0
-7245 7246 0
-659 -7245 0
-659 7246 0
-7246 7247 0
-660 -7246 0
-660 7247 0
-7247 7248 0
-661 -7247 0
-661 7248 0
-7248 7249 0
-662 -7248 0
-662 7249 0
-663 -7249 0
-651 1221 0
-652 1221 0
-653 1221 0
-654 1221 0
-655 1221 0
-656 1221 0
-657 1221 0
-658 1221 0
-659 1221 0
-660 1221 0
-661 1221 0
-662 1221 0
-663 1221 0
-1221 651 652 653 654 655 656 657 658 659 660 661 662 663 0
-664 40 0
-664 118 0
-40 -118 664 0
-665 41 0
-665 119 0
-41 -119 665 0
-666 42 0
-666 120 0
-42 -120 666 0
-667 43 0
-667 121 0
-43 -121 667 0
-668 44 0
-668 122 0
-44 -122 668 0
-669 45 0
-669 123 0
-45 -123 669 0
-670 46 0
-670 124 0
-46 -124 670 0
-671 47 0
-671 125 0
-47 -125 671 0
-672 48 0
-672 126 0
-48 -126 672 0
-673 49 0
-673 127 0
-49 -127 673 0
-674 50 0
-674 128 0
-50 -128 674 0
-675 51 0
-675 129 0
-51 -129 675 0
-676 52 0
-676 130 0
-52 -130 676 0
-664 7250 0
-7250 7251 0
-665 -7250 0
-665 7251 0
-7251 7252 0
-666 -7251 0
-666 7252 0
-7252 7253 0
-667 -7252 0
-667 7253 0
-7253 7254 0
-668 -7253 0
-668 7254 0
-7254 7255 0
-669 -7254 0
-669 7255 0
-7255 7256 0
-670 -7255 0
-670 7256 0
-7256 7257 0
-671 -7256 0
-671 7257 0
-7257 7258 0
-672 -7257 0
-672 7258 0
-7258 7259 0
-673 -7258 0
-673 7259 0
-7259 7260 0
-674 -7259 0
-674 7260 0
-7260 7261 0
-675 -7260 0
-675 7261 0
-676 -7261 0
-664 1222 0
-665 1222 0
-666 1222 0
-667 1222 0
-668 1222 0
-669 1222 0
-670 1222 0
-671 1222 0
-672 1222 0
-673 1222 0
-674 1222 0
-675 1222 0
-676 1222 0
-1222 664 665 666 667 668 669 670 671 672 673 674 675 676 0
-677 40 0
-677 131 0
-40 -131 677 0
-678 41 0
-678 132 0
-41 -132 678 0
-679 42 0
-679 133 0
-42 -133 679 0
-680 43 0
-680 134 0
-43 -134 680 0
-681 44 0
-681 135 0
-44 -135 681 0
-682 45 0
-682 136 0
-45 -136 682 0
-683 46 0
-683 137 0
-46 -137 683 0
-684 47 0
-684 138 0
-47 -138 684 0
-685 48 0
-685 139 0
-48 -139 685 0
-686 49 0
-686 140 0
-49 -140 686 0
-687 50 0
-687 141 0
-50 -141 687 0
-688 51 0
-688 142 0
-51 -142 688 0
-689 52 0
-689 143 0
-52 -143 689 0
-677 7262 0
-7262 7263 0
-678 -7262 0
-678 7263 0
-7263 7264 0
-679 -7263 0
-679 7264 0
-7264 7265 0
-680 -7264 0
-680 7265 0
-7265 7266 0
-681 -7265 0
-681 7266 0
-7266 7267 0
-682 -7266 0
-682 7267 0
-7267 7268 0
-683 -7267 0
-683 7268 0
-7268 7269 0
-684 -7268 0
-684 7269 0
-7269 7270 0
-685 -7269 0
-685 7270 0
-7270 7271 0
-686 -7270 0
-686 7271 0
-7271 7272 0
-687 -7271 0
-687 7272 0
-7272 7273 0
-688 -7272 0
-688 7273 0
-689 -7273 0
-677 1223 0
-678 1223 0
-679 1223 0
-680 1223 0
-681 1223 0
-682 1223 0
-683 1223 0
-684 1223 0
-685 1223 0
-686 1223 0
-687 1223 0
-688 1223 0
-689 1223 0
-1223 677 678 679 680 681 682 683 684 685 686 687 688 689 0
-690 40 0
-690 144 0
-40 -144 690 0
-691 41 0
-691 145 0
-41 -145 691 0
-692 42 0
-692 146 0
-42 -146 692 0
-693 43 0
-693 147 0
-43 -147 693 0
-694 44 0
-694 148 0
-44 -148 694 0
-695 45 0
-695 149 0
-45 -149 695 0
-696 46 0
-696 150 0
-46 -150 696 0
-697 47 0
-697 151 0
-47 -151 697 0
-698 48 0
-698 152 0
-48 -152 698 0
-699 49 0
-699 153 0
-49 -153 699 0
-700 50 0
-700 154 0
-50 -154 700 0
-701 51 0
-701 155 0
-51 -155 701 0
-702 52 0
-702 156 0
-52 -156 702 0
-690 7274 0
-7274 7275 0
-691 -7274 0
-691 7275 0
-7275 7276 0
-692 -7275 0
-692 7276 0
-7276 7277 0
-693 -7276 0
-693 7277 0
-7277 7278 0
-694 -7277 0
-694 7278 0
-7278 7279 0
-695 -7278 0
-695 7279 0
-7279 7280 0
-696 -7279 0
-696 7280 0
-7280 7281 0
-697 -7280 0
-697 7281 0
-7281 7282 0
-698 -7281 0
-698 7282 0
-7282 7283 0
-699 -7282 0
-699 7283 0
-7283 7284 0
-700 -7283 0
-700 7284 0
-7284 7285 0
-701 -7284 0
-701 7285 0
-702 -7285 0
-690 1224 0
-691 1224 0
-692 1224 0
-693 1224 0
-694 1224 0
-695 1224 0
-696 1224 0
-697 1224 0
-698 1224 0
-699 1224 0
-700 1224 0
-701 1224 0
-702 1224 0
-1224 690 691 692 693 694 695 696 697 698 699 700 701 702 0
-703 40 0
-703 157 0
-40 -157 703 0
-704 41 0
-704 158 0
-41 -158 704 0
-705 42 0
-705 159 0
-42 -159 705 0
-706 43 0
-706 160 0
-43 -160 706 0
-707 44 0
-707 161 0
-44 -161 707 0
-708 45 0
-708 162 0
-45 -162 708 0
-709 46 0
-709 163 0
-46 -163 709 0
-710 47 0
-710 164 0
-47 -164 710 0
-711 48 0
-711 165 0
-48 -165 711 0
-712 49 0
-712 166 0
-49 -166 712 0
-713 50 0
-713 167 0
-50 -167 713 0
-714 51 0
-714 168 0
-51 -168 714 0
-715 52 0
-715 169 0
-52 -169 715 0
-703 7286 0
-7286 7287 0
-704 -7286 0
-704 7287 0
-7287 7288 0
-705 -7287 0
-705 7288 0
-7288 7289 0
-706 -7288 0
-706 7289 0
-7289 7290 0
-707 -7289 0
-707 7290 0
-7290 7291 0
-708 -7290 0
-708 7291 0
-7291 7292 0
-709 -7291 0
-709 7292 0
-7292 7293 0
-710 -7292 0
-710 7293 0
-7293 7294 0
-711 -7293 0
-711 7294 0
-7294 7295 0
-712 -7294 0
-712 7295 0
-7295 7296 0
-713 -7295 0
-713 7296 0
-7296 7297 0
-714 -7296 0
-714 7297 0
-715 -7297 0
-703 1225 0
-704 1225 0
-705 1225 0
-706 1225 0
-707 1225 0
-708 1225 0
-709 1225 0
-710 1225 0
-711 1225 0
-712 1225 0
-713 1225 0
-714 1225 0
-715 1225 0
-1225 703 704 705 706 707 708 709 710 711 712 713 714 715 0
-716 53 0
-716 66 0
-53 -66 716 0
-717 54 0
-717 67 0
-54 -67 717 0
-718 55 0
-718 68 0
-55 -68 718 0
-719 56 0
-719 69 0
-56 -69 719 0
-720 57 0
-720 70 0
-57 -70 720 0
-721 58 0
-721 71 0
-58 -71 721 0
-722 59 0
-722 72 0
-59 -72 722 0
-723 60 0
-723 73 0
-60 -73 723 0
-724 61 0
-724 74 0
-61 -74 724 0
-725 62 0
-725 75 0
-62 -75 725 0
-726 63 0
-726 76 0
-63 -76 726 0
-727 64 0
-727 77 0
-64 -77 727 0
-728 65 0
-728 78 0
-65 -78 728 0
-716 7298 0
-7298 7299 0
-717 -7298 0
-717 7299 0
-7299 7300 0
-718 -7299 0
-718 7300 0
-7300 7301 0
-719 -7300 0
-719 7301 0
-7301 7302 0
-720 -7301 0
-720 7302 0
-7302 7303 0
-721 -7302 0
-721 7303 0
-7303 7304 0
-722 -7303 0
-722 7304 0
-7304 7305 0
-723 -7304 0
-723 7305 0
-7305 7306 0
-724 -7305 0
-724 7306 0
-7306 7307 0
-725 -7306 0
-725 7307 0
-7307 7308 0
-726 -7307 0
-726 7308 0
-7308 7309 0
-727 -7308 0
-727 7309 0
-728 -7309 0
-716 1226 0
-717 1226 0
-718 1226 0
-719 1226 0
-720 1226 0
-721 1226 0
-722 1226 0
-723 1226 0
-724 1226 0
-725 1226 0
-726 1226 0
-727 1226 0
-728 1226 0
-1226 716 717 718 719 720 721 722 723 724 725 726 727 728 0
-729 53 0
-729 79 0
-53 -79 729 0
-730 54 0
-730 80 0
-54 -80 730 0
-731 55 0
-731 81 0
-55 -81 731 0
-732 56 0
-732 82 0
-56 -82 732 0
-733 57 0
-733 83 0
-57 -83 733 0
-734 58 0
-734 84 0
-58 -84 734 0
-735 59 0
-735 85 0
-59 -85 735 0
-736 60 0
-736 86 0
-60 -86 736 0
-737 61 0
-737 87 0
-61 -87 737 0
-738 62 0
-738 88 0
-62 -88 738 0
-739 63 0
-739 89 0
-63 -89 739 0
-740 64 0
-740 90 0
-64 -90 740 0
-741 65 0
-741 91 0
-65 -91 741 0
-729 7310 0
-7310 7311 0
-730 -7310 0
-730 7311 0
-7311 7312 0
-731 -7311 0
-731 7312 0
-7312 7313 0
-732 -7312 0
-732 7313 0
-7313 7314 0
-733 -7313 0
-733 7314 0
-7314 7315 0
-734 -7314 0
-734 7315 0
-7315 7316 0
-735 -7315 0
-735 7316 0
-7316 7317 0
-736 -7316 0
-736 7317 0
-7317 7318 0
-737 -7317 0
-737 7318 0
-7318 7319 0
-738 -7318 0
-738 7319 0
-7319 7320 0
-739 -7319 0
-739 7320 0
-7320 7321 0
-740 -7320 0
-740 7321 0
-741 -7321 0
-729 1227 0
-730 1227 0
-731 1227 0
-732 1227 0
-733 1227 0
-734 1227 0
-735 1227 0
-736 1227 0
-737 1227 0
-738 1227 0
-739 1227 0
-740 1227 0
-741 1227 0
-1227 729 730 731 732 733 734 735 736 737 738 739 740 741 0
-742 53 0
-742 92 0
-53 -92 742 0
-743 54 0
-743 93 0
-54 -93 743 0
-744 55 0
-744 94 0
-55 -94 744 0
-745 56 0
-745 95 0
-56 -95 745 0
-746 57 0
-746 96 0
-57 -96 746 0
-747 58 0
-747 97 0
-58 -97 747 0
-748 59 0
-748 98 0
-59 -98 748 0
-749 60 0
-749 99 0
-60 -99 749 0
-750 61 0
-750 100 0
-61 -100 750 0
-751 62 0
-751 101 0
-62 -101 751 0
-752 63 0
-752 102 0
-63 -102 752 0
-753 64 0
-753 103 0
-64 -103 753 0
-754 65 0
-754 104 0
-65 -104 754 0
-742 7322 0
-7322 7323 0
-743 -7322 0
-743 7323 0
-7323 7324 0
-744 -7323 0
-744 7324 0
-7324 7325 0
-745 -7324 0
-745 7325 0
-7325 7326 0
-746 -7325 0
-746 7326 0
-7326 7327 0
-747 -7326 0
-747 7327 0
-7327 7328 0
-748 -7327 0
-748 7328 0
-7328 7329 0
-749 -7328 0
-749 7329 0
-7329 7330 0
-750 -7329 0
-750 7330 0
-7330 7331 0
-751 -7330 0
-751 7331 0
-7331 7332 0
-752 -7331 0
-752 7332 0
-7332 7333 0
-753 -7332 0
-753 7333 0
-754 -7333 0
-742 1228 0
-743 1228 0
-744 1228 0
-745 1228 0
-746 1228 0
-747 1228 0
-748 1228 0
-749 1228 0
-750 1228 0
-751 1228 0
-752 1228 0
-753 1228 0
-754 1228 0
-1228 742 743 744 745 746 747 748 749 750 751 752 753 754 0
-755 53 0
-755 105 0
-53 -105 755 0
-756 54 0
-756 106 0
-54 -106 756 0
-757 55 0
-757 107 0
-55 -107 757 0
-758 56 0
-758 108 0
-56 -108 758 0
-759 57 0
-759 109 0
-57 -109 759 0
-760 58 0
-760 110 0
-58 -110 760 0
-761 59 0
-761 111 0
-59 -111 761 0
-762 60 0
-762 112 0
-60 -112 762 0
-763 61 0
-763 113 0
-61 -113 763 0
-764 62 0
-764 114 0
-62 -114 764 0
-765 63 0
-765 115 0
-63 -115 765 0
-766 64 0
-766 116 0
-64 -116 766 0
-767 65 0
-767 117 0
-65 -117 767 0
-755 7334 0
-7334 7335 0
-756 -7334 0
-756 7335 0
-7335 7336 0
-757 -7335 0
-757 7336 0
-7336 7337 0
-758 -7336 0
-758 7337 0
-7337 7338 0
-759 -7337 0
-759 7338 0
-7338 7339 0
-760 -7338 0
-760 7339 0
-7339 7340 0
-761 -7339 0
-761 7340 0
-7340 7341 0
-762 -7340 0
-762 7341 0
-7341 7342 0
-763 -7341 0
-763 7342 0
-7342 7343 0
-764 -7342 0
-764 7343 0
-7343 7344 0
-765 -7343 0
-765 7344 0
-7344 7345 0
-766 -7344 0
-766 7345 0
-767 -7345 0
-755 1229 0
-756 1229 0
-757 1229 0
-758 1229 0
-759 1229 0
-760 1229 0
-761 1229 0
-762 1229 0
-763 1229 0
-764 1229 0
-765 1229 0
-766 1229 0
-767 1229 0
-1229 755 756 757 758 759 760 761 762 763 764 765 766 767 0
-768 53 0
-768 118 0
-53 -118 768 0
-769 54 0
-769 119 0
-54 -119 769 0
-770 55 0
-770 120 0
-55 -120 770 0
-771 56 0
-771 121 0
-56 -121 771 0
-772 57 0
-772 122 0
-57 -122 772 0
-773 58 0
-773 123 0
-58 -123 773 0
-774 59 0
-774 124 0
-59 -124 774 0
-775 60 0
-775 125 0
-60 -125 775 0
-776 61 0
-776 126 0
-61 -126 776 0
-777 62 0
-777 127 0
-62 -127 777 0
-778 63 0
-778 128 0
-63 -128 778 0
-779 64 0
-779 129 0
-64 -129 779 0
-780 65 0
-780 130 0
-65 -130 780 0
-768 7346 0
-7346 7347 0
-769 -7346 0
-769 7347 0
-7347 7348 0
-770 -7347 0
-770 7348 0
-7348 7349 0
-771 -7348 0
-771 7349 0
-7349 7350 0
-772 -7349 0
-772 7350 0
-7350 7351 0
-773 -7350 0
-773 7351 0
-7351 7352 0
-774 -7351 0
-774 7352 0
-7352 7353 0
-775 -7352 0
-775 7353 0
-7353 7354 0
-776 -7353 0
-776 7354 0
-7354 7355 0
-777 -7354 0
-777 7355 0
-7355 7356 0
-778 -7355 0
-778 7356 0
-7356 7357 0
-779 -7356 0
-779 7357 0
-780 -7357 0
-768 1230 0
-769 1230 0
-770 1230 0
-771 1230 0
-772 1230 0
-773 1230 0
-774 1230 0
-775 1230 0
-776 1230 0
-777 1230 0
-778 1230 0
-779 1230 0
-780 1230 0
-1230 768 769 770 771 772 773 774 775 776 777 778 779 780 0
-781 53 0
-781 131 0
-53 -131 781 0
-782 54 0
-782 132 0
-54 -132 782 0
-783 55 0
-783 133 0
-55 -133 783 0
-784 56 0
-784 134 0
-56 -134 784 0
-785 57 0
-785 135 0
-57 -135 785 0
-786 58 0
-786 136 0
-58 -136 786 0
-787 59 0
-787 137 0
-59 -137 787 0
-788 60 0
-788 138 0
-60 -138 788 0
-789 61 0
-789 139 0
-61 -139 789 0
-790 62 0
-790 140 0
-62 -140 790 0
-791 63 0
-791 141 0
-63 -141 791 0
-792 64 0
-792 142 0
-64 -142 792 0
-793 65 0
-793 143 0
-65 -143 793 0
-781 7358 0
-7358 7359 0
-782 -7358 0
-782 7359 0
-7359 7360 0
-783 -7359 0
-783 7360 0
-7360 7361 0
-784 -7360 0
-784 7361 0
-7361 7362 0
-785 -7361 0
-785 7362 0
-7362 7363 0
-786 -7362 0
-786 7363 0
-7363 7364 0
-787 -7363 0
-787 7364 0
-7364 7365 0
-788 -7364 0
-788 7365 0
-7365 7366 0
-789 -7365 0
-789 7366 0
-7366 7367 0
-790 -7366 0
-790 7367 0
-7367 7368 0
-791 -7367 0
-791 7368 0
-7368 7369 0
-792 -7368 0
-792 7369 0
-793 -7369 0
-781 1231 0
-782 1231 0
-783 1231 0
-784 1231 0
-785 1231 0
-786 1231 0
-787 1231 0
-788 1231 0
-789 1231 0
-790 1231 0
-791 1231 0
-792 1231 0
-793 1231 0
-1231 781 782 783 784 785 786 787 788 789 790 791 792 793 0
-794 53 0
-794 144 0
-53 -144 794 0
-795 54 0
-795 145 0
-54 -145 795 0
-796 55 0
-796 146 0
-55 -146 796 0
-797 56 0
-797 147 0
-56 -147 797 0
-798 57 0
-798 148 0
-57 -148 798 0
-799 58 0
-799 149 0
-58 -149 799 0
-800 59 0
-800 150 0
-59 -150 800 0
-801 60 0
-801 151 0
-60 -151 801 0
-802 61 0
-802 152 0
-61 -152 802 0
-803 62 0
-803 153 0
-62 -153 803 0
-804 63 0
-804 154 0
-63 -154 804 0
-805 64 0
-805 155 0
-64 -155 805 0
-806 65 0
-806 156 0
-65 -156 806 0
-794 7370 0
-7370 7371 0
-795 -7370 0
-795 7371 0
-7371 7372 0
-796 -7371 0
-796 7372 0
-7372 7373 0
-797 -7372 0
-797 7373 0
-7373 7374 0
-798 -7373 0
-798 7374 0
-7374 7375 0
-799 -7374 0
-799 7375 0
-7375 7376 0
-800 -7375 0
-800 7376 0
-7376 7377 0
-801 -7376 0
-801 7377 0
-7377 7378 0
-802 -7377 0
-802 7378 0
-7378 7379 0
-803 -7378 0
-803 7379 0
-7379 7380 0
-804 -7379 0
-804 7380 0
-7380 7381 0
-805 -7380 0
-805 7381 0
-806 -7381 0
-794 1232 0
-795 1232 0
-796 1232 0
-797 1232 0
-798 1232 0
-799 1232 0
-800 1232 0
-801 1232 0
-802 1232 0
-803 1232 0
-804 1232 0
-805 1232 0
-806 1232 0
-1232 794 795 796 797 798 799 800 801 802 803 804 805 806 0
-807 53 0
-807 157 0
-53 -157 807 0
-808 54 0
-808 158 0
-54 -158 808 0
-809 55 0
-809 159 0
-55 -159 809 0
-810 56 0
-810 160 0
-56 -160 810 0
-811 57 0
-811 161 0
-57 -161 811 0
-812 58 0
-812 162 0
-58 -162 812 0
-813 59 0
-813 163 0
-59 -163 813 0
-814 60 0
-814 164 0
-60 -164 814 0
-815 61 0
-815 165 0
-61 -165 815 0
-816 62 0
-816 166 0
-62 -166 816 0
-817 63 0
-817 167 0
-63 -167 817 0
-818 64 0
-818 168 0
-64 -168 818 0
-819 65 0
-819 169 0
-65 -169 819 0
-807 7382 0
-7382 7383 0
-808 -7382 0
-808 7383 0
-7383 7384 0
-809 -7383 0
-809 7384 0
-7384 7385 0
-810 -7384 0
-810 7385 0
-7385 7386 0
-811 -7385 0
-811 7386 0
-7386 7387 0
-812 -7386 0
-812 7387 0
-7387 7388 0
-813 -7387 0
-813 7388 0
-7388 7389 0
-814 -7388 0
-814 7389 0
-7389 7390 0
-815 -7389 0
-815 7390 0
-7390 7391 0
-816 -7390 0
-816 7391 0
-7391 7392 0
-817 -7391 0
-817 7392 0
-7392 7393 0
-818 -7392 0
-818 7393 0
-819 -7393 0
-807 1233 0
-808 1233 0
-809 1233 0
-810 1233 0
-811 1233 0
-812 1233 0
-813 1233 0
-814 1233 0
-815 1233 0
-816 1233 0
-817 1233 0
-818 1233 0
-819 1233 0
-1233 807 808 809 810 811 812 813 814 815 816 817 818 819 0
-820 66 0
-820 79 0
-66 -79 820 0
-821 67 0
-821 80 0
-67 -80 821 0
-822 68 0
-822 81 0
-68 -81 822 0
-823 69 0
-823 82 0
-69 -82 823 0
-824 70 0
-824 83 0
-70 -83 824 0
-825 71 0
-825 84 0
-71 -84 825 0
-826 72 0
-826 85 0
-72 -85 826 0
-827 73 0
-827 86 0
-73 -86 827 0
-828 74 0
-828 87 0
-74 -87 828 0
-829 75 0
-829 88 0
-75 -88 829 0
-830 76 0
-830 89 0
-76 -89 830 0
-831 77 0
-831 90 0
-77 -90 831 0
-832 78 0
-832 91 0
-78 -91 832 0
-820 7394 0
-7394 7395 0
-821 -7394 0
-821 7395 0
-7395 7396 0
-822 -7395 0
-822 7396 0
-7396 7397 0
-823 -7396 0
-823 7397 0
-7397 7398 0
-824 -7397 0
-824 7398 0
-7398 7399 0
-825 -7398 0
-825 7399 0
-7399 7400 0
-826 -7399 0
-826 7400 0
-7400 7401 0
-827 -7400 0
-827 7401 0
-7401 7402 0
-828 -7401 0
-828 7402 0
-7402 7403 0
-829 -7402 0
-829 7403 0
-7403 7404 0
-830 -7403 0
-830 7404 0
-7404 7405 0
-831 -7404 0
-831 7405 0
-832 -7405 0
-820 1234 0
-821 1234 0
-822 1234 0
-823 1234 0
-824 1234 0
-825 1234 0
-826 1234 0
-827 1234 0
-828 1234 0
-829 1234 0
-830 1234 0
-831 1234 0
-832 1234 0
-1234 820 821 822 823 824 825 826 827 828 829 830 831 832 0
-833 66 0
-833 92 0
-66 -92 833 0
-834 67 0
-834 93 0
-67 -93 834 0
-835 68 0
-835 94 0
-68 -94 835 0
-836 69 0
-836 95 0
-69 -95 836 0
-837 70 0
-837 96 0
-70 -96 837 0
-838 71 0
-838 97 0
-71 -97 838 0
-839 72 0
-839 98 0
-72 -98 839 0
-840 73 0
-840 99 0
-73 -99 840 0
-841 74 0
-841 100 0
-74 -100 841 0
-842 75 0
-842 101 0
-75 -101 842 0
-843 76 0
-843 102 0
-76 -102 843 0
-844 77 0
-844 103 0
-77 -103 844 0
-845 78 0
-845 104 0
-78 -104 845 0
-833 7406 0
-7406 7407 0
-834 -7406 0
-834 7407 0
-7407 7408 0
-835 -7407 0
-835 7408 0
-7408 7409 0
-836 -7408 0
-836 7409 0
-7409 7410 0
-837 -7409 0
-837 7410 0
-7410 7411 0
-838 -7410 0
-838 7411 0
-7411 7412 0
-839 -7411 0
-839 7412 0
-7412 7413 0
-840 -7412 0
-840 7413 0
-7413 7414 0
-841 -7413 0
-841 7414 0
-7414 7415 0
-842 -7414 0
-842 7415 0
-7415 7416 0
-843 -7415 0
-843 7416 0
-7416 7417 0
-844 -7416 0
-844 7417 0
-845 -7417 0
-833 1235 0
-834 1235 0
-835 1235 0
-836 1235 0
-837 1235 0
-838 1235 0
-839 1235 0
-840 1235 0
-841 1235 0
-842 1235 0
-843 1235 0
-844 1235 0
-845 1235 0
-1235 833 834 835 836 837 838 839 840 841 842 843 844 845 0
-846 66 0
-846 105 0
-66 -105 846 0
-847 67 0
-847 106 0
-67 -106 847 0
-848 68 0
-848 107 0
-68 -107 848 0
-849 69 0
-849 108 0
-69 -108 849 0
-850 70 0
-850 109 0
-70 -109 850 0
-851 71 0
-851 110 0
-71 -110 851 0
-852 72 0
-852 111 0
-72 -111 852 0
-853 73 0
-853 112 0
-73 -112 853 0
-854 74 0
-854 113 0
-74 -113 854 0
-855 75 0
-855 114 0
-75 -114 855 0
-856 76 0
-856 115 0
-76 -115 856 0
-857 77 0
-857 116 0
-77 -116 857 0
-858 78 0
-858 117 0
-78 -117 858 0
-846 7418 0
-7418 7419 0
-847 -7418 0
-847 7419 0
-7419 7420 0
-848 -7419 0
-848 7420 0
-7420 7421 0
-849 -7420 0
-849 7421 0
-7421 7422 0
-850 -7421 0
-850 7422 0
-7422 7423 0
-851 -7422 0
-851 7423 0
-7423 7424 0
-852 -7423 0
-852 7424 0
-7424 7425 0
-853 -7424 0
-853 7425 0
-7425 7426 0
-854 -7425 0
-854 7426 0
-7426 7427 0
-855 -7426 0
-855 7427 0
-7427 7428 0
-856 -7427 0
-856 7428 0
-7428 7429 0
-857 -7428 0
-857 7429 0
-858 -7429 0
-846 1236 0
-847 1236 0
-848 1236 0
-849 1236 0
-850 1236 0
-851 1236 0
-852 1236 0
-853 1236 0
-854 1236 0
-855 1236 0
-856 1236 0
-857 1236 0
-858 1236 0
-1236 846 847 848 849 850 851 852 853 854 855 856 857 858 0
-859 66 0
-859 118 0
-66 -118 859 0
-860 67 0
-860 119 0
-67 -119 860 0
-861 68 0
-861 120 0
-68 -120 861 0
-862 69 0
-862 121 0
-69 -121 862 0
-863 70 0
-863 122 0
-70 -122 863 0
-864 71 0
-864 123 0
-71 -123 864 0
-865 72 0
-865 124 0
-72 -124 865 0
-866 73 0
-866 125 0
-73 -125 866 0
-867 74 0
-867 126 0
-74 -126 867 0
-868 75 0
-868 127 0
-75 -127 868 0
-869 76 0
-869 128 0
-76 -128 869 0
-870 77 0
-870 129 0
-77 -129 870 0
-871 78 0
-871 130 0
-78 -130 871 0
-859 7430 0
-7430 7431 0
-860 -7430 0
-860 7431 0
-7431 7432 0
-861 -7431 0
-861 7432 0
-7432 7433 0
-862 -7432 0
-862 7433 0
-7433 7434 0
-863 -7433 0
-863 7434 0
-7434 7435 0
-864 -7434 0
-864 7435 0
-7435 7436 0
-865 -7435 0
-865 7436 0
-7436 7437 0
-866 -7436 0
-866 7437 0
-7437 7438 0
-867 -7437 0
-867 7438 0
-7438 7439 0
-868 -7438 0
-868 7439 0
-7439 7440 0
-869 -7439 0
-869 7440 0
-7440 7441 0
-870 -7440 0
-870 7441 0
-871 -7441 0
-859 1237 0
-860 1237 0
-861 1237 0
-862 1237 0
-863 1237 0
-864 1237 0
-865 1237 0
-866 1237 0
-867 1237 0
-868 1237 0
-869 1237 0
-870 1237 0
-871 1237 0
-1237 859 860 861 862 863 864 865 866 867 868 869 870 871 0
-872 66 0
-872 131 0
-66 -131 872 0
-873 67 0
-873 132 0
-67 -132 873 0
-874 68 0
-874 133 0
-68 -133 874 0
-875 69 0
-875 134 0
-69 -134 875 0
-876 70 0
-876 135 0
-70 -135 876 0
-877 71 0
-877 136 0
-71 -136 877 0
-878 72 0
-878 137 0
-72 -137 878 0
-879 73 0
-879 138 0
-73 -138 879 0
-880 74 0
-880 139 0
-74 -139 880 0
-881 75 0
-881 140 0
-75 -140 881 0
-882 76 0
-882 141 0
-76 -141 882 0
-883 77 0
-883 142 0
-77 -142 883 0
-884 78 0
-884 143 0
-78 -143 884 0
-872 7442 0
-7442 7443 0
-873 -7442 0
-873 7443 0
-7443 7444 0
-874 -7443 0
-874 7444 0
-7444 7445 0
-875 -7444 0
-875 7445 0
-7445 7446 0
-876 -7445 0
-876 7446 0
-7446 7447 0
-877 -7446 0
-877 7447 0
-7447 7448 0
-878 -7447 0
-878 7448 0
-7448 7449 0
-879 -7448 0
-879 7449 0
-7449 7450 0
-880 -7449 0
-880 7450 0
-7450 7451 0
-881 -7450 0
-881 7451 0
-7451 7452 0
-882 -7451 0
-882 7452 0
-7452 7453 0
-883 -7452 0
-883 7453 0
-884 -7453 0
-872 1238 0
-873 1238 0
-874 1238 0
-875 1238 0
-876 1238 0
-877 1238 0
-878 1238 0
-879 1238 0
-880 1238 0
-881 1238 0
-882 1238 0
-883 1238 0
-884 1238 0
-1238 872 873 874 875 876 877 878 879 880 881 882 883 884 0
-885 66 0
-885 144 0
-66 -144 885 0
-886 67 0
-886 145 0
-67 -145 886 0
-887 68 0
-887 146 0
-68 -146 887 0
-888 69 0
-888 147 0
-69 -147 888 0
-889 70 0
-889 148 0
-70 -148 889 0
-890 71 0
-890 149 0
-71 -149 890 0
-891 72 0
-891 150 0
-72 -150 891 0
-892 73 0
-892 151 0
-73 -151 892 0
-893 74 0
-893 152 0
-74 -152 893 0
-894 75 0
-894 153 0
-75 -153 894 0
-895 76 0
-895 154 0
-76 -154 895 0
-896 77 0
-896 155 0
-77 -155 896 0
-897 78 0
-897 156 0
-78 -156 897 0
-885 7454 0
-7454 7455 0
-886 -7454 0
-886 7455 0
-7455 7456 0
-887 -7455 0
-887 7456 0
-7456 7457 0
-888 -7456 0
-888 7457 0
-7457 7458 0
-889 -7457 0
-889 7458 0
-7458 7459 0
-890 -7458 0
-890 7459 0
-7459 7460 0
-891 -7459 0
-891 7460 0
-7460 7461 0
-892 -7460 0
-892 7461 0
-7461 7462 0
-893 -7461 0
-893 7462 0
-7462 7463 0
-894 -7462 0
-894 7463 0
-7463 7464 0
-895 -7463 0
-895 7464 0
-7464 7465 0
-896 -7464 0
-896 7465 0
-897 -7465 0
-885 1239 0
-886 1239 0
-887 1239 0
-888 1239 0
-889 1239 0
-890 1239 0
-891 1239 0
-892 1239 0
-893 1239 0
-894 1239 0
-895 1239 0
-896 1239 0
-897 1239 0
-1239 885 886 887 888 889 890 891 892 893 894 895 896 897 0
-898 66 0
-898 157 0
-66 -157 898 0
-899 67 0
-899 158 0
-67 -158 899 0
-900 68 0
-900 159 0
-68 -159 900 0
-901 69 0
-901 160 0
-69 -160 901 0
-902 70 0
-902 161 0
-70 -161 902 0
-903 71 0
-903 162 0
-71 -162 903 0
-904 72 0
-904 163 0
-72 -163 904 0
-905 73 0
-905 164 0
-73 -164 905 0
-906 74 0
-906 165 0
-74 -165 906 0
-907 75 0
-907 166 0
-75 -166 907 0
-908 76 0
-908 167 0
-76 -167 908 0
-909 77 0
-909 168 0
-77 -168 909 0
-910 78 0
-910 169 0
-78 -169 910 0
-898 7466 0
-7466 7467 0
-899 -7466 0
-899 7467 0
-7467 7468 0
-900 -7467 0
-900 7468 0
-7468 7469 0
-901 -7468 0
-901 7469 0
-7469 7470 0
-902 -7469 0
-902 7470 0
-7470 7471 0
-903 -7470 0
-903 7471 0
-7471 7472 0
-904 -7471 0
-904 7472 0
-7472 7473 0
-905 -7472 0
-905 7473 0
-7473 7474 0
-906 -7473 0
-906 7474 0
-7474 7475 0
-907 -7474 0
-907 7475 0
-7475 7476 0
-908 -7475 0
-908 7476 0
-7476 7477 0
-909 -7476 0
-909 7477 0
-910 -7477 0
-898 1240 0
-899 1240 0
-900 1240 0
-901 1240 0
-902 1240 0
-903 1240 0
-904 1240 0
-905 1240 0
-906 1240 0
-907 1240 0
-908 1240 0
-909 1240 0
-910 1240 0
-1240 898 899 900 901 902 903 904 905 906 907 908 909 910 0
-911 79 0
-911 92 0
-79 -92 911 0
-912 80 0
-912 93 0
-80 -93 912 0
-913 81 0
-913 94 0
-81 -94 913 0
-914 82 0
-914 95 0
-82 -95 914 0
-915 83 0
-915 96 0
-83 -96 915 0
-916 84 0
-916 97 0
-84 -97 916 0
-917 85 0
-917 98 0
-85 -98 917 0
-918 86 0
-918 99 0
-86 -99 918 0
-919 87 0
-919 100 0
-87 -100 919 0
-920 88 0
-920 101 0
-88 -101 920 0
-921 89 0
-921 102 0
-89 -102 921 0
-922 90 0
-922 103 0
-90 -103 922 0
-923 91 0
-923 104 0
-91 -104 923 0
-911 7478 0
-7478 7479 0
-912 -7478 0
-912 7479 0
-7479 7480 0
-913 -7479 0
-913 7480 0
-7480 7481 0
-914 -7480 0
-914 7481 0
-7481 7482 0
-915 -7481 0
-915 7482 0
-7482 7483 0
-916 -7482 0
-916 7483 0
-7483 7484 0
-917 -7483 0
-917 7484 0
-7484 7485 0
-918 -7484 0
-918 7485 0
-7485 7486 0
-919 -7485 0
-919 7486 0
-7486 7487 0
-920 -7486 0
-920 7487 0
-7487 7488 0
-921 -7487 0
-921 7488 0
-7488 7489 0
-922 -7488 0
-922 7489 0
-923 -7489 0
-911 1241 0
-912 1241 0
-913 1241 0
-914 1241 0
-915 1241 0
-916 1241 0
-917 1241 0
-918 1241 0
-919 1241 0
-920 1241 0
-921 1241 0
-922 1241 0
-923 1241 0
-1241 911 912 913 914 915 916 917 918 919 920 921 922 923 0
-924 79 0
-924 105 0
-79 -105 924 0
-925 80 0
-925 106 0
-80 -106 925 0
-926 81 0
-926 107 0
-81 -107 926 0
-927 82 0
-927 108 0
-82 -108 927 0
-928 83 0
-928 109 0
-83 -109 928 0
-929 84 0
-929 110 0
-84 -110 929 0
-930 85 0
-930 111 0
-85 -111 930 0
-931 86 0
-931 112 0
-86 -112 931 0
-932 87 0
-932 113 0
-87 -113 932 0
-933 88 0
-933 114 0
-88 -114 933 0
-934 89 0
-934 115 0
-89 -115 934 0
-935 90 0
-935 116 0
-90 -116 935 0
-936 91 0
-936 117 0
-91 -117 936 0
-924 7490 0
-7490 7491 0
-925 -7490 0
-925 7491 0
-7491 7492 0
-926 -7491 0
-926 7492 0
-7492 7493 0
-927 -7492 0
-927 7493 0
-7493 7494 0
-928 -7493 0
-928 7494 0
-7494 7495 0
-929 -7494 0
-929 7495 0
-7495 7496 0
-930 -7495 0
-930 7496 0
-7496 7497 0
-931 -7496 0
-931 7497 0
-7497 7498 0
-932 -7497 0
-932 7498 0
-7498 7499 0
-933 -7498 0
-933 7499 0
-7499 7500 0
-934 -7499 0
-934 7500 0
-7500 7501 0
-935 -7500 0
-935 7501 0
-936 -7501 0
-924 1242 0
-925 1242 0
-926 1242 0
-927 1242 0
-928 1242 0
-929 1242 0
-930 1242 0
-931 1242 0
-932 1242 0
-933 1242 0
-934 1242 0
-935 1242 0
-936 1242 0
-1242 924 925 926 927 928 929 930 931 932 933 934 935 936 0
-937 79 0
-937 118 0
-79 -118 937 0
-938 80 0
-938 119 0
-80 -119 938 0
-939 81 0
-939 120 0
-81 -120 939 0
-940 82 0
-940 121 0
-82 -121 940 0
-941 83 0
-941 122 0
-83 -122 941 0
-942 84 0
-942 123 0
-84 -123 942 0
-943 85 0
-943 124 0
-85 -124 943 0
-944 86 0
-944 125 0
-86 -125 944 0
-945 87 0
-945 126 0
-87 -126 945 0
-946 88 0
-946 127 0
-88 -127 946 0
-947 89 0
-947 128 0
-89 -128 947 0
-948 90 0
-948 129 0
-90 -129 948 0
-949 91 0
-949 130 0
-91 -130 949 0
-937 7502 0
-7502 7503 0
-938 -7502 0
-938 7503 0
-7503 7504 0
-939 -7503 0
-939 7504 0
-7504 7505 0
-940 -7504 0
-940 7505 0
-7505 7506 0
-941 -7505 0
-941 7506 0
-7506 7507 0
-942 -7506 0
-942 7507 0
-7507 7508 0
-943 -7507 0
-943 7508 0
-7508 7509 0
-944 -7508 0
-944 7509 0
-7509 7510 0
-945 -7509 0
-945 7510 0
-7510 7511 0
-946 -7510 0
-946 7511 0
-7511 7512 0
-947 -7511 0
-947 7512 0
-7512 7513 0
-948 -7512 0
-948 7513 0
-949 -7513 0
-937 1243 0
-938 1243 0
-939 1243 0
-940 1243 0
-941 1243 0
-942 1243 0
-943 1243 0
-944 1243 0
-945 1243 0
-946 1243 0
-947 1243 0
-948 1243 0
-949 1243 0
-1243 937 938 939 940 941 942 943 944 945 946 947 948 949 0
-950 79 0
-950 131 0
-79 -131 950 0
-951 80 0
-951 132 0
-80 -132 951 0
-952 81 0
-952 133 0
-81 -133 952 0
-953 82 0
-953 134 0
-82 -134 953 0
-954 83 0
-954 135 0
-83 -135 954 0
-955 84 0
-955 136 0
-84 -136 955 0
-956 85 0
-956 137 0
-85 -137 956 0
-957 86 0
-957 138 0
-86 -138 957 0
-958 87 0
-958 139 0
-87 -139 958 0
-959 88 0
-959 140 0
-88 -140 959 0
-960 89 0
-960 141 0
-89 -141 960 0
-961 90 0
-961 142 0
-90 -142 961 0
-962 91 0
-962 143 0
-91 -143 962 0
-950 7514 0
-7514 7515 0
-951 -7514 0
-951 7515 0
-7515 7516 0
-952 -7515 0
-952 7516 0
-7516 7517 0
-953 -7516 0
-953 7517 0
-7517 7518 0
-954 -7517 0
-954 7518 0
-7518 7519 0
-955 -7518 0
-955 7519 0
-7519 7520 0
-956 -7519 0
-956 7520 0
-7520 7521 0
-957 -7520 0
-957 7521 0
-7521 7522 0
-958 -7521 0
-958 7522 0
-7522 7523 0
-959 -7522 0
-959 7523 0
-7523 7524 0
-960 -7523 0
-960 7524 0
-7524 7525 0
-961 -7524 0
-961 7525 0
-962 -7525 0
-950 1244 0
-951 1244 0
-952 1244 0
-953 1244 0
-954 1244 0
-955 1244 0
-956 1244 0
-957 1244 0
-958 1244 0
-959 1244 0
-960 1244 0
-961 1244 0
-962 1244 0
-1244 950 951 952 953 954 955 956 957 958 959 960 961 962 0
-963 79 0
-963 144 0
-79 -144 963 0
-964 80 0
-964 145 0
-80 -145 964 0
-965 81 0
-965 146 0
-81 -146 965 0
-966 82 0
-966 147 0
-82 -147 966 0
-967 83 0
-967 148 0
-83 -148 967 0
-968 84 0
-968 149 0
-84 -149 968 0
-969 85 0
-969 150 0
-85 -150 969 0
-970 86 0
-970 151 0
-86 -151 970 0
-971 87 0
-971 152 0
-87 -152 971 0
-972 88 0
-972 153 0
-88 -153 972 0
-973 89 0
-973 154 0
-89 -154 973 0
-974 90 0
-974 155 0
-90 -155 974 0
-975 91 0
-975 156 0
-91 -156 975 0
-963 7526 0
-7526 7527 0
-964 -7526 0
-964 7527 0
-7527 7528 0
-965 -7527 0
-965 7528 0
-7528 7529 0
-966 -7528 0
-966 7529 0
-7529 7530 0
-967 -7529 0
-967 7530 0
-7530 7531 0
-968 -7530 0
-968 7531 0
-7531 7532 0
-969 -7531 0
-969 7532 0
-7532 7533 0
-970 -7532 0
-970 7533 0
-7533 7534 0
-971 -7533 0
-971 7534 0
-7534 7535 0
-972 -7534 0
-972 7535 0
-7535 7536 0
-973 -7535 0
-973 7536 0
-7536 7537 0
-974 -7536 0
-974 7537 0
-975 -7537 0
-963 1245 0
-964 1245 0
-965 1245 0
-966 1245 0
-967 1245 0
-968 1245 0
-969 1245 0
-970 1245 0
-971 1245 0
-972 1245 0
-973 1245 0
-974 1245 0
-975 1245 0
-1245 963 964 965 966 967 968 969 970 971 972 973 974 975 0
-976 79 0
-976 157 0
-79 -157 976 0
-977 80 0
-977 158 0
-80 -158 977 0
-978 81 0
-978 159 0
-81 -159 978 0
-979 82 0
-979 160 0
-82 -160 979 0
-980 83 0
-980 161 0
-83 -161 980 0
-981 84 0
-981 162 0
-84 -162 981 0
-982 85 0
-982 163 0
-85 -163 982 0
-983 86 0
-983 164 0
-86 -164 983 0
-984 87 0
-984 165 0
-87 -165 984 0
-985 88 0
-985 166 0
-88 -166 985 0
-986 89 0
-986 167 0
-89 -167 986 0
-987 90 0
-987 168 0
-90 -168 987 0
-988 91 0
-988 169 0
-91 -169 988 0
-976 7538 0
-7538 7539 0
-977 -7538 0
-977 7539 0
-7539 7540 0
-978 -7539 0
-978 7540 0
-7540 7541 0
-979 -7540 0
-979 7541 0
-7541 7542 0
-980 -7541 0
-980 7542 0
-7542 7543 0
-981 -7542 0
-981 7543 0
-7543 7544 0
-982 -7543 0
-982 7544 0
-7544 7545 0
-983 -7544 0
-983 7545 0
-7545 7546 0
-984 -7545 0
-984 7546 0
-7546 7547 0
-985 -7546 0
-985 7547 0
-7547 7548 0
-986 -7547 0
-986 7548 0
-7548 7549 0
-987 -7548 0
-987 7549 0
-988 -7549 0
-976 1246 0
-977 1246 0
-978 1246 0
-979 1246 0
-980 1246 0
-981 1246 0
-982 1246 0
-983 1246 0
-984 1246 0
-985 1246 0
-986 1246 0
-987 1246 0
-988 1246 0
-1246 976 977 978 979 980 981 982 983 984 985 986 987 988 0
-989 92 0
-989 105 0
-92 -105 989 0
-990 93 0
-990 106 0
-93 -106 990 0
-991 94 0
-991 107 0
-94 -107 991 0
-992 95 0
-992 108 0
-95 -108 992 0
-993 96 0
-993 109 0
-96 -109 993 0
-994 97 0
-994 110 0
-97 -110 994 0
-995 98 0
-995 111 0
-98 -111 995 0
-996 99 0
-996 112 0
-99 -112 996 0
-997 100 0
-997 113 0
-100 -113 997 0
-998 101 0
-998 114 0
-101 -114 998 0
-999 102 0
-999 115 0
-102 -115 999 0
-1000 103 0
-1000 116 0
-103 -116 1000 0
-1001 104 0
-1001 117 0
-104 -117 1001 0
-989 7550 0
-7550 7551 0
-990 -7550 0
-990 7551 0
-7551 7552 0
-991 -7551 0
-991 7552 0
-7552 7553 0
-992 -7552 0
-992 7553 0
-7553 7554 0
-993 -7553 0
-993 7554 0
-7554 7555 0
-994 -7554 0
-994 7555 0
-7555 7556 0
-995 -7555 0
-995 7556 0
-7556 7557 0
-996 -7556 0
-996 7557 0
-7557 7558 0
-997 -7557 0
-997 7558 0
-7558 7559 0
-998 -7558 0
-998 7559 0
-7559 7560 0
-999 -7559 0
-999 7560 0
-7560 7561 0
-1000 -7560 0
-1000 7561 0
-1001 -7561 0
-989 1247 0
-990 1247 0
-991 1247 0
-992 1247 0
-993 1247 0
-994 1247 0
-995 1247 0
-996 1247 0
-997 1247 0
-998 1247 0
-999 1247 0
-1000 1247 0
-1001 1247 0
-1247 989 990 991 992 993 994 995 996 997 998 999 1000 1001 0
-1002 92 0
-1002 118 0
-92 -118 1002 0
-1003 93 0
-1003 119 0
-93 -119 1003 0
-1004 94 0
-1004 120 0
-94 -120 1004 0
-1005 95 0
-1005 121 0
-95 -121 1005 0
-1006 96 0
-1006 122 0
-96 -122 1006 0
-1007 97 0
-1007 123 0
-97 -123 1007 0
-1008 98 0
-1008 124 0
-98 -124 1008 0
-1009 99 0
-1009 125 0
-99 -125 1009 0
-1010 100 0
-1010 126 0
-100 -126 1010 0
-1011 101 0
-1011 127 0
-101 -127 1011 0
-1012 102 0
-1012 128 0
-102 -128 1012 0
-1013 103 0
-1013 129 0
-103 -129 1013 0
-1014 104 0
-1014 130 0
-104 -130 1014 0
-1002 7562 0
-7562 7563 0
-1003 -7562 0
-1003 7563 0
-7563 7564 0
-1004 -7563 0
-1004 7564 0
-7564 7565 0
-1005 -7564 0
-1005 7565 0
-7565 7566 0
-1006 -7565 0
-1006 7566 0
-7566 7567 0
-1007 -7566 0
-1007 7567 0
-7567 7568 0
-1008 -7567 0
-1008 7568 0
-7568 7569 0
-1009 -7568 0
-1009 7569 0
-7569 7570 0
-1010 -7569 0
-1010 7570 0
-7570 7571 0
-1011 -7570 0
-1011 7571 0
-7571 7572 0
-1012 -7571 0
-1012 7572 0
-7572 7573 0
-1013 -7572 0
-1013 7573 0
-1014 -7573 0
-1002 1248 0
-1003 1248 0
-1004 1248 0
-1005 1248 0
-1006 1248 0
-1007 1248 0
-1008 1248 0
-1009 1248 0
-1010 1248 0
-1011 1248 0
-1012 1248 0
-1013 1248 0
-1014 1248 0
-1248 1002 1003 1004 1005 1006 1007 1008 1009 1010 1011 1012 1013 1014 0
-1015 92 0
-1015 131 0
-92 -131 1015 0
-1016 93 0
-1016 132 0
-93 -132 1016 0
-1017 94 0
-1017 133 0
-94 -133 1017 0
-1018 95 0
-1018 134 0
-95 -134 1018 0
-1019 96 0
-1019 135 0
-96 -135 1019 0
-1020 97 0
-1020 136 0
-97 -136 1020 0
-1021 98 0
-1021 137 0
-98 -137 1021 0
-1022 99 0
-1022 138 0
-99 -138 1022 0
-1023 100 0
-1023 139 0
-100 -139 1023 0
-1024 101 0
-1024 140 0
-101 -140 1024 0
-1025 102 0
-1025 141 0
-102 -141 1025 0
-1026 103 0
-1026 142 0
-103 -142 1026 0
-1027 104 0
-1027 143 0
-104 -143 1027 0
-1015 7574 0
-7574 7575 0
-1016 -7574 0
-1016 7575 0
-7575 7576 0
-1017 -7575 0
-1017 7576 0
-7576 7577 0
-1018 -7576 0
-1018 7577 0
-7577 7578 0
-1019 -7577 0
-1019 7578 0
-7578 7579 0
-1020 -7578 0
-1020 7579 0
-7579 7580 0
-1021 -7579 0
-1021 7580 0
-7580 7581 0
-1022 -7580 0
-1022 7581 0
-7581 7582 0
-1023 -7581 0
-1023 7582 0
-7582 7583 0
-1024 -7582 0
-1024 7583 0
-7583 7584 0
-1025 -7583 0
-1025 7584 0
-7584 7585 0
-1026 -7584 0
-1026 7585 0
-1027 -7585 0
-1015 1249 0
-1016 1249 0
-1017 1249 0
-1018 1249 0
-1019 1249 0
-1020 1249 0
-1021 1249 0
-1022 1249 0
-1023 1249 0
-1024 1249 0
-1025 1249 0
-1026 1249 0
-1027 1249 0
-1249 1015 1016 1017 1018 1019 1020 1021 1022 1023 1024 1025 1026 1027 0
-1028 92 0
-1028 144 0
-92 -144 1028 0
-1029 93 0
-1029 145 0
-93 -145 1029 0
-1030 94 0
-1030 146 0
-94 -146 1030 0
-1031 95 0
-1031 147 0
-95 -147 1031 0
-1032 96 0
-1032 148 0
-96 -148 1032 0
-1033 97 0
-1033 149 0
-97 -149 1033 0
-1034 98 0
-1034 150 0
-98 -150 1034 0
-1035 99 0
-1035 151 0
-99 -151 1035 0
-1036 100 0
-1036 152 0
-100 -152 1036 0
-1037 101 0
-1037 153 0
-101 -153 1037 0
-1038 102 0
-1038 154 0
-102 -154 1038 0
-1039 103 0
-1039 155 0
-103 -155 1039 0
-1040 104 0
-1040 156 0
-104 -156 1040 0
-1028 7586 0
-7586 7587 0
-1029 -7586 0
-1029 7587 0
-7587 7588 0
-1030 -7587 0
-1030 7588 0
-7588 7589 0
-1031 -7588 0
-1031 7589 0
-7589 7590 0
-1032 -7589 0
-1032 7590 0
-7590 7591 0
-1033 -7590 0
-1033 7591 0
-7591 7592 0
-1034 -7591 0
-1034 7592 0
-7592 7593 0
-1035 -7592 0
-1035 7593 0
-7593 7594 0
-1036 -7593 0
-1036 7594 0
-7594 7595 0
-1037 -7594 0
-1037 7595 0
-7595 7596 0
-1038 -7595 0
-1038 7596 0
-7596 7597 0
-1039 -7596 0
-1039 7597 0
-1040 -7597 0
-1028 1250 0
-1029 1250 0
-1030 1250 0
-1031 1250 0
-1032 1250 0
-1033 1250 0
-1034 1250 0
-1035 1250 0
-1036 1250 0
-1037 1250 0
-1038 1250 0
-1039 1250 0
-1040 1250 0
-1250 1028 1029 1030 1031 1032 1033 1034 1035 1036 1037 1038 1039 1040 0
-1041 92 0
-1041 157 0
-92 -157 1041 0
-1042 93 0
-1042 158 0
-93 -158 1042 0
-1043 94 0
-1043 159 0
-94 -159 1043 0
-1044 95 0
-1044 160 0
-95 -160 1044 0
-1045 96 0
-1045 161 0
-96 -161 1045 0
-1046 97 0
-1046 162 0
-97 -162 1046 0
-1047 98 0
-1047 163 0
-98 -163 1047 0
-1048 99 0
-1048 164 0
-99 -164 1048 0
-1049 100 0
-1049 165 0
-100 -165 1049 0
-1050 101 0
-1050 166 0
-101 -166 1050 0
-1051 102 0
-1051 167 0
-102 -167 1051 0
-1052 103 0
-1052 168 0
-103 -168 1052 0
-1053 104 0
-1053 169 0
-104 -169 1053 0
-1041 7598 0
-7598 7599 0
-1042 -7598 0
-1042 7599 0
-7599 7600 0
-1043 -7599 0
-1043 7600 0
-7600 7601 0
-1044 -7600 0
-1044 7601 0
-7601 7602 0
-1045 -7601 0
-1045 7602 0
-7602 7603 0
-1046 -7602 0
-1046 7603 0
-7603 7604 0
-1047 -7603 0
-1047 7604 0
-7604 7605 0
-1048 -7604 0
-1048 7605 0
-7605 7606 0
-1049 -7605 0
-1049 7606 0
-7606 7607 0
-1050 -7606 0
-1050 7607 0
-7607 7608 0
-1051 -7607 0
-1051 7608 0
-7608 7609 0
-1052 -7608 0
-1052 7609 0
-1053 -7609 0
-1041 1251 0
-1042 1251 0
-1043 1251 0
-1044 1251 0
-1045 1251 0
-1046 1251 0
-1047 1251 0
-1048 1251 0
-1049 1251 0
-1050 1251 0
-1051 1251 0
-1052 1251 0
-1053 1251 0
-1251 1041 1042 1043 1044 1045 1046 1047 1048 1049 1050 1051 1052 1053 0
-1054 105 0
-1054 118 0
-105 -118 1054 0
-1055 106 0
-1055 119 0
-106 -119 1055 0
-1056 107 0
-1056 120 0
-107 -120 1056 0
-1057 108 0
-1057 121 0
-108 -121 1057 0
-1058 109 0
-1058 122 0
-109 -122 1058 0
-1059 110 0
-1059 123 0
-110 -123 1059 0
-1060 111 0
-1060 124 0
-111 -124 1060 0
-1061 112 0
-1061 125 0
-112 -125 1061 0
-1062 113 0
-1062 126 0
-113 -126 1062 0
-1063 114 0
-1063 127 0
-114 -127 1063 0
-1064 115 0
-1064 128 0
-115 -128 1064 0
-1065 116 0
-1065 129 0
-116 -129 1065 0
-1066 117 0
-1066 130 0
-117 -130 1066 0
-1054 7610 0
-7610 7611 0
-1055 -7610 0
-1055 7611 0
-7611 7612 0
-1056 -7611 0
-1056 7612 0
-7612 7613 0
-1057 -7612 0
-1057 7613 0
-7613 7614 0
-1058 -7613 0
-1058 7614 0
-7614 7615 0
-1059 -7614 0
-1059 7615 0
-7615 7616 0
-1060 -7615 0
-1060 7616 0
-7616 7617 0
-1061 -7616 0
-1061 7617 0
-7617 7618 0
-1062 -7617 0
-1062 7618 0
-7618 7619 0
-1063 -7618 0
-1063 7619 0
-7619 7620 0
-1064 -7619 0
-1064 7620 0
-7620 7621 0
-1065 -7620 0
-1065 7621 0
-1066 -7621 0
-1054 1252 0
-1055 1252 0
-1056 1252 0
-1057 1252 0
-1058 1252 0
-1059 1252 0
-1060 1252 0
-1061 1252 0
-1062 1252 0
-1063 1252 0
-1064 1252 0
-1065 1252 0
-1066 1252 0
-1252 1054 1055 1056 1057 1058 1059 1060 1061 1062 1063 1064 1065 1066 0
-1067 105 0
-1067 131 0
-105 -131 1067 0
-1068 106 0
-1068 132 0
-106 -132 1068 0
-1069 107 0
-1069 133 0
-107 -133 1069 0
-1070 108 0
-1070 134 0
-108 -134 1070 0
-1071 109 0
-1071 135 0
-109 -135 1071 0
-1072 110 0
-1072 136 0
-110 -136 1072 0
-1073 111 0
-1073 137 0
-111 -137 1073 0
-1074 112 0
-1074 138 0
-112 -138 1074 0
-1075 113 0
-1075 139 0
-113 -139 1075 0
-1076 114 0
-1076 140 0
-114 -140 1076 0
-1077 115 0
-1077 141 0
-115 -141 1077 0
-1078 116 0
-1078 142 0
-116 -142 1078 0
-1079 117 0
-1079 143 0
-117 -143 1079 0
-1067 7622 0
-7622 7623 0
-1068 -7622 0
-1068 7623 0
-7623 7624 0
-1069 -7623 0
-1069 7624 0
-7624 7625 0
-1070 -7624 0
-1070 7625 0
-7625 7626 0
-1071 -7625 0
-1071 7626 0
-7626 7627 0
-1072 -7626 0
-1072 7627 0
-7627 7628 0
-1073 -7627 0
-1073 7628 0
-7628 7629 0
-1074 -7628 0
-1074 7629 0
-7629 7630 0
-1075 -7629 0
-1075 7630 0
-7630 7631 0
-1076 -7630 0
-1076 7631 0
-7631 7632 0
-1077 -7631 0
-1077 7632 0
-7632 7633 0
-1078 -7632 0
-1078 7633 0
-1079 -7633 0
-1067 1253 0
-1068 1253 0
-1069 1253 0
-1070 1253 0
-1071 1253 0
-1072 1253 0
-1073 1253 0
-1074 1253 0
-1075 1253 0
-1076 1253 0
-1077 1253 0
-1078 1253 0
-1079 1253 0
-1253 1067 1068 1069 1070 1071 1072 1073 1074 1075 1076 1077 1078 1079 0
-1080 105 0
-1080 144 0
-105 -144 1080 0
-1081 106 0
-1081 145 0
-106 -145 1081 0
-1082 107 0
-1082 146 0
-107 -146 1082 0
-1083 108 0
-1083 147 0
-108 -147 1083 0
-1084 109 0
-1084 148 0
-109 -148 1084 0
-1085 110 0
-1085 149 0
-110 -149 1085 0
-1086 111 0
-1086 150 0
-111 -150 1086 0
-1087 112 0
-1087 151 0
-112 -151 1087 0
-1088 113 0
-1088 152 0
-113 -152 1088 0
-1089 114 0
-1089 153 0
-114 -153 1089 0
-1090 115 0
-1090 154 0
-115 -154 1090 0
-1091 116 0
-1091 155 0
-116 -155 1091 0
-1092 117 0
-1092 156 0
-117 -156 1092 0
-1080 7634 0
-7634 7635 0
-1081 -7634 0
-1081 7635 0
-7635 7636 0
-1082 -7635 0
-1082 7636 0
-7636 7637 0
-1083 -7636 0
-1083 7637 0
-7637 7638 0
-1084 -7637 0
-1084 7638 0
-7638 7639 0
-1085 -7638 0
-1085 7639 0
-7639 7640 0
-1086 -7639 0
-1086 7640 0
-7640 7641 0
-1087 -7640 0
-1087 7641 0
-7641 7642 0
-1088 -7641 0
-1088 7642 0
-7642 7643 0
-1089 -7642 0
-1089 7643 0
-7643 7644 0
-1090 -7643 0
-1090 7644 0
-7644 7645 0
-1091 -7644 0
-1091 7645 0
-1092 -7645 0
-1080 1254 0
-1081 1254 0
-1082 1254 0
-1083 1254 0
-1084 1254 0
-1085 1254 0
-1086 1254 0
-1087 1254 0
-1088 1254 0
-1089 1254 0
-1090 1254 0
-1091 1254 0
-1092 1254 0
-1254 1080 1081 1082 1083 1084 1085 1086 1087 1088 1089 1090 1091 1092 0
-1093 105 0
-1093 157 0
-105 -157 1093 0
-1094 106 0
-1094 158 0
-106 -158 1094 0
-1095 107 0
-1095 159 0
-107 -159 1095 0
-1096 108 0
-1096 160 0
-108 -160 1096 0
-1097 109 0
-1097 161 0
-109 -161 1097 0
-1098 110 0
-1098 162 0
-110 -162 1098 0
-1099 111 0
-1099 163 0
-111 -163 1099 0
-1100 112 0
-1100 164 0
-112 -164 1100 0
-1101 113 0
-1101 165 0
-113 -165 1101 0
-1102 114 0
-1102 166 0
-114 -166 1102 0
-1103 115 0
-1103 167 0
-115 -167 1103 0
-1104 116 0
-1104 168 0
-116 -168 1104 0
-1105 117 0
-1105 169 0
-117 -169 1105 0
-1093 7646 0
-7646 7647 0
-1094 -7646 0
-1094 7647 0
-7647 7648 0
-1095 -7647 0
-1095 7648 0
-7648 7649 0
-1096 -7648 0
-1096 7649 0
-7649 7650 0
-1097 -7649 0
-1097 7650 0
-7650 7651 0
-1098 -7650 0
-1098 7651 0
-7651 7652 0
-1099 -7651 0
-1099 7652 0
-7652 7653 0
-1100 -7652 0
-1100 7653 0
-7653 7654 0
-1101 -7653 0
-1101 7654 0
-7654 7655 0
-1102 -7654 0
-1102 7655 0
-7655 7656 0
-1103 -7655 0
-1103 7656 0
-7656 7657 0
-1104 -7656 0
-1104 7657 0
-1105 -7657 0
-1093 1255 0
-1094 1255 0
-1095 1255 0
-1096 1255 0
-1097 1255 0
-1098 1255 0
-1099 1255 0
-1100 1255 0
-1101 1255 0
-1102 1255 0
-1103 1255 0
-1104 1255 0
-1105 1255 0
-1255 1093 1094 1095 1096 1097 1098 1099 1100 1101 1102 1103 1104 1105 0
-1106 118 0
-1106 131 0
-118 -131 1106 0
-1107 119 0
-1107 132 0
-119 -132 1107 0
-1108 120 0
-1108 133 0
-120 -133 1108 0
-1109 121 0
-1109 134 0
-121 -134 1109 0
-1110 122 0
-1110 135 0
-122 -135 1110 0
-1111 123 0
-1111 136 0
-123 -136 1111 0
-1112 124 0
-1112 137 0
-124 -137 1112 0
-1113 125 0
-1113 138 0
-125 -138 1113 0
-1114 126 0
-1114 139 0
-126 -139 1114 0
-1115 127 0
-1115 140 0
-127 -140 1115 0
-1116 128 0
-1116 141 0
-128 -141 1116 0
-1117 129 0
-1117 142 0
-129 -142 1117 0
-1118 130 0
-1118 143 0
-130 -143 1118 0
-1106 7658 0
-7658 7659 0
-1107 -7658 0
-1107 7659 0
-7659 7660 0
-1108 -7659 0
-1108 7660 0
-7660 7661 0
-1109 -7660 0
-1109 7661 0
-7661 7662 0
-1110 -7661 0
-1110 7662 0
-7662 7663 0
-1111 -7662 0
-1111 7663 0
-7663 7664 0
-1112 -7663 0
-1112 7664 0
-7664 7665 0
-1113 -7664 0
-1113 7665 0
-7665 7666 0
-1114 -7665 0
-1114 7666 0
-7666 7667 0
-1115 -7666 0
-1115 7667 0
-7667 7668 0
-1116 -7667 0
-1116 7668 0
-7668 7669 0
-1117 -7668 0
-1117 7669 0
-1118 -7669 0
-1106 1256 0
-1107 1256 0
-1108 1256 0
-1109 1256 0
-1110 1256 0
-1111 1256 0
-1112 1256 0
-1113 1256 0
-1114 1256 0
-1115 1256 0
-1116 1256 0
-1117 1256 0
-1118 1256 0
-1256 1106 1107 1108 1109 1110 1111 1112 1113 1114 1115 1116 1117 1118 0
-1119 118 0
-1119 144 0
-118 -144 1119 0
-1120 119 0
-1120 145 0
-119 -145 1120 0
-1121 120 0
-1121 146 0
-120 -146 1121 0
-1122 121 0
-1122 147 0
-121 -147 1122 0
-1123 122 0
-1123 148 0
-122 -148 1123 0
-1124 123 0
-1124 149 0
-123 -149 1124 0
-1125 124 0
-1125 150 0
-124 -150 1125 0
-1126 125 0
-1126 151 0
-125 -151 1126 0
-1127 126 0
-1127 152 0
-126 -152 1127 0
-1128 127 0
-1128 153 0
-127 -153 1128 0
-1129 128 0
-1129 154 0
-128 -154 1129 0
-1130 129 0
-1130 155 0
-129 -155 1130 0
-1131 130 0
-1131 156 0
-130 -156 1131 0
-1119 7670 0
-7670 7671 0
-1120 -7670 0
-1120 7671 0
-7671 7672 0
-1121 -7671 0
-1121 7672 0
-7672 7673 0
-1122 -7672 0
-1122 7673 0
-7673 7674 0
-1123 -7673 0
-1123 7674 0
-7674 7675 0
-1124 -7674 0
-1124 7675 0
-7675 7676 0
-1125 -7675 0
-1125 7676 0
-7676 7677 0
-1126 -7676 0
-1126 7677 0
-7677 7678 0
-1127 -7677 0
-1127 7678 0
-7678 7679 0
-1128 -7678 0
-1128 7679 0
-7679 7680 0
-1129 -7679 0
-1129 7680 0
-7680 7681 0
-1130 -7680 0
-1130 7681 0
-1131 -7681 0
-1119 1257 0
-1120 1257 0
-1121 1257 0
-1122 1257 0
-1123 1257 0
-1124 1257 0
-1125 1257 0
-1126 1257 0
-1127 1257 0
-1128 1257 0
-1129 1257 0
-1130 1257 0
-1131 1257 0
-1257 1119 1120 1121 1122 1123 1124 1125 1126 1127 1128 1129 1130 1131 0
-1132 118 0
-1132 157 0
-118 -157 1132 0
-1133 119 0
-1133 158 0
-119 -158 1133 0
-1134 120 0
-1134 159 0
-120 -159 1134 0
-1135 121 0
-1135 160 0
-121 -160 1135 0
-1136 122 0
-1136 161 0
-122 -161 1136 0
-1137 123 0
-1137 162 0
-123 -162 1137 0
-1138 124 0
-1138 163 0
-124 -163 1138 0
-1139 125 0
-1139 164 0
-125 -164 1139 0
-1140 126 0
-1140 165 0
-126 -165 1140 0
-1141 127 0
-1141 166 0
-127 -166 1141 0
-1142 128 0
-1142 167 0
-128 -167 1142 0
-1143 129 0
-1143 168 0
-129 -168 1143 0
-1144 130 0
-1144 169 0
-130 -169 1144 0
-1132 7682 0
-7682 7683 0
-1133 -7682 0
-1133 7683 0
-7683 7684 0
-1134 -7683 0
-1134 7684 0
-7684 7685 0
-1135 -7684 0
-1135 7685 0
-7685 7686 0
-1136 -7685 0
-1136 7686 0
-7686 7687 0
-1137 -7686 0
-1137 7687 0
-7687 7688 0
-1138 -7687 0
-1138 7688 0
-7688 7689 0
-1139 -7688 0
-1139 7689 0
-7689 7690 0
-1140 -7689 0
-1140 7690 0
-7690 7691 0
-1141 -7690 0
-1141 7691 0
-7691 7692 0
-1142 -7691 0
-1142 7692 0
-7692 7693 0
-1143 -7692 0
-1143 7693 0
-1144 -7693 0
-1132 1258 0
-1133 1258 0
-1134 1258 0
-1135 1258 0
-1136 1258 0
-1137 1258 0
-1138 1258 0
-1139 1258 0
-1140 1258 0
-1141 1258 0
-1142 1258 0
-1143 1258 0
-1144 1258 0
-1258 1132 1133 1134 1135 1136 1137 1138 1139 1140 1141 1142 1143 1144 0
-1145 131 0
-1145 144 0
-131 -144 1145 0
-1146 132 0
-1146 145 0
-132 -145 1146 0
-1147 133 0
-1147 146 0
-133 -146 1147 0
-1148 134 0
-1148 147 0
-134 -147 1148 0
-1149 135 0
-1149 148 0
-135 -148 1149 0
-1150 136 0
-1150 149 0
-136 -149 1150 0
-1151 137 0
-1151 150 0
-137 -150 1151 0
-1152 138 0
-1152 151 0
-138 -151 1152 0
-1153 139 0
-1153 152 0
-139 -152 1153 0
-1154 140 0
-1154 153 0
-140 -153 1154 0
-1155 141 0
-1155 154 0
-141 -154 1155 0
-1156 142 0
-1156 155 0
-142 -155 1156 0
-1157 143 0
-1157 156 0
-143 -156 1157 0
-1145 7694 0
-7694 7695 0
-1146 -7694 0
-1146 7695 0
-7695 7696 0
-1147 -7695 0
-1147 7696 0
-7696 7697 0
-1148 -7696 0
-1148 7697 0
-7697 7698 0
-1149 -7697 0
-1149 7698 0
-7698 7699 0
-1150 -7698 0
-1150 7699 0
-7699 7700 0
-1151 -7699 0
-1151 7700 0
-7700 7701 0
-1152 -7700 0
-1152 7701 0
-7701 7702 0
-1153 -7701 0
-1153 7702 0
-7702 7703 0
-1154 -7702 0
-1154 7703 0
-7703 7704 0
-1155 -7703 0
-1155 7704 0
-7704 7705 0
-1156 -7704 0
-1156 7705 0
-1157 -7705 0
-1145 1259 0
-1146 1259 0
-1147 1259 0
-1148 1259 0
-1149 1259 0
-1150 1259 0
-1151 1259 0
-1152 1259 0
-1153 1259 0
-1154 1259 0
-1155 1259 0
-1156 1259 0
-1157 1259 0
-1259 1145 1146 1147 1148 1149 1150 1151 1152 1153 1154 1155 1156 1157 0
-1158 131 0
-1158 157 0
-131 -157 1158 0
-1159 132 0
-1159 158 0
-132 -158 1159 0
-1160 133 0
-1160 159 0
-133 -159 1160 0
-1161 134 0
-1161 160 0
-134 -160 1161 0
-1162 135 0
-1162 161 0
-135 -161 1162 0
-1163 136 0
-1163 162 0
-136 -162 1163 0
-1164 137 0
-1164 163 0
-137 -163 1164 0
-1165 138 0
-1165 164 0
-138 -164 1165 0
-1166 139 0
-1166 165 0
-139 -165 1166 0
-1167 140 0
-1167 166 0
-140 -166 1167 0
-1168 141 0
-1168 167 0
-141 -167 1168 0
-1169 142 0
-1169 168 0
-142 -168 1169 0
-1170 143 0
-1170 169 0
-143 -169 1170 0
-1158 7706 0
-7706 7707 0
-1159 -7706 0
-1159 7707 0
-7707 7708 0
-1160 -7707 0
-1160 7708 0
-7708 7709 0
-1161 -7708 0
-1161 7709 0
-7709 7710 0
-1162 -7709 0
-1162 7710 0
-7710 7711 0
-1163 -7710 0
-1163 7711 0
-7711 7712 0
-1164 -7711 0
-1164 7712 0
-7712 7713 0
-1165 -7712 0
-1165 7713 0
-7713 7714 0
-1166 -7713 0
-1166 7714 0
-7714 7715 0
-1167 -7714 0
-1167 7715 0
-7715 7716 0
-1168 -7715 0
-1168 7716 0
-7716 7717 0
-1169 -7716 0
-1169 7717 0
-1170 -7717 0
-1158 1260 0
-1159 1260 0
-1160 1260 0
-1161 1260 0
-1162 1260 0
-1163 1260 0
-1164 1260 0
-1165 1260 0
-1166 1260 0
-1167 1260 0
-1168 1260 0
-1169 1260 0
-1170 1260 0
-1260 1158 1159 1160 1161 1162 1163 1164 1165 1166 1167 1168 1169 1170 0
-1171 144 0
-1171 157 0
-144 -157 1171 0
-1172 145 0
-1172 158 0
-145 -158 1172 0
-1173 146 0
-1173 159 0
-146 -159 1173 0
-1174 147 0
-1174 160 0
-147 -160 1174 0
-1175 148 0
-1175 161 0
-148 -161 1175 0
-1176 149 0
-1176 162 0
-149 -162 1176 0
-1177 150 0
-1177 163 0
-150 -163 1177 0
-1178 151 0
-1178 164 0
-151 -164 1178 0
-1179 152 0
-1179 165 0
-152 -165 1179 0
-1180 153 0
-1180 166 0
-153 -166 1180 0
-1181 154 0
-1181 167 0
-154 -167 1181 0
-1182 155 0
-1182 168 0
-155 -168 1182 0
-1183 156 0
-1183 169 0
-156 -169 1183 0
-1171 7718 0
-7718 7719 0
-1172 -7718 0
-1172 7719 0
-7719 7720 0
-1173 -7719 0
-1173 7720 0
-7720 7721 0
-1174 -7720 0
-1174 7721 0
-7721 7722 0
-1175 -7721 0
-1175 7722 0
-7722 7723 0
-1176 -7722 0
-1176 7723 0
-7723 7724 0
-1177 -7723 0
-1177 7724 0
-7724 7725 0
-1178 -7724 0
-1178 7725 0
-7725 7726 0
-1179 -7725 0
-1179 7726 0
-7726 7727 0
-1180 -7726 0
-1180 7727 0
-7727 7728 0
-1181 -7727 0
-1181 7728 0
-7728 7729 0
-1182 -7728 0
-1182 7729 0
-1183 -7729 0
-1171 1261 0
-1172 1261 0
-1173 1261 0
-1174 1261 0
-1175 1261 0
-1176 1261 0
-1177 1261 0
-1178 1261 0
-1179 1261 0
-1180 1261 0
-1181 1261 0
-1182 1261 0
-1183 1261 0
-1261 1171 1172 1173 1174 1175 1176 1177 1178 1179 1180 1181 1182 1183 0
-1262 1 0
-1262 14 0
-1262 27 0
-1 -14 -27 1262 0
-1263 2 0
-1263 15 0
-1263 28 0
-2 -15 -28 1263 0
-1264 3 0
-1264 16 0
-1264 29 0
-3 -16 -29 1264 0
-1265 4 0
-1265 17 0
-1265 30 0
-4 -17 -30 1265 0
-1266 5 0
-1266 18 0
-1266 31 0
-5 -18 -31 1266 0
-1267 6 0
-1267 19 0
-1267 32 0
-6 -19 -32 1267 0
-1268 7 0
-1268 20 0
-1268 33 0
-7 -20 -33 1268 0
-1269 8 0
-1269 21 0
-1269 34 0
-8 -21 -34 1269 0
-1270 9 0
-1270 22 0
-1270 35 0
-9 -22 -35 1270 0
-1271 10 0
-1271 23 0
-1271 36 0
-10 -23 -36 1271 0
-1272 11 0
-1272 24 0
-1272 37 0
-11 -24 -37 1272 0
-1273 12 0
-1273 25 0
-1273 38 0
-12 -25 -38 1273 0
-1274 13 0
-1274 26 0
-1274 39 0
-13 -26 -39 1274 0
-1262 4980 0
-1263 4980 0
-1264 4980 0
-1265 4980 0
-1266 4980 0
-1267 4980 0
-1268 4980 0
-1269 4980 0
-1270 4980 0
-1271 4980 0
-1272 4980 0
-1273 4980 0
-1274 4980 0
-4980 1262 1263 1264 1265 1266 1267 1268 1269 1270 1271 1272 1273 1274 0
-1275 1 0
-1275 14 0
-1275 40 0
-1 -14 -40 1275 0
-1276 2 0
-1276 15 0
-1276 41 0
-2 -15 -41 1276 0
-1277 3 0
-1277 16 0
-1277 42 0
-3 -16 -42 1277 0
-1278 4 0
-1278 17 0
-1278 43 0
-4 -17 -43 1278 0
-1279 5 0
-1279 18 0
-1279 44 0
-5 -18 -44 1279 0
-1280 6 0
-1280 19 0
-1280 45 0
-6 -19 -45 1280 0
-1281 7 0
-1281 20 0
-1281 46 0
-7 -20 -46 1281 0
-1282 8 0
-1282 21 0
-1282 47 0
-8 -21 -47 1282 0
-1283 9 0
-1283 22 0
-1283 48 0
-9 -22 -48 1283 0
-1284 10 0
-1284 23 0
-1284 49 0
-10 -23 -49 1284 0
-1285 11 0
-1285 24 0
-1285 50 0
-11 -24 -50 1285 0
-1286 12 0
-1286 25 0
-1286 51 0
-12 -25 -51 1286 0
-1287 13 0
-1287 26 0
-1287 52 0
-13 -26 -52 1287 0
-1275 4981 0
-1276 4981 0
-1277 4981 0
-1278 4981 0
-1279 4981 0
-1280 4981 0
-1281 4981 0
-1282 4981 0
-1283 4981 0
-1284 4981 0
-1285 4981 0
-1286 4981 0
-1287 4981 0
-4981 1275 1276 1277 1278 1279 1280 1281 1282 1283 1284 1285 1286 1287 0
-1288 1 0
-1288 14 0
-1288 53 0
-1 -14 -53 1288 0
-1289 2 0
-1289 15 0
-1289 54 0
-2 -15 -54 1289 0
-1290 3 0
-1290 16 0
-1290 55 0
-3 -16 -55 1290 0
-1291 4 0
-1291 17 0
-1291 56 0
-4 -17 -56 1291 0
-1292 5 0
-1292 18 0
-1292 57 0
-5 -18 -57 1292 0
-1293 6 0
-1293 19 0
-1293 58 0
-6 -19 -58 1293 0
-1294 7 0
-1294 20 0
-1294 59 0
-7 -20 -59 1294 0
-1295 8 0
-1295 21 0
-1295 60 0
-8 -21 -60 1295 0
-1296 9 0
-1296 22 0
-1296 61 0
-9 -22 -61 1296 0
-1297 10 0
-1297 23 0
-1297 62 0
-10 -23 -62 1297 0
-1298 11 0
-1298 24 0
-1298 63 0
-11 -24 -63 1298 0
-1299 12 0
-1299 25 0
-1299 64 0
-12 -25 -64 1299 0
-1300 13 0
-1300 26 0
-1300 65 0
-13 -26 -65 1300 0
-1288 4982 0
-1289 4982 0
-1290 4982 0
-1291 4982 0
-1292 4982 0
-1293 4982 0
-1294 4982 0
-1295 4982 0
-1296 4982 0
-1297 4982 0
-1298 4982 0
-1299 4982 0
-1300 4982 0
-4982 1288 1289 1290 1291 1292 1293 1294 1295 1296 1297 1298 1299 1300 0
-1301 1 0
-1301 14 0
-1301 66 0
-1 -14 -66 1301 0
-1302 2 0
-1302 15 0
-1302 67 0
-2 -15 -67 1302 0
-1303 3 0
-1303 16 0
-1303 68 0
-3 -16 -68 1303 0
-1304 4 0
-1304 17 0
-1304 69 0
-4 -17 -69 1304 0
-1305 5 0
-1305 18 0
-1305 70 0
-5 -18 -70 1305 0
-1306 6 0
-1306 19 0
-1306 71 0
-6 -19 -71 1306 0
-1307 7 0
-1307 20 0
-1307 72 0
-7 -20 -72 1307 0
-1308 8 0
-1308 21 0
-1308 73 0
-8 -21 -73 1308 0
-1309 9 0
-1309 22 0
-1309 74 0
-9 -22 -74 1309 0
-1310 10 0
-1310 23 0
-1310 75 0
-10 -23 -75 1310 0
-1311 11 0
-1311 24 0
-1311 76 0
-11 -24 -76 1311 0
-1312 12 0
-1312 25 0
-1312 77 0
-12 -25 -77 1312 0
-1313 13 0
-1313 26 0
-1313 78 0
-13 -26 -78 1313 0
-1301 4983 0
-1302 4983 0
-1303 4983 0
-1304 4983 0
-1305 4983 0
-1306 4983 0
-1307 4983 0
-1308 4983 0
-1309 4983 0
-1310 4983 0
-1311 4983 0
-1312 4983 0
-1313 4983 0
-4983 1301 1302 1303 1304 1305 1306 1307 1308 1309 1310 1311 1312 1313 0
-1314 1 0
-1314 14 0
-1314 79 0
-1 -14 -79 1314 0
-1315 2 0
-1315 15 0
-1315 80 0
-2 -15 -80 1315 0
-1316 3 0
-1316 16 0
-1316 81 0
-3 -16 -81 1316 0
-1317 4 0
-1317 17 0
-1317 82 0
-4 -17 -82 1317 0
-1318 5 0
-1318 18 0
-1318 83 0
-5 -18 -83 1318 0
-1319 6 0
-1319 19 0
-1319 84 0
-6 -19 -84 1319 0
-1320 7 0
-1320 20 0
-1320 85 0
-7 -20 -85 1320 0
-1321 8 0
-1321 21 0
-1321 86 0
-8 -21 -86 1321 0
-1322 9 0
-1322 22 0
-1322 87 0
-9 -22 -87 1322 0
-1323 10 0
-1323 23 0
-1323 88 0
-10 -23 -88 1323 0
-1324 11 0
-1324 24 0
-1324 89 0
-11 -24 -89 1324 0
-1325 12 0
-1325 25 0
-1325 90 0
-12 -25 -90 1325 0
-1326 13 0
-1326 26 0
-1326 91 0
-13 -26 -91 1326 0
-1314 4984 0
-1315 4984 0
-1316 4984 0
-1317 4984 0
-1318 4984 0
-1319 4984 0
-1320 4984 0
-1321 4984 0
-1322 4984 0
-1323 4984 0
-1324 4984 0
-1325 4984 0
-1326 4984 0
-4984 1314 1315 1316 1317 1318 1319 1320 1321 1322 1323 1324 1325 1326 0
-1327 1 0
-1327 14 0
-1327 92 0
-1 -14 -92 1327 0
-1328 2 0
-1328 15 0
-1328 93 0
-2 -15 -93 1328 0
-1329 3 0
-1329 16 0
-1329 94 0
-3 -16 -94 1329 0
-1330 4 0
-1330 17 0
-1330 95 0
-4 -17 -95 1330 0
-1331 5 0
-1331 18 0
-1331 96 0
-5 -18 -96 1331 0
-1332 6 0
-1332 19 0
-1332 97 0
-6 -19 -97 1332 0
-1333 7 0
-1333 20 0
-1333 98 0
-7 -20 -98 1333 0
-1334 8 0
-1334 21 0
-1334 99 0
-8 -21 -99 1334 0
-1335 9 0
-1335 22 0
-1335 100 0
-9 -22 -100 1335 0
-1336 10 0
-1336 23 0
-1336 101 0
-10 -23 -101 1336 0
-1337 11 0
-1337 24 0
-1337 102 0
-11 -24 -102 1337 0
-1338 12 0
-1338 25 0
-1338 103 0
-12 -25 -103 1338 0
-1339 13 0
-1339 26 0
-1339 104 0
-13 -26 -104 1339 0
-1327 4985 0
-1328 4985 0
-1329 4985 0
-1330 4985 0
-1331 4985 0
-1332 4985 0
-1333 4985 0
-1334 4985 0
-1335 4985 0
-1336 4985 0
-1337 4985 0
-1338 4985 0
-1339 4985 0
-4985 1327 1328 1329 1330 1331 1332 1333 1334 1335 1336 1337 1338 1339 0
-1340 1 0
-1340 14 0
-1340 105 0
-1 -14 -105 1340 0
-1341 2 0
-1341 15 0
-1341 106 0
-2 -15 -106 1341 0
-1342 3 0
-1342 16 0
-1342 107 0
-3 -16 -107 1342 0
-1343 4 0
-1343 17 0
-1343 108 0
-4 -17 -108 1343 0
-1344 5 0
-1344 18 0
-1344 109 0
-5 -18 -109 1344 0
-1345 6 0
-1345 19 0
-1345 110 0
-6 -19 -110 1345 0
-1346 7 0
-1346 20 0
-1346 111 0
-7 -20 -111 1346 0
-1347 8 0
-1347 21 0
-1347 112 0
-8 -21 -112 1347 0
-1348 9 0
-1348 22 0
-1348 113 0
-9 -22 -113 1348 0
-1349 10 0
-1349 23 0
-1349 114 0
-10 -23 -114 1349 0
-1350 11 0
-1350 24 0
-1350 115 0
-11 -24 -115 1350 0
-1351 12 0
-1351 25 0
-1351 116 0
-12 -25 -116 1351 0
-1352 13 0
-1352 26 0
-1352 117 0
-13 -26 -117 1352 0
-1340 4986 0
-1341 4986 0
-1342 4986 0
-1343 4986 0
-1344 4986 0
-1345 4986 0
-1346 4986 0
-1347 4986 0
-1348 4986 0
-1349 4986 0
-1350 4986 0
-1351 4986 0
-1352 4986 0
-4986 1340 1341 1342 1343 1344 1345 1346 1347 1348 1349 1350 1351 1352 0
-1353 1 0
-1353 14 0
-1353 118 0
-1 -14 -118 1353 0
-1354 2 0
-1354 15 0
-1354 119 0
-2 -15 -119 1354 0
-1355 3 0
-1355 16 0
-1355 120 0
-3 -16 -120 1355 0
-1356 4 0
-1356 17 0
-1356 121 0
-4 -17 -121 1356 0
-1357 5 0
-1357 18 0
-1357 122 0
-5 -18 -122 1357 0
-1358 6 0
-1358 19 0
-1358 123 0
-6 -19 -123 1358 0
-1359 7 0
-1359 20 0
-1359 124 0
-7 -20 -124 1359 0
-1360 8 0
-1360 21 0
-1360 125 0
-8 -21 -125 1360 0
-1361 9 0
-1361 22 0
-1361 126 0
-9 -22 -126 1361 0
-1362 10 0
-1362 23 0
-1362 127 0
-10 -23 -127 1362 0
-1363 11 0
-1363 24 0
-1363 128 0
-11 -24 -128 1363 0
-1364 12 0
-1364 25 0
-1364 129 0
-12 -25 -129 1364 0
-1365 13 0
-1365 26 0
-1365 130 0
-13 -26 -130 1365 0
-1353 4987 0
-1354 4987 0
-1355 4987 0
-1356 4987 0
-1357 4987 0
-1358 4987 0
-1359 4987 0
-1360 4987 0
-1361 4987 0
-1362 4987 0
-1363 4987 0
-1364 4987 0
-1365 4987 0
-4987 1353 1354 1355 1356 1357 1358 1359 1360 1361 1362 1363 1364 1365 0
-1366 1 0
-1366 14 0
-1366 131 0
-1 -14 -131 1366 0
-1367 2 0
-1367 15 0
-1367 132 0
-2 -15 -132 1367 0
-1368 3 0
-1368 16 0
-1368 133 0
-3 -16 -133 1368 0
-1369 4 0
-1369 17 0
-1369 134 0
-4 -17 -134 1369 0
-1370 5 0
-1370 18 0
-1370 135 0
-5 -18 -135 1370 0
-1371 6 0
-1371 19 0
-1371 136 0
-6 -19 -136 1371 0
-1372 7 0
-1372 20 0
-1372 137 0
-7 -20 -137 1372 0
-1373 8 0
-1373 21 0
-1373 138 0
-8 -21 -138 1373 0
-1374 9 0
-1374 22 0
-1374 139 0
-9 -22 -139 1374 0
-1375 10 0
-1375 23 0
-1375 140 0
-10 -23 -140 1375 0
-1376 11 0
-1376 24 0
-1376 141 0
-11 -24 -141 1376 0
-1377 12 0
-1377 25 0
-1377 142 0
-12 -25 -142 1377 0
-1378 13 0
-1378 26 0
-1378 143 0
-13 -26 -143 1378 0
-1366 4988 0
-1367 4988 0
-1368 4988 0
-1369 4988 0
-1370 4988 0
-1371 4988 0
-1372 4988 0
-1373 4988 0
-1374 4988 0
-1375 4988 0
-1376 4988 0
-1377 4988 0
-1378 4988 0
-4988 1366 1367 1368 1369 1370 1371 1372 1373 1374 1375 1376 1377 1378 0
-1379 1 0
-1379 14 0
-1379 144 0
-1 -14 -144 1379 0
-1380 2 0
-1380 15 0
-1380 145 0
-2 -15 -145 1380 0
-1381 3 0
-1381 16 0
-1381 146 0
-3 -16 -146 1381 0
-1382 4 0
-1382 17 0
-1382 147 0
-4 -17 -147 1382 0
-1383 5 0
-1383 18 0
-1383 148 0
-5 -18 -148 1383 0
-1384 6 0
-1384 19 0
-1384 149 0
-6 -19 -149 1384 0
-1385 7 0
-1385 20 0
-1385 150 0
-7 -20 -150 1385 0
-1386 8 0
-1386 21 0
-1386 151 0
-8 -21 -151 1386 0
-1387 9 0
-1387 22 0
-1387 152 0
-9 -22 -152 1387 0
-1388 10 0
-1388 23 0
-1388 153 0
-10 -23 -153 1388 0
-1389 11 0
-1389 24 0
-1389 154 0
-11 -24 -154 1389 0
-1390 12 0
-1390 25 0
-1390 155 0
-12 -25 -155 1390 0
-1391 13 0
-1391 26 0
-1391 156 0
-13 -26 -156 1391 0
-1379 4989 0
-1380 4989 0
-1381 4989 0
-1382 4989 0
-1383 4989 0
-1384 4989 0
-1385 4989 0
-1386 4989 0
-1387 4989 0
-1388 4989 0
-1389 4989 0
-1390 4989 0
-1391 4989 0
-4989 1379 1380 1381 1382 1383 1384 1385 1386 1387 1388 1389 1390 1391 0
-1392 1 0
-1392 14 0
-1392 157 0
-1 -14 -157 1392 0
-1393 2 0
-1393 15 0
-1393 158 0
-2 -15 -158 1393 0
-1394 3 0
-1394 16 0
-1394 159 0
-3 -16 -159 1394 0
-1395 4 0
-1395 17 0
-1395 160 0
-4 -17 -160 1395 0
-1396 5 0
-1396 18 0
-1396 161 0
-5 -18 -161 1396 0
-1397 6 0
-1397 19 0
-1397 162 0
-6 -19 -162 1397 0
-1398 7 0
-1398 20 0
-1398 163 0
-7 -20 -163 1398 0
-1399 8 0
-1399 21 0
-1399 164 0
-8 -21 -164 1399 0
-1400 9 0
-1400 22 0
-1400 165 0
-9 -22 -165 1400 0
-1401 10 0
-1401 23 0
-1401 166 0
-10 -23 -166 1401 0
-1402 11 0
-1402 24 0
-1402 167 0
-11 -24 -167 1402 0
-1403 12 0
-1403 25 0
-1403 168 0
-12 -25 -168 1403 0
-1404 13 0
-1404 26 0
-1404 169 0
-13 -26 -169 1404 0
-1392 4990 0
-1393 4990 0
-1394 4990 0
-1395 4990 0
-1396 4990 0
-1397 4990 0
-1398 4990 0
-1399 4990 0
-1400 4990 0
-1401 4990 0
-1402 4990 0
-1403 4990 0
-1404 4990 0
-4990 1392 1393 1394 1395 1396 1397 1398 1399 1400 1401 1402 1403 1404 0
-1405 1 0
-1405 27 0
-1405 40 0
-1 -27 -40 1405 0
-1406 2 0
-1406 28 0
-1406 41 0
-2 -28 -41 1406 0
-1407 3 0
-1407 29 0
-1407 42 0
-3 -29 -42 1407 0
-1408 4 0
-1408 30 0
-1408 43 0
-4 -30 -43 1408 0
-1409 5 0
-1409 31 0
-1409 44 0
-5 -31 -44 1409 0
-1410 6 0
-1410 32 0
-1410 45 0
-6 -32 -45 1410 0
-1411 7 0
-1411 33 0
-1411 46 0
-7 -33 -46 1411 0
-1412 8 0
-1412 34 0
-1412 47 0
-8 -34 -47 1412 0
-1413 9 0
-1413 35 0
-1413 48 0
-9 -35 -48 1413 0
-1414 10 0
-1414 36 0
-1414 49 0
-10 -36 -49 1414 0
-1415 11 0
-1415 37 0
-1415 50 0
-11 -37 -50 1415 0
-1416 12 0
-1416 38 0
-1416 51 0
-12 -38 -51 1416 0
-1417 13 0
-1417 39 0
-1417 52 0
-13 -39 -52 1417 0
-1405 4991 0
-1406 4991 0
-1407 4991 0
-1408 4991 0
-1409 4991 0
-1410 4991 0
-1411 4991 0
-1412 4991 0
-1413 4991 0
-1414 4991 0
-1415 4991 0
-1416 4991 0
-1417 4991 0
-4991 1405 1406 1407 1408 1409 1410 1411 1412 1413 1414 1415 1416 1417 0
-1418 1 0
-1418 27 0
-1418 53 0
-1 -27 -53 1418 0
-1419 2 0
-1419 28 0
-1419 54 0
-2 -28 -54 1419 0
-1420 3 0
-1420 29 0
-1420 55 0
-3 -29 -55 1420 0
-1421 4 0
-1421 30 0
-1421 56 0
-4 -30 -56 1421 0
-1422 5 0
-1422 31 0
-1422 57 0
-5 -31 -57 1422 0
-1423 6 0
-1423 32 0
-1423 58 0
-6 -32 -58 1423 0
-1424 7 0
-1424 33 0
-1424 59 0
-7 -33 -59 1424 0
-1425 8 0
-1425 34 0
-1425 60 0
-8 -34 -60 1425 0
-1426 9 0
-1426 35 0
-1426 61 0
-9 -35 -61 1426 0
-1427 10 0
-1427 36 0
-1427 62 0
-10 -36 -62 1427 0
-1428 11 0
-1428 37 0
-1428 63 0
-11 -37 -63 1428 0
-1429 12 0
-1429 38 0
-1429 64 0
-12 -38 -64 1429 0
-1430 13 0
-1430 39 0
-1430 65 0
-13 -39 -65 1430 0
-1418 4992 0
-1419 4992 0
-1420 4992 0
-1421 4992 0
-1422 4992 0
-1423 4992 0
-1424 4992 0
-1425 4992 0
-1426 4992 0
-1427 4992 0
-1428 4992 0
-1429 4992 0
-1430 4992 0
-4992 1418 1419 1420 1421 1422 1423 1424 1425 1426 1427 1428 1429 1430 0
-1431 1 0
-1431 27 0
-1431 66 0
-1 -27 -66 1431 0
-1432 2 0
-1432 28 0
-1432 67 0
-2 -28 -67 1432 0
-1433 3 0
-1433 29 0
-1433 68 0
-3 -29 -68 1433 0
-1434 4 0
-1434 30 0
-1434 69 0
-4 -30 -69 1434 0
-1435 5 0
-1435 31 0
-1435 70 0
-5 -31 -70 1435 0
-1436 6 0
-1436 32 0
-1436 71 0
-6 -32 -71 1436 0
-1437 7 0
-1437 33 0
-1437 72 0
-7 -33 -72 1437 0
-1438 8 0
-1438 34 0
-1438 73 0
-8 -34 -73 1438 0
-1439 9 0
-1439 35 0
-1439 74 0
-9 -35 -74 1439 0
-1440 10 0
-1440 36 0
-1440 75 0
-10 -36 -75 1440 0
-1441 11 0
-1441 37 0
-1441 76 0
-11 -37 -76 1441 0
-1442 12 0
-1442 38 0
-1442 77 0
-12 -38 -77 1442 0
-1443 13 0
-1443 39 0
-1443 78 0
-13 -39 -78 1443 0
-1431 4993 0
-1432 4993 0
-1433 4993 0
-1434 4993 0
-1435 4993 0
-1436 4993 0
-1437 4993 0
-1438 4993 0
-1439 4993 0
-1440 4993 0
-1441 4993 0
-1442 4993 0
-1443 4993 0
-4993 1431 1432 1433 1434 1435 1436 1437 1438 1439 1440 1441 1442 1443 0
-1444 1 0
-1444 27 0
-1444 79 0
-1 -27 -79 1444 0
-1445 2 0
-1445 28 0
-1445 80 0
-2 -28 -80 1445 0
-1446 3 0
-1446 29 0
-1446 81 0
-3 -29 -81 1446 0
-1447 4 0
-1447 30 0
-1447 82 0
-4 -30 -82 1447 0
-1448 5 0
-1448 31 0
-1448 83 0
-5 -31 -83 1448 0
-1449 6 0
-1449 32 0
-1449 84 0
-6 -32 -84 1449 0
-1450 7 0
-1450 33 0
-1450 85 0
-7 -33 -85 1450 0
-1451 8 0
-1451 34 0
-1451 86 0
-8 -34 -86 1451 0
-1452 9 0
-1452 35 0
-1452 87 0
-9 -35 -87 1452 0
-1453 10 0
-1453 36 0
-1453 88 0
-10 -36 -88 1453 0
-1454 11 0
-1454 37 0
-1454 89 0
-11 -37 -89 1454 0
-1455 12 0
-1455 38 0
-1455 90 0
-12 -38 -90 1455 0
-1456 13 0
-1456 39 0
-1456 91 0
-13 -39 -91 1456 0
-1444 4994 0
-1445 4994 0
-1446 4994 0
-1447 4994 0
-1448 4994 0
-1449 4994 0
-1450 4994 0
-1451 4994 0
-1452 4994 0
-1453 4994 0
-1454 4994 0
-1455 4994 0
-1456 4994 0
-4994 1444 1445 1446 1447 1448 1449 1450 1451 1452 1453 1454 1455 1456 0
-1457 1 0
-1457 27 0
-1457 92 0
-1 -27 -92 1457 0
-1458 2 0
-1458 28 0
-1458 93 0
-2 -28 -93 1458 0
-1459 3 0
-1459 29 0
-1459 94 0
-3 -29 -94 1459 0
-1460 4 0
-1460 30 0
-1460 95 0
-4 -30 -95 1460 0
-1461 5 0
-1461 31 0
-1461 96 0
-5 -31 -96 1461 0
-1462 6 0
-1462 32 0
-1462 97 0
-6 -32 -97 1462 0
-1463 7 0
-1463 33 0
-1463 98 0
-7 -33 -98 1463 0
-1464 8 0
-1464 34 0
-1464 99 0
-8 -34 -99 1464 0
-1465 9 0
-1465 35 0
-1465 100 0
-9 -35 -100 1465 0
-1466 10 0
-1466 36 0
-1466 101 0
-10 -36 -101 1466 0
-1467 11 0
-1467 37 0
-1467 102 0
-11 -37 -102 1467 0
-1468 12 0
-1468 38 0
-1468 103 0
-12 -38 -103 1468 0
-1469 13 0
-1469 39 0
-1469 104 0
-13 -39 -104 1469 0
-1457 4995 0
-1458 4995 0
-1459 4995 0
-1460 4995 0
-1461 4995 0
-1462 4995 0
-1463 4995 0
-1464 4995 0
-1465 4995 0
-1466 4995 0
-1467 4995 0
-1468 4995 0
-1469 4995 0
-4995 1457 1458 1459 1460 1461 1462 1463 1464 1465 1466 1467 1468 1469 0
-1470 1 0
-1470 27 0
-1470 105 0
-1 -27 -105 1470 0
-1471 2 0
-1471 28 0
-1471 106 0
-2 -28 -106 1471 0
-1472 3 0
-1472 29 0
-1472 107 0
-3 -29 -107 1472 0
-1473 4 0
-1473 30 0
-1473 108 0
-4 -30 -108 1473 0
-1474 5 0
-1474 31 0
-1474 109 0
-5 -31 -109 1474 0
-1475 6 0
-1475 32 0
-1475 110 0
-6 -32 -110 1475 0
-1476 7 0
-1476 33 0
-1476 111 0
-7 -33 -111 1476 0
-1477 8 0
-1477 34 0
-1477 112 0
-8 -34 -112 1477 0
-1478 9 0
-1478 35 0
-1478 113 0
-9 -35 -113 1478 0
-1479 10 0
-1479 36 0
-1479 114 0
-10 -36 -114 1479 0
-1480 11 0
-1480 37 0
-1480 115 0
-11 -37 -115 1480 0
-1481 12 0
-1481 38 0
-1481 116 0
-12 -38 -116 1481 0
-1482 13 0
-1482 39 0
-1482 117 0
-13 -39 -117 1482 0
-1470 4996 0
-1471 4996 0
-1472 4996 0
-1473 4996 0
-1474 4996 0
-1475 4996 0
-1476 4996 0
-1477 4996 0
-1478 4996 0
-1479 4996 0
-1480 4996 0
-1481 4996 0
-1482 4996 0
-4996 1470 1471 1472 1473 1474 1475 1476 1477 1478 1479 1480 1481 1482 0
-1483 1 0
-1483 27 0
-1483 118 0
-1 -27 -118 1483 0
-1484 2 0
-1484 28 0
-1484 119 0
-2 -28 -119 1484 0
-1485 3 0
-1485 29 0
-1485 120 0
-3 -29 -120 1485 0
-1486 4 0
-1486 30 0
-1486 121 0
-4 -30 -121 1486 0
-1487 5 0
-1487 31 0
-1487 122 0
-5 -31 -122 1487 0
-1488 6 0
-1488 32 0
-1488 123 0
-6 -32 -123 1488 0
-1489 7 0
-1489 33 0
-1489 124 0
-7 -33 -124 1489 0
-1490 8 0
-1490 34 0
-1490 125 0
-8 -34 -125 1490 0
-1491 9 0
-1491 35 0
-1491 126 0
-9 -35 -126 1491 0
-1492 10 0
-1492 36 0
-1492 127 0
-10 -36 -127 1492 0
-1493 11 0
-1493 37 0
-1493 128 0
-11 -37 -128 1493 0
-1494 12 0
-1494 38 0
-1494 129 0
-12 -38 -129 1494 0
-1495 13 0
-1495 39 0
-1495 130 0
-13 -39 -130 1495 0
-1483 4997 0
-1484 4997 0
-1485 4997 0
-1486 4997 0
-1487 4997 0
-1488 4997 0
-1489 4997 0
-1490 4997 0
-1491 4997 0
-1492 4997 0
-1493 4997 0
-1494 4997 0
-1495 4997 0
-4997 1483 1484 1485 1486 1487 1488 1489 1490 1491 1492 1493 1494 1495 0
-1496 1 0
-1496 27 0
-1496 131 0
-1 -27 -131 1496 0
-1497 2 0
-1497 28 0
-1497 132 0
-2 -28 -132 1497 0
-1498 3 0
-1498 29 0
-1498 133 0
-3 -29 -133 1498 0
-1499 4 0
-1499 30 0
-1499 134 0
-4 -30 -134 1499 0
-1500 5 0
-1500 31 0
-1500 135 0
-5 -31 -135 1500 0
-1501 6 0
-1501 32 0
-1501 136 0
-6 -32 -136 1501 0
-1502 7 0
-1502 33 0
-1502 137 0
-7 -33 -137 1502 0
-1503 8 0
-1503 34 0
-1503 138 0
-8 -34 -138 1503 0
-1504 9 0
-1504 35 0
-1504 139 0
-9 -35 -139 1504 0
-1505 10 0
-1505 36 0
-1505 140 0
-10 -36 -140 1505 0
-1506 11 0
-1506 37 0
-1506 141 0
-11 -37 -141 1506 0
-1507 12 0
-1507 38 0
-1507 142 0
-12 -38 -142 1507 0
-1508 13 0
-1508 39 0
-1508 143 0
-13 -39 -143 1508 0
-1496 4998 0
-1497 4998 0
-1498 4998 0
-1499 4998 0
-1500 4998 0
-1501 4998 0
-1502 4998 0
-1503 4998 0
-1504 4998 0
-1505 4998 0
-1506 4998 0
-1507 4998 0
-1508 4998 0
-4998 1496 1497 1498 1499 1500 1501 1502 1503 1504 1505 1506 1507 1508 0
-1509 1 0
-1509 27 0
-1509 144 0
-1 -27 -144 1509 0
-1510 2 0
-1510 28 0
-1510 145 0
-2 -28 -145 1510 0
-1511 3 0
-1511 29 0
-1511 146 0
-3 -29 -146 1511 0
-1512 4 0
-1512 30 0
-1512 147 0
-4 -30 -147 1512 0
-1513 5 0
-1513 31 0
-1513 148 0
-5 -31 -148 1513 0
-1514 6 0
-1514 32 0
-1514 149 0
-6 -32 -149 1514 0
-1515 7 0
-1515 33 0
-1515 150 0
-7 -33 -150 1515 0
-1516 8 0
-1516 34 0
-1516 151 0
-8 -34 -151 1516 0
-1517 9 0
-1517 35 0
-1517 152 0
-9 -35 -152 1517 0
-1518 10 0
-1518 36 0
-1518 153 0
-10 -36 -153 1518 0
-1519 11 0
-1519 37 0
-1519 154 0
-11 -37 -154 1519 0
-1520 12 0
-1520 38 0
-1520 155 0
-12 -38 -155 1520 0
-1521 13 0
-1521 39 0
-1521 156 0
-13 -39 -156 1521 0
-1509 4999 0
-1510 4999 0
-1511 4999 0
-1512 4999 0
-1513 4999 0
-1514 4999 0
-1515 4999 0
-1516 4999 0
-1517 4999 0
-1518 4999 0
-1519 4999 0
-1520 4999 0
-1521 4999 0
-4999 1509 1510 1511 1512 1513 1514 1515 1516 1517 1518 1519 1520 1521 0
-1522 1 0
-1522 27 0
-1522 157 0
-1 -27 -157 1522 0
-1523 2 0
-1523 28 0
-1523 158 0
-2 -28 -158 1523 0
-1524 3 0
-1524 29 0
-1524 159 0
-3 -29 -159 1524 0
-1525 4 0
-1525 30 0
-1525 160 0
-4 -30 -160 1525 0
-1526 5 0
-1526 31 0
-1526 161 0
-5 -31 -161 1526 0
-1527 6 0
-1527 32 0
-1527 162 0
-6 -32 -162 1527 0
-1528 7 0
-1528 33 0
-1528 163 0
-7 -33 -163 1528 0
-1529 8 0
-1529 34 0
-1529 164 0
-8 -34 -164 1529 0
-1530 9 0
-1530 35 0
-1530 165 0
-9 -35 -165 1530 0
-1531 10 0
-1531 36 0
-1531 166 0
-10 -36 -166 1531 0
-1532 11 0
-1532 37 0
-1532 167 0
-11 -37 -167 1532 0
-1533 12 0
-1533 38 0
-1533 168 0
-12 -38 -168 1533 0
-1534 13 0
-1534 39 0
-1534 169 0
-13 -39 -169 1534 0
-1522 5000 0
-1523 5000 0
-1524 5000 0
-1525 5000 0
-1526 5000 0
-1527 5000 0
-1528 5000 0
-1529 5000 0
-1530 5000 0
-1531 5000 0
-1532 5000 0
-1533 5000 0
-1534 5000 0
-5000 1522 1523 1524 1525 1526 1527 1528 1529 1530 1531 1532 1533 1534 0
-1535 1 0
-1535 40 0
-1535 53 0
-1 -40 -53 1535 0
-1536 2 0
-1536 41 0
-1536 54 0
-2 -41 -54 1536 0
-1537 3 0
-1537 42 0
-1537 55 0
-3 -42 -55 1537 0
-1538 4 0
-1538 43 0
-1538 56 0
-4 -43 -56 1538 0
-1539 5 0
-1539 44 0
-1539 57 0
-5 -44 -57 1539 0
-1540 6 0
-1540 45 0
-1540 58 0
-6 -45 -58 1540 0
-1541 7 0
-1541 46 0
-1541 59 0
-7 -46 -59 1541 0
-1542 8 0
-1542 47 0
-1542 60 0
-8 -47 -60 1542 0
-1543 9 0
-1543 48 0
-1543 61 0
-9 -48 -61 1543 0
-1544 10 0
-1544 49 0
-1544 62 0
-10 -49 -62 1544 0
-1545 11 0
-1545 50 0
-1545 63 0
-11 -50 -63 1545 0
-1546 12 0
-1546 51 0
-1546 64 0
-12 -51 -64 1546 0
-1547 13 0
-1547 52 0
-1547 65 0
-13 -52 -65 1547 0
-1535 5001 0
-1536 5001 0
-1537 5001 0
-1538 5001 0
-1539 5001 0
-1540 5001 0
-1541 5001 0
-1542 5001 0
-1543 5001 0
-1544 5001 0
-1545 5001 0
-1546 5001 0
-1547 5001 0
-5001 1535 1536 1537 1538 1539 1540 1541 1542 1543 1544 1545 1546 1547 0
-1548 1 0
-1548 40 0
-1548 66 0
-1 -40 -66 1548 0
-1549 2 0
-1549 41 0
-1549 67 0
-2 -41 -67 1549 0
-1550 3 0
-1550 42 0
-1550 68 0
-3 -42 -68 1550 0
-1551 4 0
-1551 43 0
-1551 69 0
-4 -43 -69 1551 0
-1552 5 0
-1552 44 0
-1552 70 0
-5 -44 -70 1552 0
-1553 6 0
-1553 45 0
-1553 71 0
-6 -45 -71 1553 0
-1554 7 0
-1554 46 0
-1554 72 0
-7 -46 -72 1554 0
-1555 8 0
-1555 47 0
-1555 73 0
-8 -47 -73 1555 0
-1556 9 0
-1556 48 0
-1556 74 0
-9 -48 -74 1556 0
-1557 10 0
-1557 49 0
-1557 75 0
-10 -49 -75 1557 0
-1558 11 0
-1558 50 0
-1558 76 0
-11 -50 -76 1558 0
-1559 12 0
-1559 51 0
-1559 77 0
-12 -51 -77 1559 0
-1560 13 0
-1560 52 0
-1560 78 0
-13 -52 -78 1560 0
-1548 5002 0
-1549 5002 0
-1550 5002 0
-1551 5002 0
-1552 5002 0
-1553 5002 0
-1554 5002 0
-1555 5002 0
-1556 5002 0
-1557 5002 0
-1558 5002 0
-1559 5002 0
-1560 5002 0
-5002 1548 1549 1550 1551 1552 1553 1554 1555 1556 1557 1558 1559 1560 0
-1561 1 0
-1561 40 0
-1561 79 0
-1 -40 -79 1561 0
-1562 2 0
-1562 41 0
-1562 80 0
-2 -41 -80 1562 0
-1563 3 0
-1563 42 0
-1563 81 0
-3 -42 -81 1563 0
-1564 4 0
-1564 43 0
-1564 82 0
-4 -43 -82 1564 0
-1565 5 0
-1565 44 0
-1565 83 0
-5 -44 -83 1565 0
-1566 6 0
-1566 45 0
-1566 84 0
-6 -45 -84 1566 0
-1567 7 0
-1567 46 0
-1567 85 0
-7 -46 -85 1567 0
-1568 8 0
-1568 47 0
-1568 86 0
-8 -47 -86 1568 0
-1569 9 0
-1569 48 0
-1569 87 0
-9 -48 -87 1569 0
-1570 10 0
-1570 49 0
-1570 88 0
-10 -49 -88 1570 0
-1571 11 0
-1571 50 0
-1571 89 0
-11 -50 -89 1571 0
-1572 12 0
-1572 51 0
-1572 90 0
-12 -51 -90 1572 0
-1573 13 0
-1573 52 0
-1573 91 0
-13 -52 -91 1573 0
-1561 5003 0
-1562 5003 0
-1563 5003 0
-1564 5003 0
-1565 5003 0
-1566 5003 0
-1567 5003 0
-1568 5003 0
-1569 5003 0
-1570 5003 0
-1571 5003 0
-1572 5003 0
-1573 5003 0
-5003 1561 1562 1563 1564 1565 1566 1567 1568 1569 1570 1571 1572 1573 0
-1574 1 0
-1574 40 0
-1574 92 0
-1 -40 -92 1574 0
-1575 2 0
-1575 41 0
-1575 93 0
-2 -41 -93 1575 0
-1576 3 0
-1576 42 0
-1576 94 0
-3 -42 -94 1576 0
-1577 4 0
-1577 43 0
-1577 95 0
-4 -43 -95 1577 0
-1578 5 0
-1578 44 0
-1578 96 0
-5 -44 -96 1578 0
-1579 6 0
-1579 45 0
-1579 97 0
-6 -45 -97 1579 0
-1580 7 0
-1580 46 0
-1580 98 0
-7 -46 -98 1580 0
-1581 8 0
-1581 47 0
-1581 99 0
-8 -47 -99 1581 0
-1582 9 0
-1582 48 0
-1582 100 0
-9 -48 -100 1582 0
-1583 10 0
-1583 49 0
-1583 101 0
-10 -49 -101 1583 0
-1584 11 0
-1584 50 0
-1584 102 0
-11 -50 -102 1584 0
-1585 12 0
-1585 51 0
-1585 103 0
-12 -51 -103 1585 0
-1586 13 0
-1586 52 0
-1586 104 0
-13 -52 -104 1586 0
-1574 5004 0
-1575 5004 0
-1576 5004 0
-1577 5004 0
-1578 5004 0
-1579 5004 0
-1580 5004 0
-1581 5004 0
-1582 5004 0
-1583 5004 0
-1584 5004 0
-1585 5004 0
-1586 5004 0
-5004 1574 1575 1576 1577 1578 1579 1580 1581 1582 1583 1584 1585 1586 0
-1587 1 0
-1587 40 0
-1587 105 0
-1 -40 -105 1587 0
-1588 2 0
-1588 41 0
-1588 106 0
-2 -41 -106 1588 0
-1589 3 0
-1589 42 0
-1589 107 0
-3 -42 -107 1589 0
-1590 4 0
-1590 43 0
-1590 108 0
-4 -43 -108 1590 0
-1591 5 0
-1591 44 0
-1591 109 0
-5 -44 -109 1591 0
-1592 6 0
-1592 45 0
-1592 110 0
-6 -45 -110 1592 0
-1593 7 0
-1593 46 0
-1593 111 0
-7 -46 -111 1593 0
-1594 8 0
-1594 47 0
-1594 112 0
-8 -47 -112 1594 0
-1595 9 0
-1595 48 0
-1595 113 0
-9 -48 -113 1595 0
-1596 10 0
-1596 49 0
-1596 114 0
-10 -49 -114 1596 0
-1597 11 0
-1597 50 0
-1597 115 0
-11 -50 -115 1597 0
-1598 12 0
-1598 51 0
-1598 116 0
-12 -51 -116 1598 0
-1599 13 0
-1599 52 0
-1599 117 0
-13 -52 -117 1599 0
-1587 5005 0
-1588 5005 0
-1589 5005 0
-1590 5005 0
-1591 5005 0
-1592 5005 0
-1593 5005 0
-1594 5005 0
-1595 5005 0
-1596 5005 0
-1597 5005 0
-1598 5005 0
-1599 5005 0
-5005 1587 1588 1589 1590 1591 1592 1593 1594 1595 1596 1597 1598 1599 0
-1600 1 0
-1600 40 0
-1600 118 0
-1 -40 -118 1600 0
-1601 2 0
-1601 41 0
-1601 119 0
-2 -41 -119 1601 0
-1602 3 0
-1602 42 0
-1602 120 0
-3 -42 -120 1602 0
-1603 4 0
-1603 43 0
-1603 121 0
-4 -43 -121 1603 0
-1604 5 0
-1604 44 0
-1604 122 0
-5 -44 -122 1604 0
-1605 6 0
-1605 45 0
-1605 123 0
-6 -45 -123 1605 0
-1606 7 0
-1606 46 0
-1606 124 0
-7 -46 -124 1606 0
-1607 8 0
-1607 47 0
-1607 125 0
-8 -47 -125 1607 0
-1608 9 0
-1608 48 0
-1608 126 0
-9 -48 -126 1608 0
-1609 10 0
-1609 49 0
-1609 127 0
-10 -49 -127 1609 0
-1610 11 0
-1610 50 0
-1610 128 0
-11 -50 -128 1610 0
-1611 12 0
-1611 51 0
-1611 129 0
-12 -51 -129 1611 0
-1612 13 0
-1612 52 0
-1612 130 0
-13 -52 -130 1612 0
-1600 5006 0
-1601 5006 0
-1602 5006 0
-1603 5006 0
-1604 5006 0
-1605 5006 0
-1606 5006 0
-1607 5006 0
-1608 5006 0
-1609 5006 0
-1610 5006 0
-1611 5006 0
-1612 5006 0
-5006 1600 1601 1602 1603 1604 1605 1606 1607 1608 1609 1610 1611 1612 0
-1613 1 0
-1613 40 0
-1613 131 0
-1 -40 -131 1613 0
-1614 2 0
-1614 41 0
-1614 132 0
-2 -41 -132 1614 0
-1615 3 0
-1615 42 0
-1615 133 0
-3 -42 -133 1615 0
-1616 4 0
-1616 43 0
-1616 134 0
-4 -43 -134 1616 0
-1617 5 0
-1617 44 0
-1617 135 0
-5 -44 -135 1617 0
-1618 6 0
-1618 45 0
-1618 136 0
-6 -45 -136 1618 0
-1619 7 0
-1619 46 0
-1619 137 0
-7 -46 -137 1619 0
-1620 8 0
-1620 47 0
-1620 138 0
-8 -47 -138 1620 0
-1621 9 0
-1621 48 0
-1621 139 0
-9 -48 -139 1621 0
-1622 10 0
-1622 49 0
-1622 140 0
-10 -49 -140 1622 0
-1623 11 0
-1623 50 0
-1623 141 0
-11 -50 -141 1623 0
-1624 12 0
-1624 51 0
-1624 142 0
-12 -51 -142 1624 0
-1625 13 0
-1625 52 0
-1625 143 0
-13 -52 -143 1625 0
-1613 5007 0
-1614 5007 0
-1615 5007 0
-1616 5007 0
-1617 5007 0
-1618 5007 0
-1619 5007 0
-1620 5007 0
-1621 5007 0
-1622 5007 0
-1623 5007 0
-1624 5007 0
-1625 5007 0
-5007 1613 1614 1615 1616 1617 1618 1619 1620 1621 1622 1623 1624 1625 0
-1626 1 0
-1626 40 0
-1626 144 0
-1 -40 -144 1626 0
-1627 2 0
-1627 41 0
-1627 145 0
-2 -41 -145 1627 0
-1628 3 0
-1628 42 0
-1628 146 0
-3 -42 -146 1628 0
-1629 4 0
-1629 43 0
-1629 147 0
-4 -43 -147 1629 0
-1630 5 0
-1630 44 0
-1630 148 0
-5 -44 -148 1630 0
-1631 6 0
-1631 45 0
-1631 149 0
-6 -45 -149 1631 0
-1632 7 0
-1632 46 0
-1632 150 0
-7 -46 -150 1632 0
-1633 8 0
-1633 47 0
-1633 151 0
-8 -47 -151 1633 0
-1634 9 0
-1634 48 0
-1634 152 0
-9 -48 -152 1634 0
-1635 10 0
-1635 49 0
-1635 153 0
-10 -49 -153 1635 0
-1636 11 0
-1636 50 0
-1636 154 0
-11 -50 -154 1636 0
-1637 12 0
-1637 51 0
-1637 155 0
-12 -51 -155 1637 0
-1638 13 0
-1638 52 0
-1638 156 0
-13 -52 -156 1638 0
-1626 5008 0
-1627 5008 0
-1628 5008 0
-1629 5008 0
-1630 5008 0
-1631 5008 0
-1632 5008 0
-1633 5008 0
-1634 5008 0
-1635 5008 0
-1636 5008 0
-1637 5008 0
-1638 5008 0
-5008 1626 1627 1628 1629 1630 1631 1632 1633 1634 1635 1636 1637 1638 0
-1639 1 0
-1639 40 0
-1639 157 0
-1 -40 -157 1639 0
-1640 2 0
-1640 41 0
-1640 158 0
-2 -41 -158 1640 0
-1641 3 0
-1641 42 0
-1641 159 0
-3 -42 -159 1641 0
-1642 4 0
-1642 43 0
-1642 160 0
-4 -43 -160 1642 0
-1643 5 0
-1643 44 0
-1643 161 0
-5 -44 -161 1643 0
-1644 6 0
-1644 45 0
-1644 162 0
-6 -45 -162 1644 0
-1645 7 0
-1645 46 0
-1645 163 0
-7 -46 -163 1645 0
-1646 8 0
-1646 47 0
-1646 164 0
-8 -47 -164 1646 0
-1647 9 0
-1647 48 0
-1647 165 0
-9 -48 -165 1647 0
-1648 10 0
-1648 49 0
-1648 166 0
-10 -49 -166 1648 0
-1649 11 0
-1649 50 0
-1649 167 0
-11 -50 -167 1649 0
-1650 12 0
-1650 51 0
-1650 168 0
-12 -51 -168 1650 0
-1651 13 0
-1651 52 0
-1651 169 0
-13 -52 -169 1651 0
-1639 5009 0
-1640 5009 0
-1641 5009 0
-1642 5009 0
-1643 5009 0
-1644 5009 0
-1645 5009 0
-1646 5009 0
-1647 5009 0
-1648 5009 0
-1649 5009 0
-1650 5009 0
-1651 5009 0
-5009 1639 1640 1641 1642 1643 1644 1645 1646 1647 1648 1649 1650 1651 0
-1652 1 0
-1652 53 0
-1652 66 0
-1 -53 -66 1652 0
-1653 2 0
-1653 54 0
-1653 67 0
-2 -54 -67 1653 0
-1654 3 0
-1654 55 0
-1654 68 0
-3 -55 -68 1654 0
-1655 4 0
-1655 56 0
-1655 69 0
-4 -56 -69 1655 0
-1656 5 0
-1656 57 0
-1656 70 0
-5 -57 -70 1656 0
-1657 6 0
-1657 58 0
-1657 71 0
-6 -58 -71 1657 0
-1658 7 0
-1658 59 0
-1658 72 0
-7 -59 -72 1658 0
-1659 8 0
-1659 60 0
-1659 73 0
-8 -60 -73 1659 0
-1660 9 0
-1660 61 0
-1660 74 0
-9 -61 -74 1660 0
-1661 10 0
-1661 62 0
-1661 75 0
-10 -62 -75 1661 0
-1662 11 0
-1662 63 0
-1662 76 0
-11 -63 -76 1662 0
-1663 12 0
-1663 64 0
-1663 77 0
-12 -64 -77 1663 0
-1664 13 0
-1664 65 0
-1664 78 0
-13 -65 -78 1664 0
-1652 5010 0
-1653 5010 0
-1654 5010 0
-1655 5010 0
-1656 5010 0
-1657 5010 0
-1658 5010 0
-1659 5010 0
-1660 5010 0
-1661 5010 0
-1662 5010 0
-1663 5010 0
-1664 5010 0
-5010 1652 1653 1654 1655 1656 1657 1658 1659 1660 1661 1662 1663 1664 0
-1665 1 0
-1665 53 0
-1665 79 0
-1 -53 -79 1665 0
-1666 2 0
-1666 54 0
-1666 80 0
-2 -54 -80 1666 0
-1667 3 0
-1667 55 0
-1667 81 0
-3 -55 -81 1667 0
-1668 4 0
-1668 56 0
-1668 82 0
-4 -56 -82 1668 0
-1669 5 0
-1669 57 0
-1669 83 0
-5 -57 -83 1669 0
-1670 6 0
-1670 58 0
-1670 84 0
-6 -58 -84 1670 0
-1671 7 0
-1671 59 0
-1671 85 0
-7 -59 -85 1671 0
-1672 8 0
-1672 60 0
-1672 86 0
-8 -60 -86 1672 0
-1673 9 0
-1673 61 0
-1673 87 0
-9 -61 -87 1673 0
-1674 10 0
-1674 62 0
-1674 88 0
-10 -62 -88 1674 0
-1675 11 0
-1675 63 0
-1675 89 0
-11 -63 -89 1675 0
-1676 12 0
-1676 64 0
-1676 90 0
-12 -64 -90 1676 0
-1677 13 0
-1677 65 0
-1677 91 0
-13 -65 -91 1677 0
-1665 5011 0
-1666 5011 0
-1667 5011 0
-1668 5011 0
-1669 5011 0
-1670 5011 0
-1671 5011 0
-1672 5011 0
-1673 5011 0
-1674 5011 0
-1675 5011 0
-1676 5011 0
-1677 5011 0
-5011 1665 1666 1667 1668 1669 1670 1671 1672 1673 1674 1675 1676 1677 0
-1678 1 0
-1678 53 0
-1678 92 0
-1 -53 -92 1678 0
-1679 2 0
-1679 54 0
-1679 93 0
-2 -54 -93 1679 0
-1680 3 0
-1680 55 0
-1680 94 0
-3 -55 -94 1680 0
-1681 4 0
-1681 56 0
-1681 95 0
-4 -56 -95 1681 0
-1682 5 0
-1682 57 0
-1682 96 0
-5 -57 -96 1682 0
-1683 6 0
-1683 58 0
-1683 97 0
-6 -58 -97 1683 0
-1684 7 0
-1684 59 0
-1684 98 0
-7 -59 -98 1684 0
-1685 8 0
-1685 60 0
-1685 99 0
-8 -60 -99 1685 0
-1686 9 0
-1686 61 0
-1686 100 0
-9 -61 -100 1686 0
-1687 10 0
-1687 62 0
-1687 101 0
-10 -62 -101 1687 0
-1688 11 0
-1688 63 0
-1688 102 0
-11 -63 -102 1688 0
-1689 12 0
-1689 64 0
-1689 103 0
-12 -64 -103 1689 0
-1690 13 0
-1690 65 0
-1690 104 0
-13 -65 -104 1690 0
-1678 5012 0
-1679 5012 0
-1680 5012 0
-1681 5012 0
-1682 5012 0
-1683 5012 0
-1684 5012 0
-1685 5012 0
-1686 5012 0
-1687 5012 0
-1688 5012 0
-1689 5012 0
-1690 5012 0
-5012 1678 1679 1680 1681 1682 1683 1684 1685 1686 1687 1688 1689 1690 0
-1691 1 0
-1691 53 0
-1691 105 0
-1 -53 -105 1691 0
-1692 2 0
-1692 54 0
-1692 106 0
-2 -54 -106 1692 0
-1693 3 0
-1693 55 0
-1693 107 0
-3 -55 -107 1693 0
-1694 4 0
-1694 56 0
-1694 108 0
-4 -56 -108 1694 0
-1695 5 0
-1695 57 0
-1695 109 0
-5 -57 -109 1695 0
-1696 6 0
-1696 58 0
-1696 110 0
-6 -58 -110 1696 0
-1697 7 0
-1697 59 0
-1697 111 0
-7 -59 -111 1697 0
-1698 8 0
-1698 60 0
-1698 112 0
-8 -60 -112 1698 0
-1699 9 0
-1699 61 0
-1699 113 0
-9 -61 -113 1699 0
-1700 10 0
-1700 62 0
-1700 114 0
-10 -62 -114 1700 0
-1701 11 0
-1701 63 0
-1701 115 0
-11 -63 -115 1701 0
-1702 12 0
-1702 64 0
-1702 116 0
-12 -64 -116 1702 0
-1703 13 0
-1703 65 0
-1703 117 0
-13 -65 -117 1703 0
-1691 5013 0
-1692 5013 0
-1693 5013 0
-1694 5013 0
-1695 5013 0
-1696 5013 0
-1697 5013 0
-1698 5013 0
-1699 5013 0
-1700 5013 0
-1701 5013 0
-1702 5013 0
-1703 5013 0
-5013 1691 1692 1693 1694 1695 1696 1697 1698 1699 1700 1701 1702 1703 0
-1704 1 0
-1704 53 0
-1704 118 0
-1 -53 -118 1704 0
-1705 2 0
-1705 54 0
-1705 119 0
-2 -54 -119 1705 0
-1706 3 0
-1706 55 0
-1706 120 0
-3 -55 -120 1706 0
-1707 4 0
-1707 56 0
-1707 121 0
-4 -56 -121 1707 0
-1708 5 0
-1708 57 0
-1708 122 0
-5 -57 -122 1708 0
-1709 6 0
-1709 58 0
-1709 123 0
-6 -58 -123 1709 0
-1710 7 0
-1710 59 0
-1710 124 0
-7 -59 -124 1710 0
-1711 8 0
-1711 60 0
-1711 125 0
-8 -60 -125 1711 0
-1712 9 0
-1712 61 0
-1712 126 0
-9 -61 -126 1712 0
-1713 10 0
-1713 62 0
-1713 127 0
-10 -62 -127 1713 0
-1714 11 0
-1714 63 0
-1714 128 0
-11 -63 -128 1714 0
-1715 12 0
-1715 64 0
-1715 129 0
-12 -64 -129 1715 0
-1716 13 0
-1716 65 0
-1716 130 0
-13 -65 -130 1716 0
-1704 5014 0
-1705 5014 0
-1706 5014 0
-1707 5014 0
-1708 5014 0
-1709 5014 0
-1710 5014 0
-1711 5014 0
-1712 5014 0
-1713 5014 0
-1714 5014 0
-1715 5014 0
-1716 5014 0
-5014 1704 1705 1706 1707 1708 1709 1710 1711 1712 1713 1714 1715 1716 0
-1717 1 0
-1717 53 0
-1717 131 0
-1 -53 -131 1717 0
-1718 2 0
-1718 54 0
-1718 132 0
-2 -54 -132 1718 0
-1719 3 0
-1719 55 0
-1719 133 0
-3 -55 -133 1719 0
-1720 4 0
-1720 56 0
-1720 134 0
-4 -56 -134 1720 0
-1721 5 0
-1721 57 0
-1721 135 0
-5 -57 -135 1721 0
-1722 6 0
-1722 58 0
-1722 136 0
-6 -58 -136 1722 0
-1723 7 0
-1723 59 0
-1723 137 0
-7 -59 -137 1723 0
-1724 8 0
-1724 60 0
-1724 138 0
-8 -60 -138 1724 0
-1725 9 0
-1725 61 0
-1725 139 0
-9 -61 -139 1725 0
-1726 10 0
-1726 62 0
-1726 140 0
-10 -62 -140 1726 0
-1727 11 0
-1727 63 0
-1727 141 0
-11 -63 -141 1727 0
-1728 12 0
-1728 64 0
-1728 142 0
-12 -64 -142 1728 0
-1729 13 0
-1729 65 0
-1729 143 0
-13 -65 -143 1729 0
-1717 5015 0
-1718 5015 0
-1719 5015 0
-1720 5015 0
-1721 5015 0
-1722 5015 0
-1723 5015 0
-1724 5015 0
-1725 5015 0
-1726 5015 0
-1727 5015 0
-1728 5015 0
-1729 5015 0
-5015 1717 1718 1719 1720 1721 1722 1723 1724 1725 1726 1727 1728 1729 0
-1730 1 0
-1730 53 0
-1730 144 0
-1 -53 -144 1730 0
-1731 2 0
-1731 54 0
-1731 145 0
-2 -54 -145 1731 0
-1732 3 0
-1732 55 0
-1732 146 0
-3 -55 -146 1732 0
-1733 4 0
-1733 56 0
-1733 147 0
-4 -56 -147 1733 0
-1734 5 0
-1734 57 0
-1734 148 0
-5 -57 -148 1734 0
-1735 6 0
-1735 58 0
-1735 149 0
-6 -58 -149 1735 0
-1736 7 0
-1736 59 0
-1736 150 0
-7 -59 -150 1736 0
-1737 8 0
-1737 60 0
-1737 151 0
-8 -60 -151 1737 0
-1738 9 0
-1738 61 0
-1738 152 0
-9 -61 -152 1738 0
-1739 10 0
-1739 62 0
-1739 153 0
-10 -62 -153 1739 0
-1740 11 0
-1740 63 0
-1740 154 0
-11 -63 -154 1740 0
-1741 12 0
-1741 64 0
-1741 155 0
-12 -64 -155 1741 0
-1742 13 0
-1742 65 0
-1742 156 0
-13 -65 -156 1742 0
-1730 5016 0
-1731 5016 0
-1732 5016 0
-1733 5016 0
-1734 5016 0
-1735 5016 0
-1736 5016 0
-1737 5016 0
-1738 5016 0
-1739 5016 0
-1740 5016 0
-1741 5016 0
-1742 5016 0
-5016 1730 1731 1732 1733 1734 1735 1736 1737 1738 1739 1740 1741 1742 0
-1743 1 0
-1743 53 0
-1743 157 0
-1 -53 -157 1743 0
-1744 2 0
-1744 54 0
-1744 158 0
-2 -54 -158 1744 0
-1745 3 0
-1745 55 0
-1745 159 0
-3 -55 -159 1745 0
-1746 4 0
-1746 56 0
-1746 160 0
-4 -56 -160 1746 0
-1747 5 0
-1747 57 0
-1747 161 0
-5 -57 -161 1747 0
-1748 6 0
-1748 58 0
-1748 162 0
-6 -58 -162 1748 0
-1749 7 0
-1749 59 0
-1749 163 0
-7 -59 -163 1749 0
-1750 8 0
-1750 60 0
-1750 164 0
-8 -60 -164 1750 0
-1751 9 0
-1751 61 0
-1751 165 0
-9 -61 -165 1751 0
-1752 10 0
-1752 62 0
-1752 166 0
-10 -62 -166 1752 0
-1753 11 0
-1753 63 0
-1753 167 0
-11 -63 -167 1753 0
-1754 12 0
-1754 64 0
-1754 168 0
-12 -64 -168 1754 0
-1755 13 0
-1755 65 0
-1755 169 0
-13 -65 -169 1755 0
-1743 5017 0
-1744 5017 0
-1745 5017 0
-1746 5017 0
-1747 5017 0
-1748 5017 0
-1749 5017 0
-1750 5017 0
-1751 5017 0
-1752 5017 0
-1753 5017 0
-1754 5017 0
-1755 5017 0
-5017 1743 1744 1745 1746 1747 1748 1749 1750 1751 1752 1753 1754 1755 0
-1756 1 0
-1756 66 0
-1756 79 0
-1 -66 -79 1756 0
-1757 2 0
-1757 67 0
-1757 80 0
-2 -67 -80 1757 0
-1758 3 0
-1758 68 0
-1758 81 0
-3 -68 -81 1758 0
-1759 4 0
-1759 69 0
-1759 82 0
-4 -69 -82 1759 0
-1760 5 0
-1760 70 0
-1760 83 0
-5 -70 -83 1760 0
-1761 6 0
-1761 71 0
-1761 84 0
-6 -71 -84 1761 0
-1762 7 0
-1762 72 0
-1762 85 0
-7 -72 -85 1762 0
-1763 8 0
-1763 73 0
-1763 86 0
-8 -73 -86 1763 0
-1764 9 0
-1764 74 0
-1764 87 0
-9 -74 -87 1764 0
-1765 10 0
-1765 75 0
-1765 88 0
-10 -75 -88 1765 0
-1766 11 0
-1766 76 0
-1766 89 0
-11 -76 -89 1766 0
-1767 12 0
-1767 77 0
-1767 90 0
-12 -77 -90 1767 0
-1768 13 0
-1768 78 0
-1768 91 0
-13 -78 -91 1768 0
-1756 5018 0
-1757 5018 0
-1758 5018 0
-1759 5018 0
-1760 5018 0
-1761 5018 0
-1762 5018 0
-1763 5018 0
-1764 5018 0
-1765 5018 0
-1766 5018 0
-1767 5018 0
-1768 5018 0
-5018 1756 1757 1758 1759 1760 1761 1762 1763 1764 1765 1766 1767 1768 0
-1769 1 0
-1769 66 0
-1769 92 0
-1 -66 -92 1769 0
-1770 2 0
-1770 67 0
-1770 93 0
-2 -67 -93 1770 0
-1771 3 0
-1771 68 0
-1771 94 0
-3 -68 -94 1771 0
-1772 4 0
-1772 69 0
-1772 95 0
-4 -69 -95 1772 0
-1773 5 0
-1773 70 0
-1773 96 0
-5 -70 -96 1773 0
-1774 6 0
-1774 71 0
-1774 97 0
-6 -71 -97 1774 0
-1775 7 0
-1775 72 0
-1775 98 0
-7 -72 -98 1775 0
-1776 8 0
-1776 73 0
-1776 99 0
-8 -73 -99 1776 0
-1777 9 0
-1777 74 0
-1777 100 0
-9 -74 -100 1777 0
-1778 10 0
-1778 75 0
-1778 101 0
-10 -75 -101 1778 0
-1779 11 0
-1779 76 0
-1779 102 0
-11 -76 -102 1779 0
-1780 12 0
-1780 77 0
-1780 103 0
-12 -77 -103 1780 0
-1781 13 0
-1781 78 0
-1781 104 0
-13 -78 -104 1781 0
-1769 5019 0
-1770 5019 0
-1771 5019 0
-1772 5019 0
-1773 5019 0
-1774 5019 0
-1775 5019 0
-1776 5019 0
-1777 5019 0
-1778 5019 0
-1779 5019 0
-1780 5019 0
-1781 5019 0
-5019 1769 1770 1771 1772 1773 1774 1775 1776 1777 1778 1779 1780 1781 0
-1782 1 0
-1782 66 0
-1782 105 0
-1 -66 -105 1782 0
-1783 2 0
-1783 67 0
-1783 106 0
-2 -67 -106 1783 0
-1784 3 0
-1784 68 0
-1784 107 0
-3 -68 -107 1784 0
-1785 4 0
-1785 69 0
-1785 108 0
-4 -69 -108 1785 0
-1786 5 0
-1786 70 0
-1786 109 0
-5 -70 -109 1786 0
-1787 6 0
-1787 71 0
-1787 110 0
-6 -71 -110 1787 0
-1788 7 0
-1788 72 0
-1788 111 0
-7 -72 -111 1788 0
-1789 8 0
-1789 73 0
-1789 112 0
-8 -73 -112 1789 0
-1790 9 0
-1790 74 0
-1790 113 0
-9 -74 -113 1790 0
-1791 10 0
-1791 75 0
-1791 114 0
-10 -75 -114 1791 0
-1792 11 0
-1792 76 0
-1792 115 0
-11 -76 -115 1792 0
-1793 12 0
-1793 77 0
-1793 116 0
-12 -77 -116 1793 0
-1794 13 0
-1794 78 0
-1794 117 0
-13 -78 -117 1794 0
-1782 5020 0
-1783 5020 0
-1784 5020 0
-1785 5020 0
-1786 5020 0
-1787 5020 0
-1788 5020 0
-1789 5020 0
-1790 5020 0
-1791 5020 0
-1792 5020 0
-1793 5020 0
-1794 5020 0
-5020 1782 1783 1784 1785 1786 1787 1788 1789 1790 1791 1792 1793 1794 0
-1795 1 0
-1795 66 0
-1795 118 0
-1 -66 -118 1795 0
-1796 2 0
-1796 67 0
-1796 119 0
-2 -67 -119 1796 0
-1797 3 0
-1797 68 0
-1797 120 0
-3 -68 -120 1797 0
-1798 4 0
-1798 69 0
-1798 121 0
-4 -69 -121 1798 0
-1799 5 0
-1799 70 0
-1799 122 0
-5 -70 -122 1799 0
-1800 6 0
-1800 71 0
-1800 123 0
-6 -71 -123 1800 0
-1801 7 0
-1801 72 0
-1801 124 0
-7 -72 -124 1801 0
-1802 8 0
-1802 73 0
-1802 125 0
-8 -73 -125 1802 0
-1803 9 0
-1803 74 0
-1803 126 0
-9 -74 -126 1803 0
-1804 10 0
-1804 75 0
-1804 127 0
-10 -75 -127 1804 0
-1805 11 0
-1805 76 0
-1805 128 0
-11 -76 -128 1805 0
-1806 12 0
-1806 77 0
-1806 129 0
-12 -77 -129 1806 0
-1807 13 0
-1807 78 0
-1807 130 0
-13 -78 -130 1807 0
-1795 5021 0
-1796 5021 0
-1797 5021 0
-1798 5021 0
-1799 5021 0
-1800 5021 0
-1801 5021 0
-1802 5021 0
-1803 5021 0
-1804 5021 0
-1805 5021 0
-1806 5021 0
-1807 5021 0
-5021 1795 1796 1797 1798 1799 1800 1801 1802 1803 1804 1805 1806 1807 0
-1808 1 0
-1808 66 0
-1808 131 0
-1 -66 -131 1808 0
-1809 2 0
-1809 67 0
-1809 132 0
-2 -67 -132 1809 0
-1810 3 0
-1810 68 0
-1810 133 0
-3 -68 -133 1810 0
-1811 4 0
-1811 69 0
-1811 134 0
-4 -69 -134 1811 0
-1812 5 0
-1812 70 0
-1812 135 0
-5 -70 -135 1812 0
-1813 6 0
-1813 71 0
-1813 136 0
-6 -71 -136 1813 0
-1814 7 0
-1814 72 0
-1814 137 0
-7 -72 -137 1814 0
-1815 8 0
-1815 73 0
-1815 138 0
-8 -73 -138 1815 0
-1816 9 0
-1816 74 0
-1816 139 0
-9 -74 -139 1816 0
-1817 10 0
-1817 75 0
-1817 140 0
-10 -75 -140 1817 0
-1818 11 0
-1818 76 0
-1818 141 0
-11 -76 -141 1818 0
-1819 12 0
-1819 77 0
-1819 142 0
-12 -77 -142 1819 0
-1820 13 0
-1820 78 0
-1820 143 0
-13 -78 -143 1820 0
-1808 5022 0
-1809 5022 0
-1810 5022 0
-1811 5022 0
-1812 5022 0
-1813 5022 0
-1814 5022 0
-1815 5022 0
-1816 5022 0
-1817 5022 0
-1818 5022 0
-1819 5022 0
-1820 5022 0
-5022 1808 1809 1810 1811 1812 1813 1814 1815 1816 1817 1818 1819 1820 0
-1821 1 0
-1821 66 0
-1821 144 0
-1 -66 -144 1821 0
-1822 2 0
-1822 67 0
-1822 145 0
-2 -67 -145 1822 0
-1823 3 0
-1823 68 0
-1823 146 0
-3 -68 -146 1823 0
-1824 4 0
-1824 69 0
-1824 147 0
-4 -69 -147 1824 0
-1825 5 0
-1825 70 0
-1825 148 0
-5 -70 -148 1825 0
-1826 6 0
-1826 71 0
-1826 149 0
-6 -71 -149 1826 0
-1827 7 0
-1827 72 0
-1827 150 0
-7 -72 -150 1827 0
-1828 8 0
-1828 73 0
-1828 151 0
-8 -73 -151 1828 0
-1829 9 0
-1829 74 0
-1829 152 0
-9 -74 -152 1829 0
-1830 10 0
-1830 75 0
-1830 153 0
-10 -75 -153 1830 0
-1831 11 0
-1831 76 0
-1831 154 0
-11 -76 -154 1831 0
-1832 12 0
-1832 77 0
-1832 155 0
-12 -77 -155 1832 0
-1833 13 0
-1833 78 0
-1833 156 0
-13 -78 -156 1833 0
-1821 5023 0
-1822 5023 0
-1823 5023 0
-1824 5023 0
-1825 5023 0
-1826 5023 0
-1827 5023 0
-1828 5023 0
-1829 5023 0
-1830 5023 0
-1831 5023 0
-1832 5023 0
-1833 5023 0
-5023 1821 1822 1823 1824 1825 1826 1827 1828 1829 1830 1831 1832 1833 0
-1834 1 0
-1834 66 0
-1834 157 0
-1 -66 -157 1834 0
-1835 2 0
-1835 67 0
-1835 158 0
-2 -67 -158 1835 0
-1836 3 0
-1836 68 0
-1836 159 0
-3 -68 -159 1836 0
-1837 4 0
-1837 69 0
-1837 160 0
-4 -69 -160 1837 0
-1838 5 0
-1838 70 0
-1838 161 0
-5 -70 -161 1838 0
-1839 6 0
-1839 71 0
-1839 162 0
-6 -71 -162 1839 0
-1840 7 0
-1840 72 0
-1840 163 0
-7 -72 -163 1840 0
-1841 8 0
-1841 73 0
-1841 164 0
-8 -73 -164 1841 0
-1842 9 0
-1842 74 0
-1842 165 0
-9 -74 -165 1842 0
-1843 10 0
-1843 75 0
-1843 166 0
-10 -75 -166 1843 0
-1844 11 0
-1844 76 0
-1844 167 0
-11 -76 -167 1844 0
-1845 12 0
-1845 77 0
-1845 168 0
-12 -77 -168 1845 0
-1846 13 0
-1846 78 0
-1846 169 0
-13 -78 -169 1846 0
-1834 5024 0
-1835 5024 0
-1836 5024 0
-1837 5024 0
-1838 5024 0
-1839 5024 0
-1840 5024 0
-1841 5024 0
-1842 5024 0
-1843 5024 0
-1844 5024 0
-1845 5024 0
-1846 5024 0
-5024 1834 1835 1836 1837 1838 1839 1840 1841 1842 1843 1844 1845 1846 0
-1847 1 0
-1847 79 0
-1847 92 0
-1 -79 -92 1847 0
-1848 2 0
-1848 80 0
-1848 93 0
-2 -80 -93 1848 0
-1849 3 0
-1849 81 0
-1849 94 0
-3 -81 -94 1849 0
-1850 4 0
-1850 82 0
-1850 95 0
-4 -82 -95 1850 0
-1851 5 0
-1851 83 0
-1851 96 0
-5 -83 -96 1851 0
-1852 6 0
-1852 84 0
-1852 97 0
-6 -84 -97 1852 0
-1853 7 0
-1853 85 0
-1853 98 0
-7 -85 -98 1853 0
-1854 8 0
-1854 86 0
-1854 99 0
-8 -86 -99 1854 0
-1855 9 0
-1855 87 0
-1855 100 0
-9 -87 -100 1855 0
-1856 10 0
-1856 88 0
-1856 101 0
-10 -88 -101 1856 0
-1857 11 0
-1857 89 0
-1857 102 0
-11 -89 -102 1857 0
-1858 12 0
-1858 90 0
-1858 103 0
-12 -90 -103 1858 0
-1859 13 0
-1859 91 0
-1859 104 0
-13 -91 -104 1859 0
-1847 5025 0
-1848 5025 0
-1849 5025 0
-1850 5025 0
-1851 5025 0
-1852 5025 0
-1853 5025 0
-1854 5025 0
-1855 5025 0
-1856 5025 0
-1857 5025 0
-1858 5025 0
-1859 5025 0
-5025 1847 1848 1849 1850 1851 1852 1853 1854 1855 1856 1857 1858 1859 0
-1860 1 0
-1860 79 0
-1860 105 0
-1 -79 -105 1860 0
-1861 2 0
-1861 80 0
-1861 106 0
-2 -80 -106 1861 0
-1862 3 0
-1862 81 0
-1862 107 0
-3 -81 -107 1862 0
-1863 4 0
-1863 82 0
-1863 108 0
-4 -82 -108 1863 0
-1864 5 0
-1864 83 0
-1864 109 0
-5 -83 -109 1864 0
-1865 6 0
-1865 84 0
-1865 110 0
-6 -84 -110 1865 0
-1866 7 0
-1866 85 0
-1866 111 0
-7 -85 -111 1866 0
-1867 8 0
-1867 86 0
-1867 112 0
-8 -86 -112 1867 0
-1868 9 0
-1868 87 0
-1868 113 0
-9 -87 -113 1868 0
-1869 10 0
-1869 88 0
-1869 114 0
-10 -88 -114 1869 0
-1870 11 0
-1870 89 0
-1870 115 0
-11 -89 -115 1870 0
-1871 12 0
-1871 90 0
-1871 116 0
-12 -90 -116 1871 0
-1872 13 0
-1872 91 0
-1872 117 0
-13 -91 -117 1872 0
-1860 5026 0
-1861 5026 0
-1862 5026 0
-1863 5026 0
-1864 5026 0
-1865 5026 0
-1866 5026 0
-1867 5026 0
-1868 5026 0
-1869 5026 0
-1870 5026 0
-1871 5026 0
-1872 5026 0
-5026 1860 1861 1862 1863 1864 1865 1866 1867 1868 1869 1870 1871 1872 0
-1873 1 0
-1873 79 0
-1873 118 0
-1 -79 -118 1873 0
-1874 2 0
-1874 80 0
-1874 119 0
-2 -80 -119 1874 0
-1875 3 0
-1875 81 0
-1875 120 0
-3 -81 -120 1875 0
-1876 4 0
-1876 82 0
-1876 121 0
-4 -82 -121 1876 0
-1877 5 0
-1877 83 0
-1877 122 0
-5 -83 -122 1877 0
-1878 6 0
-1878 84 0
-1878 123 0
-6 -84 -123 1878 0
-1879 7 0
-1879 85 0
-1879 124 0
-7 -85 -124 1879 0
-1880 8 0
-1880 86 0
-1880 125 0
-8 -86 -125 1880 0
-1881 9 0
-1881 87 0
-1881 126 0
-9 -87 -126 1881 0
-1882 10 0
-1882 88 0
-1882 127 0
-10 -88 -127 1882 0
-1883 11 0
-1883 89 0
-1883 128 0
-11 -89 -128 1883 0
-1884 12 0
-1884 90 0
-1884 129 0
-12 -90 -129 1884 0
-1885 13 0
-1885 91 0
-1885 130 0
-13 -91 -130 1885 0
-1873 5027 0
-1874 5027 0
-1875 5027 0
-1876 5027 0
-1877 5027 0
-1878 5027 0
-1879 5027 0
-1880 5027 0
-1881 5027 0
-1882 5027 0
-1883 5027 0
-1884 5027 0
-1885 5027 0
-5027 1873 1874 1875 1876 1877 1878 1879 1880 1881 1882 1883 1884 1885 0
-1886 1 0
-1886 79 0
-1886 131 0
-1 -79 -131 1886 0
-1887 2 0
-1887 80 0
-1887 132 0
-2 -80 -132 1887 0
-1888 3 0
-1888 81 0
-1888 133 0
-3 -81 -133 1888 0
-1889 4 0
-1889 82 0
-1889 134 0
-4 -82 -134 1889 0
-1890 5 0
-1890 83 0
-1890 135 0
-5 -83 -135 1890 0
-1891 6 0
-1891 84 0
-1891 136 0
-6 -84 -136 1891 0
-1892 7 0
-1892 85 0
-1892 137 0
-7 -85 -137 1892 0
-1893 8 0
-1893 86 0
-1893 138 0
-8 -86 -138 1893 0
-1894 9 0
-1894 87 0
-1894 139 0
-9 -87 -139 1894 0
-1895 10 0
-1895 88 0
-1895 140 0
-10 -88 -140 1895 0
-1896 11 0
-1896 89 0
-1896 141 0
-11 -89 -141 1896 0
-1897 12 0
-1897 90 0
-1897 142 0
-12 -90 -142 1897 0
-1898 13 0
-1898 91 0
-1898 143 0
-13 -91 -143 1898 0
-1886 5028 0
-1887 5028 0
-1888 5028 0
-1889 5028 0
-1890 5028 0
-1891 5028 0
-1892 5028 0
-1893 5028 0
-1894 5028 0
-1895 5028 0
-1896 5028 0
-1897 5028 0
-1898 5028 0
-5028 1886 1887 1888 1889 1890 1891 1892 1893 1894 1895 1896 1897 1898 0
-1899 1 0
-1899 79 0
-1899 144 0
-1 -79 -144 1899 0
-1900 2 0
-1900 80 0
-1900 145 0
-2 -80 -145 1900 0
-1901 3 0
-1901 81 0
-1901 146 0
-3 -81 -146 1901 0
-1902 4 0
-1902 82 0
-1902 147 0
-4 -82 -147 1902 0
-1903 5 0
-1903 83 0
-1903 148 0
-5 -83 -148 1903 0
-1904 6 0
-1904 84 0
-1904 149 0
-6 -84 -149 1904 0
-1905 7 0
-1905 85 0
-1905 150 0
-7 -85 -150 1905 0
-1906 8 0
-1906 86 0
-1906 151 0
-8 -86 -151 1906 0
-1907 9 0
-1907 87 0
-1907 152 0
-9 -87 -152 1907 0
-1908 10 0
-1908 88 0
-1908 153 0
-10 -88 -153 1908 0
-1909 11 0
-1909 89 0
-1909 154 0
-11 -89 -154 1909 0
-1910 12 0
-1910 90 0
-1910 155 0
-12 -90 -155 1910 0
-1911 13 0
-1911 91 0
-1911 156 0
-13 -91 -156 1911 0
-1899 5029 0
-1900 5029 0
-1901 5029 0
-1902 5029 0
-1903 5029 0
-1904 5029 0
-1905 5029 0
-1906 5029 0
-1907 5029 0
-1908 5029 0
-1909 5029 0
-1910 5029 0
-1911 5029 0
-5029 1899 1900 1901 1902 1903 1904 1905 1906 1907 1908 1909 1910 1911 0
-1912 1 0
-1912 79 0
-1912 157 0
-1 -79 -157 1912 0
-1913 2 0
-1913 80 0
-1913 158 0
-2 -80 -158 1913 0
-1914 3 0
-1914 81 0
-1914 159 0
-3 -81 -159 1914 0
-1915 4 0
-1915 82 0
-1915 160 0
-4 -82 -160 1915 0
-1916 5 0
-1916 83 0
-1916 161 0
-5 -83 -161 1916 0
-1917 6 0
-1917 84 0
-1917 162 0
-6 -84 -162 1917 0
-1918 7 0
-1918 85 0
-1918 163 0
-7 -85 -163 1918 0
-1919 8 0
-1919 86 0
-1919 164 0
-8 -86 -164 1919 0
-1920 9 0
-1920 87 0
-1920 165 0
-9 -87 -165 1920 0
-1921 10 0
-1921 88 0
-1921 166 0
-10 -88 -166 1921 0
-1922 11 0
-1922 89 0
-1922 167 0
-11 -89 -167 1922 0
-1923 12 0
-1923 90 0
-1923 168 0
-12 -90 -168 1923 0
-1924 13 0
-1924 91 0
-1924 169 0
-13 -91 -169 1924 0
-1912 5030 0
-1913 5030 0
-1914 5030 0
-1915 5030 0
-1916 5030 0
-1917 5030 0
-1918 5030 0
-1919 5030 0
-1920 5030 0
-1921 5030 0
-1922 5030 0
-1923 5030 0
-1924 5030 0
-5030 1912 1913 1914 1915 1916 1917 1918 1919 1920 1921 1922 1923 1924 0
-1925 1 0
-1925 92 0
-1925 105 0
-1 -92 -105 1925 0
-1926 2 0
-1926 93 0
-1926 106 0
-2 -93 -106 1926 0
-1927 3 0
-1927 94 0
-1927 107 0
-3 -94 -107 1927 0
-1928 4 0
-1928 95 0
-1928 108 0
-4 -95 -108 1928 0
-1929 5 0
-1929 96 0
-1929 109 0
-5 -96 -109 1929 0
-1930 6 0
-1930 97 0
-1930 110 0
-6 -97 -110 1930 0
-1931 7 0
-1931 98 0
-1931 111 0
-7 -98 -111 1931 0
-1932 8 0
-1932 99 0
-1932 112 0
-8 -99 -112 1932 0
-1933 9 0
-1933 100 0
-1933 113 0
-9 -100 -113 1933 0
-1934 10 0
-1934 101 0
-1934 114 0
-10 -101 -114 1934 0
-1935 11 0
-1935 102 0
-1935 115 0
-11 -102 -115 1935 0
-1936 12 0
-1936 103 0
-1936 116 0
-12 -103 -116 1936 0
-1937 13 0
-1937 104 0
-1937 117 0
-13 -104 -117 1937 0
-1925 5031 0
-1926 5031 0
-1927 5031 0
-1928 5031 0
-1929 5031 0
-1930 5031 0
-1931 5031 0
-1932 5031 0
-1933 5031 0
-1934 5031 0
-1935 5031 0
-1936 5031 0
-1937 5031 0
-5031 1925 1926 1927 1928 1929 1930 1931 1932 1933 1934 1935 1936 1937 0
-1938 1 0
-1938 92 0
-1938 118 0
-1 -92 -118 1938 0
-1939 2 0
-1939 93 0
-1939 119 0
-2 -93 -119 1939 0
-1940 3 0
-1940 94 0
-1940 120 0
-3 -94 -120 1940 0
-1941 4 0
-1941 95 0
-1941 121 0
-4 -95 -121 1941 0
-1942 5 0
-1942 96 0
-1942 122 0
-5 -96 -122 1942 0
-1943 6 0
-1943 97 0
-1943 123 0
-6 -97 -123 1943 0
-1944 7 0
-1944 98 0
-1944 124 0
-7 -98 -124 1944 0
-1945 8 0
-1945 99 0
-1945 125 0
-8 -99 -125 1945 0
-1946 9 0
-1946 100 0
-1946 126 0
-9 -100 -126 1946 0
-1947 10 0
-1947 101 0
-1947 127 0
-10 -101 -127 1947 0
-1948 11 0
-1948 102 0
-1948 128 0
-11 -102 -128 1948 0
-1949 12 0
-1949 103 0
-1949 129 0
-12 -103 -129 1949 0
-1950 13 0
-1950 104 0
-1950 130 0
-13 -104 -130 1950 0
-1938 5032 0
-1939 5032 0
-1940 5032 0
-1941 5032 0
-1942 5032 0
-1943 5032 0
-1944 5032 0
-1945 5032 0
-1946 5032 0
-1947 5032 0
-1948 5032 0
-1949 5032 0
-1950 5032 0
-5032 1938 1939 1940 1941 1942 1943 1944 1945 1946 1947 1948 1949 1950 0
-1951 1 0
-1951 92 0
-1951 131 0
-1 -92 -131 1951 0
-1952 2 0
-1952 93 0
-1952 132 0
-2 -93 -132 1952 0
-1953 3 0
-1953 94 0
-1953 133 0
-3 -94 -133 1953 0
-1954 4 0
-1954 95 0
-1954 134 0
-4 -95 -134 1954 0
-1955 5 0
-1955 96 0
-1955 135 0
-5 -96 -135 1955 0
-1956 6 0
-1956 97 0
-1956 136 0
-6 -97 -136 1956 0
-1957 7 0
-1957 98 0
-1957 137 0
-7 -98 -137 1957 0
-1958 8 0
-1958 99 0
-1958 138 0
-8 -99 -138 1958 0
-1959 9 0
-1959 100 0
-1959 139 0
-9 -100 -139 1959 0
-1960 10 0
-1960 101 0
-1960 140 0
-10 -101 -140 1960 0
-1961 11 0
-1961 102 0
-1961 141 0
-11 -102 -141 1961 0
-1962 12 0
-1962 103 0
-1962 142 0
-12 -103 -142 1962 0
-1963 13 0
-1963 104 0
-1963 143 0
-13 -104 -143 1963 0
-1951 5033 0
-1952 5033 0
-1953 5033 0
-1954 5033 0
-1955 5033 0
-1956 5033 0
-1957 5033 0
-1958 5033 0
-1959 5033 0
-1960 5033 0
-1961 5033 0
-1962 5033 0
-1963 5033 0
-5033 1951 1952 1953 1954 1955 1956 1957 1958 1959 1960 1961 1962 1963 0
-1964 1 0
-1964 92 0
-1964 144 0
-1 -92 -144 1964 0
-1965 2 0
-1965 93 0
-1965 145 0
-2 -93 -145 1965 0
-1966 3 0
-1966 94 0
-1966 146 0
-3 -94 -146 1966 0
-1967 4 0
-1967 95 0
-1967 147 0
-4 -95 -147 1967 0
-1968 5 0
-1968 96 0
-1968 148 0
-5 -96 -148 1968 0
-1969 6 0
-1969 97 0
-1969 149 0
-6 -97 -149 1969 0
-1970 7 0
-1970 98 0
-1970 150 0
-7 -98 -150 1970 0
-1971 8 0
-1971 99 0
-1971 151 0
-8 -99 -151 1971 0
-1972 9 0
-1972 100 0
-1972 152 0
-9 -100 -152 1972 0
-1973 10 0
-1973 101 0
-1973 153 0
-10 -101 -153 1973 0
-1974 11 0
-1974 102 0
-1974 154 0
-11 -102 -154 1974 0
-1975 12 0
-1975 103 0
-1975 155 0
-12 -103 -155 1975 0
-1976 13 0
-1976 104 0
-1976 156 0
-13 -104 -156 1976 0
-1964 5034 0
-1965 5034 0
-1966 5034 0
-1967 5034 0
-1968 5034 0
-1969 5034 0
-1970 5034 0
-1971 5034 0
-1972 5034 0
-1973 5034 0
-1974 5034 0
-1975 5034 0
-1976 5034 0
-5034 1964 1965 1966 1967 1968 1969 1970 1971 1972 1973 1974 1975 1976 0
-1977 1 0
-1977 92 0
-1977 157 0
-1 -92 -157 1977 0
-1978 2 0
-1978 93 0
-1978 158 0
-2 -93 -158 1978 0
-1979 3 0
-1979 94 0
-1979 159 0
-3 -94 -159 1979 0
-1980 4 0
-1980 95 0
-1980 160 0
-4 -95 -160 1980 0
-1981 5 0
-1981 96 0
-1981 161 0
-5 -96 -161 1981 0
-1982 6 0
-1982 97 0
-1982 162 0
-6 -97 -162 1982 0
-1983 7 0
-1983 98 0
-1983 163 0
-7 -98 -163 1983 0
-1984 8 0
-1984 99 0
-1984 164 0
-8 -99 -164 1984 0
-1985 9 0
-1985 100 0
-1985 165 0
-9 -100 -165 1985 0
-1986 10 0
-1986 101 0
-1986 166 0
-10 -101 -166 1986 0
-1987 11 0
-1987 102 0
-1987 167 0
-11 -102 -167 1987 0
-1988 12 0
-1988 103 0
-1988 168 0
-12 -103 -168 1988 0
-1989 13 0
-1989 104 0
-1989 169 0
-13 -104 -169 1989 0
-1977 5035 0
-1978 5035 0
-1979 5035 0
-1980 5035 0
-1981 5035 0
-1982 5035 0
-1983 5035 0
-1984 5035 0
-1985 5035 0
-1986 5035 0
-1987 5035 0
-1988 5035 0
-1989 5035 0
-5035 1977 1978 1979 1980 1981 1982 1983 1984 1985 1986 1987 1988 1989 0
-1990 1 0
-1990 105 0
-1990 118 0
-1 -105 -118 1990 0
-1991 2 0
-1991 106 0
-1991 119 0
-2 -106 -119 1991 0
-1992 3 0
-1992 107 0
-1992 120 0
-3 -107 -120 1992 0
-1993 4 0
-1993 108 0
-1993 121 0
-4 -108 -121 1993 0
-1994 5 0
-1994 109 0
-1994 122 0
-5 -109 -122 1994 0
-1995 6 0
-1995 110 0
-1995 123 0
-6 -110 -123 1995 0
-1996 7 0
-1996 111 0
-1996 124 0
-7 -111 -124 1996 0
-1997 8 0
-1997 112 0
-1997 125 0
-8 -112 -125 1997 0
-1998 9 0
-1998 113 0
-1998 126 0
-9 -113 -126 1998 0
-1999 10 0
-1999 114 0
-1999 127 0
-10 -114 -127 1999 0
-2000 11 0
-2000 115 0
-2000 128 0
-11 -115 -128 2000 0
-2001 12 0
-2001 116 0
-2001 129 0
-12 -116 -129 2001 0
-2002 13 0
-2002 117 0
-2002 130 0
-13 -117 -130 2002 0
-1990 5036 0
-1991 5036 0
-1992 5036 0
-1993 5036 0
-1994 5036 0
-1995 5036 0
-1996 5036 0
-1997 5036 0
-1998 5036 0
-1999 5036 0
-2000 5036 0
-2001 5036 0
-2002 5036 0
-5036 1990 1991 1992 1993 1994 1995 1996 1997 1998 1999 2000 2001 2002 0
-2003 1 0
-2003 105 0
-2003 131 0
-1 -105 -131 2003 0
-2004 2 0
-2004 106 0
-2004 132 0
-2 -106 -132 2004 0
-2005 3 0
-2005 107 0
-2005 133 0
-3 -107 -133 2005 0
-2006 4 0
-2006 108 0
-2006 134 0
-4 -108 -134 2006 0
-2007 5 0
-2007 109 0
-2007 135 0
-5 -109 -135 2007 0
-2008 6 0
-2008 110 0
-2008 136 0
-6 -110 -136 2008 0
-2009 7 0
-2009 111 0
-2009 137 0
-7 -111 -137 2009 0
-2010 8 0
-2010 112 0
-2010 138 0
-8 -112 -138 2010 0
-2011 9 0
-2011 113 0
-2011 139 0
-9 -113 -139 2011 0
-2012 10 0
-2012 114 0
-2012 140 0
-10 -114 -140 2012 0
-2013 11 0
-2013 115 0
-2013 141 0
-11 -115 -141 2013 0
-2014 12 0
-2014 116 0
-2014 142 0
-12 -116 -142 2014 0
-2015 13 0
-2015 117 0
-2015 143 0
-13 -117 -143 2015 0
-2003 5037 0
-2004 5037 0
-2005 5037 0
-2006 5037 0
-2007 5037 0
-2008 5037 0
-2009 5037 0
-2010 5037 0
-2011 5037 0
-2012 5037 0
-2013 5037 0
-2014 5037 0
-2015 5037 0
-5037 2003 2004 2005 2006 2007 2008 2009 2010 2011 2012 2013 2014 2015 0
-2016 1 0
-2016 105 0
-2016 144 0
-1 -105 -144 2016 0
-2017 2 0
-2017 106 0
-2017 145 0
-2 -106 -145 2017 0
-2018 3 0
-2018 107 0
-2018 146 0
-3 -107 -146 2018 0
-2019 4 0
-2019 108 0
-2019 147 0
-4 -108 -147 2019 0
-2020 5 0
-2020 109 0
-2020 148 0
-5 -109 -148 2020 0
-2021 6 0
-2021 110 0
-2021 149 0
-6 -110 -149 2021 0
-2022 7 0
-2022 111 0
-2022 150 0
-7 -111 -150 2022 0
-2023 8 0
-2023 112 0
-2023 151 0
-8 -112 -151 2023 0
-2024 9 0
-2024 113 0
-2024 152 0
-9 -113 -152 2024 0
-2025 10 0
-2025 114 0
-2025 153 0
-10 -114 -153 2025 0
-2026 11 0
-2026 115 0
-2026 154 0
-11 -115 -154 2026 0
-2027 12 0
-2027 116 0
-2027 155 0
-12 -116 -155 2027 0
-2028 13 0
-2028 117 0
-2028 156 0
-13 -117 -156 2028 0
-2016 5038 0
-2017 5038 0
-2018 5038 0
-2019 5038 0
-2020 5038 0
-2021 5038 0
-2022 5038 0
-2023 5038 0
-2024 5038 0
-2025 5038 0
-2026 5038 0
-2027 5038 0
-2028 5038 0
-5038 2016 2017 2018 2019 2020 2021 2022 2023 2024 2025 2026 2027 2028 0
-2029 1 0
-2029 105 0
-2029 157 0
-1 -105 -157 2029 0
-2030 2 0
-2030 106 0
-2030 158 0
-2 -106 -158 2030 0
-2031 3 0
-2031 107 0
-2031 159 0
-3 -107 -159 2031 0
-2032 4 0
-2032 108 0
-2032 160 0
-4 -108 -160 2032 0
-2033 5 0
-2033 109 0
-2033 161 0
-5 -109 -161 2033 0
-2034 6 0
-2034 110 0
-2034 162 0
-6 -110 -162 2034 0
-2035 7 0
-2035 111 0
-2035 163 0
-7 -111 -163 2035 0
-2036 8 0
-2036 112 0
-2036 164 0
-8 -112 -164 2036 0
-2037 9 0
-2037 113 0
-2037 165 0
-9 -113 -165 2037 0
-2038 10 0
-2038 114 0
-2038 166 0
-10 -114 -166 2038 0
-2039 11 0
-2039 115 0
-2039 167 0
-11 -115 -167 2039 0
-2040 12 0
-2040 116 0
-2040 168 0
-12 -116 -168 2040 0
-2041 13 0
-2041 117 0
-2041 169 0
-13 -117 -169 2041 0
-2029 5039 0
-2030 5039 0
-2031 5039 0
-2032 5039 0
-2033 5039 0
-2034 5039 0
-2035 5039 0
-2036 5039 0
-2037 5039 0
-2038 5039 0
-2039 5039 0
-2040 5039 0
-2041 5039 0
-5039 2029 2030 2031 2032 2033 2034 2035 2036 2037 2038 2039 2040 2041 0
-2042 1 0
-2042 118 0
-2042 131 0
-1 -118 -131 2042 0
-2043 2 0
-2043 119 0
-2043 132 0
-2 -119 -132 2043 0
-2044 3 0
-2044 120 0
-2044 133 0
-3 -120 -133 2044 0
-2045 4 0
-2045 121 0
-2045 134 0
-4 -121 -134 2045 0
-2046 5 0
-2046 122 0
-2046 135 0
-5 -122 -135 2046 0
-2047 6 0
-2047 123 0
-2047 136 0
-6 -123 -136 2047 0
-2048 7 0
-2048 124 0
-2048 137 0
-7 -124 -137 2048 0
-2049 8 0
-2049 125 0
-2049 138 0
-8 -125 -138 2049 0
-2050 9 0
-2050 126 0
-2050 139 0
-9 -126 -139 2050 0
-2051 10 0
-2051 127 0
-2051 140 0
-10 -127 -140 2051 0
-2052 11 0
-2052 128 0
-2052 141 0
-11 -128 -141 2052 0
-2053 12 0
-2053 129 0
-2053 142 0
-12 -129 -142 2053 0
-2054 13 0
-2054 130 0
-2054 143 0
-13 -130 -143 2054 0
-2042 5040 0
-2043 5040 0
-2044 5040 0
-2045 5040 0
-2046 5040 0
-2047 5040 0
-2048 5040 0
-2049 5040 0
-2050 5040 0
-2051 5040 0
-2052 5040 0
-2053 5040 0
-2054 5040 0
-5040 2042 2043 2044 2045 2046 2047 2048 2049 2050 2051 2052 2053 2054 0
-2055 1 0
-2055 118 0
-2055 144 0
-1 -118 -144 2055 0
-2056 2 0
-2056 119 0
-2056 145 0
-2 -119 -145 2056 0
-2057 3 0
-2057 120 0
-2057 146 0
-3 -120 -146 2057 0
-2058 4 0
-2058 121 0
-2058 147 0
-4 -121 -147 2058 0
-2059 5 0
-2059 122 0
-2059 148 0
-5 -122 -148 2059 0
-2060 6 0
-2060 123 0
-2060 149 0
-6 -123 -149 2060 0
-2061 7 0
-2061 124 0
-2061 150 0
-7 -124 -150 2061 0
-2062 8 0
-2062 125 0
-2062 151 0
-8 -125 -151 2062 0
-2063 9 0
-2063 126 0
-2063 152 0
-9 -126 -152 2063 0
-2064 10 0
-2064 127 0
-2064 153 0
-10 -127 -153 2064 0
-2065 11 0
-2065 128 0
-2065 154 0
-11 -128 -154 2065 0
-2066 12 0
-2066 129 0
-2066 155 0
-12 -129 -155 2066 0
-2067 13 0
-2067 130 0
-2067 156 0
-13 -130 -156 2067 0
-2055 5041 0
-2056 5041 0
-2057 5041 0
-2058 5041 0
-2059 5041 0
-2060 5041 0
-2061 5041 0
-2062 5041 0
-2063 5041 0
-2064 5041 0
-2065 5041 0
-2066 5041 0
-2067 5041 0
-5041 2055 2056 2057 2058 2059 2060 2061 2062 2063 2064 2065 2066 2067 0
-2068 1 0
-2068 118 0
-2068 157 0
-1 -118 -157 2068 0
-2069 2 0
-2069 119 0
-2069 158 0
-2 -119 -158 2069 0
-2070 3 0
-2070 120 0
-2070 159 0
-3 -120 -159 2070 0
-2071 4 0
-2071 121 0
-2071 160 0
-4 -121 -160 2071 0
-2072 5 0
-2072 122 0
-2072 161 0
-5 -122 -161 2072 0
-2073 6 0
-2073 123 0
-2073 162 0
-6 -123 -162 2073 0
-2074 7 0
-2074 124 0
-2074 163 0
-7 -124 -163 2074 0
-2075 8 0
-2075 125 0
-2075 164 0
-8 -125 -164 2075 0
-2076 9 0
-2076 126 0
-2076 165 0
-9 -126 -165 2076 0
-2077 10 0
-2077 127 0
-2077 166 0
-10 -127 -166 2077 0
-2078 11 0
-2078 128 0
-2078 167 0
-11 -128 -167 2078 0
-2079 12 0
-2079 129 0
-2079 168 0
-12 -129 -168 2079 0
-2080 13 0
-2080 130 0
-2080 169 0
-13 -130 -169 2080 0
-2068 5042 0
-2069 5042 0
-2070 5042 0
-2071 5042 0
-2072 5042 0
-2073 5042 0
-2074 5042 0
-2075 5042 0
-2076 5042 0
-2077 5042 0
-2078 5042 0
-2079 5042 0
-2080 5042 0
-5042 2068 2069 2070 2071 2072 2073 2074 2075 2076 2077 2078 2079 2080 0
-2081 1 0
-2081 131 0
-2081 144 0
-1 -131 -144 2081 0
-2082 2 0
-2082 132 0
-2082 145 0
-2 -132 -145 2082 0
-2083 3 0
-2083 133 0
-2083 146 0
-3 -133 -146 2083 0
-2084 4 0
-2084 134 0
-2084 147 0
-4 -134 -147 2084 0
-2085 5 0
-2085 135 0
-2085 148 0
-5 -135 -148 2085 0
-2086 6 0
-2086 136 0
-2086 149 0
-6 -136 -149 2086 0
-2087 7 0
-2087 137 0
-2087 150 0
-7 -137 -150 2087 0
-2088 8 0
-2088 138 0
-2088 151 0
-8 -138 -151 2088 0
-2089 9 0
-2089 139 0
-2089 152 0
-9 -139 -152 2089 0
-2090 10 0
-2090 140 0
-2090 153 0
-10 -140 -153 2090 0
-2091 11 0
-2091 141 0
-2091 154 0
-11 -141 -154 2091 0
-2092 12 0
-2092 142 0
-2092 155 0
-12 -142 -155 2092 0
-2093 13 0
-2093 143 0
-2093 156 0
-13 -143 -156 2093 0
-2081 5043 0
-2082 5043 0
-2083 5043 0
-2084 5043 0
-2085 5043 0
-2086 5043 0
-2087 5043 0
-2088 5043 0
-2089 5043 0
-2090 5043 0
-2091 5043 0
-2092 5043 0
-2093 5043 0
-5043 2081 2082 2083 2084 2085 2086 2087 2088 2089 2090 2091 2092 2093 0
-2094 1 0
-2094 131 0
-2094 157 0
-1 -131 -157 2094 0
-2095 2 0
-2095 132 0
-2095 158 0
-2 -132 -158 2095 0
-2096 3 0
-2096 133 0
-2096 159 0
-3 -133 -159 2096 0
-2097 4 0
-2097 134 0
-2097 160 0
-4 -134 -160 2097 0
-2098 5 0
-2098 135 0
-2098 161 0
-5 -135 -161 2098 0
-2099 6 0
-2099 136 0
-2099 162 0
-6 -136 -162 2099 0
-2100 7 0
-2100 137 0
-2100 163 0
-7 -137 -163 2100 0
-2101 8 0
-2101 138 0
-2101 164 0
-8 -138 -164 2101 0
-2102 9 0
-2102 139 0
-2102 165 0
-9 -139 -165 2102 0
-2103 10 0
-2103 140 0
-2103 166 0
-10 -140 -166 2103 0
-2104 11 0
-2104 141 0
-2104 167 0
-11 -141 -167 2104 0
-2105 12 0
-2105 142 0
-2105 168 0
-12 -142 -168 2105 0
-2106 13 0
-2106 143 0
-2106 169 0
-13 -143 -169 2106 0
-2094 5044 0
-2095 5044 0
-2096 5044 0
-2097 5044 0
-2098 5044 0
-2099 5044 0
-2100 5044 0
-2101 5044 0
-2102 5044 0
-2103 5044 0
-2104 5044 0
-2105 5044 0
-2106 5044 0
-5044 2094 2095 2096 2097 2098 2099 2100 2101 2102 2103 2104 2105 2106 0
-2107 1 0
-2107 144 0
-2107 157 0
-1 -144 -157 2107 0
-2108 2 0
-2108 145 0
-2108 158 0
-2 -145 -158 2108 0
-2109 3 0
-2109 146 0
-2109 159 0
-3 -146 -159 2109 0
-2110 4 0
-2110 147 0
-2110 160 0
-4 -147 -160 2110 0
-2111 5 0
-2111 148 0
-2111 161 0
-5 -148 -161 2111 0
-2112 6 0
-2112 149 0
-2112 162 0
-6 -149 -162 2112 0
-2113 7 0
-2113 150 0
-2113 163 0
-7 -150 -163 2113 0
-2114 8 0
-2114 151 0
-2114 164 0
-8 -151 -164 2114 0
-2115 9 0
-2115 152 0
-2115 165 0
-9 -152 -165 2115 0
-2116 10 0
-2116 153 0
-2116 166 0
-10 -153 -166 2116 0
-2117 11 0
-2117 154 0
-2117 167 0
-11 -154 -167 2117 0
-2118 12 0
-2118 155 0
-2118 168 0
-12 -155 -168 2118 0
-2119 13 0
-2119 156 0
-2119 169 0
-13 -156 -169 2119 0
-2107 5045 0
-2108 5045 0
-2109 5045 0
-2110 5045 0
-2111 5045 0
-2112 5045 0
-2113 5045 0
-2114 5045 0
-2115 5045 0
-2116 5045 0
-2117 5045 0
-2118 5045 0
-2119 5045 0
-5045 2107 2108 2109 2110 2111 2112 2113 2114 2115 2116 2117 2118 2119 0
-2120 14 0
-2120 27 0
-2120 40 0
-14 -27 -40 2120 0
-2121 15 0
-2121 28 0
-2121 41 0
-15 -28 -41 2121 0
-2122 16 0
-2122 29 0
-2122 42 0
-16 -29 -42 2122 0
-2123 17 0
-2123 30 0
-2123 43 0
-17 -30 -43 2123 0
-2124 18 0
-2124 31 0
-2124 44 0
-18 -31 -44 2124 0
-2125 19 0
-2125 32 0
-2125 45 0
-19 -32 -45 2125 0
-2126 20 0
-2126 33 0
-2126 46 0
-20 -33 -46 2126 0
-2127 21 0
-2127 34 0
-2127 47 0
-21 -34 -47 2127 0
-2128 22 0
-2128 35 0
-2128 48 0
-22 -35 -48 2128 0
-2129 23 0
-2129 36 0
-2129 49 0
-23 -36 -49 2129 0
-2130 24 0
-2130 37 0
-2130 50 0
-24 -37 -50 2130 0
-2131 25 0
-2131 38 0
-2131 51 0
-25 -38 -51 2131 0
-2132 26 0
-2132 39 0
-2132 52 0
-26 -39 -52 2132 0
-2120 5046 0
-2121 5046 0
-2122 5046 0
-2123 5046 0
-2124 5046 0
-2125 5046 0
-2126 5046 0
-2127 5046 0
-2128 5046 0
-2129 5046 0
-2130 5046 0
-2131 5046 0
-2132 5046 0
-5046 2120 2121 2122 2123 2124 2125 2126 2127 2128 2129 2130 2131 2132 0
-2133 14 0
-2133 27 0
-2133 53 0
-14 -27 -53 2133 0
-2134 15 0
-2134 28 0
-2134 54 0
-15 -28 -54 2134 0
-2135 16 0
-2135 29 0
-2135 55 0
-16 -29 -55 2135 0
-2136 17 0
-2136 30 0
-2136 56 0
-17 -30 -56 2136 0
-2137 18 0
-2137 31 0
-2137 57 0
-18 -31 -57 2137 0
-2138 19 0
-2138 32 0
-2138 58 0
-19 -32 -58 2138 0
-2139 20 0
-2139 33 0
-2139 59 0
-20 -33 -59 2139 0
-2140 21 0
-2140 34 0
-2140 60 0
-21 -34 -60 2140 0
-2141 22 0
-2141 35 0
-2141 61 0
-22 -35 -61 2141 0
-2142 23 0
-2142 36 0
-2142 62 0
-23 -36 -62 2142 0
-2143 24 0
-2143 37 0
-2143 63 0
-24 -37 -63 2143 0
-2144 25 0
-2144 38 0
-2144 64 0
-25 -38 -64 2144 0
-2145 26 0
-2145 39 0
-2145 65 0
-26 -39 -65 2145 0
-2133 5047 0
-2134 5047 0
-2135 5047 0
-2136 5047 0
-2137 5047 0
-2138 5047 0
-2139 5047 0
-2140 5047 0
-2141 5047 0
-2142 5047 0
-2143 5047 0
-2144 5047 0
-2145 5047 0
-5047 2133 2134 2135 2136 2137 2138 2139 2140 2141 2142 2143 2144 2145 0
-2146 14 0
-2146 27 0
-2146 66 0
-14 -27 -66 2146 0
-2147 15 0
-2147 28 0
-2147 67 0
-15 -28 -67 2147 0
-2148 16 0
-2148 29 0
-2148 68 0
-16 -29 -68 2148 0
-2149 17 0
-2149 30 0
-2149 69 0
-17 -30 -69 2149 0
-2150 18 0
-2150 31 0
-2150 70 0
-18 -31 -70 2150 0
-2151 19 0
-2151 32 0
-2151 71 0
-19 -32 -71 2151 0
-2152 20 0
-2152 33 0
-2152 72 0
-20 -33 -72 2152 0
-2153 21 0
-2153 34 0
-2153 73 0
-21 -34 -73 2153 0
-2154 22 0
-2154 35 0
-2154 74 0
-22 -35 -74 2154 0
-2155 23 0
-2155 36 0
-2155 75 0
-23 -36 -75 2155 0
-2156 24 0
-2156 37 0
-2156 76 0
-24 -37 -76 2156 0
-2157 25 0
-2157 38 0
-2157 77 0
-25 -38 -77 2157 0
-2158 26 0
-2158 39 0
-2158 78 0
-26 -39 -78 2158 0
-2146 5048 0
-2147 5048 0
-2148 5048 0
-2149 5048 0
-2150 5048 0
-2151 5048 0
-2152 5048 0
-2153 5048 0
-2154 5048 0
-2155 5048 0
-2156 5048 0
-2157 5048 0
-2158 5048 0
-5048 2146 2147 2148 2149 2150 2151 2152 2153 2154 2155 2156 2157 2158 0
-2159 14 0
-2159 27 0
-2159 79 0
-14 -27 -79 2159 0
-2160 15 0
-2160 28 0
-2160 80 0
-15 -28 -80 2160 0
-2161 16 0
-2161 29 0
-2161 81 0
-16 -29 -81 2161 0
-2162 17 0
-2162 30 0
-2162 82 0
-17 -30 -82 2162 0
-2163 18 0
-2163 31 0
-2163 83 0
-18 -31 -83 2163 0
-2164 19 0
-2164 32 0
-2164 84 0
-19 -32 -84 2164 0
-2165 20 0
-2165 33 0
-2165 85 0
-20 -33 -85 2165 0
-2166 21 0
-2166 34 0
-2166 86 0
-21 -34 -86 2166 0
-2167 22 0
-2167 35 0
-2167 87 0
-22 -35 -87 2167 0
-2168 23 0
-2168 36 0
-2168 88 0
-23 -36 -88 2168 0
-2169 24 0
-2169 37 0
-2169 89 0
-24 -37 -89 2169 0
-2170 25 0
-2170 38 0
-2170 90 0
-25 -38 -90 2170 0
-2171 26 0
-2171 39 0
-2171 91 0
-26 -39 -91 2171 0
-2159 5049 0
-2160 5049 0
-2161 5049 0
-2162 5049 0
-2163 5049 0
-2164 5049 0
-2165 5049 0
-2166 5049 0
-2167 5049 0
-2168 5049 0
-2169 5049 0
-2170 5049 0
-2171 5049 0
-5049 2159 2160 2161 2162 2163 2164 2165 2166 2167 2168 2169 2170 2171 0
-2172 14 0
-2172 27 0
-2172 92 0
-14 -27 -92 2172 0
-2173 15 0
-2173 28 0
-2173 93 0
-15 -28 -93 2173 0
-2174 16 0
-2174 29 0
-2174 94 0
-16 -29 -94 2174 0
-2175 17 0
-2175 30 0
-2175 95 0
-17 -30 -95 2175 0
-2176 18 0
-2176 31 0
-2176 96 0
-18 -31 -96 2176 0
-2177 19 0
-2177 32 0
-2177 97 0
-19 -32 -97 2177 0
-2178 20 0
-2178 33 0
-2178 98 0
-20 -33 -98 2178 0
-2179 21 0
-2179 34 0
-2179 99 0
-21 -34 -99 2179 0
-2180 22 0
-2180 35 0
-2180 100 0
-22 -35 -100 2180 0
-2181 23 0
-2181 36 0
-2181 101 0
-23 -36 -101 2181 0
-2182 24 0
-2182 37 0
-2182 102 0
-24 -37 -102 2182 0
-2183 25 0
-2183 38 0
-2183 103 0
-25 -38 -103 2183 0
-2184 26 0
-2184 39 0
-2184 104 0
-26 -39 -104 2184 0
-2172 5050 0
-2173 5050 0
-2174 5050 0
-2175 5050 0
-2176 5050 0
-2177 5050 0
-2178 5050 0
-2179 5050 0
-2180 5050 0
-2181 5050 0
-2182 5050 0
-2183 5050 0
-2184 5050 0
-5050 2172 2173 2174 2175 2176 2177 2178 2179 2180 2181 2182 2183 2184 0
-2185 14 0
-2185 27 0
-2185 105 0
-14 -27 -105 2185 0
-2186 15 0
-2186 28 0
-2186 106 0
-15 -28 -106 2186 0
-2187 16 0
-2187 29 0
-2187 107 0
-16 -29 -107 2187 0
-2188 17 0
-2188 30 0
-2188 108 0
-17 -30 -108 2188 0
-2189 18 0
-2189 31 0
-2189 109 0
-18 -31 -109 2189 0
-2190 19 0
-2190 32 0
-2190 110 0
-19 -32 -110 2190 0
-2191 20 0
-2191 33 0
-2191 111 0
-20 -33 -111 2191 0
-2192 21 0
-2192 34 0
-2192 112 0
-21 -34 -112 2192 0
-2193 22 0
-2193 35 0
-2193 113 0
-22 -35 -113 2193 0
-2194 23 0
-2194 36 0
-2194 114 0
-23 -36 -114 2194 0
-2195 24 0
-2195 37 0
-2195 115 0
-24 -37 -115 2195 0
-2196 25 0
-2196 38 0
-2196 116 0
-25 -38 -116 2196 0
-2197 26 0
-2197 39 0
-2197 117 0
-26 -39 -117 2197 0
-2185 5051 0
-2186 5051 0
-2187 5051 0
-2188 5051 0
-2189 5051 0
-2190 5051 0
-2191 5051 0
-2192 5051 0
-2193 5051 0
-2194 5051 0
-2195 5051 0
-2196 5051 0
-2197 5051 0
-5051 2185 2186 2187 2188 2189 2190 2191 2192 2193 2194 2195 2196 2197 0
-2198 14 0
-2198 27 0
-2198 118 0
-14 -27 -118 2198 0
-2199 15 0
-2199 28 0
-2199 119 0
-15 -28 -119 2199 0
-2200 16 0
-2200 29 0
-2200 120 0
-16 -29 -120 2200 0
-2201 17 0
-2201 30 0
-2201 121 0
-17 -30 -121 2201 0
-2202 18 0
-2202 31 0
-2202 122 0
-18 -31 -122 2202 0
-2203 19 0
-2203 32 0
-2203 123 0
-19 -32 -123 2203 0
-2204 20 0
-2204 33 0
-2204 124 0
-20 -33 -124 2204 0
-2205 21 0
-2205 34 0
-2205 125 0
-21 -34 -125 2205 0
-2206 22 0
-2206 35 0
-2206 126 0
-22 -35 -126 2206 0
-2207 23 0
-2207 36 0
-2207 127 0
-23 -36 -127 2207 0
-2208 24 0
-2208 37 0
-2208 128 0
-24 -37 -128 2208 0
-2209 25 0
-2209 38 0
-2209 129 0
-25 -38 -129 2209 0
-2210 26 0
-2210 39 0
-2210 130 0
-26 -39 -130 2210 0
-2198 5052 0
-2199 5052 0
-2200 5052 0
-2201 5052 0
-2202 5052 0
-2203 5052 0
-2204 5052 0
-2205 5052 0
-2206 5052 0
-2207 5052 0
-2208 5052 0
-2209 5052 0
-2210 5052 0
-5052 2198 2199 2200 2201 2202 2203 2204 2205 2206 2207 2208 2209 2210 0
-2211 14 0
-2211 27 0
-2211 131 0
-14 -27 -131 2211 0
-2212 15 0
-2212 28 0
-2212 132 0
-15 -28 -132 2212 0
-2213 16 0
-2213 29 0
-2213 133 0
-16 -29 -133 2213 0
-2214 17 0
-2214 30 0
-2214 134 0
-17 -30 -134 2214 0
-2215 18 0
-2215 31 0
-2215 135 0
-18 -31 -135 2215 0
-2216 19 0
-2216 32 0
-2216 136 0
-19 -32 -136 2216 0
-2217 20 0
-2217 33 0
-2217 137 0
-20 -33 -137 2217 0
-2218 21 0
-2218 34 0
-2218 138 0
-21 -34 -138 2218 0
-2219 22 0
-2219 35 0
-2219 139 0
-22 -35 -139 2219 0
-2220 23 0
-2220 36 0
-2220 140 0
-23 -36 -140 2220 0
-2221 24 0
-2221 37 0
-2221 141 0
-24 -37 -141 2221 0
-2222 25 0
-2222 38 0
-2222 142 0
-25 -38 -142 2222 0
-2223 26 0
-2223 39 0
-2223 143 0
-26 -39 -143 2223 0
-2211 5053 0
-2212 5053 0
-2213 5053 0
-2214 5053 0
-2215 5053 0
-2216 5053 0
-2217 5053 0
-2218 5053 0
-2219 5053 0
-2220 5053 0
-2221 5053 0
-2222 5053 0
-2223 5053 0
-5053 2211 2212 2213 2214 2215 2216 2217 2218 2219 2220 2221 2222 2223 0
-2224 14 0
-2224 27 0
-2224 144 0
-14 -27 -144 2224 0
-2225 15 0
-2225 28 0
-2225 145 0
-15 -28 -145 2225 0
-2226 16 0
-2226 29 0
-2226 146 0
-16 -29 -146 2226 0
-2227 17 0
-2227 30 0
-2227 147 0
-17 -30 -147 2227 0
-2228 18 0
-2228 31 0
-2228 148 0
-18 -31 -148 2228 0
-2229 19 0
-2229 32 0
-2229 149 0
-19 -32 -149 2229 0
-2230 20 0
-2230 33 0
-2230 150 0
-20 -33 -150 2230 0
-2231 21 0
-2231 34 0
-2231 151 0
-21 -34 -151 2231 0
-2232 22 0
-2232 35 0
-2232 152 0
-22 -35 -152 2232 0
-2233 23 0
-2233 36 0
-2233 153 0
-23 -36 -153 2233 0
-2234 24 0
-2234 37 0
-2234 154 0
-24 -37 -154 2234 0
-2235 25 0
-2235 38 0
-2235 155 0
-25 -38 -155 2235 0
-2236 26 0
-2236 39 0
-2236 156 0
-26 -39 -156 2236 0
-2224 5054 0
-2225 5054 0
-2226 5054 0
-2227 5054 0
-2228 5054 0
-2229 5054 0
-2230 5054 0
-2231 5054 0
-2232 5054 0
-2233 5054 0
-2234 5054 0
-2235 5054 0
-2236 5054 0
-5054 2224 2225 2226 2227 2228 2229 2230 2231 2232 2233 2234 2235 2236 0
-2237 14 0
-2237 27 0
-2237 157 0
-14 -27 -157 2237 0
-2238 15 0
-2238 28 0
-2238 158 0
-15 -28 -158 2238 0
-2239 16 0
-2239 29 0
-2239 159 0
-16 -29 -159 2239 0
-2240 17 0
-2240 30 0
-2240 160 0
-17 -30 -160 2240 0
-2241 18 0
-2241 31 0
-2241 161 0
-18 -31 -161 2241 0
-2242 19 0
-2242 32 0
-2242 162 0
-19 -32 -162 2242 0
-2243 20 0
-2243 33 0
-2243 163 0
-20 -33 -163 2243 0
-2244 21 0
-2244 34 0
-2244 164 0
-21 -34 -164 2244 0
-2245 22 0
-2245 35 0
-2245 165 0
-22 -35 -165 2245 0
-2246 23 0
-2246 36 0
-2246 166 0
-23 -36 -166 2246 0
-2247 24 0
-2247 37 0
-2247 167 0
-24 -37 -167 2247 0
-2248 25 0
-2248 38 0
-2248 168 0
-25 -38 -168 2248 0
-2249 26 0
-2249 39 0
-2249 169 0
-26 -39 -169 2249 0
-2237 5055 0
-2238 5055 0
-2239 5055 0
-2240 5055 0
-2241 5055 0
-2242 5055 0
-2243 5055 0
-2244 5055 0
-2245 5055 0
-2246 5055 0
-2247 5055 0
-2248 5055 0
-2249 5055 0
-5055 2237 2238 2239 2240 2241 2242 2243 2244 2245 2246 2247 2248 2249 0
-2250 14 0
-2250 40 0
-2250 53 0
-14 -40 -53 2250 0
-2251 15 0
-2251 41 0
-2251 54 0
-15 -41 -54 2251 0
-2252 16 0
-2252 42 0
-2252 55 0
-16 -42 -55 2252 0
-2253 17 0
-2253 43 0
-2253 56 0
-17 -43 -56 2253 0
-2254 18 0
-2254 44 0
-2254 57 0
-18 -44 -57 2254 0
-2255 19 0
-2255 45 0
-2255 58 0
-19 -45 -58 2255 0
-2256 20 0
-2256 46 0
-2256 59 0
-20 -46 -59 2256 0
-2257 21 0
-2257 47 0
-2257 60 0
-21 -47 -60 2257 0
-2258 22 0
-2258 48 0
-2258 61 0
-22 -48 -61 2258 0
-2259 23 0
-2259 49 0
-2259 62 0
-23 -49 -62 2259 0
-2260 24 0
-2260 50 0
-2260 63 0
-24 -50 -63 2260 0
-2261 25 0
-2261 51 0
-2261 64 0
-25 -51 -64 2261 0
-2262 26 0
-2262 52 0
-2262 65 0
-26 -52 -65 2262 0
-2250 5056 0
-2251 5056 0
-2252 5056 0
-2253 5056 0
-2254 5056 0
-2255 5056 0
-2256 5056 0
-2257 5056 0
-2258 5056 0
-2259 5056 0
-2260 5056 0
-2261 5056 0
-2262 5056 0
-5056 2250 2251 2252 2253 2254 2255 2256 2257 2258 2259 2260 2261 2262 0
-2263 14 0
-2263 40 0
-2263 66 0
-14 -40 -66 2263 0
-2264 15 0
-2264 41 0
-2264 67 0
-15 -41 -67 2264 0
-2265 16 0
-2265 42 0
-2265 68 0
-16 -42 -68 2265 0
-2266 17 0
-2266 43 0
-2266 69 0
-17 -43 -69 2266 0
-2267 18 0
-2267 44 0
-2267 70 0
-18 -44 -70 2267 0
-2268 19 0
-2268 45 0
-2268 71 0
-19 -45 -71 2268 0
-2269 20 0
-2269 46 0
-2269 72 0
-20 -46 -72 2269 0
-2270 21 0
-2270 47 0
-2270 73 0
-21 -47 -73 2270 0
-2271 22 0
-2271 48 0
-2271 74 0
-22 -48 -74 2271 0
-2272 23 0
-2272 49 0
-2272 75 0
-23 -49 -75 2272 0
-2273 24 0
-2273 50 0
-2273 76 0
-24 -50 -76 2273 0
-2274 25 0
-2274 51 0
-2274 77 0
-25 -51 -77 2274 0
-2275 26 0
-2275 52 0
-2275 78 0
-26 -52 -78 2275 0
-2263 5057 0
-2264 5057 0
-2265 5057 0
-2266 5057 0
-2267 5057 0
-2268 5057 0
-2269 5057 0
-2270 5057 0
-2271 5057 0
-2272 5057 0
-2273 5057 0
-2274 5057 0
-2275 5057 0
-5057 2263 2264 2265 2266 2267 2268 2269 2270 2271 2272 2273 2274 2275 0
-2276 14 0
-2276 40 0
-2276 79 0
-14 -40 -79 2276 0
-2277 15 0
-2277 41 0
-2277 80 0
-15 -41 -80 2277 0
-2278 16 0
-2278 42 0
-2278 81 0
-16 -42 -81 2278 0
-2279 17 0
-2279 43 0
-2279 82 0
-17 -43 -82 2279 0
-2280 18 0
-2280 44 0
-2280 83 0
-18 -44 -83 2280 0
-2281 19 0
-2281 45 0
-2281 84 0
-19 -45 -84 2281 0
-2282 20 0
-2282 46 0
-2282 85 0
-20 -46 -85 2282 0
-2283 21 0
-2283 47 0
-2283 86 0
-21 -47 -86 2283 0
-2284 22 0
-2284 48 0
-2284 87 0
-22 -48 -87 2284 0
-2285 23 0
-2285 49 0
-2285 88 0
-23 -49 -88 2285 0
-2286 24 0
-2286 50 0
-2286 89 0
-24 -50 -89 2286 0
-2287 25 0
-2287 51 0
-2287 90 0
-25 -51 -90 2287 0
-2288 26 0
-2288 52 0
-2288 91 0
-26 -52 -91 2288 0
-2276 5058 0
-2277 5058 0
-2278 5058 0
-2279 5058 0
-2280 5058 0
-2281 5058 0
-2282 5058 0
-2283 5058 0
-2284 5058 0
-2285 5058 0
-2286 5058 0
-2287 5058 0
-2288 5058 0
-5058 2276 2277 2278 2279 2280 2281 2282 2283 2284 2285 2286 2287 2288 0
-2289 14 0
-2289 40 0
-2289 92 0
-14 -40 -92 2289 0
-2290 15 0
-2290 41 0
-2290 93 0
-15 -41 -93 2290 0
-2291 16 0
-2291 42 0
-2291 94 0
-16 -42 -94 2291 0
-2292 17 0
-2292 43 0
-2292 95 0
-17 -43 -95 2292 0
-2293 18 0
-2293 44 0
-2293 96 0
-18 -44 -96 2293 0
-2294 19 0
-2294 45 0
-2294 97 0
-19 -45 -97 2294 0
-2295 20 0
-2295 46 0
-2295 98 0
-20 -46 -98 2295 0
-2296 21 0
-2296 47 0
-2296 99 0
-21 -47 -99 2296 0
-2297 22 0
-2297 48 0
-2297 100 0
-22 -48 -100 2297 0
-2298 23 0
-2298 49 0
-2298 101 0
-23 -49 -101 2298 0
-2299 24 0
-2299 50 0
-2299 102 0
-24 -50 -102 2299 0
-2300 25 0
-2300 51 0
-2300 103 0
-25 -51 -103 2300 0
-2301 26 0
-2301 52 0
-2301 104 0
-26 -52 -104 2301 0
-2289 5059 0
-2290 5059 0
-2291 5059 0
-2292 5059 0
-2293 5059 0
-2294 5059 0
-2295 5059 0
-2296 5059 0
-2297 5059 0
-2298 5059 0
-2299 5059 0
-2300 5059 0
-2301 5059 0
-5059 2289 2290 2291 2292 2293 2294 2295 2296 2297 2298 2299 2300 2301 0
-2302 14 0
-2302 40 0
-2302 105 0
-14 -40 -105 2302 0
-2303 15 0
-2303 41 0
-2303 106 0
-15 -41 -106 2303 0
-2304 16 0
-2304 42 0
-2304 107 0
-16 -42 -107 2304 0
-2305 17 0
-2305 43 0
-2305 108 0
-17 -43 -108 2305 0
-2306 18 0
-2306 44 0
-2306 109 0
-18 -44 -109 2306 0
-2307 19 0
-2307 45 0
-2307 110 0
-19 -45 -110 2307 0
-2308 20 0
-2308 46 0
-2308 111 0
-20 -46 -111 2308 0
-2309 21 0
-2309 47 0
-2309 112 0
-21 -47 -112 2309 0
-2310 22 0
-2310 48 0
-2310 113 0
-22 -48 -113 2310 0
-2311 23 0
-2311 49 0
-2311 114 0
-23 -49 -114 2311 0
-2312 24 0
-2312 50 0
-2312 115 0
-24 -50 -115 2312 0
-2313 25 0
-2313 51 0
-2313 116 0
-25 -51 -116 2313 0
-2314 26 0
-2314 52 0
-2314 117 0
-26 -52 -117 2314 0
-2302 5060 0
-2303 5060 0
-2304 5060 0
-2305 5060 0
-2306 5060 0
-2307 5060 0
-2308 5060 0
-2309 5060 0
-2310 5060 0
-2311 5060 0
-2312 5060 0
-2313 5060 0
-2314 5060 0
-5060 2302 2303 2304 2305 2306 2307 2308 2309 2310 2311 2312 2313 2314 0
-2315 14 0
-2315 40 0
-2315 118 0
-14 -40 -118 2315 0
-2316 15 0
-2316 41 0
-2316 119 0
-15 -41 -119 2316 0
-2317 16 0
-2317 42 0
-2317 120 0
-16 -42 -120 2317 0
-2318 17 0
-2318 43 0
-2318 121 0
-17 -43 -121 2318 0
-2319 18 0
-2319 44 0
-2319 122 0
-18 -44 -122 2319 0
-2320 19 0
-2320 45 0
-2320 123 0
-19 -45 -123 2320 0
-2321 20 0
-2321 46 0
-2321 124 0
-20 -46 -124 2321 0
-2322 21 0
-2322 47 0
-2322 125 0
-21 -47 -125 2322 0
-2323 22 0
-2323 48 0
-2323 126 0
-22 -48 -126 2323 0
-2324 23 0
-2324 49 0
-2324 127 0
-23 -49 -127 2324 0
-2325 24 0
-2325 50 0
-2325 128 0
-24 -50 -128 2325 0
-2326 25 0
-2326 51 0
-2326 129 0
-25 -51 -129 2326 0
-2327 26 0
-2327 52 0
-2327 130 0
-26 -52 -130 2327 0
-2315 5061 0
-2316 5061 0
-2317 5061 0
-2318 5061 0
-2319 5061 0
-2320 5061 0
-2321 5061 0
-2322 5061 0
-2323 5061 0
-2324 5061 0
-2325 5061 0
-2326 5061 0
-2327 5061 0
-5061 2315 2316 2317 2318 2319 2320 2321 2322 2323 2324 2325 2326 2327 0
-2328 14 0
-2328 40 0
-2328 131 0
-14 -40 -131 2328 0
-2329 15 0
-2329 41 0
-2329 132 0
-15 -41 -132 2329 0
-2330 16 0
-2330 42 0
-2330 133 0
-16 -42 -133 2330 0
-2331 17 0
-2331 43 0
-2331 134 0
-17 -43 -134 2331 0
-2332 18 0
-2332 44 0
-2332 135 0
-18 -44 -135 2332 0
-2333 19 0
-2333 45 0
-2333 136 0
-19 -45 -136 2333 0
-2334 20 0
-2334 46 0
-2334 137 0
-20 -46 -137 2334 0
-2335 21 0
-2335 47 0
-2335 138 0
-21 -47 -138 2335 0
-2336 22 0
-2336 48 0
-2336 139 0
-22 -48 -139 2336 0
-2337 23 0
-2337 49 0
-2337 140 0
-23 -49 -140 2337 0
-2338 24 0
-2338 50 0
-2338 141 0
-24 -50 -141 2338 0
-2339 25 0
-2339 51 0
-2339 142 0
-25 -51 -142 2339 0
-2340 26 0
-2340 52 0
-2340 143 0
-26 -52 -143 2340 0
-2328 5062 0
-2329 5062 0
-2330 5062 0
-2331 5062 0
-2332 5062 0
-2333 5062 0
-2334 5062 0
-2335 5062 0
-2336 5062 0
-2337 5062 0
-2338 5062 0
-2339 5062 0
-2340 5062 0
-5062 2328 2329 2330 2331 2332 2333 2334 2335 2336 2337 2338 2339 2340 0
-2341 14 0
-2341 40 0
-2341 144 0
-14 -40 -144 2341 0
-2342 15 0
-2342 41 0
-2342 145 0
-15 -41 -145 2342 0
-2343 16 0
-2343 42 0
-2343 146 0
-16 -42 -146 2343 0
-2344 17 0
-2344 43 0
-2344 147 0
-17 -43 -147 2344 0
-2345 18 0
-2345 44 0
-2345 148 0
-18 -44 -148 2345 0
-2346 19 0
-2346 45 0
-2346 149 0
-19 -45 -149 2346 0
-2347 20 0
-2347 46 0
-2347 150 0
-20 -46 -150 2347 0
-2348 21 0
-2348 47 0
-2348 151 0
-21 -47 -151 2348 0
-2349 22 0
-2349 48 0
-2349 152 0
-22 -48 -152 2349 0
-2350 23 0
-2350 49 0
-2350 153 0
-23 -49 -153 2350 0
-2351 24 0
-2351 50 0
-2351 154 0
-24 -50 -154 2351 0
-2352 25 0
-2352 51 0
-2352 155 0
-25 -51 -155 2352 0
-2353 26 0
-2353 52 0
-2353 156 0
-26 -52 -156 2353 0
-2341 5063 0
-2342 5063 0
-2343 5063 0
-2344 5063 0
-2345 5063 0
-2346 5063 0
-2347 5063 0
-2348 5063 0
-2349 5063 0
-2350 5063 0
-2351 5063 0
-2352 5063 0
-2353 5063 0
-5063 2341 2342 2343 2344 2345 2346 2347 2348 2349 2350 2351 2352 2353 0
-2354 14 0
-2354 40 0
-2354 157 0
-14 -40 -157 2354 0
-2355 15 0
-2355 41 0
-2355 158 0
-15 -41 -158 2355 0
-2356 16 0
-2356 42 0
-2356 159 0
-16 -42 -159 2356 0
-2357 17 0
-2357 43 0
-2357 160 0
-17 -43 -160 2357 0
-2358 18 0
-2358 44 0
-2358 161 0
-18 -44 -161 2358 0
-2359 19 0
-2359 45 0
-2359 162 0
-19 -45 -162 2359 0
-2360 20 0
-2360 46 0
-2360 163 0
-20 -46 -163 2360 0
-2361 21 0
-2361 47 0
-2361 164 0
-21 -47 -164 2361 0
-2362 22 0
-2362 48 0
-2362 165 0
-22 -48 -165 2362 0
-2363 23 0
-2363 49 0
-2363 166 0
-23 -49 -166 2363 0
-2364 24 0
-2364 50 0
-2364 167 0
-24 -50 -167 2364 0
-2365 25 0
-2365 51 0
-2365 168 0
-25 -51 -168 2365 0
-2366 26 0
-2366 52 0
-2366 169 0
-26 -52 -169 2366 0
-2354 5064 0
-2355 5064 0
-2356 5064 0
-2357 5064 0
-2358 5064 0
-2359 5064 0
-2360 5064 0
-2361 5064 0
-2362 5064 0
-2363 5064 0
-2364 5064 0
-2365 5064 0
-2366 5064 0
-5064 2354 2355 2356 2357 2358 2359 2360 2361 2362 2363 2364 2365 2366 0
-2367 14 0
-2367 53 0
-2367 66 0
-14 -53 -66 2367 0
-2368 15 0
-2368 54 0
-2368 67 0
-15 -54 -67 2368 0
-2369 16 0
-2369 55 0
-2369 68 0
-16 -55 -68 2369 0
-2370 17 0
-2370 56 0
-2370 69 0
-17 -56 -69 2370 0
-2371 18 0
-2371 57 0
-2371 70 0
-18 -57 -70 2371 0
-2372 19 0
-2372 58 0
-2372 71 0
-19 -58 -71 2372 0
-2373 20 0
-2373 59 0
-2373 72 0
-20 -59 -72 2373 0
-2374 21 0
-2374 60 0
-2374 73 0
-21 -60 -73 2374 0
-2375 22 0
-2375 61 0
-2375 74 0
-22 -61 -74 2375 0
-2376 23 0
-2376 62 0
-2376 75 0
-23 -62 -75 2376 0
-2377 24 0
-2377 63 0
-2377 76 0
-24 -63 -76 2377 0
-2378 25 0
-2378 64 0
-2378 77 0
-25 -64 -77 2378 0
-2379 26 0
-2379 65 0
-2379 78 0
-26 -65 -78 2379 0
-2367 5065 0
-2368 5065 0
-2369 5065 0
-2370 5065 0
-2371 5065 0
-2372 5065 0
-2373 5065 0
-2374 5065 0
-2375 5065 0
-2376 5065 0
-2377 5065 0
-2378 5065 0
-2379 5065 0
-5065 2367 2368 2369 2370 2371 2372 2373 2374 2375 2376 2377 2378 2379 0
-2380 14 0
-2380 53 0
-2380 79 0
-14 -53 -79 2380 0
-2381 15 0
-2381 54 0
-2381 80 0
-15 -54 -80 2381 0
-2382 16 0
-2382 55 0
-2382 81 0
-16 -55 -81 2382 0
-2383 17 0
-2383 56 0
-2383 82 0
-17 -56 -82 2383 0
-2384 18 0
-2384 57 0
-2384 83 0
-18 -57 -83 2384 0
-2385 19 0
-2385 58 0
-2385 84 0
-19 -58 -84 2385 0
-2386 20 0
-2386 59 0
-2386 85 0
-20 -59 -85 2386 0
-2387 21 0
-2387 60 0
-2387 86 0
-21 -60 -86 2387 0
-2388 22 0
-2388 61 0
-2388 87 0
-22 -61 -87 2388 0
-2389 23 0
-2389 62 0
-2389 88 0
-23 -62 -88 2389 0
-2390 24 0
-2390 63 0
-2390 89 0
-24 -63 -89 2390 0
-2391 25 0
-2391 64 0
-2391 90 0
-25 -64 -90 2391 0
-2392 26 0
-2392 65 0
-2392 91 0
-26 -65 -91 2392 0
-2380 5066 0
-2381 5066 0
-2382 5066 0
-2383 5066 0
-2384 5066 0
-2385 5066 0
-2386 5066 0
-2387 5066 0
-2388 5066 0
-2389 5066 0
-2390 5066 0
-2391 5066 0
-2392 5066 0
-5066 2380 2381 2382 2383 2384 2385 2386 2387 2388 2389 2390 2391 2392 0
-2393 14 0
-2393 53 0
-2393 92 0
-14 -53 -92 2393 0
-2394 15 0
-2394 54 0
-2394 93 0
-15 -54 -93 2394 0
-2395 16 0
-2395 55 0
-2395 94 0
-16 -55 -94 2395 0
-2396 17 0
-2396 56 0
-2396 95 0
-17 -56 -95 2396 0
-2397 18 0
-2397 57 0
-2397 96 0
-18 -57 -96 2397 0
-2398 19 0
-2398 58 0
-2398 97 0
-19 -58 -97 2398 0
-2399 20 0
-2399 59 0
-2399 98 0
-20 -59 -98 2399 0
-2400 21 0
-2400 60 0
-2400 99 0
-21 -60 -99 2400 0
-2401 22 0
-2401 61 0
-2401 100 0
-22 -61 -100 2401 0
-2402 23 0
-2402 62 0
-2402 101 0
-23 -62 -101 2402 0
-2403 24 0
-2403 63 0
-2403 102 0
-24 -63 -102 2403 0
-2404 25 0
-2404 64 0
-2404 103 0
-25 -64 -103 2404 0
-2405 26 0
-2405 65 0
-2405 104 0
-26 -65 -104 2405 0
-2393 5067 0
-2394 5067 0
-2395 5067 0
-2396 5067 0
-2397 5067 0
-2398 5067 0
-2399 5067 0
-2400 5067 0
-2401 5067 0
-2402 5067 0
-2403 5067 0
-2404 5067 0
-2405 5067 0
-5067 2393 2394 2395 2396 2397 2398 2399 2400 2401 2402 2403 2404 2405 0
-2406 14 0
-2406 53 0
-2406 105 0
-14 -53 -105 2406 0
-2407 15 0
-2407 54 0
-2407 106 0
-15 -54 -106 2407 0
-2408 16 0
-2408 55 0
-2408 107 0
-16 -55 -107 2408 0
-2409 17 0
-2409 56 0
-2409 108 0
-17 -56 -108 2409 0
-2410 18 0
-2410 57 0
-2410 109 0
-18 -57 -109 2410 0
-2411 19 0
-2411 58 0
-2411 110 0
-19 -58 -110 2411 0
-2412 20 0
-2412 59 0
-2412 111 0
-20 -59 -111 2412 0
-2413 21 0
-2413 60 0
-2413 112 0
-21 -60 -112 2413 0
-2414 22 0
-2414 61 0
-2414 113 0
-22 -61 -113 2414 0
-2415 23 0
-2415 62 0
-2415 114 0
-23 -62 -114 2415 0
-2416 24 0
-2416 63 0
-2416 115 0
-24 -63 -115 2416 0
-2417 25 0
-2417 64 0
-2417 116 0
-25 -64 -116 2417 0
-2418 26 0
-2418 65 0
-2418 117 0
-26 -65 -117 2418 0
-2406 5068 0
-2407 5068 0
-2408 5068 0
-2409 5068 0
-2410 5068 0
-2411 5068 0
-2412 5068 0
-2413 5068 0
-2414 5068 0
-2415 5068 0
-2416 5068 0
-2417 5068 0
-2418 5068 0
-5068 2406 2407 2408 2409 2410 2411 2412 2413 2414 2415 2416 2417 2418 0
-2419 14 0
-2419 53 0
-2419 118 0
-14 -53 -118 2419 0
-2420 15 0
-2420 54 0
-2420 119 0
-15 -54 -119 2420 0
-2421 16 0
-2421 55 0
-2421 120 0
-16 -55 -120 2421 0
-2422 17 0
-2422 56 0
-2422 121 0
-17 -56 -121 2422 0
-2423 18 0
-2423 57 0
-2423 122 0
-18 -57 -122 2423 0
-2424 19 0
-2424 58 0
-2424 123 0
-19 -58 -123 2424 0
-2425 20 0
-2425 59 0
-2425 124 0
-20 -59 -124 2425 0
-2426 21 0
-2426 60 0
-2426 125 0
-21 -60 -125 2426 0
-2427 22 0
-2427 61 0
-2427 126 0
-22 -61 -126 2427 0
-2428 23 0
-2428 62 0
-2428 127 0
-23 -62 -127 2428 0
-2429 24 0
-2429 63 0
-2429 128 0
-24 -63 -128 2429 0
-2430 25 0
-2430 64 0
-2430 129 0
-25 -64 -129 2430 0
-2431 26 0
-2431 65 0
-2431 130 0
-26 -65 -130 2431 0
-2419 5069 0
-2420 5069 0
-2421 5069 0
-2422 5069 0
-2423 5069 0
-2424 5069 0
-2425 5069 0
-2426 5069 0
-2427 5069 0
-2428 5069 0
-2429 5069 0
-2430 5069 0
-2431 5069 0
-5069 2419 2420 2421 2422 2423 2424 2425 2426 2427 2428 2429 2430 2431 0
-2432 14 0
-2432 53 0
-2432 131 0
-14 -53 -131 2432 0
-2433 15 0
-2433 54 0
-2433 132 0
-15 -54 -132 2433 0
-2434 16 0
-2434 55 0
-2434 133 0
-16 -55 -133 2434 0
-2435 17 0
-2435 56 0
-2435 134 0
-17 -56 -134 2435 0
-2436 18 0
-2436 57 0
-2436 135 0
-18 -57 -135 2436 0
-2437 19 0
-2437 58 0
-2437 136 0
-19 -58 -136 2437 0
-2438 20 0
-2438 59 0
-2438 137 0
-20 -59 -137 2438 0
-2439 21 0
-2439 60 0
-2439 138 0
-21 -60 -138 2439 0
-2440 22 0
-2440 61 0
-2440 139 0
-22 -61 -139 2440 0
-2441 23 0
-2441 62 0
-2441 140 0
-23 -62 -140 2441 0
-2442 24 0
-2442 63 0
-2442 141 0
-24 -63 -141 2442 0
-2443 25 0
-2443 64 0
-2443 142 0
-25 -64 -142 2443 0
-2444 26 0
-2444 65 0
-2444 143 0
-26 -65 -143 2444 0
-2432 5070 0
-2433 5070 0
-2434 5070 0
-2435 5070 0
-2436 5070 0
-2437 5070 0
-2438 5070 0
-2439 5070 0
-2440 5070 0
-2441 5070 0
-2442 5070 0
-2443 5070 0
-2444 5070 0
-5070 2432 2433 2434 2435 2436 2437 2438 2439 2440 2441 2442 2443 2444 0
-2445 14 0
-2445 53 0
-2445 144 0
-14 -53 -144 2445 0
-2446 15 0
-2446 54 0
-2446 145 0
-15 -54 -145 2446 0
-2447 16 0
-2447 55 0
-2447 146 0
-16 -55 -146 2447 0
-2448 17 0
-2448 56 0
-2448 147 0
-17 -56 -147 2448 0
-2449 18 0
-2449 57 0
-2449 148 0
-18 -57 -148 2449 0
-2450 19 0
-2450 58 0
-2450 149 0
-19 -58 -149 2450 0
-2451 20 0
-2451 59 0
-2451 150 0
-20 -59 -150 2451 0
-2452 21 0
-2452 60 0
-2452 151 0
-21 -60 -151 2452 0
-2453 22 0
-2453 61 0
-2453 152 0
-22 -61 -152 2453 0
-2454 23 0
-2454 62 0
-2454 153 0
-23 -62 -153 2454 0
-2455 24 0
-2455 63 0
-2455 154 0
-24 -63 -154 2455 0
-2456 25 0
-2456 64 0
-2456 155 0
-25 -64 -155 2456 0
-2457 26 0
-2457 65 0
-2457 156 0
-26 -65 -156 2457 0
-2445 5071 0
-2446 5071 0
-2447 5071 0
-2448 5071 0
-2449 5071 0
-2450 5071 0
-2451 5071 0
-2452 5071 0
-2453 5071 0
-2454 5071 0
-2455 5071 0
-2456 5071 0
-2457 5071 0
-5071 2445 2446 2447 2448 2449 2450 2451 2452 2453 2454 2455 2456 2457 0
-2458 14 0
-2458 53 0
-2458 157 0
-14 -53 -157 2458 0
-2459 15 0
-2459 54 0
-2459 158 0
-15 -54 -158 2459 0
-2460 16 0
-2460 55 0
-2460 159 0
-16 -55 -159 2460 0
-2461 17 0
-2461 56 0
-2461 160 0
-17 -56 -160 2461 0
-2462 18 0
-2462 57 0
-2462 161 0
-18 -57 -161 2462 0
-2463 19 0
-2463 58 0
-2463 162 0
-19 -58 -162 2463 0
-2464 20 0
-2464 59 0
-2464 163 0
-20 -59 -163 2464 0
-2465 21 0
-2465 60 0
-2465 164 0
-21 -60 -164 2465 0
-2466 22 0
-2466 61 0
-2466 165 0
-22 -61 -165 2466 0
-2467 23 0
-2467 62 0
-2467 166 0
-23 -62 -166 2467 0
-2468 24 0
-2468 63 0
-2468 167 0
-24 -63 -167 2468 0
-2469 25 0
-2469 64 0
-2469 168 0
-25 -64 -168 2469 0
-2470 26 0
-2470 65 0
-2470 169 0
-26 -65 -169 2470 0
-2458 5072 0
-2459 5072 0
-2460 5072 0
-2461 5072 0
-2462 5072 0
-2463 5072 0
-2464 5072 0
-2465 5072 0
-2466 5072 0
-2467 5072 0
-2468 5072 0
-2469 5072 0
-2470 5072 0
-5072 2458 2459 2460 2461 2462 2463 2464 2465 2466 2467 2468 2469 2470 0
-2471 14 0
-2471 66 0
-2471 79 0
-14 -66 -79 2471 0
-2472 15 0
-2472 67 0
-2472 80 0
-15 -67 -80 2472 0
-2473 16 0
-2473 68 0
-2473 81 0
-16 -68 -81 2473 0
-2474 17 0
-2474 69 0
-2474 82 0
-17 -69 -82 2474 0
-2475 18 0
-2475 70 0
-2475 83 0
-18 -70 -83 2475 0
-2476 19 0
-2476 71 0
-2476 84 0
-19 -71 -84 2476 0
-2477 20 0
-2477 72 0
-2477 85 0
-20 -72 -85 2477 0
-2478 21 0
-2478 73 0
-2478 86 0
-21 -73 -86 2478 0
-2479 22 0
-2479 74 0
-2479 87 0
-22 -74 -87 2479 0
-2480 23 0
-2480 75 0
-2480 88 0
-23 -75 -88 2480 0
-2481 24 0
-2481 76 0
-2481 89 0
-24 -76 -89 2481 0
-2482 25 0
-2482 77 0
-2482 90 0
-25 -77 -90 2482 0
-2483 26 0
-2483 78 0
-2483 91 0
-26 -78 -91 2483 0
-2471 5073 0
-2472 5073 0
-2473 5073 0
-2474 5073 0
-2475 5073 0
-2476 5073 0
-2477 5073 0
-2478 5073 0
-2479 5073 0
-2480 5073 0
-2481 5073 0
-2482 5073 0
-2483 5073 0
-5073 2471 2472 2473 2474 2475 2476 2477 2478 2479 2480 2481 2482 2483 0
-2484 14 0
-2484 66 0
-2484 92 0
-14 -66 -92 2484 0
-2485 15 0
-2485 67 0
-2485 93 0
-15 -67 -93 2485 0
-2486 16 0
-2486 68 0
-2486 94 0
-16 -68 -94 2486 0
-2487 17 0
-2487 69 0
-2487 95 0
-17 -69 -95 2487 0
-2488 18 0
-2488 70 0
-2488 96 0
-18 -70 -96 2488 0
-2489 19 0
-2489 71 0
-2489 97 0
-19 -71 -97 2489 0
-2490 20 0
-2490 72 0
-2490 98 0
-20 -72 -98 2490 0
-2491 21 0
-2491 73 0
-2491 99 0
-21 -73 -99 2491 0
-2492 22 0
-2492 74 0
-2492 100 0
-22 -74 -100 2492 0
-2493 23 0
-2493 75 0
-2493 101 0
-23 -75 -101 2493 0
-2494 24 0
-2494 76 0
-2494 102 0
-24 -76 -102 2494 0
-2495 25 0
-2495 77 0
-2495 103 0
-25 -77 -103 2495 0
-2496 26 0
-2496 78 0
-2496 104 0
-26 -78 -104 2496 0
-2484 5074 0
-2485 5074 0
-2486 5074 0
-2487 5074 0
-2488 5074 0
-2489 5074 0
-2490 5074 0
-2491 5074 0
-2492 5074 0
-2493 5074 0
-2494 5074 0
-2495 5074 0
-2496 5074 0
-5074 2484 2485 2486 2487 2488 2489 2490 2491 2492 2493 2494 2495 2496 0
-2497 14 0
-2497 66 0
-2497 105 0
-14 -66 -105 2497 0
-2498 15 0
-2498 67 0
-2498 106 0
-15 -67 -106 2498 0
-2499 16 0
-2499 68 0
-2499 107 0
-16 -68 -107 2499 0
-2500 17 0
-2500 69 0
-2500 108 0
-17 -69 -108 2500 0
-2501 18 0
-2501 70 0
-2501 109 0
-18 -70 -109 2501 0
-2502 19 0
-2502 71 0
-2502 110 0
-19 -71 -110 2502 0
-2503 20 0
-2503 72 0
-2503 111 0
-20 -72 -111 2503 0
-2504 21 0
-2504 73 0
-2504 112 0
-21 -73 -112 2504 0
-2505 22 0
-2505 74 0
-2505 113 0
-22 -74 -113 2505 0
-2506 23 0
-2506 75 0
-2506 114 0
-23 -75 -114 2506 0
-2507 24 0
-2507 76 0
-2507 115 0
-24 -76 -115 2507 0
-2508 25 0
-2508 77 0
-2508 116 0
-25 -77 -116 2508 0
-2509 26 0
-2509 78 0
-2509 117 0
-26 -78 -117 2509 0
-2497 5075 0
-2498 5075 0
-2499 5075 0
-2500 5075 0
-2501 5075 0
-2502 5075 0
-2503 5075 0
-2504 5075 0
-2505 5075 0
-2506 5075 0
-2507 5075 0
-2508 5075 0
-2509 5075 0
-5075 2497 2498 2499 2500 2501 2502 2503 2504 2505 2506 2507 2508 2509 0
-2510 14 0
-2510 66 0
-2510 118 0
-14 -66 -118 2510 0
-2511 15 0
-2511 67 0
-2511 119 0
-15 -67 -119 2511 0
-2512 16 0
-2512 68 0
-2512 120 0
-16 -68 -120 2512 0
-2513 17 0
-2513 69 0
-2513 121 0
-17 -69 -121 2513 0
-2514 18 0
-2514 70 0
-2514 122 0
-18 -70 -122 2514 0
-2515 19 0
-2515 71 0
-2515 123 0
-19 -71 -123 2515 0
-2516 20 0
-2516 72 0
-2516 124 0
-20 -72 -124 2516 0
-2517 21 0
-2517 73 0
-2517 125 0
-21 -73 -125 2517 0
-2518 22 0
-2518 74 0
-2518 126 0
-22 -74 -126 2518 0
-2519 23 0
-2519 75 0
-2519 127 0
-23 -75 -127 2519 0
-2520 24 0
-2520 76 0
-2520 128 0
-24 -76 -128 2520 0
-2521 25 0
-2521 77 0
-2521 129 0
-25 -77 -129 2521 0
-2522 26 0
-2522 78 0
-2522 130 0
-26 -78 -130 2522 0
-2510 5076 0
-2511 5076 0
-2512 5076 0
-2513 5076 0
-2514 5076 0
-2515 5076 0
-2516 5076 0
-2517 5076 0
-2518 5076 0
-2519 5076 0
-2520 5076 0
-2521 5076 0
-2522 5076 0
-5076 2510 2511 2512 2513 2514 2515 2516 2517 2518 2519 2520 2521 2522 0
-2523 14 0
-2523 66 0
-2523 131 0
-14 -66 -131 2523 0
-2524 15 0
-2524 67 0
-2524 132 0
-15 -67 -132 2524 0
-2525 16 0
-2525 68 0
-2525 133 0
-16 -68 -133 2525 0
-2526 17 0
-2526 69 0
-2526 134 0
-17 -69 -134 2526 0
-2527 18 0
-2527 70 0
-2527 135 0
-18 -70 -135 2527 0
-2528 19 0
-2528 71 0
-2528 136 0
-19 -71 -136 2528 0
-2529 20 0
-2529 72 0
-2529 137 0
-20 -72 -137 2529 0
-2530 21 0
-2530 73 0
-2530 138 0
-21 -73 -138 2530 0
-2531 22 0
-2531 74 0
-2531 139 0
-22 -74 -139 2531 0
-2532 23 0
-2532 75 0
-2532 140 0
-23 -75 -140 2532 0
-2533 24 0
-2533 76 0
-2533 141 0
-24 -76 -141 2533 0
-2534 25 0
-2534 77 0
-2534 142 0
-25 -77 -142 2534 0
-2535 26 0
-2535 78 0
-2535 143 0
-26 -78 -143 2535 0
-2523 5077 0
-2524 5077 0
-2525 5077 0
-2526 5077 0
-2527 5077 0
-2528 5077 0
-2529 5077 0
-2530 5077 0
-2531 5077 0
-2532 5077 0
-2533 5077 0
-2534 5077 0
-2535 5077 0
-5077 2523 2524 2525 2526 2527 2528 2529 2530 2531 2532 2533 2534 2535 0
-2536 14 0
-2536 66 0
-2536 144 0
-14 -66 -144 2536 0
-2537 15 0
-2537 67 0
-2537 145 0
-15 -67 -145 2537 0
-2538 16 0
-2538 68 0
-2538 146 0
-16 -68 -146 2538 0
-2539 17 0
-2539 69 0
-2539 147 0
-17 -69 -147 2539 0
-2540 18 0
-2540 70 0
-2540 148 0
-18 -70 -148 2540 0
-2541 19 0
-2541 71 0
-2541 149 0
-19 -71 -149 2541 0
-2542 20 0
-2542 72 0
-2542 150 0
-20 -72 -150 2542 0
-2543 21 0
-2543 73 0
-2543 151 0
-21 -73 -151 2543 0
-2544 22 0
-2544 74 0
-2544 152 0
-22 -74 -152 2544 0
-2545 23 0
-2545 75 0
-2545 153 0
-23 -75 -153 2545 0
-2546 24 0
-2546 76 0
-2546 154 0
-24 -76 -154 2546 0
-2547 25 0
-2547 77 0
-2547 155 0
-25 -77 -155 2547 0
-2548 26 0
-2548 78 0
-2548 156 0
-26 -78 -156 2548 0
-2536 5078 0
-2537 5078 0
-2538 5078 0
-2539 5078 0
-2540 5078 0
-2541 5078 0
-2542 5078 0
-2543 5078 0
-2544 5078 0
-2545 5078 0
-2546 5078 0
-2547 5078 0
-2548 5078 0
-5078 2536 2537 2538 2539 2540 2541 2542 2543 2544 2545 2546 2547 2548 0
-2549 14 0
-2549 66 0
-2549 157 0
-14 -66 -157 2549 0
-2550 15 0
-2550 67 0
-2550 158 0
-15 -67 -158 2550 0
-2551 16 0
-2551 68 0
-2551 159 0
-16 -68 -159 2551 0
-2552 17 0
-2552 69 0
-2552 160 0
-17 -69 -160 2552 0
-2553 18 0
-2553 70 0
-2553 161 0
-18 -70 -161 2553 0
-2554 19 0
-2554 71 0
-2554 162 0
-19 -71 -162 2554 0
-2555 20 0
-2555 72 0
-2555 163 0
-20 -72 -163 2555 0
-2556 21 0
-2556 73 0
-2556 164 0
-21 -73 -164 2556 0
-2557 22 0
-2557 74 0
-2557 165 0
-22 -74 -165 2557 0
-2558 23 0
-2558 75 0
-2558 166 0
-23 -75 -166 2558 0
-2559 24 0
-2559 76 0
-2559 167 0
-24 -76 -167 2559 0
-2560 25 0
-2560 77 0
-2560 168 0
-25 -77 -168 2560 0
-2561 26 0
-2561 78 0
-2561 169 0
-26 -78 -169 2561 0
-2549 5079 0
-2550 5079 0
-2551 5079 0
-2552 5079 0
-2553 5079 0
-2554 5079 0
-2555 5079 0
-2556 5079 0
-2557 5079 0
-2558 5079 0
-2559 5079 0
-2560 5079 0
-2561 5079 0
-5079 2549 2550 2551 2552 2553 2554 2555 2556 2557 2558 2559 2560 2561 0
-2562 14 0
-2562 79 0
-2562 92 0
-14 -79 -92 2562 0
-2563 15 0
-2563 80 0
-2563 93 0
-15 -80 -93 2563 0
-2564 16 0
-2564 81 0
-2564 94 0
-16 -81 -94 2564 0
-2565 17 0
-2565 82 0
-2565 95 0
-17 -82 -95 2565 0
-2566 18 0
-2566 83 0
-2566 96 0
-18 -83 -96 2566 0
-2567 19 0
-2567 84 0
-2567 97 0
-19 -84 -97 2567 0
-2568 20 0
-2568 85 0
-2568 98 0
-20 -85 -98 2568 0
-2569 21 0
-2569 86 0
-2569 99 0
-21 -86 -99 2569 0
-2570 22 0
-2570 87 0
-2570 100 0
-22 -87 -100 2570 0
-2571 23 0
-2571 88 0
-2571 101 0
-23 -88 -101 2571 0
-2572 24 0
-2572 89 0
-2572 102 0
-24 -89 -102 2572 0
-2573 25 0
-2573 90 0
-2573 103 0
-25 -90 -103 2573 0
-2574 26 0
-2574 91 0
-2574 104 0
-26 -91 -104 2574 0
-2562 5080 0
-2563 5080 0
-2564 5080 0
-2565 5080 0
-2566 5080 0
-2567 5080 0
-2568 5080 0
-2569 5080 0
-2570 5080 0
-2571 5080 0
-2572 5080 0
-2573 5080 0
-2574 5080 0
-5080 2562 2563 2564 2565 2566 2567 2568 2569 2570 2571 2572 2573 2574 0
-2575 14 0
-2575 79 0
-2575 105 0
-14 -79 -105 2575 0
-2576 15 0
-2576 80 0
-2576 106 0
-15 -80 -106 2576 0
-2577 16 0
-2577 81 0
-2577 107 0
-16 -81 -107 2577 0
-2578 17 0
-2578 82 0
-2578 108 0
-17 -82 -108 2578 0
-2579 18 0
-2579 83 0
-2579 109 0
-18 -83 -109 2579 0
-2580 19 0
-2580 84 0
-2580 110 0
-19 -84 -110 2580 0
-2581 20 0
-2581 85 0
-2581 111 0
-20 -85 -111 2581 0
-2582 21 0
-2582 86 0
-2582 112 0
-21 -86 -112 2582 0
-2583 22 0
-2583 87 0
-2583 113 0
-22 -87 -113 2583 0
-2584 23 0
-2584 88 0
-2584 114 0
-23 -88 -114 2584 0
-2585 24 0
-2585 89 0
-2585 115 0
-24 -89 -115 2585 0
-2586 25 0
-2586 90 0
-2586 116 0
-25 -90 -116 2586 0
-2587 26 0
-2587 91 0
-2587 117 0
-26 -91 -117 2587 0
-2575 5081 0
-2576 5081 0
-2577 5081 0
-2578 5081 0
-2579 5081 0
-2580 5081 0
-2581 5081 0
-2582 5081 0
-2583 5081 0
-2584 5081 0
-2585 5081 0
-2586 5081 0
-2587 5081 0
-5081 2575 2576 2577 2578 2579 2580 2581 2582 2583 2584 2585 2586 2587 0
-2588 14 0
-2588 79 0
-2588 118 0
-14 -79 -118 2588 0
-2589 15 0
-2589 80 0
-2589 119 0
-15 -80 -119 2589 0
-2590 16 0
-2590 81 0
-2590 120 0
-16 -81 -120 2590 0
-2591 17 0
-2591 82 0
-2591 121 0
-17 -82 -121 2591 0
-2592 18 0
-2592 83 0
-2592 122 0
-18 -83 -122 2592 0
-2593 19 0
-2593 84 0
-2593 123 0
-19 -84 -123 2593 0
-2594 20 0
-2594 85 0
-2594 124 0
-20 -85 -124 2594 0
-2595 21 0
-2595 86 0
-2595 125 0
-21 -86 -125 2595 0
-2596 22 0
-2596 87 0
-2596 126 0
-22 -87 -126 2596 0
-2597 23 0
-2597 88 0
-2597 127 0
-23 -88 -127 2597 0
-2598 24 0
-2598 89 0
-2598 128 0
-24 -89 -128 2598 0
-2599 25 0
-2599 90 0
-2599 129 0
-25 -90 -129 2599 0
-2600 26 0
-2600 91 0
-2600 130 0
-26 -91 -130 2600 0
-2588 5082 0
-2589 5082 0
-2590 5082 0
-2591 5082 0
-2592 5082 0
-2593 5082 0
-2594 5082 0
-2595 5082 0
-2596 5082 0
-2597 5082 0
-2598 5082 0
-2599 5082 0
-2600 5082 0
-5082 2588 2589 2590 2591 2592 2593 2594 2595 2596 2597 2598 2599 2600 0
-2601 14 0
-2601 79 0
-2601 131 0
-14 -79 -131 2601 0
-2602 15 0
-2602 80 0
-2602 132 0
-15 -80 -132 2602 0
-2603 16 0
-2603 81 0
-2603 133 0
-16 -81 -133 2603 0
-2604 17 0
-2604 82 0
-2604 134 0
-17 -82 -134 2604 0
-2605 18 0
-2605 83 0
-2605 135 0
-18 -83 -135 2605 0
-2606 19 0
-2606 84 0
-2606 136 0
-19 -84 -136 2606 0
-2607 20 0
-2607 85 0
-2607 137 0
-20 -85 -137 2607 0
-2608 21 0
-2608 86 0
-2608 138 0
-21 -86 -138 2608 0
-2609 22 0
-2609 87 0
-2609 139 0
-22 -87 -139 2609 0
-2610 23 0
-2610 88 0
-2610 140 0
-23 -88 -140 2610 0
-2611 24 0
-2611 89 0
-2611 141 0
-24 -89 -141 2611 0
-2612 25 0
-2612 90 0
-2612 142 0
-25 -90 -142 2612 0
-2613 26 0
-2613 91 0
-2613 143 0
-26 -91 -143 2613 0
-2601 5083 0
-2602 5083 0
-2603 5083 0
-2604 5083 0
-2605 5083 0
-2606 5083 0
-2607 5083 0
-2608 5083 0
-2609 5083 0
-2610 5083 0
-2611 5083 0
-2612 5083 0
-2613 5083 0
-5083 2601 2602 2603 2604 2605 2606 2607 2608 2609 2610 2611 2612 2613 0
-2614 14 0
-2614 79 0
-2614 144 0
-14 -79 -144 2614 0
-2615 15 0
-2615 80 0
-2615 145 0
-15 -80 -145 2615 0
-2616 16 0
-2616 81 0
-2616 146 0
-16 -81 -146 2616 0
-2617 17 0
-2617 82 0
-2617 147 0
-17 -82 -147 2617 0
-2618 18 0
-2618 83 0
-2618 148 0
-18 -83 -148 2618 0
-2619 19 0
-2619 84 0
-2619 149 0
-19 -84 -149 2619 0
-2620 20 0
-2620 85 0
-2620 150 0
-20 -85 -150 2620 0
-2621 21 0
-2621 86 0
-2621 151 0
-21 -86 -151 2621 0
-2622 22 0
-2622 87 0
-2622 152 0
-22 -87 -152 2622 0
-2623 23 0
-2623 88 0
-2623 153 0
-23 -88 -153 2623 0
-2624 24 0
-2624 89 0
-2624 154 0
-24 -89 -154 2624 0
-2625 25 0
-2625 90 0
-2625 155 0
-25 -90 -155 2625 0
-2626 26 0
-2626 91 0
-2626 156 0
-26 -91 -156 2626 0
-2614 5084 0
-2615 5084 0
-2616 5084 0
-2617 5084 0
-2618 5084 0
-2619 5084 0
-2620 5084 0
-2621 5084 0
-2622 5084 0
-2623 5084 0
-2624 5084 0
-2625 5084 0
-2626 5084 0
-5084 2614 2615 2616 2617 2618 2619 2620 2621 2622 2623 2624 2625 2626 0
-2627 14 0
-2627 79 0
-2627 157 0
-14 -79 -157 2627 0
-2628 15 0
-2628 80 0
-2628 158 0
-15 -80 -158 2628 0
-2629 16 0
-2629 81 0
-2629 159 0
-16 -81 -159 2629 0
-2630 17 0
-2630 82 0
-2630 160 0
-17 -82 -160 2630 0
-2631 18 0
-2631 83 0
-2631 161 0
-18 -83 -161 2631 0
-2632 19 0
-2632 84 0
-2632 162 0
-19 -84 -162 2632 0
-2633 20 0
-2633 85 0
-2633 163 0
-20 -85 -163 2633 0
-2634 21 0
-2634 86 0
-2634 164 0
-21 -86 -164 2634 0
-2635 22 0
-2635 87 0
-2635 165 0
-22 -87 -165 2635 0
-2636 23 0
-2636 88 0
-2636 166 0
-23 -88 -166 2636 0
-2637 24 0
-2637 89 0
-2637 167 0
-24 -89 -167 2637 0
-2638 25 0
-2638 90 0
-2638 168 0
-25 -90 -168 2638 0
-2639 26 0
-2639 91 0
-2639 169 0
-26 -91 -169 2639 0
-2627 5085 0
-2628 5085 0
-2629 5085 0
-2630 5085 0
-2631 5085 0
-2632 5085 0
-2633 5085 0
-2634 5085 0
-2635 5085 0
-2636 5085 0
-2637 5085 0
-2638 5085 0
-2639 5085 0
-5085 2627 2628 2629 2630 2631 2632 2633 2634 2635 2636 2637 2638 2639 0
-2640 14 0
-2640 92 0
-2640 105 0
-14 -92 -105 2640 0
-2641 15 0
-2641 93 0
-2641 106 0
-15 -93 -106 2641 0
-2642 16 0
-2642 94 0
-2642 107 0
-16 -94 -107 2642 0
-2643 17 0
-2643 95 0
-2643 108 0
-17 -95 -108 2643 0
-2644 18 0
-2644 96 0
-2644 109 0
-18 -96 -109 2644 0
-2645 19 0
-2645 97 0
-2645 110 0
-19 -97 -110 2645 0
-2646 20 0
-2646 98 0
-2646 111 0
-20 -98 -111 2646 0
-2647 21 0
-2647 99 0
-2647 112 0
-21 -99 -112 2647 0
-2648 22 0
-2648 100 0
-2648 113 0
-22 -100 -113 2648 0
-2649 23 0
-2649 101 0
-2649 114 0
-23 -101 -114 2649 0
-2650 24 0
-2650 102 0
-2650 115 0
-24 -102 -115 2650 0
-2651 25 0
-2651 103 0
-2651 116 0
-25 -103 -116 2651 0
-2652 26 0
-2652 104 0
-2652 117 0
-26 -104 -117 2652 0
-2640 5086 0
-2641 5086 0
-2642 5086 0
-2643 5086 0
-2644 5086 0
-2645 5086 0
-2646 5086 0
-2647 5086 0
-2648 5086 0
-2649 5086 0
-2650 5086 0
-2651 5086 0
-2652 5086 0
-5086 2640 2641 2642 2643 2644 2645 2646 2647 2648 2649 2650 2651 2652 0
-2653 14 0
-2653 92 0
-2653 118 0
-14 -92 -118 2653 0
-2654 15 0
-2654 93 0
-2654 119 0
-15 -93 -119 2654 0
-2655 16 0
-2655 94 0
-2655 120 0
-16 -94 -120 2655 0
-2656 17 0
-2656 95 0
-2656 121 0
-17 -95 -121 2656 0
-2657 18 0
-2657 96 0
-2657 122 0
-18 -96 -122 2657 0
-2658 19 0
-2658 97 0
-2658 123 0
-19 -97 -123 2658 0
-2659 20 0
-2659 98 0
-2659 124 0
-20 -98 -124 2659 0
-2660 21 0
-2660 99 0
-2660 125 0
-21 -99 -125 2660 0
-2661 22 0
-2661 100 0
-2661 126 0
-22 -100 -126 2661 0
-2662 23 0
-2662 101 0
-2662 127 0
-23 -101 -127 2662 0
-2663 24 0
-2663 102 0
-2663 128 0
-24 -102 -128 2663 0
-2664 25 0
-2664 103 0
-2664 129 0
-25 -103 -129 2664 0
-2665 26 0
-2665 104 0
-2665 130 0
-26 -104 -130 2665 0
-2653 5087 0
-2654 5087 0
-2655 5087 0
-2656 5087 0
-2657 5087 0
-2658 5087 0
-2659 5087 0
-2660 5087 0
-2661 5087 0
-2662 5087 0
-2663 5087 0
-2664 5087 0
-2665 5087 0
-5087 2653 2654 2655 2656 2657 2658 2659 2660 2661 2662 2663 2664 2665 0
-2666 14 0
-2666 92 0
-2666 131 0
-14 -92 -131 2666 0
-2667 15 0
-2667 93 0
-2667 132 0
-15 -93 -132 2667 0
-2668 16 0
-2668 94 0
-2668 133 0
-16 -94 -133 2668 0
-2669 17 0
-2669 95 0
-2669 134 0
-17 -95 -134 2669 0
-2670 18 0
-2670 96 0
-2670 135 0
-18 -96 -135 2670 0
-2671 19 0
-2671 97 0
-2671 136 0
-19 -97 -136 2671 0
-2672 20 0
-2672 98 0
-2672 137 0
-20 -98 -137 2672 0
-2673 21 0
-2673 99 0
-2673 138 0
-21 -99 -138 2673 0
-2674 22 0
-2674 100 0
-2674 139 0
-22 -100 -139 2674 0
-2675 23 0
-2675 101 0
-2675 140 0
-23 -101 -140 2675 0
-2676 24 0
-2676 102 0
-2676 141 0
-24 -102 -141 2676 0
-2677 25 0
-2677 103 0
-2677 142 0
-25 -103 -142 2677 0
-2678 26 0
-2678 104 0
-2678 143 0
-26 -104 -143 2678 0
-2666 5088 0
-2667 5088 0
-2668 5088 0
-2669 5088 0
-2670 5088 0
-2671 5088 0
-2672 5088 0
-2673 5088 0
-2674 5088 0
-2675 5088 0
-2676 5088 0
-2677 5088 0
-2678 5088 0
-5088 2666 2667 2668 2669 2670 2671 2672 2673 2674 2675 2676 2677 2678 0
-2679 14 0
-2679 92 0
-2679 144 0
-14 -92 -144 2679 0
-2680 15 0
-2680 93 0
-2680 145 0
-15 -93 -145 2680 0
-2681 16 0
-2681 94 0
-2681 146 0
-16 -94 -146 2681 0
-2682 17 0
-2682 95 0
-2682 147 0
-17 -95 -147 2682 0
-2683 18 0
-2683 96 0
-2683 148 0
-18 -96 -148 2683 0
-2684 19 0
-2684 97 0
-2684 149 0
-19 -97 -149 2684 0
-2685 20 0
-2685 98 0
-2685 150 0
-20 -98 -150 2685 0
-2686 21 0
-2686 99 0
-2686 151 0
-21 -99 -151 2686 0
-2687 22 0
-2687 100 0
-2687 152 0
-22 -100 -152 2687 0
-2688 23 0
-2688 101 0
-2688 153 0
-23 -101 -153 2688 0
-2689 24 0
-2689 102 0
-2689 154 0
-24 -102 -154 2689 0
-2690 25 0
-2690 103 0
-2690 155 0
-25 -103 -155 2690 0
-2691 26 0
-2691 104 0
-2691 156 0
-26 -104 -156 2691 0
-2679 5089 0
-2680 5089 0
-2681 5089 0
-2682 5089 0
-2683 5089 0
-2684 5089 0
-2685 5089 0
-2686 5089 0
-2687 5089 0
-2688 5089 0
-2689 5089 0
-2690 5089 0
-2691 5089 0
-5089 2679 2680 2681 2682 2683 2684 2685 2686 2687 2688 2689 2690 2691 0
-2692 14 0
-2692 92 0
-2692 157 0
-14 -92 -157 2692 0
-2693 15 0
-2693 93 0
-2693 158 0
-15 -93 -158 2693 0
-2694 16 0
-2694 94 0
-2694 159 0
-16 -94 -159 2694 0
-2695 17 0
-2695 95 0
-2695 160 0
-17 -95 -160 2695 0
-2696 18 0
-2696 96 0
-2696 161 0
-18 -96 -161 2696 0
-2697 19 0
-2697 97 0
-2697 162 0
-19 -97 -162 2697 0
-2698 20 0
-2698 98 0
-2698 163 0
-20 -98 -163 2698 0
-2699 21 0
-2699 99 0
-2699 164 0
-21 -99 -164 2699 0
-2700 22 0
-2700 100 0
-2700 165 0
-22 -100 -165 2700 0
-2701 23 0
-2701 101 0
-2701 166 0
-23 -101 -166 2701 0
-2702 24 0
-2702 102 0
-2702 167 0
-24 -102 -167 2702 0
-2703 25 0
-2703 103 0
-2703 168 0
-25 -103 -168 2703 0
-2704 26 0
-2704 104 0
-2704 169 0
-26 -104 -169 2704 0
-2692 5090 0
-2693 5090 0
-2694 5090 0
-2695 5090 0
-2696 5090 0
-2697 5090 0
-2698 5090 0
-2699 5090 0
-2700 5090 0
-2701 5090 0
-2702 5090 0
-2703 5090 0
-2704 5090 0
-5090 2692 2693 2694 2695 2696 2697 2698 2699 2700 2701 2702 2703 2704 0
-2705 14 0
-2705 105 0
-2705 118 0
-14 -105 -118 2705 0
-2706 15 0
-2706 106 0
-2706 119 0
-15 -106 -119 2706 0
-2707 16 0
-2707 107 0
-2707 120 0
-16 -107 -120 2707 0
-2708 17 0
-2708 108 0
-2708 121 0
-17 -108 -121 2708 0
-2709 18 0
-2709 109 0
-2709 122 0
-18 -109 -122 2709 0
-2710 19 0
-2710 110 0
-2710 123 0
-19 -110 -123 2710 0
-2711 20 0
-2711 111 0
-2711 124 0
-20 -111 -124 2711 0
-2712 21 0
-2712 112 0
-2712 125 0
-21 -112 -125 2712 0
-2713 22 0
-2713 113 0
-2713 126 0
-22 -113 -126 2713 0
-2714 23 0
-2714 114 0
-2714 127 0
-23 -114 -127 2714 0
-2715 24 0
-2715 115 0
-2715 128 0
-24 -115 -128 2715 0
-2716 25 0
-2716 116 0
-2716 129 0
-25 -116 -129 2716 0
-2717 26 0
-2717 117 0
-2717 130 0
-26 -117 -130 2717 0
-2705 5091 0
-2706 5091 0
-2707 5091 0
-2708 5091 0
-2709 5091 0
-2710 5091 0
-2711 5091 0
-2712 5091 0
-2713 5091 0
-2714 5091 0
-2715 5091 0
-2716 5091 0
-2717 5091 0
-5091 2705 2706 2707 2708 2709 2710 2711 2712 2713 2714 2715 2716 2717 0
-2718 14 0
-2718 105 0
-2718 131 0
-14 -105 -131 2718 0
-2719 15 0
-2719 106 0
-2719 132 0
-15 -106 -132 2719 0
-2720 16 0
-2720 107 0
-2720 133 0
-16 -107 -133 2720 0
-2721 17 0
-2721 108 0
-2721 134 0
-17 -108 -134 2721 0
-2722 18 0
-2722 109 0
-2722 135 0
-18 -109 -135 2722 0
-2723 19 0
-2723 110 0
-2723 136 0
-19 -110 -136 2723 0
-2724 20 0
-2724 111 0
-2724 137 0
-20 -111 -137 2724 0
-2725 21 0
-2725 112 0
-2725 138 0
-21 -112 -138 2725 0
-2726 22 0
-2726 113 0
-2726 139 0
-22 -113 -139 2726 0
-2727 23 0
-2727 114 0
-2727 140 0
-23 -114 -140 2727 0
-2728 24 0
-2728 115 0
-2728 141 0
-24 -115 -141 2728 0
-2729 25 0
-2729 116 0
-2729 142 0
-25 -116 -142 2729 0
-2730 26 0
-2730 117 0
-2730 143 0
-26 -117 -143 2730 0
-2718 5092 0
-2719 5092 0
-2720 5092 0
-2721 5092 0
-2722 5092 0
-2723 5092 0
-2724 5092 0
-2725 5092 0
-2726 5092 0
-2727 5092 0
-2728 5092 0
-2729 5092 0
-2730 5092 0
-5092 2718 2719 2720 2721 2722 2723 2724 2725 2726 2727 2728 2729 2730 0
-2731 14 0
-2731 105 0
-2731 144 0
-14 -105 -144 2731 0
-2732 15 0
-2732 106 0
-2732 145 0
-15 -106 -145 2732 0
-2733 16 0
-2733 107 0
-2733 146 0
-16 -107 -146 2733 0
-2734 17 0
-2734 108 0
-2734 147 0
-17 -108 -147 2734 0
-2735 18 0
-2735 109 0
-2735 148 0
-18 -109 -148 2735 0
-2736 19 0
-2736 110 0
-2736 149 0
-19 -110 -149 2736 0
-2737 20 0
-2737 111 0
-2737 150 0
-20 -111 -150 2737 0
-2738 21 0
-2738 112 0
-2738 151 0
-21 -112 -151 2738 0
-2739 22 0
-2739 113 0
-2739 152 0
-22 -113 -152 2739 0
-2740 23 0
-2740 114 0
-2740 153 0
-23 -114 -153 2740 0
-2741 24 0
-2741 115 0
-2741 154 0
-24 -115 -154 2741 0
-2742 25 0
-2742 116 0
-2742 155 0
-25 -116 -155 2742 0
-2743 26 0
-2743 117 0
-2743 156 0
-26 -117 -156 2743 0
-2731 5093 0
-2732 5093 0
-2733 5093 0
-2734 5093 0
-2735 5093 0
-2736 5093 0
-2737 5093 0
-2738 5093 0
-2739 5093 0
-2740 5093 0
-2741 5093 0
-2742 5093 0
-2743 5093 0
-5093 2731 2732 2733 2734 2735 2736 2737 2738 2739 2740 2741 2742 2743 0
-2744 14 0
-2744 105 0
-2744 157 0
-14 -105 -157 2744 0
-2745 15 0
-2745 106 0
-2745 158 0
-15 -106 -158 2745 0
-2746 16 0
-2746 107 0
-2746 159 0
-16 -107 -159 2746 0
-2747 17 0
-2747 108 0
-2747 160 0
-17 -108 -160 2747 0
-2748 18 0
-2748 109 0
-2748 161 0
-18 -109 -161 2748 0
-2749 19 0
-2749 110 0
-2749 162 0
-19 -110 -162 2749 0
-2750 20 0
-2750 111 0
-2750 163 0
-20 -111 -163 2750 0
-2751 21 0
-2751 112 0
-2751 164 0
-21 -112 -164 2751 0
-2752 22 0
-2752 113 0
-2752 165 0
-22 -113 -165 2752 0
-2753 23 0
-2753 114 0
-2753 166 0
-23 -114 -166 2753 0
-2754 24 0
-2754 115 0
-2754 167 0
-24 -115 -167 2754 0
-2755 25 0
-2755 116 0
-2755 168 0
-25 -116 -168 2755 0
-2756 26 0
-2756 117 0
-2756 169 0
-26 -117 -169 2756 0
-2744 5094 0
-2745 5094 0
-2746 5094 0
-2747 5094 0
-2748 5094 0
-2749 5094 0
-2750 5094 0
-2751 5094 0
-2752 5094 0
-2753 5094 0
-2754 5094 0
-2755 5094 0
-2756 5094 0
-5094 2744 2745 2746 2747 2748 2749 2750 2751 2752 2753 2754 2755 2756 0
-2757 14 0
-2757 118 0
-2757 131 0
-14 -118 -131 2757 0
-2758 15 0
-2758 119 0
-2758 132 0
-15 -119 -132 2758 0
-2759 16 0
-2759 120 0
-2759 133 0
-16 -120 -133 2759 0
-2760 17 0
-2760 121 0
-2760 134 0
-17 -121 -134 2760 0
-2761 18 0
-2761 122 0
-2761 135 0
-18 -122 -135 2761 0
-2762 19 0
-2762 123 0
-2762 136 0
-19 -123 -136 2762 0
-2763 20 0
-2763 124 0
-2763 137 0
-20 -124 -137 2763 0
-2764 21 0
-2764 125 0
-2764 138 0
-21 -125 -138 2764 0
-2765 22 0
-2765 126 0
-2765 139 0
-22 -126 -139 2765 0
-2766 23 0
-2766 127 0
-2766 140 0
-23 -127 -140 2766 0
-2767 24 0
-2767 128 0
-2767 141 0
-24 -128 -141 2767 0
-2768 25 0
-2768 129 0
-2768 142 0
-25 -129 -142 2768 0
-2769 26 0
-2769 130 0
-2769 143 0
-26 -130 -143 2769 0
-2757 5095 0
-2758 5095 0
-2759 5095 0
-2760 5095 0
-2761 5095 0
-2762 5095 0
-2763 5095 0
-2764 5095 0
-2765 5095 0
-2766 5095 0
-2767 5095 0
-2768 5095 0
-2769 5095 0
-5095 2757 2758 2759 2760 2761 2762 2763 2764 2765 2766 2767 2768 2769 0
-2770 14 0
-2770 118 0
-2770 144 0
-14 -118 -144 2770 0
-2771 15 0
-2771 119 0
-2771 145 0
-15 -119 -145 2771 0
-2772 16 0
-2772 120 0
-2772 146 0
-16 -120 -146 2772 0
-2773 17 0
-2773 121 0
-2773 147 0
-17 -121 -147 2773 0
-2774 18 0
-2774 122 0
-2774 148 0
-18 -122 -148 2774 0
-2775 19 0
-2775 123 0
-2775 149 0
-19 -123 -149 2775 0
-2776 20 0
-2776 124 0
-2776 150 0
-20 -124 -150 2776 0
-2777 21 0
-2777 125 0
-2777 151 0
-21 -125 -151 2777 0
-2778 22 0
-2778 126 0
-2778 152 0
-22 -126 -152 2778 0
-2779 23 0
-2779 127 0
-2779 153 0
-23 -127 -153 2779 0
-2780 24 0
-2780 128 0
-2780 154 0
-24 -128 -154 2780 0
-2781 25 0
-2781 129 0
-2781 155 0
-25 -129 -155 2781 0
-2782 26 0
-2782 130 0
-2782 156 0
-26 -130 -156 2782 0
-2770 5096 0
-2771 5096 0
-2772 5096 0
-2773 5096 0
-2774 5096 0
-2775 5096 0
-2776 5096 0
-2777 5096 0
-2778 5096 0
-2779 5096 0
-2780 5096 0
-2781 5096 0
-2782 5096 0
-5096 2770 2771 2772 2773 2774 2775 2776 2777 2778 2779 2780 2781 2782 0
-2783 14 0
-2783 118 0
-2783 157 0
-14 -118 -157 2783 0
-2784 15 0
-2784 119 0
-2784 158 0
-15 -119 -158 2784 0
-2785 16 0
-2785 120 0
-2785 159 0
-16 -120 -159 2785 0
-2786 17 0
-2786 121 0
-2786 160 0
-17 -121 -160 2786 0
-2787 18 0
-2787 122 0
-2787 161 0
-18 -122 -161 2787 0
-2788 19 0
-2788 123 0
-2788 162 0
-19 -123 -162 2788 0
-2789 20 0
-2789 124 0
-2789 163 0
-20 -124 -163 2789 0
-2790 21 0
-2790 125 0
-2790 164 0
-21 -125 -164 2790 0
-2791 22 0
-2791 126 0
-2791 165 0
-22 -126 -165 2791 0
-2792 23 0
-2792 127 0
-2792 166 0
-23 -127 -166 2792 0
-2793 24 0
-2793 128 0
-2793 167 0
-24 -128 -167 2793 0
-2794 25 0
-2794 129 0
-2794 168 0
-25 -129 -168 2794 0
-2795 26 0
-2795 130 0
-2795 169 0
-26 -130 -169 2795 0
-2783 5097 0
-2784 5097 0
-2785 5097 0
-2786 5097 0
-2787 5097 0
-2788 5097 0
-2789 5097 0
-2790 5097 0
-2791 5097 0
-2792 5097 0
-2793 5097 0
-2794 5097 0
-2795 5097 0
-5097 2783 2784 2785 2786 2787 2788 2789 2790 2791 2792 2793 2794 2795 0
-2796 14 0
-2796 131 0
-2796 144 0
-14 -131 -144 2796 0
-2797 15 0
-2797 132 0
-2797 145 0
-15 -132 -145 2797 0
-2798 16 0
-2798 133 0
-2798 146 0
-16 -133 -146 2798 0
-2799 17 0
-2799 134 0
-2799 147 0
-17 -134 -147 2799 0
-2800 18 0
-2800 135 0
-2800 148 0
-18 -135 -148 2800 0
-2801 19 0
-2801 136 0
-2801 149 0
-19 -136 -149 2801 0
-2802 20 0
-2802 137 0
-2802 150 0
-20 -137 -150 2802 0
-2803 21 0
-2803 138 0
-2803 151 0
-21 -138 -151 2803 0
-2804 22 0
-2804 139 0
-2804 152 0
-22 -139 -152 2804 0
-2805 23 0
-2805 140 0
-2805 153 0
-23 -140 -153 2805 0
-2806 24 0
-2806 141 0
-2806 154 0
-24 -141 -154 2806 0
-2807 25 0
-2807 142 0
-2807 155 0
-25 -142 -155 2807 0
-2808 26 0
-2808 143 0
-2808 156 0
-26 -143 -156 2808 0
-2796 5098 0
-2797 5098 0
-2798 5098 0
-2799 5098 0
-2800 5098 0
-2801 5098 0
-2802 5098 0
-2803 5098 0
-2804 5098 0
-2805 5098 0
-2806 5098 0
-2807 5098 0
-2808 5098 0
-5098 2796 2797 2798 2799 2800 2801 2802 2803 2804 2805 2806 2807 2808 0
-2809 14 0
-2809 131 0
-2809 157 0
-14 -131 -157 2809 0
-2810 15 0
-2810 132 0
-2810 158 0
-15 -132 -158 2810 0
-2811 16 0
-2811 133 0
-2811 159 0
-16 -133 -159 2811 0
-2812 17 0
-2812 134 0
-2812 160 0
-17 -134 -160 2812 0
-2813 18 0
-2813 135 0
-2813 161 0
-18 -135 -161 2813 0
-2814 19 0
-2814 136 0
-2814 162 0
-19 -136 -162 2814 0
-2815 20 0
-2815 137 0
-2815 163 0
-20 -137 -163 2815 0
-2816 21 0
-2816 138 0
-2816 164 0
-21 -138 -164 2816 0
-2817 22 0
-2817 139 0
-2817 165 0
-22 -139 -165 2817 0
-2818 23 0
-2818 140 0
-2818 166 0
-23 -140 -166 2818 0
-2819 24 0
-2819 141 0
-2819 167 0
-24 -141 -167 2819 0
-2820 25 0
-2820 142 0
-2820 168 0
-25 -142 -168 2820 0
-2821 26 0
-2821 143 0
-2821 169 0
-26 -143 -169 2821 0
-2809 5099 0
-2810 5099 0
-2811 5099 0
-2812 5099 0
-2813 5099 0
-2814 5099 0
-2815 5099 0
-2816 5099 0
-2817 5099 0
-2818 5099 0
-2819 5099 0
-2820 5099 0
-2821 5099 0
-5099 2809 2810 2811 2812 2813 2814 2815 2816 2817 2818 2819 2820 2821 0
-2822 14 0
-2822 144 0
-2822 157 0
-14 -144 -157 2822 0
-2823 15 0
-2823 145 0
-2823 158 0
-15 -145 -158 2823 0
-2824 16 0
-2824 146 0
-2824 159 0
-16 -146 -159 2824 0
-2825 17 0
-2825 147 0
-2825 160 0
-17 -147 -160 2825 0
-2826 18 0
-2826 148 0
-2826 161 0
-18 -148 -161 2826 0
-2827 19 0
-2827 149 0
-2827 162 0
-19 -149 -162 2827 0
-2828 20 0
-2828 150 0
-2828 163 0
-20 -150 -163 2828 0
-2829 21 0
-2829 151 0
-2829 164 0
-21 -151 -164 2829 0
-2830 22 0
-2830 152 0
-2830 165 0
-22 -152 -165 2830 0
-2831 23 0
-2831 153 0
-2831 166 0
-23 -153 -166 2831 0
-2832 24 0
-2832 154 0
-2832 167 0
-24 -154 -167 2832 0
-2833 25 0
-2833 155 0
-2833 168 0
-25 -155 -168 2833 0
-2834 26 0
-2834 156 0
-2834 169 0
-26 -156 -169 2834 0
-2822 5100 0
-2823 5100 0
-2824 5100 0
-2825 5100 0
-2826 5100 0
-2827 5100 0
-2828 5100 0
-2829 5100 0
-2830 5100 0
-2831 5100 0
-2832 5100 0
-2833 5100 0
-2834 5100 0
-5100 2822 2823 2824 2825 2826 2827 2828 2829 2830 2831 2832 2833 2834 0
-2835 27 0
-2835 40 0
-2835 53 0
-27 -40 -53 2835 0
-2836 28 0
-2836 41 0
-2836 54 0
-28 -41 -54 2836 0
-2837 29 0
-2837 42 0
-2837 55 0
-29 -42 -55 2837 0
-2838 30 0
-2838 43 0
-2838 56 0
-30 -43 -56 2838 0
-2839 31 0
-2839 44 0
-2839 57 0
-31 -44 -57 2839 0
-2840 32 0
-2840 45 0
-2840 58 0
-32 -45 -58 2840 0
-2841 33 0
-2841 46 0
-2841 59 0
-33 -46 -59 2841 0
-2842 34 0
-2842 47 0
-2842 60 0
-34 -47 -60 2842 0
-2843 35 0
-2843 48 0
-2843 61 0
-35 -48 -61 2843 0
-2844 36 0
-2844 49 0
-2844 62 0
-36 -49 -62 2844 0
-2845 37 0
-2845 50 0
-2845 63 0
-37 -50 -63 2845 0
-2846 38 0
-2846 51 0
-2846 64 0
-38 -51 -64 2846 0
-2847 39 0
-2847 52 0
-2847 65 0
-39 -52 -65 2847 0
-2835 5101 0
-2836 5101 0
-2837 5101 0
-2838 5101 0
-2839 5101 0
-2840 5101 0
-2841 5101 0
-2842 5101 0
-2843 5101 0
-2844 5101 0
-2845 5101 0
-2846 5101 0
-2847 5101 0
-5101 2835 2836 2837 2838 2839 2840 2841 2842 2843 2844 2845 2846 2847 0
-2848 27 0
-2848 40 0
-2848 66 0
-27 -40 -66 2848 0
-2849 28 0
-2849 41 0
-2849 67 0
-28 -41 -67 2849 0
-2850 29 0
-2850 42 0
-2850 68 0
-29 -42 -68 2850 0
-2851 30 0
-2851 43 0
-2851 69 0
-30 -43 -69 2851 0
-2852 31 0
-2852 44 0
-2852 70 0
-31 -44 -70 2852 0
-2853 32 0
-2853 45 0
-2853 71 0
-32 -45 -71 2853 0
-2854 33 0
-2854 46 0
-2854 72 0
-33 -46 -72 2854 0
-2855 34 0
-2855 47 0
-2855 73 0
-34 -47 -73 2855 0
-2856 35 0
-2856 48 0
-2856 74 0
-35 -48 -74 2856 0
-2857 36 0
-2857 49 0
-2857 75 0
-36 -49 -75 2857 0
-2858 37 0
-2858 50 0
-2858 76 0
-37 -50 -76 2858 0
-2859 38 0
-2859 51 0
-2859 77 0
-38 -51 -77 2859 0
-2860 39 0
-2860 52 0
-2860 78 0
-39 -52 -78 2860 0
-2848 5102 0
-2849 5102 0
-2850 5102 0
-2851 5102 0
-2852 5102 0
-2853 5102 0
-2854 5102 0
-2855 5102 0
-2856 5102 0
-2857 5102 0
-2858 5102 0
-2859 5102 0
-2860 5102 0
-5102 2848 2849 2850 2851 2852 2853 2854 2855 2856 2857 2858 2859 2860 0
-2861 27 0
-2861 40 0
-2861 79 0
-27 -40 -79 2861 0
-2862 28 0
-2862 41 0
-2862 80 0
-28 -41 -80 2862 0
-2863 29 0
-2863 42 0
-2863 81 0
-29 -42 -81 2863 0
-2864 30 0
-2864 43 0
-2864 82 0
-30 -43 -82 2864 0
-2865 31 0
-2865 44 0
-2865 83 0
-31 -44 -83 2865 0
-2866 32 0
-2866 45 0
-2866 84 0
-32 -45 -84 2866 0
-2867 33 0
-2867 46 0
-2867 85 0
-33 -46 -85 2867 0
-2868 34 0
-2868 47 0
-2868 86 0
-34 -47 -86 2868 0
-2869 35 0
-2869 48 0
-2869 87 0
-35 -48 -87 2869 0
-2870 36 0
-2870 49 0
-2870 88 0
-36 -49 -88 2870 0
-2871 37 0
-2871 50 0
-2871 89 0
-37 -50 -89 2871 0
-2872 38 0
-2872 51 0
-2872 90 0
-38 -51 -90 2872 0
-2873 39 0
-2873 52 0
-2873 91 0
-39 -52 -91 2873 0
-2861 5103 0
-2862 5103 0
-2863 5103 0
-2864 5103 0
-2865 5103 0
-2866 5103 0
-2867 5103 0
-2868 5103 0
-2869 5103 0
-2870 5103 0
-2871 5103 0
-2872 5103 0
-2873 5103 0
-5103 2861 2862 2863 2864 2865 2866 2867 2868 2869 2870 2871 2872 2873 0
-2874 27 0
-2874 40 0
-2874 92 0
-27 -40 -92 2874 0
-2875 28 0
-2875 41 0
-2875 93 0
-28 -41 -93 2875 0
-2876 29 0
-2876 42 0
-2876 94 0
-29 -42 -94 2876 0
-2877 30 0
-2877 43 0
-2877 95 0
-30 -43 -95 2877 0
-2878 31 0
-2878 44 0
-2878 96 0
-31 -44 -96 2878 0
-2879 32 0
-2879 45 0
-2879 97 0
-32 -45 -97 2879 0
-2880 33 0
-2880 46 0
-2880 98 0
-33 -46 -98 2880 0
-2881 34 0
-2881 47 0
-2881 99 0
-34 -47 -99 2881 0
-2882 35 0
-2882 48 0
-2882 100 0
-35 -48 -100 2882 0
-2883 36 0
-2883 49 0
-2883 101 0
-36 -49 -101 2883 0
-2884 37 0
-2884 50 0
-2884 102 0
-37 -50 -102 2884 0
-2885 38 0
-2885 51 0
-2885 103 0
-38 -51 -103 2885 0
-2886 39 0
-2886 52 0
-2886 104 0
-39 -52 -104 2886 0
-2874 5104 0
-2875 5104 0
-2876 5104 0
-2877 5104 0
-2878 5104 0
-2879 5104 0
-2880 5104 0
-2881 5104 0
-2882 5104 0
-2883 5104 0
-2884 5104 0
-2885 5104 0
-2886 5104 0
-5104 2874 2875 2876 2877 2878 2879 2880 2881 2882 2883 2884 2885 2886 0
-2887 27 0
-2887 40 0
-2887 105 0
-27 -40 -105 2887 0
-2888 28 0
-2888 41 0
-2888 106 0
-28 -41 -106 2888 0
-2889 29 0
-2889 42 0
-2889 107 0
-29 -42 -107 2889 0
-2890 30 0
-2890 43 0
-2890 108 0
-30 -43 -108 2890 0
-2891 31 0
-2891 44 0
-2891 109 0
-31 -44 -109 2891 0
-2892 32 0
-2892 45 0
-2892 110 0
-32 -45 -110 2892 0
-2893 33 0
-2893 46 0
-2893 111 0
-33 -46 -111 2893 0
-2894 34 0
-2894 47 0
-2894 112 0
-34 -47 -112 2894 0
-2895 35 0
-2895 48 0
-2895 113 0
-35 -48 -113 2895 0
-2896 36 0
-2896 49 0
-2896 114 0
-36 -49 -114 2896 0
-2897 37 0
-2897 50 0
-2897 115 0
-37 -50 -115 2897 0
-2898 38 0
-2898 51 0
-2898 116 0
-38 -51 -116 2898 0
-2899 39 0
-2899 52 0
-2899 117 0
-39 -52 -117 2899 0
-2887 5105 0
-2888 5105 0
-2889 5105 0
-2890 5105 0
-2891 5105 0
-2892 5105 0
-2893 5105 0
-2894 5105 0
-2895 5105 0
-2896 5105 0
-2897 5105 0
-2898 5105 0
-2899 5105 0
-5105 2887 2888 2889 2890 2891 2892 2893 2894 2895 2896 2897 2898 2899 0
-2900 27 0
-2900 40 0
-2900 118 0
-27 -40 -118 2900 0
-2901 28 0
-2901 41 0
-2901 119 0
-28 -41 -119 2901 0
-2902 29 0
-2902 42 0
-2902 120 0
-29 -42 -120 2902 0
-2903 30 0
-2903 43 0
-2903 121 0
-30 -43 -121 2903 0
-2904 31 0
-2904 44 0
-2904 122 0
-31 -44 -122 2904 0
-2905 32 0
-2905 45 0
-2905 123 0
-32 -45 -123 2905 0
-2906 33 0
-2906 46 0
-2906 124 0
-33 -46 -124 2906 0
-2907 34 0
-2907 47 0
-2907 125 0
-34 -47 -125 2907 0
-2908 35 0
-2908 48 0
-2908 126 0
-35 -48 -126 2908 0
-2909 36 0
-2909 49 0
-2909 127 0
-36 -49 -127 2909 0
-2910 37 0
-2910 50 0
-2910 128 0
-37 -50 -128 2910 0
-2911 38 0
-2911 51 0
-2911 129 0
-38 -51 -129 2911 0
-2912 39 0
-2912 52 0
-2912 130 0
-39 -52 -130 2912 0
-2900 5106 0
-2901 5106 0
-2902 5106 0
-2903 5106 0
-2904 5106 0
-2905 5106 0
-2906 5106 0
-2907 5106 0
-2908 5106 0
-2909 5106 0
-2910 5106 0
-2911 5106 0
-2912 5106 0
-5106 2900 2901 2902 2903 2904 2905 2906 2907 2908 2909 2910 2911 2912 0
-2913 27 0
-2913 40 0
-2913 131 0
-27 -40 -131 2913 0
-2914 28 0
-2914 41 0
-2914 132 0
-28 -41 -132 2914 0
-2915 29 0
-2915 42 0
-2915 133 0
-29 -42 -133 2915 0
-2916 30 0
-2916 43 0
-2916 134 0
-30 -43 -134 2916 0
-2917 31 0
-2917 44 0
-2917 135 0
-31 -44 -135 2917 0
-2918 32 0
-2918 45 0
-2918 136 0
-32 -45 -136 2918 0
-2919 33 0
-2919 46 0
-2919 137 0
-33 -46 -137 2919 0
-2920 34 0
-2920 47 0
-2920 138 0
-34 -47 -138 2920 0
-2921 35 0
-2921 48 0
-2921 139 0
-35 -48 -139 2921 0
-2922 36 0
-2922 49 0
-2922 140 0
-36 -49 -140 2922 0
-2923 37 0
-2923 50 0
-2923 141 0
-37 -50 -141 2923 0
-2924 38 0
-2924 51 0
-2924 142 0
-38 -51 -142 2924 0
-2925 39 0
-2925 52 0
-2925 143 0
-39 -52 -143 2925 0
-2913 5107 0
-2914 5107 0
-2915 5107 0
-2916 5107 0
-2917 5107 0
-2918 5107 0
-2919 5107 0
-2920 5107 0
-2921 5107 0
-2922 5107 0
-2923 5107 0
-2924 5107 0
-2925 5107 0
-5107 2913 2914 2915 2916 2917 2918 2919 2920 2921 2922 2923 2924 2925 0
-2926 27 0
-2926 40 0
-2926 144 0
-27 -40 -144 2926 0
-2927 28 0
-2927 41 0
-2927 145 0
-28 -41 -145 2927 0
-2928 29 0
-2928 42 0
-2928 146 0
-29 -42 -146 2928 0
-2929 30 0
-2929 43 0
-2929 147 0
-30 -43 -147 2929 0
-2930 31 0
-2930 44 0
-2930 148 0
-31 -44 -148 2930 0
-2931 32 0
-2931 45 0
-2931 149 0
-32 -45 -149 2931 0
-2932 33 0
-2932 46 0
-2932 150 0
-33 -46 -150 2932 0
-2933 34 0
-2933 47 0
-2933 151 0
-34 -47 -151 2933 0
-2934 35 0
-2934 48 0
-2934 152 0
-35 -48 -152 2934 0
-2935 36 0
-2935 49 0
-2935 153 0
-36 -49 -153 2935 0
-2936 37 0
-2936 50 0
-2936 154 0
-37 -50 -154 2936 0
-2937 38 0
-2937 51 0
-2937 155 0
-38 -51 -155 2937 0
-2938 39 0
-2938 52 0
-2938 156 0
-39 -52 -156 2938 0
-2926 5108 0
-2927 5108 0
-2928 5108 0
-2929 5108 0
-2930 5108 0
-2931 5108 0
-2932 5108 0
-2933 5108 0
-2934 5108 0
-2935 5108 0
-2936 5108 0
-2937 5108 0
-2938 5108 0
-5108 2926 2927 2928 2929 2930 2931 2932 2933 2934 2935 2936 2937 2938 0
-2939 27 0
-2939 40 0
-2939 157 0
-27 -40 -157 2939 0
-2940 28 0
-2940 41 0
-2940 158 0
-28 -41 -158 2940 0
-2941 29 0
-2941 42 0
-2941 159 0
-29 -42 -159 2941 0
-2942 30 0
-2942 43 0
-2942 160 0
-30 -43 -160 2942 0
-2943 31 0
-2943 44 0
-2943 161 0
-31 -44 -161 2943 0
-2944 32 0
-2944 45 0
-2944 162 0
-32 -45 -162 2944 0
-2945 33 0
-2945 46 0
-2945 163 0
-33 -46 -163 2945 0
-2946 34 0
-2946 47 0
-2946 164 0
-34 -47 -164 2946 0
-2947 35 0
-2947 48 0
-2947 165 0
-35 -48 -165 2947 0
-2948 36 0
-2948 49 0
-2948 166 0
-36 -49 -166 2948 0
-2949 37 0
-2949 50 0
-2949 167 0
-37 -50 -167 2949 0
-2950 38 0
-2950 51 0
-2950 168 0
-38 -51 -168 2950 0
-2951 39 0
-2951 52 0
-2951 169 0
-39 -52 -169 2951 0
-2939 5109 0
-2940 5109 0
-2941 5109 0
-2942 5109 0
-2943 5109 0
-2944 5109 0
-2945 5109 0
-2946 5109 0
-2947 5109 0
-2948 5109 0
-2949 5109 0
-2950 5109 0
-2951 5109 0
-5109 2939 2940 2941 2942 2943 2944 2945 2946 2947 2948 2949 2950 2951 0
-2952 27 0
-2952 53 0
-2952 66 0
-27 -53 -66 2952 0
-2953 28 0
-2953 54 0
-2953 67 0
-28 -54 -67 2953 0
-2954 29 0
-2954 55 0
-2954 68 0
-29 -55 -68 2954 0
-2955 30 0
-2955 56 0
-2955 69 0
-30 -56 -69 2955 0
-2956 31 0
-2956 57 0
-2956 70 0
-31 -57 -70 2956 0
-2957 32 0
-2957 58 0
-2957 71 0
-32 -58 -71 2957 0
-2958 33 0
-2958 59 0
-2958 72 0
-33 -59 -72 2958 0
-2959 34 0
-2959 60 0
-2959 73 0
-34 -60 -73 2959 0
-2960 35 0
-2960 61 0
-2960 74 0
-35 -61 -74 2960 0
-2961 36 0
-2961 62 0
-2961 75 0
-36 -62 -75 2961 0
-2962 37 0
-2962 63 0
-2962 76 0
-37 -63 -76 2962 0
-2963 38 0
-2963 64 0
-2963 77 0
-38 -64 -77 2963 0
-2964 39 0
-2964 65 0
-2964 78 0
-39 -65 -78 2964 0
-2952 5110 0
-2953 5110 0
-2954 5110 0
-2955 5110 0
-2956 5110 0
-2957 5110 0
-2958 5110 0
-2959 5110 0
-2960 5110 0
-2961 5110 0
-2962 5110 0
-2963 5110 0
-2964 5110 0
-5110 2952 2953 2954 2955 2956 2957 2958 2959 2960 2961 2962 2963 2964 0
-2965 27 0
-2965 53 0
-2965 79 0
-27 -53 -79 2965 0
-2966 28 0
-2966 54 0
-2966 80 0
-28 -54 -80 2966 0
-2967 29 0
-2967 55 0
-2967 81 0
-29 -55 -81 2967 0
-2968 30 0
-2968 56 0
-2968 82 0
-30 -56 -82 2968 0
-2969 31 0
-2969 57 0
-2969 83 0
-31 -57 -83 2969 0
-2970 32 0
-2970 58 0
-2970 84 0
-32 -58 -84 2970 0
-2971 33 0
-2971 59 0
-2971 85 0
-33 -59 -85 2971 0
-2972 34 0
-2972 60 0
-2972 86 0
-34 -60 -86 2972 0
-2973 35 0
-2973 61 0
-2973 87 0
-35 -61 -87 2973 0
-2974 36 0
-2974 62 0
-2974 88 0
-36 -62 -88 2974 0
-2975 37 0
-2975 63 0
-2975 89 0
-37 -63 -89 2975 0
-2976 38 0
-2976 64 0
-2976 90 0
-38 -64 -90 2976 0
-2977 39 0
-2977 65 0
-2977 91 0
-39 -65 -91 2977 0
-2965 5111 0
-2966 5111 0
-2967 5111 0
-2968 5111 0
-2969 5111 0
-2970 5111 0
-2971 5111 0
-2972 5111 0
-2973 5111 0
-2974 5111 0
-2975 5111 0
-2976 5111 0
-2977 5111 0
-5111 2965 2966 2967 2968 2969 2970 2971 2972 2973 2974 2975 2976 2977 0
-2978 27 0
-2978 53 0
-2978 92 0
-27 -53 -92 2978 0
-2979 28 0
-2979 54 0
-2979 93 0
-28 -54 -93 2979 0
-2980 29 0
-2980 55 0
-2980 94 0
-29 -55 -94 2980 0
-2981 30 0
-2981 56 0
-2981 95 0
-30 -56 -95 2981 0
-2982 31 0
-2982 57 0
-2982 96 0
-31 -57 -96 2982 0
-2983 32 0
-2983 58 0
-2983 97 0
-32 -58 -97 2983 0
-2984 33 0
-2984 59 0
-2984 98 0
-33 -59 -98 2984 0
-2985 34 0
-2985 60 0
-2985 99 0
-34 -60 -99 2985 0
-2986 35 0
-2986 61 0
-2986 100 0
-35 -61 -100 2986 0
-2987 36 0
-2987 62 0
-2987 101 0
-36 -62 -101 2987 0
-2988 37 0
-2988 63 0
-2988 102 0
-37 -63 -102 2988 0
-2989 38 0
-2989 64 0
-2989 103 0
-38 -64 -103 2989 0
-2990 39 0
-2990 65 0
-2990 104 0
-39 -65 -104 2990 0
-2978 5112 0
-2979 5112 0
-2980 5112 0
-2981 5112 0
-2982 5112 0
-2983 5112 0
-2984 5112 0
-2985 5112 0
-2986 5112 0
-2987 5112 0
-2988 5112 0
-2989 5112 0
-2990 5112 0
-5112 2978 2979 2980 2981 2982 2983 2984 2985 2986 2987 2988 2989 2990 0
-2991 27 0
-2991 53 0
-2991 105 0
-27 -53 -105 2991 0
-2992 28 0
-2992 54 0
-2992 106 0
-28 -54 -106 2992 0
-2993 29 0
-2993 55 0
-2993 107 0
-29 -55 -107 2993 0
-2994 30 0
-2994 56 0
-2994 108 0
-30 -56 -108 2994 0
-2995 31 0
-2995 57 0
-2995 109 0
-31 -57 -109 2995 0
-2996 32 0
-2996 58 0
-2996 110 0
-32 -58 -110 2996 0
-2997 33 0
-2997 59 0
-2997 111 0
-33 -59 -111 2997 0
-2998 34 0
-2998 60 0
-2998 112 0
-34 -60 -112 2998 0
-2999 35 0
-2999 61 0
-2999 113 0
-35 -61 -113 2999 0
-3000 36 0
-3000 62 0
-3000 114 0
-36 -62 -114 3000 0
-3001 37 0
-3001 63 0
-3001 115 0
-37 -63 -115 3001 0
-3002 38 0
-3002 64 0
-3002 116 0
-38 -64 -116 3002 0
-3003 39 0
-3003 65 0
-3003 117 0
-39 -65 -117 3003 0
-2991 5113 0
-2992 5113 0
-2993 5113 0
-2994 5113 0
-2995 5113 0
-2996 5113 0
-2997 5113 0
-2998 5113 0
-2999 5113 0
-3000 5113 0
-3001 5113 0
-3002 5113 0
-3003 5113 0
-5113 2991 2992 2993 2994 2995 2996 2997 2998 2999 3000 3001 3002 3003 0
-3004 27 0
-3004 53 0
-3004 118 0
-27 -53 -118 3004 0
-3005 28 0
-3005 54 0
-3005 119 0
-28 -54 -119 3005 0
-3006 29 0
-3006 55 0
-3006 120 0
-29 -55 -120 3006 0
-3007 30 0
-3007 56 0
-3007 121 0
-30 -56 -121 3007 0
-3008 31 0
-3008 57 0
-3008 122 0
-31 -57 -122 3008 0
-3009 32 0
-3009 58 0
-3009 123 0
-32 -58 -123 3009 0
-3010 33 0
-3010 59 0
-3010 124 0
-33 -59 -124 3010 0
-3011 34 0
-3011 60 0
-3011 125 0
-34 -60 -125 3011 0
-3012 35 0
-3012 61 0
-3012 126 0
-35 -61 -126 3012 0
-3013 36 0
-3013 62 0
-3013 127 0
-36 -62 -127 3013 0
-3014 37 0
-3014 63 0
-3014 128 0
-37 -63 -128 3014 0
-3015 38 0
-3015 64 0
-3015 129 0
-38 -64 -129 3015 0
-3016 39 0
-3016 65 0
-3016 130 0
-39 -65 -130 3016 0
-3004 5114 0
-3005 5114 0
-3006 5114 0
-3007 5114 0
-3008 5114 0
-3009 5114 0
-3010 5114 0
-3011 5114 0
-3012 5114 0
-3013 5114 0
-3014 5114 0
-3015 5114 0
-3016 5114 0
-5114 3004 3005 3006 3007 3008 3009 3010 3011 3012 3013 3014 3015 3016 0
-3017 27 0
-3017 53 0
-3017 131 0
-27 -53 -131 3017 0
-3018 28 0
-3018 54 0
-3018 132 0
-28 -54 -132 3018 0
-3019 29 0
-3019 55 0
-3019 133 0
-29 -55 -133 3019 0
-3020 30 0
-3020 56 0
-3020 134 0
-30 -56 -134 3020 0
-3021 31 0
-3021 57 0
-3021 135 0
-31 -57 -135 3021 0
-3022 32 0
-3022 58 0
-3022 136 0
-32 -58 -136 3022 0
-3023 33 0
-3023 59 0
-3023 137 0
-33 -59 -137 3023 0
-3024 34 0
-3024 60 0
-3024 138 0
-34 -60 -138 3024 0
-3025 35 0
-3025 61 0
-3025 139 0
-35 -61 -139 3025 0
-3026 36 0
-3026 62 0
-3026 140 0
-36 -62 -140 3026 0
-3027 37 0
-3027 63 0
-3027 141 0
-37 -63 -141 3027 0
-3028 38 0
-3028 64 0
-3028 142 0
-38 -64 -142 3028 0
-3029 39 0
-3029 65 0
-3029 143 0
-39 -65 -143 3029 0
-3017 5115 0
-3018 5115 0
-3019 5115 0
-3020 5115 0
-3021 5115 0
-3022 5115 0
-3023 5115 0
-3024 5115 0
-3025 5115 0
-3026 5115 0
-3027 5115 0
-3028 5115 0
-3029 5115 0
-5115 3017 3018 3019 3020 3021 3022 3023 3024 3025 3026 3027 3028 3029 0
-3030 27 0
-3030 53 0
-3030 144 0
-27 -53 -144 3030 0
-3031 28 0
-3031 54 0
-3031 145 0
-28 -54 -145 3031 0
-3032 29 0
-3032 55 0
-3032 146 0
-29 -55 -146 3032 0
-3033 30 0
-3033 56 0
-3033 147 0
-30 -56 -147 3033 0
-3034 31 0
-3034 57 0
-3034 148 0
-31 -57 -148 3034 0
-3035 32 0
-3035 58 0
-3035 149 0
-32 -58 -149 3035 0
-3036 33 0
-3036 59 0
-3036 150 0
-33 -59 -150 3036 0
-3037 34 0
-3037 60 0
-3037 151 0
-34 -60 -151 3037 0
-3038 35 0
-3038 61 0
-3038 152 0
-35 -61 -152 3038 0
-3039 36 0
-3039 62 0
-3039 153 0
-36 -62 -153 3039 0
-3040 37 0
-3040 63 0
-3040 154 0
-37 -63 -154 3040 0
-3041 38 0
-3041 64 0
-3041 155 0
-38 -64 -155 3041 0
-3042 39 0
-3042 65 0
-3042 156 0
-39 -65 -156 3042 0
-3030 5116 0
-3031 5116 0
-3032 5116 0
-3033 5116 0
-3034 5116 0
-3035 5116 0
-3036 5116 0
-3037 5116 0
-3038 5116 0
-3039 5116 0
-3040 5116 0
-3041 5116 0
-3042 5116 0
-5116 3030 3031 3032 3033 3034 3035 3036 3037 3038 3039 3040 3041 3042 0
-3043 27 0
-3043 53 0
-3043 157 0
-27 -53 -157 3043 0
-3044 28 0
-3044 54 0
-3044 158 0
-28 -54 -158 3044 0
-3045 29 0
-3045 55 0
-3045 159 0
-29 -55 -159 3045 0
-3046 30 0
-3046 56 0
-3046 160 0
-30 -56 -160 3046 0
-3047 31 0
-3047 57 0
-3047 161 0
-31 -57 -161 3047 0
-3048 32 0
-3048 58 0
-3048 162 0
-32 -58 -162 3048 0
-3049 33 0
-3049 59 0
-3049 163 0
-33 -59 -163 3049 0
-3050 34 0
-3050 60 0
-3050 164 0
-34 -60 -164 3050 0
-3051 35 0
-3051 61 0
-3051 165 0
-35 -61 -165 3051 0
-3052 36 0
-3052 62 0
-3052 166 0
-36 -62 -166 3052 0
-3053 37 0
-3053 63 0
-3053 167 0
-37 -63 -167 3053 0
-3054 38 0
-3054 64 0
-3054 168 0
-38 -64 -168 3054 0
-3055 39 0
-3055 65 0
-3055 169 0
-39 -65 -169 3055 0
-3043 5117 0
-3044 5117 0
-3045 5117 0
-3046 5117 0
-3047 5117 0
-3048 5117 0
-3049 5117 0
-3050 5117 0
-3051 5117 0
-3052 5117 0
-3053 5117 0
-3054 5117 0
-3055 5117 0
-5117 3043 3044 3045 3046 3047 3048 3049 3050 3051 3052 3053 3054 3055 0
-3056 27 0
-3056 66 0
-3056 79 0
-27 -66 -79 3056 0
-3057 28 0
-3057 67 0
-3057 80 0
-28 -67 -80 3057 0
-3058 29 0
-3058 68 0
-3058 81 0
-29 -68 -81 3058 0
-3059 30 0
-3059 69 0
-3059 82 0
-30 -69 -82 3059 0
-3060 31 0
-3060 70 0
-3060 83 0
-31 -70 -83 3060 0
-3061 32 0
-3061 71 0
-3061 84 0
-32 -71 -84 3061 0
-3062 33 0
-3062 72 0
-3062 85 0
-33 -72 -85 3062 0
-3063 34 0
-3063 73 0
-3063 86 0
-34 -73 -86 3063 0
-3064 35 0
-3064 74 0
-3064 87 0
-35 -74 -87 3064 0
-3065 36 0
-3065 75 0
-3065 88 0
-36 -75 -88 3065 0
-3066 37 0
-3066 76 0
-3066 89 0
-37 -76 -89 3066 0
-3067 38 0
-3067 77 0
-3067 90 0
-38 -77 -90 3067 0
-3068 39 0
-3068 78 0
-3068 91 0
-39 -78 -91 3068 0
-3056 5118 0
-3057 5118 0
-3058 5118 0
-3059 5118 0
-3060 5118 0
-3061 5118 0
-3062 5118 0
-3063 5118 0
-3064 5118 0
-3065 5118 0
-3066 5118 0
-3067 5118 0
-3068 5118 0
-5118 3056 3057 3058 3059 3060 3061 3062 3063 3064 3065 3066 3067 3068 0
-3069 27 0
-3069 66 0
-3069 92 0
-27 -66 -92 3069 0
-3070 28 0
-3070 67 0
-3070 93 0
-28 -67 -93 3070 0
-3071 29 0
-3071 68 0
-3071 94 0
-29 -68 -94 3071 0
-3072 30 0
-3072 69 0
-3072 95 0
-30 -69 -95 3072 0
-3073 31 0
-3073 70 0
-3073 96 0
-31 -70 -96 3073 0
-3074 32 0
-3074 71 0
-3074 97 0
-32 -71 -97 3074 0
-3075 33 0
-3075 72 0
-3075 98 0
-33 -72 -98 3075 0
-3076 34 0
-3076 73 0
-3076 99 0
-34 -73 -99 3076 0
-3077 35 0
-3077 74 0
-3077 100 0
-35 -74 -100 3077 0
-3078 36 0
-3078 75 0
-3078 101 0
-36 -75 -101 3078 0
-3079 37 0
-3079 76 0
-3079 102 0
-37 -76 -102 3079 0
-3080 38 0
-3080 77 0
-3080 103 0
-38 -77 -103 3080 0
-3081 39 0
-3081 78 0
-3081 104 0
-39 -78 -104 3081 0
-3069 5119 0
-3070 5119 0
-3071 5119 0
-3072 5119 0
-3073 5119 0
-3074 5119 0
-3075 5119 0
-3076 5119 0
-3077 5119 0
-3078 5119 0
-3079 5119 0
-3080 5119 0
-3081 5119 0
-5119 3069 3070 3071 3072 3073 3074 3075 3076 3077 3078 3079 3080 3081 0
-3082 27 0
-3082 66 0
-3082 105 0
-27 -66 -105 3082 0
-3083 28 0
-3083 67 0
-3083 106 0
-28 -67 -106 3083 0
-3084 29 0
-3084 68 0
-3084 107 0
-29 -68 -107 3084 0
-3085 30 0
-3085 69 0
-3085 108 0
-30 -69 -108 3085 0
-3086 31 0
-3086 70 0
-3086 109 0
-31 -70 -109 3086 0
-3087 32 0
-3087 71 0
-3087 110 0
-32 -71 -110 3087 0
-3088 33 0
-3088 72 0
-3088 111 0
-33 -72 -111 3088 0
-3089 34 0
-3089 73 0
-3089 112 0
-34 -73 -112 3089 0
-3090 35 0
-3090 74 0
-3090 113 0
-35 -74 -113 3090 0
-3091 36 0
-3091 75 0
-3091 114 0
-36 -75 -114 3091 0
-3092 37 0
-3092 76 0
-3092 115 0
-37 -76 -115 3092 0
-3093 38 0
-3093 77 0
-3093 116 0
-38 -77 -116 3093 0
-3094 39 0
-3094 78 0
-3094 117 0
-39 -78 -117 3094 0
-3082 5120 0
-3083 5120 0
-3084 5120 0
-3085 5120 0
-3086 5120 0
-3087 5120 0
-3088 5120 0
-3089 5120 0
-3090 5120 0
-3091 5120 0
-3092 5120 0
-3093 5120 0
-3094 5120 0
-5120 3082 3083 3084 3085 3086 3087 3088 3089 3090 3091 3092 3093 3094 0
-3095 27 0
-3095 66 0
-3095 118 0
-27 -66 -118 3095 0
-3096 28 0
-3096 67 0
-3096 119 0
-28 -67 -119 3096 0
-3097 29 0
-3097 68 0
-3097 120 0
-29 -68 -120 3097 0
-3098 30 0
-3098 69 0
-3098 121 0
-30 -69 -121 3098 0
-3099 31 0
-3099 70 0
-3099 122 0
-31 -70 -122 3099 0
-3100 32 0
-3100 71 0
-3100 123 0
-32 -71 -123 3100 0
-3101 33 0
-3101 72 0
-3101 124 0
-33 -72 -124 3101 0
-3102 34 0
-3102 73 0
-3102 125 0
-34 -73 -125 3102 0
-3103 35 0
-3103 74 0
-3103 126 0
-35 -74 -126 3103 0
-3104 36 0
-3104 75 0
-3104 127 0
-36 -75 -127 3104 0
-3105 37 0
-3105 76 0
-3105 128 0
-37 -76 -128 3105 0
-3106 38 0
-3106 77 0
-3106 129 0
-38 -77 -129 3106 0
-3107 39 0
-3107 78 0
-3107 130 0
-39 -78 -130 3107 0
-3095 5121 0
-3096 5121 0
-3097 5121 0
-3098 5121 0
-3099 5121 0
-3100 5121 0
-3101 5121 0
-3102 5121 0
-3103 5121 0
-3104 5121 0
-3105 5121 0
-3106 5121 0
-3107 5121 0
-5121 3095 3096 3097 3098 3099 3100 3101 3102 3103 3104 3105 3106 3107 0
-3108 27 0
-3108 66 0
-3108 131 0
-27 -66 -131 3108 0
-3109 28 0
-3109 67 0
-3109 132 0
-28 -67 -132 3109 0
-3110 29 0
-3110 68 0
-3110 133 0
-29 -68 -133 3110 0
-3111 30 0
-3111 69 0
-3111 134 0
-30 -69 -134 3111 0
-3112 31 0
-3112 70 0
-3112 135 0
-31 -70 -135 3112 0
-3113 32 0
-3113 71 0
-3113 136 0
-32 -71 -136 3113 0
-3114 33 0
-3114 72 0
-3114 137 0
-33 -72 -137 3114 0
-3115 34 0
-3115 73 0
-3115 138 0
-34 -73 -138 3115 0
-3116 35 0
-3116 74 0
-3116 139 0
-35 -74 -139 3116 0
-3117 36 0
-3117 75 0
-3117 140 0
-36 -75 -140 3117 0
-3118 37 0
-3118 76 0
-3118 141 0
-37 -76 -141 3118 0
-3119 38 0
-3119 77 0
-3119 142 0
-38 -77 -142 3119 0
-3120 39 0
-3120 78 0
-3120 143 0
-39 -78 -143 3120 0
-3108 5122 0
-3109 5122 0
-3110 5122 0
-3111 5122 0
-3112 5122 0
-3113 5122 0
-3114 5122 0
-3115 5122 0
-3116 5122 0
-3117 5122 0
-3118 5122 0
-3119 5122 0
-3120 5122 0
-5122 3108 3109 3110 3111 3112 3113 3114 3115 3116 3117 3118 3119 3120 0
-3121 27 0
-3121 66 0
-3121 144 0
-27 -66 -144 3121 0
-3122 28 0
-3122 67 0
-3122 145 0
-28 -67 -145 3122 0
-3123 29 0
-3123 68 0
-3123 146 0
-29 -68 -146 3123 0
-3124 30 0
-3124 69 0
-3124 147 0
-30 -69 -147 3124 0
-3125 31 0
-3125 70 0
-3125 148 0
-31 -70 -148 3125 0
-3126 32 0
-3126 71 0
-3126 149 0
-32 -71 -149 3126 0
-3127 33 0
-3127 72 0
-3127 150 0
-33 -72 -150 3127 0
-3128 34 0
-3128 73 0
-3128 151 0
-34 -73 -151 3128 0
-3129 35 0
-3129 74 0
-3129 152 0
-35 -74 -152 3129 0
-3130 36 0
-3130 75 0
-3130 153 0
-36 -75 -153 3130 0
-3131 37 0
-3131 76 0
-3131 154 0
-37 -76 -154 3131 0
-3132 38 0
-3132 77 0
-3132 155 0
-38 -77 -155 3132 0
-3133 39 0
-3133 78 0
-3133 156 0
-39 -78 -156 3133 0
-3121 5123 0
-3122 5123 0
-3123 5123 0
-3124 5123 0
-3125 5123 0
-3126 5123 0
-3127 5123 0
-3128 5123 0
-3129 5123 0
-3130 5123 0
-3131 5123 0
-3132 5123 0
-3133 5123 0
-5123 3121 3122 3123 3124 3125 3126 3127 3128 3129 3130 3131 3132 3133 0
-3134 27 0
-3134 66 0
-3134 157 0
-27 -66 -157 3134 0
-3135 28 0
-3135 67 0
-3135 158 0
-28 -67 -158 3135 0
-3136 29 0
-3136 68 0
-3136 159 0
-29 -68 -159 3136 0
-3137 30 0
-3137 69 0
-3137 160 0
-30 -69 -160 3137 0
-3138 31 0
-3138 70 0
-3138 161 0
-31 -70 -161 3138 0
-3139 32 0
-3139 71 0
-3139 162 0
-32 -71 -162 3139 0
-3140 33 0
-3140 72 0
-3140 163 0
-33 -72 -163 3140 0
-3141 34 0
-3141 73 0
-3141 164 0
-34 -73 -164 3141 0
-3142 35 0
-3142 74 0
-3142 165 0
-35 -74 -165 3142 0
-3143 36 0
-3143 75 0
-3143 166 0
-36 -75 -166 3143 0
-3144 37 0
-3144 76 0
-3144 167 0
-37 -76 -167 3144 0
-3145 38 0
-3145 77 0
-3145 168 0
-38 -77 -168 3145 0
-3146 39 0
-3146 78 0
-3146 169 0
-39 -78 -169 3146 0
-3134 5124 0
-3135 5124 0
-3136 5124 0
-3137 5124 0
-3138 5124 0
-3139 5124 0
-3140 5124 0
-3141 5124 0
-3142 5124 0
-3143 5124 0
-3144 5124 0
-3145 5124 0
-3146 5124 0
-5124 3134 3135 3136 3137 3138 3139 3140 3141 3142 3143 3144 3145 3146 0
-3147 27 0
-3147 79 0
-3147 92 0
-27 -79 -92 3147 0
-3148 28 0
-3148 80 0
-3148 93 0
-28 -80 -93 3148 0
-3149 29 0
-3149 81 0
-3149 94 0
-29 -81 -94 3149 0
-3150 30 0
-3150 82 0
-3150 95 0
-30 -82 -95 3150 0
-3151 31 0
-3151 83 0
-3151 96 0
-31 -83 -96 3151 0
-3152 32 0
-3152 84 0
-3152 97 0
-32 -84 -97 3152 0
-3153 33 0
-3153 85 0
-3153 98 0
-33 -85 -98 3153 0
-3154 34 0
-3154 86 0
-3154 99 0
-34 -86 -99 3154 0
-3155 35 0
-3155 87 0
-3155 100 0
-35 -87 -100 3155 0
-3156 36 0
-3156 88 0
-3156 101 0
-36 -88 -101 3156 0
-3157 37 0
-3157 89 0
-3157 102 0
-37 -89 -102 3157 0
-3158 38 0
-3158 90 0
-3158 103 0
-38 -90 -103 3158 0
-3159 39 0
-3159 91 0
-3159 104 0
-39 -91 -104 3159 0
-3147 5125 0
-3148 5125 0
-3149 5125 0
-3150 5125 0
-3151 5125 0
-3152 5125 0
-3153 5125 0
-3154 5125 0
-3155 5125 0
-3156 5125 0
-3157 5125 0
-3158 5125 0
-3159 5125 0
-5125 3147 3148 3149 3150 3151 3152 3153 3154 3155 3156 3157 3158 3159 0
-3160 27 0
-3160 79 0
-3160 105 0
-27 -79 -105 3160 0
-3161 28 0
-3161 80 0
-3161 106 0
-28 -80 -106 3161 0
-3162 29 0
-3162 81 0
-3162 107 0
-29 -81 -107 3162 0
-3163 30 0
-3163 82 0
-3163 108 0
-30 -82 -108 3163 0
-3164 31 0
-3164 83 0
-3164 109 0
-31 -83 -109 3164 0
-3165 32 0
-3165 84 0
-3165 110 0
-32 -84 -110 3165 0
-3166 33 0
-3166 85 0
-3166 111 0
-33 -85 -111 3166 0
-3167 34 0
-3167 86 0
-3167 112 0
-34 -86 -112 3167 0
-3168 35 0
-3168 87 0
-3168 113 0
-35 -87 -113 3168 0
-3169 36 0
-3169 88 0
-3169 114 0
-36 -88 -114 3169 0
-3170 37 0
-3170 89 0
-3170 115 0
-37 -89 -115 3170 0
-3171 38 0
-3171 90 0
-3171 116 0
-38 -90 -116 3171 0
-3172 39 0
-3172 91 0
-3172 117 0
-39 -91 -117 3172 0
-3160 5126 0
-3161 5126 0
-3162 5126 0
-3163 5126 0
-3164 5126 0
-3165 5126 0
-3166 5126 0
-3167 5126 0
-3168 5126 0
-3169 5126 0
-3170 5126 0
-3171 5126 0
-3172 5126 0
-5126 3160 3161 3162 3163 3164 3165 3166 3167 3168 3169 3170 3171 3172 0
-3173 27 0
-3173 79 0
-3173 118 0
-27 -79 -118 3173 0
-3174 28 0
-3174 80 0
-3174 119 0
-28 -80 -119 3174 0
-3175 29 0
-3175 81 0
-3175 120 0
-29 -81 -120 3175 0
-3176 30 0
-3176 82 0
-3176 121 0
-30 -82 -121 3176 0
-3177 31 0
-3177 83 0
-3177 122 0
-31 -83 -122 3177 0
-3178 32 0
-3178 84 0
-3178 123 0
-32 -84 -123 3178 0
-3179 33 0
-3179 85 0
-3179 124 0
-33 -85 -124 3179 0
-3180 34 0
-3180 86 0
-3180 125 0
-34 -86 -125 3180 0
-3181 35 0
-3181 87 0
-3181 126 0
-35 -87 -126 3181 0
-3182 36 0
-3182 88 0
-3182 127 0
-36 -88 -127 3182 0
-3183 37 0
-3183 89 0
-3183 128 0
-37 -89 -128 3183 0
-3184 38 0
-3184 90 0
-3184 129 0
-38 -90 -129 3184 0
-3185 39 0
-3185 91 0
-3185 130 0
-39 -91 -130 3185 0
-3173 5127 0
-3174 5127 0
-3175 5127 0
-3176 5127 0
-3177 5127 0
-3178 5127 0
-3179 5127 0
-3180 5127 0
-3181 5127 0
-3182 5127 0
-3183 5127 0
-3184 5127 0
-3185 5127 0
-5127 3173 3174 3175 3176 3177 3178 3179 3180 3181 3182 3183 3184 3185 0
-3186 27 0
-3186 79 0
-3186 131 0
-27 -79 -131 3186 0
-3187 28 0
-3187 80 0
-3187 132 0
-28 -80 -132 3187 0
-3188 29 0
-3188 81 0
-3188 133 0
-29 -81 -133 3188 0
-3189 30 0
-3189 82 0
-3189 134 0
-30 -82 -134 3189 0
-3190 31 0
-3190 83 0
-3190 135 0
-31 -83 -135 3190 0
-3191 32 0
-3191 84 0
-3191 136 0
-32 -84 -136 3191 0
-3192 33 0
-3192 85 0
-3192 137 0
-33 -85 -137 3192 0
-3193 34 0
-3193 86 0
-3193 138 0
-34 -86 -138 3193 0
-3194 35 0
-3194 87 0
-3194 139 0
-35 -87 -139 3194 0
-3195 36 0
-3195 88 0
-3195 140 0
-36 -88 -140 3195 0
-3196 37 0
-3196 89 0
-3196 141 0
-37 -89 -141 3196 0
-3197 38 0
-3197 90 0
-3197 142 0
-38 -90 -142 3197 0
-3198 39 0
-3198 91 0
-3198 143 0
-39 -91 -143 3198 0
-3186 5128 0
-3187 5128 0
-3188 5128 0
-3189 5128 0
-3190 5128 0
-3191 5128 0
-3192 5128 0
-3193 5128 0
-3194 5128 0
-3195 5128 0
-3196 5128 0
-3197 5128 0
-3198 5128 0
-5128 3186 3187 3188 3189 3190 3191 3192 3193 3194 3195 3196 3197 3198 0
-3199 27 0
-3199 79 0
-3199 144 0
-27 -79 -144 3199 0
-3200 28 0
-3200 80 0
-3200 145 0
-28 -80 -145 3200 0
-3201 29 0
-3201 81 0
-3201 146 0
-29 -81 -146 3201 0
-3202 30 0
-3202 82 0
-3202 147 0
-30 -82 -147 3202 0
-3203 31 0
-3203 83 0
-3203 148 0
-31 -83 -148 3203 0
-3204 32 0
-3204 84 0
-3204 149 0
-32 -84 -149 3204 0
-3205 33 0
-3205 85 0
-3205 150 0
-33 -85 -150 3205 0
-3206 34 0
-3206 86 0
-3206 151 0
-34 -86 -151 3206 0
-3207 35 0
-3207 87 0
-3207 152 0
-35 -87 -152 3207 0
-3208 36 0
-3208 88 0
-3208 153 0
-36 -88 -153 3208 0
-3209 37 0
-3209 89 0
-3209 154 0
-37 -89 -154 3209 0
-3210 38 0
-3210 90 0
-3210 155 0
-38 -90 -155 3210 0
-3211 39 0
-3211 91 0
-3211 156 0
-39 -91 -156 3211 0
-3199 5129 0
-3200 5129 0
-3201 5129 0
-3202 5129 0
-3203 5129 0
-3204 5129 0
-3205 5129 0
-3206 5129 0
-3207 5129 0
-3208 5129 0
-3209 5129 0
-3210 5129 0
-3211 5129 0
-5129 3199 3200 3201 3202 3203 3204 3205 3206 3207 3208 3209 3210 3211 0
-3212 27 0
-3212 79 0
-3212 157 0
-27 -79 -157 3212 0
-3213 28 0
-3213 80 0
-3213 158 0
-28 -80 -158 3213 0
-3214 29 0
-3214 81 0
-3214 159 0
-29 -81 -159 3214 0
-3215 30 0
-3215 82 0
-3215 160 0
-30 -82 -160 3215 0
-3216 31 0
-3216 83 0
-3216 161 0
-31 -83 -161 3216 0
-3217 32 0
-3217 84 0
-3217 162 0
-32 -84 -162 3217 0
-3218 33 0
-3218 85 0
-3218 163 0
-33 -85 -163 3218 0
-3219 34 0
-3219 86 0
-3219 164 0
-34 -86 -164 3219 0
-3220 35 0
-3220 87 0
-3220 165 0
-35 -87 -165 3220 0
-3221 36 0
-3221 88 0
-3221 166 0
-36 -88 -166 3221 0
-3222 37 0
-3222 89 0
-3222 167 0
-37 -89 -167 3222 0
-3223 38 0
-3223 90 0
-3223 168 0
-38 -90 -168 3223 0
-3224 39 0
-3224 91 0
-3224 169 0
-39 -91 -169 3224 0
-3212 5130 0
-3213 5130 0
-3214 5130 0
-3215 5130 0
-3216 5130 0
-3217 5130 0
-3218 5130 0
-3219 5130 0
-3220 5130 0
-3221 5130 0
-3222 5130 0
-3223 5130 0
-3224 5130 0
-5130 3212 3213 3214 3215 3216 3217 3218 3219 3220 3221 3222 3223 3224 0
-3225 27 0
-3225 92 0
-3225 105 0
-27 -92 -105 3225 0
-3226 28 0
-3226 93 0
-3226 106 0
-28 -93 -106 3226 0
-3227 29 0
-3227 94 0
-3227 107 0
-29 -94 -107 3227 0
-3228 30 0
-3228 95 0
-3228 108 0
-30 -95 -108 3228 0
-3229 31 0
-3229 96 0
-3229 109 0
-31 -96 -109 3229 0
-3230 32 0
-3230 97 0
-3230 110 0
-32 -97 -110 3230 0
-3231 33 0
-3231 98 0
-3231 111 0
-33 -98 -111 3231 0
-3232 34 0
-3232 99 0
-3232 112 0
-34 -99 -112 3232 0
-3233 35 0
-3233 100 0
-3233 113 0
-35 -100 -113 3233 0
-3234 36 0
-3234 101 0
-3234 114 0
-36 -101 -114 3234 0
-3235 37 0
-3235 102 0
-3235 115 0
-37 -102 -115 3235 0
-3236 38 0
-3236 103 0
-3236 116 0
-38 -103 -116 3236 0
-3237 39 0
-3237 104 0
-3237 117 0
-39 -104 -117 3237 0
-3225 5131 0
-3226 5131 0
-3227 5131 0
-3228 5131 0
-3229 5131 0
-3230 5131 0
-3231 5131 0
-3232 5131 0
-3233 5131 0
-3234 5131 0
-3235 5131 0
-3236 5131 0
-3237 5131 0
-5131 3225 3226 3227 3228 3229 3230 3231 3232 3233 3234 3235 3236 3237 0
-3238 27 0
-3238 92 0
-3238 118 0
-27 -92 -118 3238 0
-3239 28 0
-3239 93 0
-3239 119 0
-28 -93 -119 3239 0
-3240 29 0
-3240 94 0
-3240 120 0
-29 -94 -120 3240 0
-3241 30 0
-3241 95 0
-3241 121 0
-30 -95 -121 3241 0
-3242 31 0
-3242 96 0
-3242 122 0
-31 -96 -122 3242 0
-3243 32 0
-3243 97 0
-3243 123 0
-32 -97 -123 3243 0
-3244 33 0
-3244 98 0
-3244 124 0
-33 -98 -124 3244 0
-3245 34 0
-3245 99 0
-3245 125 0
-34 -99 -125 3245 0
-3246 35 0
-3246 100 0
-3246 126 0
-35 -100 -126 3246 0
-3247 36 0
-3247 101 0
-3247 127 0
-36 -101 -127 3247 0
-3248 37 0
-3248 102 0
-3248 128 0
-37 -102 -128 3248 0
-3249 38 0
-3249 103 0
-3249 129 0
-38 -103 -129 3249 0
-3250 39 0
-3250 104 0
-3250 130 0
-39 -104 -130 3250 0
-3238 5132 0
-3239 5132 0
-3240 5132 0
-3241 5132 0
-3242 5132 0
-3243 5132 0
-3244 5132 0
-3245 5132 0
-3246 5132 0
-3247 5132 0
-3248 5132 0
-3249 5132 0
-3250 5132 0
-5132 3238 3239 3240 3241 3242 3243 3244 3245 3246 3247 3248 3249 3250 0
-3251 27 0
-3251 92 0
-3251 131 0
-27 -92 -131 3251 0
-3252 28 0
-3252 93 0
-3252 132 0
-28 -93 -132 3252 0
-3253 29 0
-3253 94 0
-3253 133 0
-29 -94 -133 3253 0
-3254 30 0
-3254 95 0
-3254 134 0
-30 -95 -134 3254 0
-3255 31 0
-3255 96 0
-3255 135 0
-31 -96 -135 3255 0
-3256 32 0
-3256 97 0
-3256 136 0
-32 -97 -136 3256 0
-3257 33 0
-3257 98 0
-3257 137 0
-33 -98 -137 3257 0
-3258 34 0
-3258 99 0
-3258 138 0
-34 -99 -138 3258 0
-3259 35 0
-3259 100 0
-3259 139 0
-35 -100 -139 3259 0
-3260 36 0
-3260 101 0
-3260 140 0
-36 -101 -140 3260 0
-3261 37 0
-3261 102 0
-3261 141 0
-37 -102 -141 3261 0
-3262 38 0
-3262 103 0
-3262 142 0
-38 -103 -142 3262 0
-3263 39 0
-3263 104 0
-3263 143 0
-39 -104 -143 3263 0
-3251 5133 0
-3252 5133 0
-3253 5133 0
-3254 5133 0
-3255 5133 0
-3256 5133 0
-3257 5133 0
-3258 5133 0
-3259 5133 0
-3260 5133 0
-3261 5133 0
-3262 5133 0
-3263 5133 0
-5133 3251 3252 3253 3254 3255 3256 3257 3258 3259 3260 3261 3262 3263 0
-3264 27 0
-3264 92 0
-3264 144 0
-27 -92 -144 3264 0
-3265 28 0
-3265 93 0
-3265 145 0
-28 -93 -145 3265 0
-3266 29 0
-3266 94 0
-3266 146 0
-29 -94 -146 3266 0
-3267 30 0
-3267 95 0
-3267 147 0
-30 -95 -147 3267 0
-3268 31 0
-3268 96 0
-3268 148 0
-31 -96 -148 3268 0
-3269 32 0
-3269 97 0
-3269 149 0
-32 -97 -149 3269 0
-3270 33 0
-3270 98 0
-3270 150 0
-33 -98 -150 3270 0
-3271 34 0
-3271 99 0
-3271 151 0
-34 -99 -151 3271 0
-3272 35 0
-3272 100 0
-3272 152 0
-35 -100 -152 3272 0
-3273 36 0
-3273 101 0
-3273 153 0
-36 -101 -153 3273 0
-3274 37 0
-3274 102 0
-3274 154 0
-37 -102 -154 3274 0
-3275 38 0
-3275 103 0
-3275 155 0
-38 -103 -155 3275 0
-3276 39 0
-3276 104 0
-3276 156 0
-39 -104 -156 3276 0
-3264 5134 0
-3265 5134 0
-3266 5134 0
-3267 5134 0
-3268 5134 0
-3269 5134 0
-3270 5134 0
-3271 5134 0
-3272 5134 0
-3273 5134 0
-3274 5134 0
-3275 5134 0
-3276 5134 0
-5134 3264 3265 3266 3267 3268 3269 3270 3271 3272 3273 3274 3275 3276 0
-3277 27 0
-3277 92 0
-3277 157 0
-27 -92 -157 3277 0
-3278 28 0
-3278 93 0
-3278 158 0
-28 -93 -158 3278 0
-3279 29 0
-3279 94 0
-3279 159 0
-29 -94 -159 3279 0
-3280 30 0
-3280 95 0
-3280 160 0
-30 -95 -160 3280 0
-3281 31 0
-3281 96 0
-3281 161 0
-31 -96 -161 3281 0
-3282 32 0
-3282 97 0
-3282 162 0
-32 -97 -162 3282 0
-3283 33 0
-3283 98 0
-3283 163 0
-33 -98 -163 3283 0
-3284 34 0
-3284 99 0
-3284 164 0
-34 -99 -164 3284 0
-3285 35 0
-3285 100 0
-3285 165 0
-35 -100 -165 3285 0
-3286 36 0
-3286 101 0
-3286 166 0
-36 -101 -166 3286 0
-3287 37 0
-3287 102 0
-3287 167 0
-37 -102 -167 3287 0
-3288 38 0
-3288 103 0
-3288 168 0
-38 -103 -168 3288 0
-3289 39 0
-3289 104 0
-3289 169 0
-39 -104 -169 3289 0
-3277 5135 0
-3278 5135 0
-3279 5135 0
-3280 5135 0
-3281 5135 0
-3282 5135 0
-3283 5135 0
-3284 5135 0
-3285 5135 0
-3286 5135 0
-3287 5135 0
-3288 5135 0
-3289 5135 0
-5135 3277 3278 3279 3280 3281 3282 3283 3284 3285 3286 3287 3288 3289 0
-3290 27 0
-3290 105 0
-3290 118 0
-27 -105 -118 3290 0
-3291 28 0
-3291 106 0
-3291 119 0
-28 -106 -119 3291 0
-3292 29 0
-3292 107 0
-3292 120 0
-29 -107 -120 3292 0
-3293 30 0
-3293 108 0
-3293 121 0
-30 -108 -121 3293 0
-3294 31 0
-3294 109 0
-3294 122 0
-31 -109 -122 3294 0
-3295 32 0
-3295 110 0
-3295 123 0
-32 -110 -123 3295 0
-3296 33 0
-3296 111 0
-3296 124 0
-33 -111 -124 3296 0
-3297 34 0
-3297 112 0
-3297 125 0
-34 -112 -125 3297 0
-3298 35 0
-3298 113 0
-3298 126 0
-35 -113 -126 3298 0
-3299 36 0
-3299 114 0
-3299 127 0
-36 -114 -127 3299 0
-3300 37 0
-3300 115 0
-3300 128 0
-37 -115 -128 3300 0
-3301 38 0
-3301 116 0
-3301 129 0
-38 -116 -129 3301 0
-3302 39 0
-3302 117 0
-3302 130 0
-39 -117 -130 3302 0
-3290 5136 0
-3291 5136 0
-3292 5136 0
-3293 5136 0
-3294 5136 0
-3295 5136 0
-3296 5136 0
-3297 5136 0
-3298 5136 0
-3299 5136 0
-3300 5136 0
-3301 5136 0
-3302 5136 0
-5136 3290 3291 3292 3293 3294 3295 3296 3297 3298 3299 3300 3301 3302 0
-3303 27 0
-3303 105 0
-3303 131 0
-27 -105 -131 3303 0
-3304 28 0
-3304 106 0
-3304 132 0
-28 -106 -132 3304 0
-3305 29 0
-3305 107 0
-3305 133 0
-29 -107 -133 3305 0
-3306 30 0
-3306 108 0
-3306 134 0
-30 -108 -134 3306 0
-3307 31 0
-3307 109 0
-3307 135 0
-31 -109 -135 3307 0
-3308 32 0
-3308 110 0
-3308 136 0
-32 -110 -136 3308 0
-3309 33 0
-3309 111 0
-3309 137 0
-33 -111 -137 3309 0
-3310 34 0
-3310 112 0
-3310 138 0
-34 -112 -138 3310 0
-3311 35 0
-3311 113 0
-3311 139 0
-35 -113 -139 3311 0
-3312 36 0
-3312 114 0
-3312 140 0
-36 -114 -140 3312 0
-3313 37 0
-3313 115 0
-3313 141 0
-37 -115 -141 3313 0
-3314 38 0
-3314 116 0
-3314 142 0
-38 -116 -142 3314 0
-3315 39 0
-3315 117 0
-3315 143 0
-39 -117 -143 3315 0
-3303 5137 0
-3304 5137 0
-3305 5137 0
-3306 5137 0
-3307 5137 0
-3308 5137 0
-3309 5137 0
-3310 5137 0
-3311 5137 0
-3312 5137 0
-3313 5137 0
-3314 5137 0
-3315 5137 0
-5137 3303 3304 3305 3306 3307 3308 3309 3310 3311 3312 3313 3314 3315 0
-3316 27 0
-3316 105 0
-3316 144 0
-27 -105 -144 3316 0
-3317 28 0
-3317 106 0
-3317 145 0
-28 -106 -145 3317 0
-3318 29 0
-3318 107 0
-3318 146 0
-29 -107 -146 3318 0
-3319 30 0
-3319 108 0
-3319 147 0
-30 -108 -147 3319 0
-3320 31 0
-3320 109 0
-3320 148 0
-31 -109 -148 3320 0
-3321 32 0
-3321 110 0
-3321 149 0
-32 -110 -149 3321 0
-3322 33 0
-3322 111 0
-3322 150 0
-33 -111 -150 3322 0
-3323 34 0
-3323 112 0
-3323 151 0
-34 -112 -151 3323 0
-3324 35 0
-3324 113 0
-3324 152 0
-35 -113 -152 3324 0
-3325 36 0
-3325 114 0
-3325 153 0
-36 -114 -153 3325 0
-3326 37 0
-3326 115 0
-3326 154 0
-37 -115 -154 3326 0
-3327 38 0
-3327 116 0
-3327 155 0
-38 -116 -155 3327 0
-3328 39 0
-3328 117 0
-3328 156 0
-39 -117 -156 3328 0
-3316 5138 0
-3317 5138 0
-3318 5138 0
-3319 5138 0
-3320 5138 0
-3321 5138 0
-3322 5138 0
-3323 5138 0
-3324 5138 0
-3325 5138 0
-3326 5138 0
-3327 5138 0
-3328 5138 0
-5138 3316 3317 3318 3319 3320 3321 3322 3323 3324 3325 3326 3327 3328 0
-3329 27 0
-3329 105 0
-3329 157 0
-27 -105 -157 3329 0
-3330 28 0
-3330 106 0
-3330 158 0
-28 -106 -158 3330 0
-3331 29 0
-3331 107 0
-3331 159 0
-29 -107 -159 3331 0
-3332 30 0
-3332 108 0
-3332 160 0
-30 -108 -160 3332 0
-3333 31 0
-3333 109 0
-3333 161 0
-31 -109 -161 3333 0
-3334 32 0
-3334 110 0
-3334 162 0
-32 -110 -162 3334 0
-3335 33 0
-3335 111 0
-3335 163 0
-33 -111 -163 3335 0
-3336 34 0
-3336 112 0
-3336 164 0
-34 -112 -164 3336 0
-3337 35 0
-3337 113 0
-3337 165 0
-35 -113 -165 3337 0
-3338 36 0
-3338 114 0
-3338 166 0
-36 -114 -166 3338 0
-3339 37 0
-3339 115 0
-3339 167 0
-37 -115 -167 3339 0
-3340 38 0
-3340 116 0
-3340 168 0
-38 -116 -168 3340 0
-3341 39 0
-3341 117 0
-3341 169 0
-39 -117 -169 3341 0
-3329 5139 0
-3330 5139 0
-3331 5139 0
-3332 5139 0
-3333 5139 0
-3334 5139 0
-3335 5139 0
-3336 5139 0
-3337 5139 0
-3338 5139 0
-3339 5139 0
-3340 5139 0
-3341 5139 0
-5139 3329 3330 3331 3332 3333 3334 3335 3336 3337 3338 3339 3340 3341 0
-3342 27 0
-3342 118 0
-3342 131 0
-27 -118 -131 3342 0
-3343 28 0
-3343 119 0
-3343 132 0
-28 -119 -132 3343 0
-3344 29 0
-3344 120 0
-3344 133 0
-29 -120 -133 3344 0
-3345 30 0
-3345 121 0
-3345 134 0
-30 -121 -134 3345 0
-3346 31 0
-3346 122 0
-3346 135 0
-31 -122 -135 3346 0
-3347 32 0
-3347 123 0
-3347 136 0
-32 -123 -136 3347 0
-3348 33 0
-3348 124 0
-3348 137 0
-33 -124 -137 3348 0
-3349 34 0
-3349 125 0
-3349 138 0
-34 -125 -138 3349 0
-3350 35 0
-3350 126 0
-3350 139 0
-35 -126 -139 3350 0
-3351 36 0
-3351 127 0
-3351 140 0
-36 -127 -140 3351 0
-3352 37 0
-3352 128 0
-3352 141 0
-37 -128 -141 3352 0
-3353 38 0
-3353 129 0
-3353 142 0
-38 -129 -142 3353 0
-3354 39 0
-3354 130 0
-3354 143 0
-39 -130 -143 3354 0
-3342 5140 0
-3343 5140 0
-3344 5140 0
-3345 5140 0
-3346 5140 0
-3347 5140 0
-3348 5140 0
-3349 5140 0
-3350 5140 0
-3351 5140 0
-3352 5140 0
-3353 5140 0
-3354 5140 0
-5140 3342 3343 3344 3345 3346 3347 3348 3349 3350 3351 3352 3353 3354 0
-3355 27 0
-3355 118 0
-3355 144 0
-27 -118 -144 3355 0
-3356 28 0
-3356 119 0
-3356 145 0
-28 -119 -145 3356 0
-3357 29 0
-3357 120 0
-3357 146 0
-29 -120 -146 3357 0
-3358 30 0
-3358 121 0
-3358 147 0
-30 -121 -147 3358 0
-3359 31 0
-3359 122 0
-3359 148 0
-31 -122 -148 3359 0
-3360 32 0
-3360 123 0
-3360 149 0
-32 -123 -149 3360 0
-3361 33 0
-3361 124 0
-3361 150 0
-33 -124 -150 3361 0
-3362 34 0
-3362 125 0
-3362 151 0
-34 -125 -151 3362 0
-3363 35 0
-3363 126 0
-3363 152 0
-35 -126 -152 3363 0
-3364 36 0
-3364 127 0
-3364 153 0
-36 -127 -153 3364 0
-3365 37 0
-3365 128 0
-3365 154 0
-37 -128 -154 3365 0
-3366 38 0
-3366 129 0
-3366 155 0
-38 -129 -155 3366 0
-3367 39 0
-3367 130 0
-3367 156 0
-39 -130 -156 3367 0
-3355 5141 0
-3356 5141 0
-3357 5141 0
-3358 5141 0
-3359 5141 0
-3360 5141 0
-3361 5141 0
-3362 5141 0
-3363 5141 0
-3364 5141 0
-3365 5141 0
-3366 5141 0
-3367 5141 0
-5141 3355 3356 3357 3358 3359 3360 3361 3362 3363 3364 3365 3366 3367 0
-3368 27 0
-3368 118 0
-3368 157 0
-27 -118 -157 3368 0
-3369 28 0
-3369 119 0
-3369 158 0
-28 -119 -158 3369 0
-3370 29 0
-3370 120 0
-3370 159 0
-29 -120 -159 3370 0
-3371 30 0
-3371 121 0
-3371 160 0
-30 -121 -160 3371 0
-3372 31 0
-3372 122 0
-3372 161 0
-31 -122 -161 3372 0
-3373 32 0
-3373 123 0
-3373 162 0
-32 -123 -162 3373 0
-3374 33 0
-3374 124 0
-3374 163 0
-33 -124 -163 3374 0
-3375 34 0
-3375 125 0
-3375 164 0
-34 -125 -164 3375 0
-3376 35 0
-3376 126 0
-3376 165 0
-35 -126 -165 3376 0
-3377 36 0
-3377 127 0
-3377 166 0
-36 -127 -166 3377 0
-3378 37 0
-3378 128 0
-3378 167 0
-37 -128 -167 3378 0
-3379 38 0
-3379 129 0
-3379 168 0
-38 -129 -168 3379 0
-3380 39 0
-3380 130 0
-3380 169 0
-39 -130 -169 3380 0
-3368 5142 0
-3369 5142 0
-3370 5142 0
-3371 5142 0
-3372 5142 0
-3373 5142 0
-3374 5142 0
-3375 5142 0
-3376 5142 0
-3377 5142 0
-3378 5142 0
-3379 5142 0
-3380 5142 0
-5142 3368 3369 3370 3371 3372 3373 3374 3375 3376 3377 3378 3379 3380 0
-3381 27 0
-3381 131 0
-3381 144 0
-27 -131 -144 3381 0
-3382 28 0
-3382 132 0
-3382 145 0
-28 -132 -145 3382 0
-3383 29 0
-3383 133 0
-3383 146 0
-29 -133 -146 3383 0
-3384 30 0
-3384 134 0
-3384 147 0
-30 -134 -147 3384 0
-3385 31 0
-3385 135 0
-3385 148 0
-31 -135 -148 3385 0
-3386 32 0
-3386 136 0
-3386 149 0
-32 -136 -149 3386 0
-3387 33 0
-3387 137 0
-3387 150 0
-33 -137 -150 3387 0
-3388 34 0
-3388 138 0
-3388 151 0
-34 -138 -151 3388 0
-3389 35 0
-3389 139 0
-3389 152 0
-35 -139 -152 3389 0
-3390 36 0
-3390 140 0
-3390 153 0
-36 -140 -153 3390 0
-3391 37 0
-3391 141 0
-3391 154 0
-37 -141 -154 3391 0
-3392 38 0
-3392 142 0
-3392 155 0
-38 -142 -155 3392 0
-3393 39 0
-3393 143 0
-3393 156 0
-39 -143 -156 3393 0
-3381 5143 0
-3382 5143 0
-3383 5143 0
-3384 5143 0
-3385 5143 0
-3386 5143 0
-3387 5143 0
-3388 5143 0
-3389 5143 0
-3390 5143 0
-3391 5143 0
-3392 5143 0
-3393 5143 0
-5143 3381 3382 3383 3384 3385 3386 3387 3388 3389 3390 3391 3392 3393 0
-3394 27 0
-3394 131 0
-3394 157 0
-27 -131 -157 3394 0
-3395 28 0
-3395 132 0
-3395 158 0
-28 -132 -158 3395 0
-3396 29 0
-3396 133 0
-3396 159 0
-29 -133 -159 3396 0
-3397 30 0
-3397 134 0
-3397 160 0
-30 -134 -160 3397 0
-3398 31 0
-3398 135 0
-3398 161 0
-31 -135 -161 3398 0
-3399 32 0
-3399 136 0
-3399 162 0
-32 -136 -162 3399 0
-3400 33 0
-3400 137 0
-3400 163 0
-33 -137 -163 3400 0
-3401 34 0
-3401 138 0
-3401 164 0
-34 -138 -164 3401 0
-3402 35 0
-3402 139 0
-3402 165 0
-35 -139 -165 3402 0
-3403 36 0
-3403 140 0
-3403 166 0
-36 -140 -166 3403 0
-3404 37 0
-3404 141 0
-3404 167 0
-37 -141 -167 3404 0
-3405 38 0
-3405 142 0
-3405 168 0
-38 -142 -168 3405 0
-3406 39 0
-3406 143 0
-3406 169 0
-39 -143 -169 3406 0
-3394 5144 0
-3395 5144 0
-3396 5144 0
-3397 5144 0
-3398 5144 0
-3399 5144 0
-3400 5144 0
-3401 5144 0
-3402 5144 0
-3403 5144 0
-3404 5144 0
-3405 5144 0
-3406 5144 0
-5144 3394 3395 3396 3397 3398 3399 3400 3401 3402 3403 3404 3405 3406 0
-3407 27 0
-3407 144 0
-3407 157 0
-27 -144 -157 3407 0
-3408 28 0
-3408 145 0
-3408 158 0
-28 -145 -158 3408 0
-3409 29 0
-3409 146 0
-3409 159 0
-29 -146 -159 3409 0
-3410 30 0
-3410 147 0
-3410 160 0
-30 -147 -160 3410 0
-3411 31 0
-3411 148 0
-3411 161 0
-31 -148 -161 3411 0
-3412 32 0
-3412 149 0
-3412 162 0
-32 -149 -162 3412 0
-3413 33 0
-3413 150 0
-3413 163 0
-33 -150 -163 3413 0
-3414 34 0
-3414 151 0
-3414 164 0
-34 -151 -164 3414 0
-3415 35 0
-3415 152 0
-3415 165 0
-35 -152 -165 3415 0
-3416 36 0
-3416 153 0
-3416 166 0
-36 -153 -166 3416 0
-3417 37 0
-3417 154 0
-3417 167 0
-37 -154 -167 3417 0
-3418 38 0
-3418 155 0
-3418 168 0
-38 -155 -168 3418 0
-3419 39 0
-3419 156 0
-3419 169 0
-39 -156 -169 3419 0
-3407 5145 0
-3408 5145 0
-3409 5145 0
-3410 5145 0
-3411 5145 0
-3412 5145 0
-3413 5145 0
-3414 5145 0
-3415 5145 0
-3416 5145 0
-3417 5145 0
-3418 5145 0
-3419 5145 0
-5145 3407 3408 3409 3410 3411 3412 3413 3414 3415 3416 3417 3418 3419 0
-3420 40 0
-3420 53 0
-3420 66 0
-40 -53 -66 3420 0
-3421 41 0
-3421 54 0
-3421 67 0
-41 -54 -67 3421 0
-3422 42 0
-3422 55 0
-3422 68 0
-42 -55 -68 3422 0
-3423 43 0
-3423 56 0
-3423 69 0
-43 -56 -69 3423 0
-3424 44 0
-3424 57 0
-3424 70 0
-44 -57 -70 3424 0
-3425 45 0
-3425 58 0
-3425 71 0
-45 -58 -71 3425 0
-3426 46 0
-3426 59 0
-3426 72 0
-46 -59 -72 3426 0
-3427 47 0
-3427 60 0
-3427 73 0
-47 -60 -73 3427 0
-3428 48 0
-3428 61 0
-3428 74 0
-48 -61 -74 3428 0
-3429 49 0
-3429 62 0
-3429 75 0
-49 -62 -75 3429 0
-3430 50 0
-3430 63 0
-3430 76 0
-50 -63 -76 3430 0
-3431 51 0
-3431 64 0
-3431 77 0
-51 -64 -77 3431 0
-3432 52 0
-3432 65 0
-3432 78 0
-52 -65 -78 3432 0
-3420 5146 0
-3421 5146 0
-3422 5146 0
-3423 5146 0
-3424 5146 0
-3425 5146 0
-3426 5146 0
-3427 5146 0
-3428 5146 0
-3429 5146 0
-3430 5146 0
-3431 5146 0
-3432 5146 0
-5146 3420 3421 3422 3423 3424 3425 3426 3427 3428 3429 3430 3431 3432 0
-3433 40 0
-3433 53 0
-3433 79 0
-40 -53 -79 3433 0
-3434 41 0
-3434 54 0
-3434 80 0
-41 -54 -80 3434 0
-3435 42 0
-3435 55 0
-3435 81 0
-42 -55 -81 3435 0
-3436 43 0
-3436 56 0
-3436 82 0
-43 -56 -82 3436 0
-3437 44 0
-3437 57 0
-3437 83 0
-44 -57 -83 3437 0
-3438 45 0
-3438 58 0
-3438 84 0
-45 -58 -84 3438 0
-3439 46 0
-3439 59 0
-3439 85 0
-46 -59 -85 3439 0
-3440 47 0
-3440 60 0
-3440 86 0
-47 -60 -86 3440 0
-3441 48 0
-3441 61 0
-3441 87 0
-48 -61 -87 3441 0
-3442 49 0
-3442 62 0
-3442 88 0
-49 -62 -88 3442 0
-3443 50 0
-3443 63 0
-3443 89 0
-50 -63 -89 3443 0
-3444 51 0
-3444 64 0
-3444 90 0
-51 -64 -90 3444 0
-3445 52 0
-3445 65 0
-3445 91 0
-52 -65 -91 3445 0
-3433 5147 0
-3434 5147 0
-3435 5147 0
-3436 5147 0
-3437 5147 0
-3438 5147 0
-3439 5147 0
-3440 5147 0
-3441 5147 0
-3442 5147 0
-3443 5147 0
-3444 5147 0
-3445 5147 0
-5147 3433 3434 3435 3436 3437 3438 3439 3440 3441 3442 3443 3444 3445 0
-3446 40 0
-3446 53 0
-3446 92 0
-40 -53 -92 3446 0
-3447 41 0
-3447 54 0
-3447 93 0
-41 -54 -93 3447 0
-3448 42 0
-3448 55 0
-3448 94 0
-42 -55 -94 3448 0
-3449 43 0
-3449 56 0
-3449 95 0
-43 -56 -95 3449 0
-3450 44 0
-3450 57 0
-3450 96 0
-44 -57 -96 3450 0
-3451 45 0
-3451 58 0
-3451 97 0
-45 -58 -97 3451 0
-3452 46 0
-3452 59 0
-3452 98 0
-46 -59 -98 3452 0
-3453 47 0
-3453 60 0
-3453 99 0
-47 -60 -99 3453 0
-3454 48 0
-3454 61 0
-3454 100 0
-48 -61 -100 3454 0
-3455 49 0
-3455 62 0
-3455 101 0
-49 -62 -101 3455 0
-3456 50 0
-3456 63 0
-3456 102 0
-50 -63 -102 3456 0
-3457 51 0
-3457 64 0
-3457 103 0
-51 -64 -103 3457 0
-3458 52 0
-3458 65 0
-3458 104 0
-52 -65 -104 3458 0
-3446 5148 0
-3447 5148 0
-3448 5148 0
-3449 5148 0
-3450 5148 0
-3451 5148 0
-3452 5148 0
-3453 5148 0
-3454 5148 0
-3455 5148 0
-3456 5148 0
-3457 5148 0
-3458 5148 0
-5148 3446 3447 3448 3449 3450 3451 3452 3453 3454 3455 3456 3457 3458 0
-3459 40 0
-3459 53 0
-3459 105 0
-40 -53 -105 3459 0
-3460 41 0
-3460 54 0
-3460 106 0
-41 -54 -106 3460 0
-3461 42 0
-3461 55 0
-3461 107 0
-42 -55 -107 3461 0
-3462 43 0
-3462 56 0
-3462 108 0
-43 -56 -108 3462 0
-3463 44 0
-3463 57 0
-3463 109 0
-44 -57 -109 3463 0
-3464 45 0
-3464 58 0
-3464 110 0
-45 -58 -110 3464 0
-3465 46 0
-3465 59 0
-3465 111 0
-46 -59 -111 3465 0
-3466 47 0
-3466 60 0
-3466 112 0
-47 -60 -112 3466 0
-3467 48 0
-3467 61 0
-3467 113 0
-48 -61 -113 3467 0
-3468 49 0
-3468 62 0
-3468 114 0
-49 -62 -114 3468 0
-3469 50 0
-3469 63 0
-3469 115 0
-50 -63 -115 3469 0
-3470 51 0
-3470 64 0
-3470 116 0
-51 -64 -116 3470 0
-3471 52 0
-3471 65 0
-3471 117 0
-52 -65 -117 3471 0
-3459 5149 0
-3460 5149 0
-3461 5149 0
-3462 5149 0
-3463 5149 0
-3464 5149 0
-3465 5149 0
-3466 5149 0
-3467 5149 0
-3468 5149 0
-3469 5149 0
-3470 5149 0
-3471 5149 0
-5149 3459 3460 3461 3462 3463 3464 3465 3466 3467 3468 3469 3470 3471 0
-3472 40 0
-3472 53 0
-3472 118 0
-40 -53 -118 3472 0
-3473 41 0
-3473 54 0
-3473 119 0
-41 -54 -119 3473 0
-3474 42 0
-3474 55 0
-3474 120 0
-42 -55 -120 3474 0
-3475 43 0
-3475 56 0
-3475 121 0
-43 -56 -121 3475 0
-3476 44 0
-3476 57 0
-3476 122 0
-44 -57 -122 3476 0
-3477 45 0
-3477 58 0
-3477 123 0
-45 -58 -123 3477 0
-3478 46 0
-3478 59 0
-3478 124 0
-46 -59 -124 3478 0
-3479 47 0
-3479 60 0
-3479 125 0
-47 -60 -125 3479 0
-3480 48 0
-3480 61 0
-3480 126 0
-48 -61 -126 3480 0
-3481 49 0
-3481 62 0
-3481 127 0
-49 -62 -127 3481 0
-3482 50 0
-3482 63 0
-3482 128 0
-50 -63 -128 3482 0
-3483 51 0
-3483 64 0
-3483 129 0
-51 -64 -129 3483 0
-3484 52 0
-3484 65 0
-3484 130 0
-52 -65 -130 3484 0
-3472 5150 0
-3473 5150 0
-3474 5150 0
-3475 5150 0
-3476 5150 0
-3477 5150 0
-3478 5150 0
-3479 5150 0
-3480 5150 0
-3481 5150 0
-3482 5150 0
-3483 5150 0
-3484 5150 0
-5150 3472 3473 3474 3475 3476 3477 3478 3479 3480 3481 3482 3483 3484 0
-3485 40 0
-3485 53 0
-3485 131 0
-40 -53 -131 3485 0
-3486 41 0
-3486 54 0
-3486 132 0
-41 -54 -132 3486 0
-3487 42 0
-3487 55 0
-3487 133 0
-42 -55 -133 3487 0
-3488 43 0
-3488 56 0
-3488 134 0
-43 -56 -134 3488 0
-3489 44 0
-3489 57 0
-3489 135 0
-44 -57 -135 3489 0
-3490 45 0
-3490 58 0
-3490 136 0
-45 -58 -136 3490 0
-3491 46 0
-3491 59 0
-3491 137 0
-46 -59 -137 3491 0
-3492 47 0
-3492 60 0
-3492 138 0
-47 -60 -138 3492 0
-3493 48 0
-3493 61 0
-3493 139 0
-48 -61 -139 3493 0
-3494 49 0
-3494 62 0
-3494 140 0
-49 -62 -140 3494 0
-3495 50 0
-3495 63 0
-3495 141 0
-50 -63 -141 3495 0
-3496 51 0
-3496 64 0
-3496 142 0
-51 -64 -142 3496 0
-3497 52 0
-3497 65 0
-3497 143 0
-52 -65 -143 3497 0
-3485 5151 0
-3486 5151 0
-3487 5151 0
-3488 5151 0
-3489 5151 0
-3490 5151 0
-3491 5151 0
-3492 5151 0
-3493 5151 0
-3494 5151 0
-3495 5151 0
-3496 5151 0
-3497 5151 0
-5151 3485 3486 3487 3488 3489 3490 3491 3492 3493 3494 3495 3496 3497 0
-3498 40 0
-3498 53 0
-3498 144 0
-40 -53 -144 3498 0
-3499 41 0
-3499 54 0
-3499 145 0
-41 -54 -145 3499 0
-3500 42 0
-3500 55 0
-3500 146 0
-42 -55 -146 3500 0
-3501 43 0
-3501 56 0
-3501 147 0
-43 -56 -147 3501 0
-3502 44 0
-3502 57 0
-3502 148 0
-44 -57 -148 3502 0
-3503 45 0
-3503 58 0
-3503 149 0
-45 -58 -149 3503 0
-3504 46 0
-3504 59 0
-3504 150 0
-46 -59 -150 3504 0
-3505 47 0
-3505 60 0
-3505 151 0
-47 -60 -151 3505 0
-3506 48 0
-3506 61 0
-3506 152 0
-48 -61 -152 3506 0
-3507 49 0
-3507 62 0
-3507 153 0
-49 -62 -153 3507 0
-3508 50 0
-3508 63 0
-3508 154 0
-50 -63 -154 3508 0
-3509 51 0
-3509 64 0
-3509 155 0
-51 -64 -155 3509 0
-3510 52 0
-3510 65 0
-3510 156 0
-52 -65 -156 3510 0
-3498 5152 0
-3499 5152 0
-3500 5152 0
-3501 5152 0
-3502 5152 0
-3503 5152 0
-3504 5152 0
-3505 5152 0
-3506 5152 0
-3507 5152 0
-3508 5152 0
-3509 5152 0
-3510 5152 0
-5152 3498 3499 3500 3501 3502 3503 3504 3505 3506 3507 3508 3509 3510 0
-3511 40 0
-3511 53 0
-3511 157 0
-40 -53 -157 3511 0
-3512 41 0
-3512 54 0
-3512 158 0
-41 -54 -158 3512 0
-3513 42 0
-3513 55 0
-3513 159 0
-42 -55 -159 3513 0
-3514 43 0
-3514 56 0
-3514 160 0
-43 -56 -160 3514 0
-3515 44 0
-3515 57 0
-3515 161 0
-44 -57 -161 3515 0
-3516 45 0
-3516 58 0
-3516 162 0
-45 -58 -162 3516 0
-3517 46 0
-3517 59 0
-3517 163 0
-46 -59 -163 3517 0
-3518 47 0
-3518 60 0
-3518 164 0
-47 -60 -164 3518 0
-3519 48 0
-3519 61 0
-3519 165 0
-48 -61 -165 3519 0
-3520 49 0
-3520 62 0
-3520 166 0
-49 -62 -166 3520 0
-3521 50 0
-3521 63 0
-3521 167 0
-50 -63 -167 3521 0
-3522 51 0
-3522 64 0
-3522 168 0
-51 -64 -168 3522 0
-3523 52 0
-3523 65 0
-3523 169 0
-52 -65 -169 3523 0
-3511 5153 0
-3512 5153 0
-3513 5153 0
-3514 5153 0
-3515 5153 0
-3516 5153 0
-3517 5153 0
-3518 5153 0
-3519 5153 0
-3520 5153 0
-3521 5153 0
-3522 5153 0
-3523 5153 0
-5153 3511 3512 3513 3514 3515 3516 3517 3518 3519 3520 3521 3522 3523 0
-3524 40 0
-3524 66 0
-3524 79 0
-40 -66 -79 3524 0
-3525 41 0
-3525 67 0
-3525 80 0
-41 -67 -80 3525 0
-3526 42 0
-3526 68 0
-3526 81 0
-42 -68 -81 3526 0
-3527 43 0
-3527 69 0
-3527 82 0
-43 -69 -82 3527 0
-3528 44 0
-3528 70 0
-3528 83 0
-44 -70 -83 3528 0
-3529 45 0
-3529 71 0
-3529 84 0
-45 -71 -84 3529 0
-3530 46 0
-3530 72 0
-3530 85 0
-46 -72 -85 3530 0
-3531 47 0
-3531 73 0
-3531 86 0
-47 -73 -86 3531 0
-3532 48 0
-3532 74 0
-3532 87 0
-48 -74 -87 3532 0
-3533 49 0
-3533 75 0
-3533 88 0
-49 -75 -88 3533 0
-3534 50 0
-3534 76 0
-3534 89 0
-50 -76 -89 3534 0
-3535 51 0
-3535 77 0
-3535 90 0
-51 -77 -90 3535 0
-3536 52 0
-3536 78 0
-3536 91 0
-52 -78 -91 3536 0
-3524 5154 0
-3525 5154 0
-3526 5154 0
-3527 5154 0
-3528 5154 0
-3529 5154 0
-3530 5154 0
-3531 5154 0
-3532 5154 0
-3533 5154 0
-3534 5154 0
-3535 5154 0
-3536 5154 0
-5154 3524 3525 3526 3527 3528 3529 3530 3531 3532 3533 3534 3535 3536 0
-3537 40 0
-3537 66 0
-3537 92 0
-40 -66 -92 3537 0
-3538 41 0
-3538 67 0
-3538 93 0
-41 -67 -93 3538 0
-3539 42 0
-3539 68 0
-3539 94 0
-42 -68 -94 3539 0
-3540 43 0
-3540 69 0
-3540 95 0
-43 -69 -95 3540 0
-3541 44 0
-3541 70 0
-3541 96 0
-44 -70 -96 3541 0
-3542 45 0
-3542 71 0
-3542 97 0
-45 -71 -97 3542 0
-3543 46 0
-3543 72 0
-3543 98 0
-46 -72 -98 3543 0
-3544 47 0
-3544 73 0
-3544 99 0
-47 -73 -99 3544 0
-3545 48 0
-3545 74 0
-3545 100 0
-48 -74 -100 3545 0
-3546 49 0
-3546 75 0
-3546 101 0
-49 -75 -101 3546 0
-3547 50 0
-3547 76 0
-3547 102 0
-50 -76 -102 3547 0
-3548 51 0
-3548 77 0
-3548 103 0
-51 -77 -103 3548 0
-3549 52 0
-3549 78 0
-3549 104 0
-52 -78 -104 3549 0
-3537 5155 0
-3538 5155 0
-3539 5155 0
-3540 5155 0
-3541 5155 0
-3542 5155 0
-3543 5155 0
-3544 5155 0
-3545 5155 0
-3546 5155 0
-3547 5155 0
-3548 5155 0
-3549 5155 0
-5155 3537 3538 3539 3540 3541 3542 3543 3544 3545 3546 3547 3548 3549 0
-3550 40 0
-3550 66 0
-3550 105 0
-40 -66 -105 3550 0
-3551 41 0
-3551 67 0
-3551 106 0
-41 -67 -106 3551 0
-3552 42 0
-3552 68 0
-3552 107 0
-42 -68 -107 3552 0
-3553 43 0
-3553 69 0
-3553 108 0
-43 -69 -108 3553 0
-3554 44 0
-3554 70 0
-3554 109 0
-44 -70 -109 3554 0
-3555 45 0
-3555 71 0
-3555 110 0
-45 -71 -110 3555 0
-3556 46 0
-3556 72 0
-3556 111 0
-46 -72 -111 3556 0
-3557 47 0
-3557 73 0
-3557 112 0
-47 -73 -112 3557 0
-3558 48 0
-3558 74 0
-3558 113 0
-48 -74 -113 3558 0
-3559 49 0
-3559 75 0
-3559 114 0
-49 -75 -114 3559 0
-3560 50 0
-3560 76 0
-3560 115 0
-50 -76 -115 3560 0
-3561 51 0
-3561 77 0
-3561 116 0
-51 -77 -116 3561 0
-3562 52 0
-3562 78 0
-3562 117 0
-52 -78 -117 3562 0
-3550 5156 0
-3551 5156 0
-3552 5156 0
-3553 5156 0
-3554 5156 0
-3555 5156 0
-3556 5156 0
-3557 5156 0
-3558 5156 0
-3559 5156 0
-3560 5156 0
-3561 5156 0
-3562 5156 0
-5156 3550 3551 3552 3553 3554 3555 3556 3557 3558 3559 3560 3561 3562 0
-3563 40 0
-3563 66 0
-3563 118 0
-40 -66 -118 3563 0
-3564 41 0
-3564 67 0
-3564 119 0
-41 -67 -119 3564 0
-3565 42 0
-3565 68 0
-3565 120 0
-42 -68 -120 3565 0
-3566 43 0
-3566 69 0
-3566 121 0
-43 -69 -121 3566 0
-3567 44 0
-3567 70 0
-3567 122 0
-44 -70 -122 3567 0
-3568 45 0
-3568 71 0
-3568 123 0
-45 -71 -123 3568 0
-3569 46 0
-3569 72 0
-3569 124 0
-46 -72 -124 3569 0
-3570 47 0
-3570 73 0
-3570 125 0
-47 -73 -125 3570 0
-3571 48 0
-3571 74 0
-3571 126 0
-48 -74 -126 3571 0
-3572 49 0
-3572 75 0
-3572 127 0
-49 -75 -127 3572 0
-3573 50 0
-3573 76 0
-3573 128 0
-50 -76 -128 3573 0
-3574 51 0
-3574 77 0
-3574 129 0
-51 -77 -129 3574 0
-3575 52 0
-3575 78 0
-3575 130 0
-52 -78 -130 3575 0
-3563 5157 0
-3564 5157 0
-3565 5157 0
-3566 5157 0
-3567 5157 0
-3568 5157 0
-3569 5157 0
-3570 5157 0
-3571 5157 0
-3572 5157 0
-3573 5157 0
-3574 5157 0
-3575 5157 0
-5157 3563 3564 3565 3566 3567 3568 3569 3570 3571 3572 3573 3574 3575 0
-3576 40 0
-3576 66 0
-3576 131 0
-40 -66 -131 3576 0
-3577 41 0
-3577 67 0
-3577 132 0
-41 -67 -132 3577 0
-3578 42 0
-3578 68 0
-3578 133 0
-42 -68 -133 3578 0
-3579 43 0
-3579 69 0
-3579 134 0
-43 -69 -134 3579 0
-3580 44 0
-3580 70 0
-3580 135 0
-44 -70 -135 3580 0
-3581 45 0
-3581 71 0
-3581 136 0
-45 -71 -136 3581 0
-3582 46 0
-3582 72 0
-3582 137 0
-46 -72 -137 3582 0
-3583 47 0
-3583 73 0
-3583 138 0
-47 -73 -138 3583 0
-3584 48 0
-3584 74 0
-3584 139 0
-48 -74 -139 3584 0
-3585 49 0
-3585 75 0
-3585 140 0
-49 -75 -140 3585 0
-3586 50 0
-3586 76 0
-3586 141 0
-50 -76 -141 3586 0
-3587 51 0
-3587 77 0
-3587 142 0
-51 -77 -142 3587 0
-3588 52 0
-3588 78 0
-3588 143 0
-52 -78 -143 3588 0
-3576 5158 0
-3577 5158 0
-3578 5158 0
-3579 5158 0
-3580 5158 0
-3581 5158 0
-3582 5158 0
-3583 5158 0
-3584 5158 0
-3585 5158 0
-3586 5158 0
-3587 5158 0
-3588 5158 0
-5158 3576 3577 3578 3579 3580 3581 3582 3583 3584 3585 3586 3587 3588 0
-3589 40 0
-3589 66 0
-3589 144 0
-40 -66 -144 3589 0
-3590 41 0
-3590 67 0
-3590 145 0
-41 -67 -145 3590 0
-3591 42 0
-3591 68 0
-3591 146 0
-42 -68 -146 3591 0
-3592 43 0
-3592 69 0
-3592 147 0
-43 -69 -147 3592 0
-3593 44 0
-3593 70 0
-3593 148 0
-44 -70 -148 3593 0
-3594 45 0
-3594 71 0
-3594 149 0
-45 -71 -149 3594 0
-3595 46 0
-3595 72 0
-3595 150 0
-46 -72 -150 3595 0
-3596 47 0
-3596 73 0
-3596 151 0
-47 -73 -151 3596 0
-3597 48 0
-3597 74 0
-3597 152 0
-48 -74 -152 3597 0
-3598 49 0
-3598 75 0
-3598 153 0
-49 -75 -153 3598 0
-3599 50 0
-3599 76 0
-3599 154 0
-50 -76 -154 3599 0
-3600 51 0
-3600 77 0
-3600 155 0
-51 -77 -155 3600 0
-3601 52 0
-3601 78 0
-3601 156 0
-52 -78 -156 3601 0
-3589 5159 0
-3590 5159 0
-3591 5159 0
-3592 5159 0
-3593 5159 0
-3594 5159 0
-3595 5159 0
-3596 5159 0
-3597 5159 0
-3598 5159 0
-3599 5159 0
-3600 5159 0
-3601 5159 0
-5159 3589 3590 3591 3592 3593 3594 3595 3596 3597 3598 3599 3600 3601 0
-3602 40 0
-3602 66 0
-3602 157 0
-40 -66 -157 3602 0
-3603 41 0
-3603 67 0
-3603 158 0
-41 -67 -158 3603 0
-3604 42 0
-3604 68 0
-3604 159 0
-42 -68 -159 3604 0
-3605 43 0
-3605 69 0
-3605 160 0
-43 -69 -160 3605 0
-3606 44 0
-3606 70 0
-3606 161 0
-44 -70 -161 3606 0
-3607 45 0
-3607 71 0
-3607 162 0
-45 -71 -162 3607 0
-3608 46 0
-3608 72 0
-3608 163 0
-46 -72 -163 3608 0
-3609 47 0
-3609 73 0
-3609 164 0
-47 -73 -164 3609 0
-3610 48 0
-3610 74 0
-3610 165 0
-48 -74 -165 3610 0
-3611 49 0
-3611 75 0
-3611 166 0
-49 -75 -166 3611 0
-3612 50 0
-3612 76 0
-3612 167 0
-50 -76 -167 3612 0
-3613 51 0
-3613 77 0
-3613 168 0
-51 -77 -168 3613 0
-3614 52 0
-3614 78 0
-3614 169 0
-52 -78 -169 3614 0
-3602 5160 0
-3603 5160 0
-3604 5160 0
-3605 5160 0
-3606 5160 0
-3607 5160 0
-3608 5160 0
-3609 5160 0
-3610 5160 0
-3611 5160 0
-3612 5160 0
-3613 5160 0
-3614 5160 0
-5160 3602 3603 3604 3605 3606 3607 3608 3609 3610 3611 3612 3613 3614 0
-3615 40 0
-3615 79 0
-3615 92 0
-40 -79 -92 3615 0
-3616 41 0
-3616 80 0
-3616 93 0
-41 -80 -93 3616 0
-3617 42 0
-3617 81 0
-3617 94 0
-42 -81 -94 3617 0
-3618 43 0
-3618 82 0
-3618 95 0
-43 -82 -95 3618 0
-3619 44 0
-3619 83 0
-3619 96 0
-44 -83 -96 3619 0
-3620 45 0
-3620 84 0
-3620 97 0
-45 -84 -97 3620 0
-3621 46 0
-3621 85 0
-3621 98 0
-46 -85 -98 3621 0
-3622 47 0
-3622 86 0
-3622 99 0
-47 -86 -99 3622 0
-3623 48 0
-3623 87 0
-3623 100 0
-48 -87 -100 3623 0
-3624 49 0
-3624 88 0
-3624 101 0
-49 -88 -101 3624 0
-3625 50 0
-3625 89 0
-3625 102 0
-50 -89 -102 3625 0
-3626 51 0
-3626 90 0
-3626 103 0
-51 -90 -103 3626 0
-3627 52 0
-3627 91 0
-3627 104 0
-52 -91 -104 3627 0
-3615 5161 0
-3616 5161 0
-3617 5161 0
-3618 5161 0
-3619 5161 0
-3620 5161 0
-3621 5161 0
-3622 5161 0
-3623 5161 0
-3624 5161 0
-3625 5161 0
-3626 5161 0
-3627 5161 0
-5161 3615 3616 3617 3618 3619 3620 3621 3622 3623 3624 3625 3626 3627 0
-3628 40 0
-3628 79 0
-3628 105 0
-40 -79 -105 3628 0
-3629 41 0
-3629 80 0
-3629 106 0
-41 -80 -106 3629 0
-3630 42 0
-3630 81 0
-3630 107 0
-42 -81 -107 3630 0
-3631 43 0
-3631 82 0
-3631 108 0
-43 -82 -108 3631 0
-3632 44 0
-3632 83 0
-3632 109 0
-44 -83 -109 3632 0
-3633 45 0
-3633 84 0
-3633 110 0
-45 -84 -110 3633 0
-3634 46 0
-3634 85 0
-3634 111 0
-46 -85 -111 3634 0
-3635 47 0
-3635 86 0
-3635 112 0
-47 -86 -112 3635 0
-3636 48 0
-3636 87 0
-3636 113 0
-48 -87 -113 3636 0
-3637 49 0
-3637 88 0
-3637 114 0
-49 -88 -114 3637 0
-3638 50 0
-3638 89 0
-3638 115 0
-50 -89 -115 3638 0
-3639 51 0
-3639 90 0
-3639 116 0
-51 -90 -116 3639 0
-3640 52 0
-3640 91 0
-3640 117 0
-52 -91 -117 3640 0
-3628 5162 0
-3629 5162 0
-3630 5162 0
-3631 5162 0
-3632 5162 0
-3633 5162 0
-3634 5162 0
-3635 5162 0
-3636 5162 0
-3637 5162 0
-3638 5162 0
-3639 5162 0
-3640 5162 0
-5162 3628 3629 3630 3631 3632 3633 3634 3635 3636 3637 3638 3639 3640 0
-3641 40 0
-3641 79 0
-3641 118 0
-40 -79 -118 3641 0
-3642 41 0
-3642 80 0
-3642 119 0
-41 -80 -119 3642 0
-3643 42 0
-3643 81 0
-3643 120 0
-42 -81 -120 3643 0
-3644 43 0
-3644 82 0
-3644 121 0
-43 -82 -121 3644 0
-3645 44 0
-3645 83 0
-3645 122 0
-44 -83 -122 3645 0
-3646 45 0
-3646 84 0
-3646 123 0
-45 -84 -123 3646 0
-3647 46 0
-3647 85 0
-3647 124 0
-46 -85 -124 3647 0
-3648 47 0
-3648 86 0
-3648 125 0
-47 -86 -125 3648 0
-3649 48 0
-3649 87 0
-3649 126 0
-48 -87 -126 3649 0
-3650 49 0
-3650 88 0
-3650 127 0
-49 -88 -127 3650 0
-3651 50 0
-3651 89 0
-3651 128 0
-50 -89 -128 3651 0
-3652 51 0
-3652 90 0
-3652 129 0
-51 -90 -129 3652 0
-3653 52 0
-3653 91 0
-3653 130 0
-52 -91 -130 3653 0
-3641 5163 0
-3642 5163 0
-3643 5163 0
-3644 5163 0
-3645 5163 0
-3646 5163 0
-3647 5163 0
-3648 5163 0
-3649 5163 0
-3650 5163 0
-3651 5163 0
-3652 5163 0
-3653 5163 0
-5163 3641 3642 3643 3644 3645 3646 3647 3648 3649 3650 3651 3652 3653 0
-3654 40 0
-3654 79 0
-3654 131 0
-40 -79 -131 3654 0
-3655 41 0
-3655 80 0
-3655 132 0
-41 -80 -132 3655 0
-3656 42 0
-3656 81 0
-3656 133 0
-42 -81 -133 3656 0
-3657 43 0
-3657 82 0
-3657 134 0
-43 -82 -134 3657 0
-3658 44 0
-3658 83 0
-3658 135 0
-44 -83 -135 3658 0
-3659 45 0
-3659 84 0
-3659 136 0
-45 -84 -136 3659 0
-3660 46 0
-3660 85 0
-3660 137 0
-46 -85 -137 3660 0
-3661 47 0
-3661 86 0
-3661 138 0
-47 -86 -138 3661 0
-3662 48 0
-3662 87 0
-3662 139 0
-48 -87 -139 3662 0
-3663 49 0
-3663 88 0
-3663 140 0
-49 -88 -140 3663 0
-3664 50 0
-3664 89 0
-3664 141 0
-50 -89 -141 3664 0
-3665 51 0
-3665 90 0
-3665 142 0
-51 -90 -142 3665 0
-3666 52 0
-3666 91 0
-3666 143 0
-52 -91 -143 3666 0
-3654 5164 0
-3655 5164 0
-3656 5164 0
-3657 5164 0
-3658 5164 0
-3659 5164 0
-3660 5164 0
-3661 5164 0
-3662 5164 0
-3663 5164 0
-3664 5164 0
-3665 5164 0
-3666 5164 0
-5164 3654 3655 3656 3657 3658 3659 3660 3661 3662 3663 3664 3665 3666 0
-3667 40 0
-3667 79 0
-3667 144 0
-40 -79 -144 3667 0
-3668 41 0
-3668 80 0
-3668 145 0
-41 -80 -145 3668 0
-3669 42 0
-3669 81 0
-3669 146 0
-42 -81 -146 3669 0
-3670 43 0
-3670 82 0
-3670 147 0
-43 -82 -147 3670 0
-3671 44 0
-3671 83 0
-3671 148 0
-44 -83 -148 3671 0
-3672 45 0
-3672 84 0
-3672 149 0
-45 -84 -149 3672 0
-3673 46 0
-3673 85 0
-3673 150 0
-46 -85 -150 3673 0
-3674 47 0
-3674 86 0
-3674 151 0
-47 -86 -151 3674 0
-3675 48 0
-3675 87 0
-3675 152 0
-48 -87 -152 3675 0
-3676 49 0
-3676 88 0
-3676 153 0
-49 -88 -153 3676 0
-3677 50 0
-3677 89 0
-3677 154 0
-50 -89 -154 3677 0
-3678 51 0
-3678 90 0
-3678 155 0
-51 -90 -155 3678 0
-3679 52 0
-3679 91 0
-3679 156 0
-52 -91 -156 3679 0
-3667 5165 0
-3668 5165 0
-3669 5165 0
-3670 5165 0
-3671 5165 0
-3672 5165 0
-3673 5165 0
-3674 5165 0
-3675 5165 0
-3676 5165 0
-3677 5165 0
-3678 5165 0
-3679 5165 0
-5165 3667 3668 3669 3670 3671 3672 3673 3674 3675 3676 3677 3678 3679 0
-3680 40 0
-3680 79 0
-3680 157 0
-40 -79 -157 3680 0
-3681 41 0
-3681 80 0
-3681 158 0
-41 -80 -158 3681 0
-3682 42 0
-3682 81 0
-3682 159 0
-42 -81 -159 3682 0
-3683 43 0
-3683 82 0
-3683 160 0
-43 -82 -160 3683 0
-3684 44 0
-3684 83 0
-3684 161 0
-44 -83 -161 3684 0
-3685 45 0
-3685 84 0
-3685 162 0
-45 -84 -162 3685 0
-3686 46 0
-3686 85 0
-3686 163 0
-46 -85 -163 3686 0
-3687 47 0
-3687 86 0
-3687 164 0
-47 -86 -164 3687 0
-3688 48 0
-3688 87 0
-3688 165 0
-48 -87 -165 3688 0
-3689 49 0
-3689 88 0
-3689 166 0
-49 -88 -166 3689 0
-3690 50 0
-3690 89 0
-3690 167 0
-50 -89 -167 3690 0
-3691 51 0
-3691 90 0
-3691 168 0
-51 -90 -168 3691 0
-3692 52 0
-3692 91 0
-3692 169 0
-52 -91 -169 3692 0
-3680 5166 0
-3681 5166 0
-3682 5166 0
-3683 5166 0
-3684 5166 0
-3685 5166 0
-3686 5166 0
-3687 5166 0
-3688 5166 0
-3689 5166 0
-3690 5166 0
-3691 5166 0
-3692 5166 0
-5166 3680 3681 3682 3683 3684 3685 3686 3687 3688 3689 3690 3691 3692 0
-3693 40 0
-3693 92 0
-3693 105 0
-40 -92 -105 3693 0
-3694 41 0
-3694 93 0
-3694 106 0
-41 -93 -106 3694 0
-3695 42 0
-3695 94 0
-3695 107 0
-42 -94 -107 3695 0
-3696 43 0
-3696 95 0
-3696 108 0
-43 -95 -108 3696 0
-3697 44 0
-3697 96 0
-3697 109 0
-44 -96 -109 3697 0
-3698 45 0
-3698 97 0
-3698 110 0
-45 -97 -110 3698 0
-3699 46 0
-3699 98 0
-3699 111 0
-46 -98 -111 3699 0
-3700 47 0
-3700 99 0
-3700 112 0
-47 -99 -112 3700 0
-3701 48 0
-3701 100 0
-3701 113 0
-48 -100 -113 3701 0
-3702 49 0
-3702 101 0
-3702 114 0
-49 -101 -114 3702 0
-3703 50 0
-3703 102 0
-3703 115 0
-50 -102 -115 3703 0
-3704 51 0
-3704 103 0
-3704 116 0
-51 -103 -116 3704 0
-3705 52 0
-3705 104 0
-3705 117 0
-52 -104 -117 3705 0
-3693 5167 0
-3694 5167 0
-3695 5167 0
-3696 5167 0
-3697 5167 0
-3698 5167 0
-3699 5167 0
-3700 5167 0
-3701 5167 0
-3702 5167 0
-3703 5167 0
-3704 5167 0
-3705 5167 0
-5167 3693 3694 3695 3696 3697 3698 3699 3700 3701 3702 3703 3704 3705 0
-3706 40 0
-3706 92 0
-3706 118 0
-40 -92 -118 3706 0
-3707 41 0
-3707 93 0
-3707 119 0
-41 -93 -119 3707 0
-3708 42 0
-3708 94 0
-3708 120 0
-42 -94 -120 3708 0
-3709 43 0
-3709 95 0
-3709 121 0
-43 -95 -121 3709 0
-3710 44 0
-3710 96 0
-3710 122 0
-44 -96 -122 3710 0
-3711 45 0
-3711 97 0
-3711 123 0
-45 -97 -123 3711 0
-3712 46 0
-3712 98 0
-3712 124 0
-46 -98 -124 3712 0
-3713 47 0
-3713 99 0
-3713 125 0
-47 -99 -125 3713 0
-3714 48 0
-3714 100 0
-3714 126 0
-48 -100 -126 3714 0
-3715 49 0
-3715 101 0
-3715 127 0
-49 -101 -127 3715 0
-3716 50 0
-3716 102 0
-3716 128 0
-50 -102 -128 3716 0
-3717 51 0
-3717 103 0
-3717 129 0
-51 -103 -129 3717 0
-3718 52 0
-3718 104 0
-3718 130 0
-52 -104 -130 3718 0
-3706 5168 0
-3707 5168 0
-3708 5168 0
-3709 5168 0
-3710 5168 0
-3711 5168 0
-3712 5168 0
-3713 5168 0
-3714 5168 0
-3715 5168 0
-3716 5168 0
-3717 5168 0
-3718 5168 0
-5168 3706 3707 3708 3709 3710 3711 3712 3713 3714 3715 3716 3717 3718 0
-3719 40 0
-3719 92 0
-3719 131 0
-40 -92 -131 3719 0
-3720 41 0
-3720 93 0
-3720 132 0
-41 -93 -132 3720 0
-3721 42 0
-3721 94 0
-3721 133 0
-42 -94 -133 3721 0
-3722 43 0
-3722 95 0
-3722 134 0
-43 -95 -134 3722 0
-3723 44 0
-3723 96 0
-3723 135 0
-44 -96 -135 3723 0
-3724 45 0
-3724 97 0
-3724 136 0
-45 -97 -136 3724 0
-3725 46 0
-3725 98 0
-3725 137 0
-46 -98 -137 3725 0
-3726 47 0
-3726 99 0
-3726 138 0
-47 -99 -138 3726 0
-3727 48 0
-3727 100 0
-3727 139 0
-48 -100 -139 3727 0
-3728 49 0
-3728 101 0
-3728 140 0
-49 -101 -140 3728 0
-3729 50 0
-3729 102 0
-3729 141 0
-50 -102 -141 3729 0
-3730 51 0
-3730 103 0
-3730 142 0
-51 -103 -142 3730 0
-3731 52 0
-3731 104 0
-3731 143 0
-52 -104 -143 3731 0
-3719 5169 0
-3720 5169 0
-3721 5169 0
-3722 5169 0
-3723 5169 0
-3724 5169 0
-3725 5169 0
-3726 5169 0
-3727 5169 0
-3728 5169 0
-3729 5169 0
-3730 5169 0
-3731 5169 0
-5169 3719 3720 3721 3722 3723 3724 3725 3726 3727 3728 3729 3730 3731 0
-3732 40 0
-3732 92 0
-3732 144 0
-40 -92 -144 3732 0
-3733 41 0
-3733 93 0
-3733 145 0
-41 -93 -145 3733 0
-3734 42 0
-3734 94 0
-3734 146 0
-42 -94 -146 3734 0
-3735 43 0
-3735 95 0
-3735 147 0
-43 -95 -147 3735 0
-3736 44 0
-3736 96 0
-3736 148 0
-44 -96 -148 3736 0
-3737 45 0
-3737 97 0
-3737 149 0
-45 -97 -149 3737 0
-3738 46 0
-3738 98 0
-3738 150 0
-46 -98 -150 3738 0
-3739 47 0
-3739 99 0
-3739 151 0
-47 -99 -151 3739 0
-3740 48 0
-3740 100 0
-3740 152 0
-48 -100 -152 3740 0
-3741 49 0
-3741 101 0
-3741 153 0
-49 -101 -153 3741 0
-3742 50 0
-3742 102 0
-3742 154 0
-50 -102 -154 3742 0
-3743 51 0
-3743 103 0
-3743 155 0
-51 -103 -155 3743 0
-3744 52 0
-3744 104 0
-3744 156 0
-52 -104 -156 3744 0
-3732 5170 0
-3733 5170 0
-3734 5170 0
-3735 5170 0
-3736 5170 0
-3737 5170 0
-3738 5170 0
-3739 5170 0
-3740 5170 0
-3741 5170 0
-3742 5170 0
-3743 5170 0
-3744 5170 0
-5170 3732 3733 3734 3735 3736 3737 3738 3739 3740 3741 3742 3743 3744 0
-3745 40 0
-3745 92 0
-3745 157 0
-40 -92 -157 3745 0
-3746 41 0
-3746 93 0
-3746 158 0
-41 -93 -158 3746 0
-3747 42 0
-3747 94 0
-3747 159 0
-42 -94 -159 3747 0
-3748 43 0
-3748 95 0
-3748 160 0
-43 -95 -160 3748 0
-3749 44 0
-3749 96 0
-3749 161 0
-44 -96 -161 3749 0
-3750 45 0
-3750 97 0
-3750 162 0
-45 -97 -162 3750 0
-3751 46 0
-3751 98 0
-3751 163 0
-46 -98 -163 3751 0
-3752 47 0
-3752 99 0
-3752 164 0
-47 -99 -164 3752 0
-3753 48 0
-3753 100 0
-3753 165 0
-48 -100 -165 3753 0
-3754 49 0
-3754 101 0
-3754 166 0
-49 -101 -166 3754 0
-3755 50 0
-3755 102 0
-3755 167 0
-50 -102 -167 3755 0
-3756 51 0
-3756 103 0
-3756 168 0
-51 -103 -168 3756 0
-3757 52 0
-3757 104 0
-3757 169 0
-52 -104 -169 3757 0
-3745 5171 0
-3746 5171 0
-3747 5171 0
-3748 5171 0
-3749 5171 0
-3750 5171 0
-3751 5171 0
-3752 5171 0
-3753 5171 0
-3754 5171 0
-3755 5171 0
-3756 5171 0
-3757 5171 0
-5171 3745 3746 3747 3748 3749 3750 3751 3752 3753 3754 3755 3756 3757 0
-3758 40 0
-3758 105 0
-3758 118 0
-40 -105 -118 3758 0
-3759 41 0
-3759 106 0
-3759 119 0
-41 -106 -119 3759 0
-3760 42 0
-3760 107 0
-3760 120 0
-42 -107 -120 3760 0
-3761 43 0
-3761 108 0
-3761 121 0
-43 -108 -121 3761 0
-3762 44 0
-3762 109 0
-3762 122 0
-44 -109 -122 3762 0
-3763 45 0
-3763 110 0
-3763 123 0
-45 -110 -123 3763 0
-3764 46 0
-3764 111 0
-3764 124 0
-46 -111 -124 3764 0
-3765 47 0
-3765 112 0
-3765 125 0
-47 -112 -125 3765 0
-3766 48 0
-3766 113 0
-3766 126 0
-48 -113 -126 3766 0
-3767 49 0
-3767 114 0
-3767 127 0
-49 -114 -127 3767 0
-3768 50 0
-3768 115 0
-3768 128 0
-50 -115 -128 3768 0
-3769 51 0
-3769 116 0
-3769 129 0
-51 -116 -129 3769 0
-3770 52 0
-3770 117 0
-3770 130 0
-52 -117 -130 3770 0
-3758 5172 0
-3759 5172 0
-3760 5172 0
-3761 5172 0
-3762 5172 0
-3763 5172 0
-3764 5172 0
-3765 5172 0
-3766 5172 0
-3767 5172 0
-3768 5172 0
-3769 5172 0
-3770 5172 0
-5172 3758 3759 3760 3761 3762 3763 3764 3765 3766 3767 3768 3769 3770 0
-3771 40 0
-3771 105 0
-3771 131 0
-40 -105 -131 3771 0
-3772 41 0
-3772 106 0
-3772 132 0
-41 -106 -132 3772 0
-3773 42 0
-3773 107 0
-3773 133 0
-42 -107 -133 3773 0
-3774 43 0
-3774 108 0
-3774 134 0
-43 -108 -134 3774 0
-3775 44 0
-3775 109 0
-3775 135 0
-44 -109 -135 3775 0
-3776 45 0
-3776 110 0
-3776 136 0
-45 -110 -136 3776 0
-3777 46 0
-3777 111 0
-3777 137 0
-46 -111 -137 3777 0
-3778 47 0
-3778 112 0
-3778 138 0
-47 -112 -138 3778 0
-3779 48 0
-3779 113 0
-3779 139 0
-48 -113 -139 3779 0
-3780 49 0
-3780 114 0
-3780 140 0
-49 -114 -140 3780 0
-3781 50 0
-3781 115 0
-3781 141 0
-50 -115 -141 3781 0
-3782 51 0
-3782 116 0
-3782 142 0
-51 -116 -142 3782 0
-3783 52 0
-3783 117 0
-3783 143 0
-52 -117 -143 3783 0
-3771 5173 0
-3772 5173 0
-3773 5173 0
-3774 5173 0
-3775 5173 0
-3776 5173 0
-3777 5173 0
-3778 5173 0
-3779 5173 0
-3780 5173 0
-3781 5173 0
-3782 5173 0
-3783 5173 0
-5173 3771 3772 3773 3774 3775 3776 3777 3778 3779 3780 3781 3782 3783 0
-3784 40 0
-3784 105 0
-3784 144 0
-40 -105 -144 3784 0
-3785 41 0
-3785 106 0
-3785 145 0
-41 -106 -145 3785 0
-3786 42 0
-3786 107 0
-3786 146 0
-42 -107 -146 3786 0
-3787 43 0
-3787 108 0
-3787 147 0
-43 -108 -147 3787 0
-3788 44 0
-3788 109 0
-3788 148 0
-44 -109 -148 3788 0
-3789 45 0
-3789 110 0
-3789 149 0
-45 -110 -149 3789 0
-3790 46 0
-3790 111 0
-3790 150 0
-46 -111 -150 3790 0
-3791 47 0
-3791 112 0
-3791 151 0
-47 -112 -151 3791 0
-3792 48 0
-3792 113 0
-3792 152 0
-48 -113 -152 3792 0
-3793 49 0
-3793 114 0
-3793 153 0
-49 -114 -153 3793 0
-3794 50 0
-3794 115 0
-3794 154 0
-50 -115 -154 3794 0
-3795 51 0
-3795 116 0
-3795 155 0
-51 -116 -155 3795 0
-3796 52 0
-3796 117 0
-3796 156 0
-52 -117 -156 3796 0
-3784 5174 0
-3785 5174 0
-3786 5174 0
-3787 5174 0
-3788 5174 0
-3789 5174 0
-3790 5174 0
-3791 5174 0
-3792 5174 0
-3793 5174 0
-3794 5174 0
-3795 5174 0
-3796 5174 0
-5174 3784 3785 3786 3787 3788 3789 3790 3791 3792 3793 3794 3795 3796 0
-3797 40 0
-3797 105 0
-3797 157 0
-40 -105 -157 3797 0
-3798 41 0
-3798 106 0
-3798 158 0
-41 -106 -158 3798 0
-3799 42 0
-3799 107 0
-3799 159 0
-42 -107 -159 3799 0
-3800 43 0
-3800 108 0
-3800 160 0
-43 -108 -160 3800 0
-3801 44 0
-3801 109 0
-3801 161 0
-44 -109 -161 3801 0
-3802 45 0
-3802 110 0
-3802 162 0
-45 -110 -162 3802 0
-3803 46 0
-3803 111 0
-3803 163 0
-46 -111 -163 3803 0
-3804 47 0
-3804 112 0
-3804 164 0
-47 -112 -164 3804 0
-3805 48 0
-3805 113 0
-3805 165 0
-48 -113 -165 3805 0
-3806 49 0
-3806 114 0
-3806 166 0
-49 -114 -166 3806 0
-3807 50 0
-3807 115 0
-3807 167 0
-50 -115 -167 3807 0
-3808 51 0
-3808 116 0
-3808 168 0
-51 -116 -168 3808 0
-3809 52 0
-3809 117 0
-3809 169 0
-52 -117 -169 3809 0
-3797 5175 0
-3798 5175 0
-3799 5175 0
-3800 5175 0
-3801 5175 0
-3802 5175 0
-3803 5175 0
-3804 5175 0
-3805 5175 0
-3806 5175 0
-3807 5175 0
-3808 5175 0
-3809 5175 0
-5175 3797 3798 3799 3800 3801 3802 3803 3804 3805 3806 3807 3808 3809 0
-3810 40 0
-3810 118 0
-3810 131 0
-40 -118 -131 3810 0
-3811 41 0
-3811 119 0
-3811 132 0
-41 -119 -132 3811 0
-3812 42 0
-3812 120 0
-3812 133 0
-42 -120 -133 3812 0
-3813 43 0
-3813 121 0
-3813 134 0
-43 -121 -134 3813 0
-3814 44 0
-3814 122 0
-3814 135 0
-44 -122 -135 3814 0
-3815 45 0
-3815 123 0
-3815 136 0
-45 -123 -136 3815 0
-3816 46 0
-3816 124 0
-3816 137 0
-46 -124 -137 3816 0
-3817 47 0
-3817 125 0
-3817 138 0
-47 -125 -138 3817 0
-3818 48 0
-3818 126 0
-3818 139 0
-48 -126 -139 3818 0
-3819 49 0
-3819 127 0
-3819 140 0
-49 -127 -140 3819 0
-3820 50 0
-3820 128 0
-3820 141 0
-50 -128 -141 3820 0
-3821 51 0
-3821 129 0
-3821 142 0
-51 -129 -142 3821 0
-3822 52 0
-3822 130 0
-3822 143 0
-52 -130 -143 3822 0
-3810 5176 0
-3811 5176 0
-3812 5176 0
-3813 5176 0
-3814 5176 0
-3815 5176 0
-3816 5176 0
-3817 5176 0
-3818 5176 0
-3819 5176 0
-3820 5176 0
-3821 5176 0
-3822 5176 0
-5176 3810 3811 3812 3813 3814 3815 3816 3817 3818 3819 3820 3821 3822 0
-3823 40 0
-3823 118 0
-3823 144 0
-40 -118 -144 3823 0
-3824 41 0
-3824 119 0
-3824 145 0
-41 -119 -145 3824 0
-3825 42 0
-3825 120 0
-3825 146 0
-42 -120 -146 3825 0
-3826 43 0
-3826 121 0
-3826 147 0
-43 -121 -147 3826 0
-3827 44 0
-3827 122 0
-3827 148 0
-44 -122 -148 3827 0
-3828 45 0
-3828 123 0
-3828 149 0
-45 -123 -149 3828 0
-3829 46 0
-3829 124 0
-3829 150 0
-46 -124 -150 3829 0
-3830 47 0
-3830 125 0
-3830 151 0
-47 -125 -151 3830 0
-3831 48 0
-3831 126 0
-3831 152 0
-48 -126 -152 3831 0
-3832 49 0
-3832 127 0
-3832 153 0
-49 -127 -153 3832 0
-3833 50 0
-3833 128 0
-3833 154 0
-50 -128 -154 3833 0
-3834 51 0
-3834 129 0
-3834 155 0
-51 -129 -155 3834 0
-3835 52 0
-3835 130 0
-3835 156 0
-52 -130 -156 3835 0
-3823 5177 0
-3824 5177 0
-3825 5177 0
-3826 5177 0
-3827 5177 0
-3828 5177 0
-3829 5177 0
-3830 5177 0
-3831 5177 0
-3832 5177 0
-3833 5177 0
-3834 5177 0
-3835 5177 0
-5177 3823 3824 3825 3826 3827 3828 3829 3830 3831 3832 3833 3834 3835 0
-3836 40 0
-3836 118 0
-3836 157 0
-40 -118 -157 3836 0
-3837 41 0
-3837 119 0
-3837 158 0
-41 -119 -158 3837 0
-3838 42 0
-3838 120 0
-3838 159 0
-42 -120 -159 3838 0
-3839 43 0
-3839 121 0
-3839 160 0
-43 -121 -160 3839 0
-3840 44 0
-3840 122 0
-3840 161 0
-44 -122 -161 3840 0
-3841 45 0
-3841 123 0
-3841 162 0
-45 -123 -162 3841 0
-3842 46 0
-3842 124 0
-3842 163 0
-46 -124 -163 3842 0
-3843 47 0
-3843 125 0
-3843 164 0
-47 -125 -164 3843 0
-3844 48 0
-3844 126 0
-3844 165 0
-48 -126 -165 3844 0
-3845 49 0
-3845 127 0
-3845 166 0
-49 -127 -166 3845 0
-3846 50 0
-3846 128 0
-3846 167 0
-50 -128 -167 3846 0
-3847 51 0
-3847 129 0
-3847 168 0
-51 -129 -168 3847 0
-3848 52 0
-3848 130 0
-3848 169 0
-52 -130 -169 3848 0
-3836 5178 0
-3837 5178 0
-3838 5178 0
-3839 5178 0
-3840 5178 0
-3841 5178 0
-3842 5178 0
-3843 5178 0
-3844 5178 0
-3845 5178 0
-3846 5178 0
-3847 5178 0
-3848 5178 0
-5178 3836 3837 3838 3839 3840 3841 3842 3843 3844 3845 3846 3847 3848 0
-3849 40 0
-3849 131 0
-3849 144 0
-40 -131 -144 3849 0
-3850 41 0
-3850 132 0
-3850 145 0
-41 -132 -145 3850 0
-3851 42 0
-3851 133 0
-3851 146 0
-42 -133 -146 3851 0
-3852 43 0
-3852 134 0
-3852 147 0
-43 -134 -147 3852 0
-3853 44 0
-3853 135 0
-3853 148 0
-44 -135 -148 3853 0
-3854 45 0
-3854 136 0
-3854 149 0
-45 -136 -149 3854 0
-3855 46 0
-3855 137 0
-3855 150 0
-46 -137 -150 3855 0
-3856 47 0
-3856 138 0
-3856 151 0
-47 -138 -151 3856 0
-3857 48 0
-3857 139 0
-3857 152 0
-48 -139 -152 3857 0
-3858 49 0
-3858 140 0
-3858 153 0
-49 -140 -153 3858 0
-3859 50 0
-3859 141 0
-3859 154 0
-50 -141 -154 3859 0
-3860 51 0
-3860 142 0
-3860 155 0
-51 -142 -155 3860 0
-3861 52 0
-3861 143 0
-3861 156 0
-52 -143 -156 3861 0
-3849 5179 0
-3850 5179 0
-3851 5179 0
-3852 5179 0
-3853 5179 0
-3854 5179 0
-3855 5179 0
-3856 5179 0
-3857 5179 0
-3858 5179 0
-3859 5179 0
-3860 5179 0
-3861 5179 0
-5179 3849 3850 3851 3852 3853 3854 3855 3856 3857 3858 3859 3860 3861 0
-3862 40 0
-3862 131 0
-3862 157 0
-40 -131 -157 3862 0
-3863 41 0
-3863 132 0
-3863 158 0
-41 -132 -158 3863 0
-3864 42 0
-3864 133 0
-3864 159 0
-42 -133 -159 3864 0
-3865 43 0
-3865 134 0
-3865 160 0
-43 -134 -160 3865 0
-3866 44 0
-3866 135 0
-3866 161 0
-44 -135 -161 3866 0
-3867 45 0
-3867 136 0
-3867 162 0
-45 -136 -162 3867 0
-3868 46 0
-3868 137 0
-3868 163 0
-46 -137 -163 3868 0
-3869 47 0
-3869 138 0
-3869 164 0
-47 -138 -164 3869 0
-3870 48 0
-3870 139 0
-3870 165 0
-48 -139 -165 3870 0
-3871 49 0
-3871 140 0
-3871 166 0
-49 -140 -166 3871 0
-3872 50 0
-3872 141 0
-3872 167 0
-50 -141 -167 3872 0
-3873 51 0
-3873 142 0
-3873 168 0
-51 -142 -168 3873 0
-3874 52 0
-3874 143 0
-3874 169 0
-52 -143 -169 3874 0
-3862 5180 0
-3863 5180 0
-3864 5180 0
-3865 5180 0
-3866 5180 0
-3867 5180 0
-3868 5180 0
-3869 5180 0
-3870 5180 0
-3871 5180 0
-3872 5180 0
-3873 5180 0
-3874 5180 0
-5180 3862 3863 3864 3865 3866 3867 3868 3869 3870 3871 3872 3873 3874 0
-3875 40 0
-3875 144 0
-3875 157 0
-40 -144 -157 3875 0
-3876 41 0
-3876 145 0
-3876 158 0
-41 -145 -158 3876 0
-3877 42 0
-3877 146 0
-3877 159 0
-42 -146 -159 3877 0
-3878 43 0
-3878 147 0
-3878 160 0
-43 -147 -160 3878 0
-3879 44 0
-3879 148 0
-3879 161 0
-44 -148 -161 3879 0
-3880 45 0
-3880 149 0
-3880 162 0
-45 -149 -162 3880 0
-3881 46 0
-3881 150 0
-3881 163 0
-46 -150 -163 3881 0
-3882 47 0
-3882 151 0
-3882 164 0
-47 -151 -164 3882 0
-3883 48 0
-3883 152 0
-3883 165 0
-48 -152 -165 3883 0
-3884 49 0
-3884 153 0
-3884 166 0
-49 -153 -166 3884 0
-3885 50 0
-3885 154 0
-3885 167 0
-50 -154 -167 3885 0
-3886 51 0
-3886 155 0
-3886 168 0
-51 -155 -168 3886 0
-3887 52 0
-3887 156 0
-3887 169 0
-52 -156 -169 3887 0
-3875 5181 0
-3876 5181 0
-3877 5181 0
-3878 5181 0
-3879 5181 0
-3880 5181 0
-3881 5181 0
-3882 5181 0
-3883 5181 0
-3884 5181 0
-3885 5181 0
-3886 5181 0
-3887 5181 0
-5181 3875 3876 3877 3878 3879 3880 3881 3882 3883 3884 3885 3886 3887 0
-3888 53 0
-3888 66 0
-3888 79 0
-53 -66 -79 3888 0
-3889 54 0
-3889 67 0
-3889 80 0
-54 -67 -80 3889 0
-3890 55 0
-3890 68 0
-3890 81 0
-55 -68 -81 3890 0
-3891 56 0
-3891 69 0
-3891 82 0
-56 -69 -82 3891 0
-3892 57 0
-3892 70 0
-3892 83 0
-57 -70 -83 3892 0
-3893 58 0
-3893 71 0
-3893 84 0
-58 -71 -84 3893 0
-3894 59 0
-3894 72 0
-3894 85 0
-59 -72 -85 3894 0
-3895 60 0
-3895 73 0
-3895 86 0
-60 -73 -86 3895 0
-3896 61 0
-3896 74 0
-3896 87 0
-61 -74 -87 3896 0
-3897 62 0
-3897 75 0
-3897 88 0
-62 -75 -88 3897 0
-3898 63 0
-3898 76 0
-3898 89 0
-63 -76 -89 3898 0
-3899 64 0
-3899 77 0
-3899 90 0
-64 -77 -90 3899 0
-3900 65 0
-3900 78 0
-3900 91 0
-65 -78 -91 3900 0
-3888 5182 0
-3889 5182 0
-3890 5182 0
-3891 5182 0
-3892 5182 0
-3893 5182 0
-3894 5182 0
-3895 5182 0
-3896 5182 0
-3897 5182 0
-3898 5182 0
-3899 5182 0
-3900 5182 0
-5182 3888 3889 3890 3891 3892 3893 3894 3895 3896 3897 3898 3899 3900 0
-3901 53 0
-3901 66 0
-3901 92 0
-53 -66 -92 3901 0
-3902 54 0
-3902 67 0
-3902 93 0
-54 -67 -93 3902 0
-3903 55 0
-3903 68 0
-3903 94 0
-55 -68 -94 3903 0
-3904 56 0
-3904 69 0
-3904 95 0
-56 -69 -95 3904 0
-3905 57 0
-3905 70 0
-3905 96 0
-57 -70 -96 3905 0
-3906 58 0
-3906 71 0
-3906 97 0
-58 -71 -97 3906 0
-3907 59 0
-3907 72 0
-3907 98 0
-59 -72 -98 3907 0
-3908 60 0
-3908 73 0
-3908 99 0
-60 -73 -99 3908 0
-3909 61 0
-3909 74 0
-3909 100 0
-61 -74 -100 3909 0
-3910 62 0
-3910 75 0
-3910 101 0
-62 -75 -101 3910 0
-3911 63 0
-3911 76 0
-3911 102 0
-63 -76 -102 3911 0
-3912 64 0
-3912 77 0
-3912 103 0
-64 -77 -103 3912 0
-3913 65 0
-3913 78 0
-3913 104 0
-65 -78 -104 3913 0
-3901 5183 0
-3902 5183 0
-3903 5183 0
-3904 5183 0
-3905 5183 0
-3906 5183 0
-3907 5183 0
-3908 5183 0
-3909 5183 0
-3910 5183 0
-3911 5183 0
-3912 5183 0
-3913 5183 0
-5183 3901 3902 3903 3904 3905 3906 3907 3908 3909 3910 3911 3912 3913 0
-3914 53 0
-3914 66 0
-3914 105 0
-53 -66 -105 3914 0
-3915 54 0
-3915 67 0
-3915 106 0
-54 -67 -106 3915 0
-3916 55 0
-3916 68 0
-3916 107 0
-55 -68 -107 3916 0
-3917 56 0
-3917 69 0
-3917 108 0
-56 -69 -108 3917 0
-3918 57 0
-3918 70 0
-3918 109 0
-57 -70 -109 3918 0
-3919 58 0
-3919 71 0
-3919 110 0
-58 -71 -110 3919 0
-3920 59 0
-3920 72 0
-3920 111 0
-59 -72 -111 3920 0
-3921 60 0
-3921 73 0
-3921 112 0
-60 -73 -112 3921 0
-3922 61 0
-3922 74 0
-3922 113 0
-61 -74 -113 3922 0
-3923 62 0
-3923 75 0
-3923 114 0
-62 -75 -114 3923 0
-3924 63 0
-3924 76 0
-3924 115 0
-63 -76 -115 3924 0
-3925 64 0
-3925 77 0
-3925 116 0
-64 -77 -116 3925 0
-3926 65 0
-3926 78 0
-3926 117 0
-65 -78 -117 3926 0
-3914 5184 0
-3915 5184 0
-3916 5184 0
-3917 5184 0
-3918 5184 0
-3919 5184 0
-3920 5184 0
-3921 5184 0
-3922 5184 0
-3923 5184 0
-3924 5184 0
-3925 5184 0
-3926 5184 0
-5184 3914 3915 3916 3917 3918 3919 3920 3921 3922 3923 3924 3925 3926 0
-3927 53 0
-3927 66 0
-3927 118 0
-53 -66 -118 3927 0
-3928 54 0
-3928 67 0
-3928 119 0
-54 -67 -119 3928 0
-3929 55 0
-3929 68 0
-3929 120 0
-55 -68 -120 3929 0
-3930 56 0
-3930 69 0
-3930 121 0
-56 -69 -121 3930 0
-3931 57 0
-3931 70 0
-3931 122 0
-57 -70 -122 3931 0
-3932 58 0
-3932 71 0
-3932 123 0
-58 -71 -123 3932 0
-3933 59 0
-3933 72 0
-3933 124 0
-59 -72 -124 3933 0
-3934 60 0
-3934 73 0
-3934 125 0
-60 -73 -125 3934 0
-3935 61 0
-3935 74 0
-3935 126 0
-61 -74 -126 3935 0
-3936 62 0
-3936 75 0
-3936 127 0
-62 -75 -127 3936 0
-3937 63 0
-3937 76 0
-3937 128 0
-63 -76 -128 3937 0
-3938 64 0
-3938 77 0
-3938 129 0
-64 -77 -129 3938 0
-3939 65 0
-3939 78 0
-3939 130 0
-65 -78 -130 3939 0
-3927 5185 0
-3928 5185 0
-3929 5185 0
-3930 5185 0
-3931 5185 0
-3932 5185 0
-3933 5185 0
-3934 5185 0
-3935 5185 0
-3936 5185 0
-3937 5185 0
-3938 5185 0
-3939 5185 0
-5185 3927 3928 3929 3930 3931 3932 3933 3934 3935 3936 3937 3938 3939 0
-3940 53 0
-3940 66 0
-3940 131 0
-53 -66 -131 3940 0
-3941 54 0
-3941 67 0
-3941 132 0
-54 -67 -132 3941 0
-3942 55 0
-3942 68 0
-3942 133 0
-55 -68 -133 3942 0
-3943 56 0
-3943 69 0
-3943 134 0
-56 -69 -134 3943 0
-3944 57 0
-3944 70 0
-3944 135 0
-57 -70 -135 3944 0
-3945 58 0
-3945 71 0
-3945 136 0
-58 -71 -136 3945 0
-3946 59 0
-3946 72 0
-3946 137 0
-59 -72 -137 3946 0
-3947 60 0
-3947 73 0
-3947 138 0
-60 -73 -138 3947 0
-3948 61 0
-3948 74 0
-3948 139 0
-61 -74 -139 3948 0
-3949 62 0
-3949 75 0
-3949 140 0
-62 -75 -140 3949 0
-3950 63 0
-3950 76 0
-3950 141 0
-63 -76 -141 3950 0
-3951 64 0
-3951 77 0
-3951 142 0
-64 -77 -142 3951 0
-3952 65 0
-3952 78 0
-3952 143 0
-65 -78 -143 3952 0
-3940 5186 0
-3941 5186 0
-3942 5186 0
-3943 5186 0
-3944 5186 0
-3945 5186 0
-3946 5186 0
-3947 5186 0
-3948 5186 0
-3949 5186 0
-3950 5186 0
-3951 5186 0
-3952 5186 0
-5186 3940 3941 3942 3943 3944 3945 3946 3947 3948 3949 3950 3951 3952 0
-3953 53 0
-3953 66 0
-3953 144 0
-53 -66 -144 3953 0
-3954 54 0
-3954 67 0
-3954 145 0
-54 -67 -145 3954 0
-3955 55 0
-3955 68 0
-3955 146 0
-55 -68 -146 3955 0
-3956 56 0
-3956 69 0
-3956 147 0
-56 -69 -147 3956 0
-3957 57 0
-3957 70 0
-3957 148 0
-57 -70 -148 3957 0
-3958 58 0
-3958 71 0
-3958 149 0
-58 -71 -149 3958 0
-3959 59 0
-3959 72 0
-3959 150 0
-59 -72 -150 3959 0
-3960 60 0
-3960 73 0
-3960 151 0
-60 -73 -151 3960 0
-3961 61 0
-3961 74 0
-3961 152 0
-61 -74 -152 3961 0
-3962 62 0
-3962 75 0
-3962 153 0
-62 -75 -153 3962 0
-3963 63 0
-3963 76 0
-3963 154 0
-63 -76 -154 3963 0
-3964 64 0
-3964 77 0
-3964 155 0
-64 -77 -155 3964 0
-3965 65 0
-3965 78 0
-3965 156 0
-65 -78 -156 3965 0
-3953 5187 0
-3954 5187 0
-3955 5187 0
-3956 5187 0
-3957 5187 0
-3958 5187 0
-3959 5187 0
-3960 5187 0
-3961 5187 0
-3962 5187 0
-3963 5187 0
-3964 5187 0
-3965 5187 0
-5187 3953 3954 3955 3956 3957 3958 3959 3960 3961 3962 3963 3964 3965 0
-3966 53 0
-3966 66 0
-3966 157 0
-53 -66 -157 3966 0
-3967 54 0
-3967 67 0
-3967 158 0
-54 -67 -158 3967 0
-3968 55 0
-3968 68 0
-3968 159 0
-55 -68 -159 3968 0
-3969 56 0
-3969 69 0
-3969 160 0
-56 -69 -160 3969 0
-3970 57 0
-3970 70 0
-3970 161 0
-57 -70 -161 3970 0
-3971 58 0
-3971 71 0
-3971 162 0
-58 -71 -162 3971 0
-3972 59 0
-3972 72 0
-3972 163 0
-59 -72 -163 3972 0
-3973 60 0
-3973 73 0
-3973 164 0
-60 -73 -164 3973 0
-3974 61 0
-3974 74 0
-3974 165 0
-61 -74 -165 3974 0
-3975 62 0
-3975 75 0
-3975 166 0
-62 -75 -166 3975 0
-3976 63 0
-3976 76 0
-3976 167 0
-63 -76 -167 3976 0
-3977 64 0
-3977 77 0
-3977 168 0
-64 -77 -168 3977 0
-3978 65 0
-3978 78 0
-3978 169 0
-65 -78 -169 3978 0
-3966 5188 0
-3967 5188 0
-3968 5188 0
-3969 5188 0
-3970 5188 0
-3971 5188 0
-3972 5188 0
-3973 5188 0
-3974 5188 0
-3975 5188 0
-3976 5188 0
-3977 5188 0
-3978 5188 0
-5188 3966 3967 3968 3969 3970 3971 3972 3973 3974 3975 3976 3977 3978 0
-3979 53 0
-3979 79 0
-3979 92 0
-53 -79 -92 3979 0
-3980 54 0
-3980 80 0
-3980 93 0
-54 -80 -93 3980 0
-3981 55 0
-3981 81 0
-3981 94 0
-55 -81 -94 3981 0
-3982 56 0
-3982 82 0
-3982 95 0
-56 -82 -95 3982 0
-3983 57 0
-3983 83 0
-3983 96 0
-57 -83 -96 3983 0
-3984 58 0
-3984 84 0
-3984 97 0
-58 -84 -97 3984 0
-3985 59 0
-3985 85 0
-3985 98 0
-59 -85 -98 3985 0
-3986 60 0
-3986 86 0
-3986 99 0
-60 -86 -99 3986 0
-3987 61 0
-3987 87 0
-3987 100 0
-61 -87 -100 3987 0
-3988 62 0
-3988 88 0
-3988 101 0
-62 -88 -101 3988 0
-3989 63 0
-3989 89 0
-3989 102 0
-63 -89 -102 3989 0
-3990 64 0
-3990 90 0
-3990 103 0
-64 -90 -103 3990 0
-3991 65 0
-3991 91 0
-3991 104 0
-65 -91 -104 3991 0
-3979 5189 0
-3980 5189 0
-3981 5189 0
-3982 5189 0
-3983 5189 0
-3984 5189 0
-3985 5189 0
-3986 5189 0
-3987 5189 0
-3988 5189 0
-3989 5189 0
-3990 5189 0
-3991 5189 0
-5189 3979 3980 3981 3982 3983 3984 3985 3986 3987 3988 3989 3990 3991 0
-3992 53 0
-3992 79 0
-3992 105 0
-53 -79 -105 3992 0
-3993 54 0
-3993 80 0
-3993 106 0
-54 -80 -106 3993 0
-3994 55 0
-3994 81 0
-3994 107 0
-55 -81 -107 3994 0
-3995 56 0
-3995 82 0
-3995 108 0
-56 -82 -108 3995 0
-3996 57 0
-3996 83 0
-3996 109 0
-57 -83 -109 3996 0
-3997 58 0
-3997 84 0
-3997 110 0
-58 -84 -110 3997 0
-3998 59 0
-3998 85 0
-3998 111 0
-59 -85 -111 3998 0
-3999 60 0
-3999 86 0
-3999 112 0
-60 -86 -112 3999 0
-4000 61 0
-4000 87 0
-4000 113 0
-61 -87 -113 4000 0
-4001 62 0
-4001 88 0
-4001 114 0
-62 -88 -114 4001 0
-4002 63 0
-4002 89 0
-4002 115 0
-63 -89 -115 4002 0
-4003 64 0
-4003 90 0
-4003 116 0
-64 -90 -116 4003 0
-4004 65 0
-4004 91 0
-4004 117 0
-65 -91 -117 4004 0
-3992 5190 0
-3993 5190 0
-3994 5190 0
-3995 5190 0
-3996 5190 0
-3997 5190 0
-3998 5190 0
-3999 5190 0
-4000 5190 0
-4001 5190 0
-4002 5190 0
-4003 5190 0
-4004 5190 0
-5190 3992 3993 3994 3995 3996 3997 3998 3999 4000 4001 4002 4003 4004 0
-4005 53 0
-4005 79 0
-4005 118 0
-53 -79 -118 4005 0
-4006 54 0
-4006 80 0
-4006 119 0
-54 -80 -119 4006 0
-4007 55 0
-4007 81 0
-4007 120 0
-55 -81 -120 4007 0
-4008 56 0
-4008 82 0
-4008 121 0
-56 -82 -121 4008 0
-4009 57 0
-4009 83 0
-4009 122 0
-57 -83 -122 4009 0
-4010 58 0
-4010 84 0
-4010 123 0
-58 -84 -123 4010 0
-4011 59 0
-4011 85 0
-4011 124 0
-59 -85 -124 4011 0
-4012 60 0
-4012 86 0
-4012 125 0
-60 -86 -125 4012 0
-4013 61 0
-4013 87 0
-4013 126 0
-61 -87 -126 4013 0
-4014 62 0
-4014 88 0
-4014 127 0
-62 -88 -127 4014 0
-4015 63 0
-4015 89 0
-4015 128 0
-63 -89 -128 4015 0
-4016 64 0
-4016 90 0
-4016 129 0
-64 -90 -129 4016 0
-4017 65 0
-4017 91 0
-4017 130 0
-65 -91 -130 4017 0
-4005 5191 0
-4006 5191 0
-4007 5191 0
-4008 5191 0
-4009 5191 0
-4010 5191 0
-4011 5191 0
-4012 5191 0
-4013 5191 0
-4014 5191 0
-4015 5191 0
-4016 5191 0
-4017 5191 0
-5191 4005 4006 4007 4008 4009 4010 4011 4012 4013 4014 4015 4016 4017 0
-4018 53 0
-4018 79 0
-4018 131 0
-53 -79 -131 4018 0
-4019 54 0
-4019 80 0
-4019 132 0
-54 -80 -132 4019 0
-4020 55 0
-4020 81 0
-4020 133 0
-55 -81 -133 4020 0
-4021 56 0
-4021 82 0
-4021 134 0
-56 -82 -134 4021 0
-4022 57 0
-4022 83 0
-4022 135 0
-57 -83 -135 4022 0
-4023 58 0
-4023 84 0
-4023 136 0
-58 -84 -136 4023 0
-4024 59 0
-4024 85 0
-4024 137 0
-59 -85 -137 4024 0
-4025 60 0
-4025 86 0
-4025 138 0
-60 -86 -138 4025 0
-4026 61 0
-4026 87 0
-4026 139 0
-61 -87 -139 4026 0
-4027 62 0
-4027 88 0
-4027 140 0
-62 -88 -140 4027 0
-4028 63 0
-4028 89 0
-4028 141 0
-63 -89 -141 4028 0
-4029 64 0
-4029 90 0
-4029 142 0
-64 -90 -142 4029 0
-4030 65 0
-4030 91 0
-4030 143 0
-65 -91 -143 4030 0
-4018 5192 0
-4019 5192 0
-4020 5192 0
-4021 5192 0
-4022 5192 0
-4023 5192 0
-4024 5192 0
-4025 5192 0
-4026 5192 0
-4027 5192 0
-4028 5192 0
-4029 5192 0
-4030 5192 0
-5192 4018 4019 4020 4021 4022 4023 4024 4025 4026 4027 4028 4029 4030 0
-4031 53 0
-4031 79 0
-4031 144 0
-53 -79 -144 4031 0
-4032 54 0
-4032 80 0
-4032 145 0
-54 -80 -145 4032 0
-4033 55 0
-4033 81 0
-4033 146 0
-55 -81 -146 4033 0
-4034 56 0
-4034 82 0
-4034 147 0
-56 -82 -147 4034 0
-4035 57 0
-4035 83 0
-4035 148 0
-57 -83 -148 4035 0
-4036 58 0
-4036 84 0
-4036 149 0
-58 -84 -149 4036 0
-4037 59 0
-4037 85 0
-4037 150 0
-59 -85 -150 4037 0
-4038 60 0
-4038 86 0
-4038 151 0
-60 -86 -151 4038 0
-4039 61 0
-4039 87 0
-4039 152 0
-61 -87 -152 4039 0
-4040 62 0
-4040 88 0
-4040 153 0
-62 -88 -153 4040 0
-4041 63 0
-4041 89 0
-4041 154 0
-63 -89 -154 4041 0
-4042 64 0
-4042 90 0
-4042 155 0
-64 -90 -155 4042 0
-4043 65 0
-4043 91 0
-4043 156 0
-65 -91 -156 4043 0
-4031 5193 0
-4032 5193 0
-4033 5193 0
-4034 5193 0
-4035 5193 0
-4036 5193 0
-4037 5193 0
-4038 5193 0
-4039 5193 0
-4040 5193 0
-4041 5193 0
-4042 5193 0
-4043 5193 0
-5193 4031 4032 4033 4034 4035 4036 4037 4038 4039 4040 4041 4042 4043 0
-4044 53 0
-4044 79 0
-4044 157 0
-53 -79 -157 4044 0
-4045 54 0
-4045 80 0
-4045 158 0
-54 -80 -158 4045 0
-4046 55 0
-4046 81 0
-4046 159 0
-55 -81 -159 4046 0
-4047 56 0
-4047 82 0
-4047 160 0
-56 -82 -160 4047 0
-4048 57 0
-4048 83 0
-4048 161 0
-57 -83 -161 4048 0
-4049 58 0
-4049 84 0
-4049 162 0
-58 -84 -162 4049 0
-4050 59 0
-4050 85 0
-4050 163 0
-59 -85 -163 4050 0
-4051 60 0
-4051 86 0
-4051 164 0
-60 -86 -164 4051 0
-4052 61 0
-4052 87 0
-4052 165 0
-61 -87 -165 4052 0
-4053 62 0
-4053 88 0
-4053 166 0
-62 -88 -166 4053 0
-4054 63 0
-4054 89 0
-4054 167 0
-63 -89 -167 4054 0
-4055 64 0
-4055 90 0
-4055 168 0
-64 -90 -168 4055 0
-4056 65 0
-4056 91 0
-4056 169 0
-65 -91 -169 4056 0
-4044 5194 0
-4045 5194 0
-4046 5194 0
-4047 5194 0
-4048 5194 0
-4049 5194 0
-4050 5194 0
-4051 5194 0
-4052 5194 0
-4053 5194 0
-4054 5194 0
-4055 5194 0
-4056 5194 0
-5194 4044 4045 4046 4047 4048 4049 4050 4051 4052 4053 4054 4055 4056 0
-4057 53 0
-4057 92 0
-4057 105 0
-53 -92 -105 4057 0
-4058 54 0
-4058 93 0
-4058 106 0
-54 -93 -106 4058 0
-4059 55 0
-4059 94 0
-4059 107 0
-55 -94 -107 4059 0
-4060 56 0
-4060 95 0
-4060 108 0
-56 -95 -108 4060 0
-4061 57 0
-4061 96 0
-4061 109 0
-57 -96 -109 4061 0
-4062 58 0
-4062 97 0
-4062 110 0
-58 -97 -110 4062 0
-4063 59 0
-4063 98 0
-4063 111 0
-59 -98 -111 4063 0
-4064 60 0
-4064 99 0
-4064 112 0
-60 -99 -112 4064 0
-4065 61 0
-4065 100 0
-4065 113 0
-61 -100 -113 4065 0
-4066 62 0
-4066 101 0
-4066 114 0
-62 -101 -114 4066 0
-4067 63 0
-4067 102 0
-4067 115 0
-63 -102 -115 4067 0
-4068 64 0
-4068 103 0
-4068 116 0
-64 -103 -116 4068 0
-4069 65 0
-4069 104 0
-4069 117 0
-65 -104 -117 4069 0
-4057 5195 0
-4058 5195 0
-4059 5195 0
-4060 5195 0
-4061 5195 0
-4062 5195 0
-4063 5195 0
-4064 5195 0
-4065 5195 0
-4066 5195 0
-4067 5195 0
-4068 5195 0
-4069 5195 0
-5195 4057 4058 4059 4060 4061 4062 4063 4064 4065 4066 4067 4068 4069 0
-4070 53 0
-4070 92 0
-4070 118 0
-53 -92 -118 4070 0
-4071 54 0
-4071 93 0
-4071 119 0
-54 -93 -119 4071 0
-4072 55 0
-4072 94 0
-4072 120 0
-55 -94 -120 4072 0
-4073 56 0
-4073 95 0
-4073 121 0
-56 -95 -121 4073 0
-4074 57 0
-4074 96 0
-4074 122 0
-57 -96 -122 4074 0
-4075 58 0
-4075 97 0
-4075 123 0
-58 -97 -123 4075 0
-4076 59 0
-4076 98 0
-4076 124 0
-59 -98 -124 4076 0
-4077 60 0
-4077 99 0
-4077 125 0
-60 -99 -125 4077 0
-4078 61 0
-4078 100 0
-4078 126 0
-61 -100 -126 4078 0
-4079 62 0
-4079 101 0
-4079 127 0
-62 -101 -127 4079 0
-4080 63 0
-4080 102 0
-4080 128 0
-63 -102 -128 4080 0
-4081 64 0
-4081 103 0
-4081 129 0
-64 -103 -129 4081 0
-4082 65 0
-4082 104 0
-4082 130 0
-65 -104 -130 4082 0
-4070 5196 0
-4071 5196 0
-4072 5196 0
-4073 5196 0
-4074 5196 0
-4075 5196 0
-4076 5196 0
-4077 5196 0
-4078 5196 0
-4079 5196 0
-4080 5196 0
-4081 5196 0
-4082 5196 0
-5196 4070 4071 4072 4073 4074 4075 4076 4077 4078 4079 4080 4081 4082 0
-4083 53 0
-4083 92 0
-4083 131 0
-53 -92 -131 4083 0
-4084 54 0
-4084 93 0
-4084 132 0
-54 -93 -132 4084 0
-4085 55 0
-4085 94 0
-4085 133 0
-55 -94 -133 4085 0
-4086 56 0
-4086 95 0
-4086 134 0
-56 -95 -134 4086 0
-4087 57 0
-4087 96 0
-4087 135 0
-57 -96 -135 4087 0
-4088 58 0
-4088 97 0
-4088 136 0
-58 -97 -136 4088 0
-4089 59 0
-4089 98 0
-4089 137 0
-59 -98 -137 4089 0
-4090 60 0
-4090 99 0
-4090 138 0
-60 -99 -138 4090 0
-4091 61 0
-4091 100 0
-4091 139 0
-61 -100 -139 4091 0
-4092 62 0
-4092 101 0
-4092 140 0
-62 -101 -140 4092 0
-4093 63 0
-4093 102 0
-4093 141 0
-63 -102 -141 4093 0
-4094 64 0
-4094 103 0
-4094 142 0
-64 -103 -142 4094 0
-4095 65 0
-4095 104 0
-4095 143 0
-65 -104 -143 4095 0
-4083 5197 0
-4084 5197 0
-4085 5197 0
-4086 5197 0
-4087 5197 0
-4088 5197 0
-4089 5197 0
-4090 5197 0
-4091 5197 0
-4092 5197 0
-4093 5197 0
-4094 5197 0
-4095 5197 0
-5197 4083 4084 4085 4086 4087 4088 4089 4090 4091 4092 4093 4094 4095 0
-4096 53 0
-4096 92 0
-4096 144 0
-53 -92 -144 4096 0
-4097 54 0
-4097 93 0
-4097 145 0
-54 -93 -145 4097 0
-4098 55 0
-4098 94 0
-4098 146 0
-55 -94 -146 4098 0
-4099 56 0
-4099 95 0
-4099 147 0
-56 -95 -147 4099 0
-4100 57 0
-4100 96 0
-4100 148 0
-57 -96 -148 4100 0
-4101 58 0
-4101 97 0
-4101 149 0
-58 -97 -149 4101 0
-4102 59 0
-4102 98 0
-4102 150 0
-59 -98 -150 4102 0
-4103 60 0
-4103 99 0
-4103 151 0
-60 -99 -151 4103 0
-4104 61 0
-4104 100 0
-4104 152 0
-61 -100 -152 4104 0
-4105 62 0
-4105 101 0
-4105 153 0
-62 -101 -153 4105 0
-4106 63 0
-4106 102 0
-4106 154 0
-63 -102 -154 4106 0
-4107 64 0
-4107 103 0
-4107 155 0
-64 -103 -155 4107 0
-4108 65 0
-4108 104 0
-4108 156 0
-65 -104 -156 4108 0
-4096 5198 0
-4097 5198 0
-4098 5198 0
-4099 5198 0
-4100 5198 0
-4101 5198 0
-4102 5198 0
-4103 5198 0
-4104 5198 0
-4105 5198 0
-4106 5198 0
-4107 5198 0
-4108 5198 0
-5198 4096 4097 4098 4099 4100 4101 4102 4103 4104 4105 4106 4107 4108 0
-4109 53 0
-4109 92 0
-4109 157 0
-53 -92 -157 4109 0
-4110 54 0
-4110 93 0
-4110 158 0
-54 -93 -158 4110 0
-4111 55 0
-4111 94 0
-4111 159 0
-55 -94 -159 4111 0
-4112 56 0
-4112 95 0
-4112 160 0
-56 -95 -160 4112 0
-4113 57 0
-4113 96 0
-4113 161 0
-57 -96 -161 4113 0
-4114 58 0
-4114 97 0
-4114 162 0
-58 -97 -162 4114 0
-4115 59 0
-4115 98 0
-4115 163 0
-59 -98 -163 4115 0
-4116 60 0
-4116 99 0
-4116 164 0
-60 -99 -164 4116 0
-4117 61 0
-4117 100 0
-4117 165 0
-61 -100 -165 4117 0
-4118 62 0
-4118 101 0
-4118 166 0
-62 -101 -166 4118 0
-4119 63 0
-4119 102 0
-4119 167 0
-63 -102 -167 4119 0
-4120 64 0
-4120 103 0
-4120 168 0
-64 -103 -168 4120 0
-4121 65 0
-4121 104 0
-4121 169 0
-65 -104 -169 4121 0
-4109 5199 0
-4110 5199 0
-4111 5199 0
-4112 5199 0
-4113 5199 0
-4114 5199 0
-4115 5199 0
-4116 5199 0
-4117 5199 0
-4118 5199 0
-4119 5199 0
-4120 5199 0
-4121 5199 0
-5199 4109 4110 4111 4112 4113 4114 4115 4116 4117 4118 4119 4120 4121 0
-4122 53 0
-4122 105 0
-4122 118 0
-53 -105 -118 4122 0
-4123 54 0
-4123 106 0
-4123 119 0
-54 -106 -119 4123 0
-4124 55 0
-4124 107 0
-4124 120 0
-55 -107 -120 4124 0
-4125 56 0
-4125 108 0
-4125 121 0
-56 -108 -121 4125 0
-4126 57 0
-4126 109 0
-4126 122 0
-57 -109 -122 4126 0
-4127 58 0
-4127 110 0
-4127 123 0
-58 -110 -123 4127 0
-4128 59 0
-4128 111 0
-4128 124 0
-59 -111 -124 4128 0
-4129 60 0
-4129 112 0
-4129 125 0
-60 -112 -125 4129 0
-4130 61 0
-4130 113 0
-4130 126 0
-61 -113 -126 4130 0
-4131 62 0
-4131 114 0
-4131 127 0
-62 -114 -127 4131 0
-4132 63 0
-4132 115 0
-4132 128 0
-63 -115 -128 4132 0
-4133 64 0
-4133 116 0
-4133 129 0
-64 -116 -129 4133 0
-4134 65 0
-4134 117 0
-4134 130 0
-65 -117 -130 4134 0
-4122 5200 0
-4123 5200 0
-4124 5200 0
-4125 5200 0
-4126 5200 0
-4127 5200 0
-4128 5200 0
-4129 5200 0
-4130 5200 0
-4131 5200 0
-4132 5200 0
-4133 5200 0
-4134 5200 0
-5200 4122 4123 4124 4125 4126 4127 4128 4129 4130 4131 4132 4133 4134 0
-4135 53 0
-4135 105 0
-4135 131 0
-53 -105 -131 4135 0
-4136 54 0
-4136 106 0
-4136 132 0
-54 -106 -132 4136 0
-4137 55 0
-4137 107 0
-4137 133 0
-55 -107 -133 4137 0
-4138 56 0
-4138 108 0
-4138 134 0
-56 -108 -134 4138 0
-4139 57 0
-4139 109 0
-4139 135 0
-57 -109 -135 4139 0
-4140 58 0
-4140 110 0
-4140 136 0
-58 -110 -136 4140 0
-4141 59 0
-4141 111 0
-4141 137 0
-59 -111 -137 4141 0
-4142 60 0
-4142 112 0
-4142 138 0
-60 -112 -138 4142 0
-4143 61 0
-4143 113 0
-4143 139 0
-61 -113 -139 4143 0
-4144 62 0
-4144 114 0
-4144 140 0
-62 -114 -140 4144 0
-4145 63 0
-4145 115 0
-4145 141 0
-63 -115 -141 4145 0
-4146 64 0
-4146 116 0
-4146 142 0
-64 -116 -142 4146 0
-4147 65 0
-4147 117 0
-4147 143 0
-65 -117 -143 4147 0
-4135 5201 0
-4136 5201 0
-4137 5201 0
-4138 5201 0
-4139 5201 0
-4140 5201 0
-4141 5201 0
-4142 5201 0
-4143 5201 0
-4144 5201 0
-4145 5201 0
-4146 5201 0
-4147 5201 0
-5201 4135 4136 4137 4138 4139 4140 4141 4142 4143 4144 4145 4146 4147 0
-4148 53 0
-4148 105 0
-4148 144 0
-53 -105 -144 4148 0
-4149 54 0
-4149 106 0
-4149 145 0
-54 -106 -145 4149 0
-4150 55 0
-4150 107 0
-4150 146 0
-55 -107 -146 4150 0
-4151 56 0
-4151 108 0
-4151 147 0
-56 -108 -147 4151 0
-4152 57 0
-4152 109 0
-4152 148 0
-57 -109 -148 4152 0
-4153 58 0
-4153 110 0
-4153 149 0
-58 -110 -149 4153 0
-4154 59 0
-4154 111 0
-4154 150 0
-59 -111 -150 4154 0
-4155 60 0
-4155 112 0
-4155 151 0
-60 -112 -151 4155 0
-4156 61 0
-4156 113 0
-4156 152 0
-61 -113 -152 4156 0
-4157 62 0
-4157 114 0
-4157 153 0
-62 -114 -153 4157 0
-4158 63 0
-4158 115 0
-4158 154 0
-63 -115 -154 4158 0
-4159 64 0
-4159 116 0
-4159 155 0
-64 -116 -155 4159 0
-4160 65 0
-4160 117 0
-4160 156 0
-65 -117 -156 4160 0
-4148 5202 0
-4149 5202 0
-4150 5202 0
-4151 5202 0
-4152 5202 0
-4153 5202 0
-4154 5202 0
-4155 5202 0
-4156 5202 0
-4157 5202 0
-4158 5202 0
-4159 5202 0
-4160 5202 0
-5202 4148 4149 4150 4151 4152 4153 4154 4155 4156 4157 4158 4159 4160 0
-4161 53 0
-4161 105 0
-4161 157 0
-53 -105 -157 4161 0
-4162 54 0
-4162 106 0
-4162 158 0
-54 -106 -158 4162 0
-4163 55 0
-4163 107 0
-4163 159 0
-55 -107 -159 4163 0
-4164 56 0
-4164 108 0
-4164 160 0
-56 -108 -160 4164 0
-4165 57 0
-4165 109 0
-4165 161 0
-57 -109 -161 4165 0
-4166 58 0
-4166 110 0
-4166 162 0
-58 -110 -162 4166 0
-4167 59 0
-4167 111 0
-4167 163 0
-59 -111 -163 4167 0
-4168 60 0
-4168 112 0
-4168 164 0
-60 -112 -164 4168 0
-4169 61 0
-4169 113 0
-4169 165 0
-61 -113 -165 4169 0
-4170 62 0
-4170 114 0
-4170 166 0
-62 -114 -166 4170 0
-4171 63 0
-4171 115 0
-4171 167 0
-63 -115 -167 4171 0
-4172 64 0
-4172 116 0
-4172 168 0
-64 -116 -168 4172 0
-4173 65 0
-4173 117 0
-4173 169 0
-65 -117 -169 4173 0
-4161 5203 0
-4162 5203 0
-4163 5203 0
-4164 5203 0
-4165 5203 0
-4166 5203 0
-4167 5203 0
-4168 5203 0
-4169 5203 0
-4170 5203 0
-4171 5203 0
-4172 5203 0
-4173 5203 0
-5203 4161 4162 4163 4164 4165 4166 4167 4168 4169 4170 4171 4172 4173 0
-4174 53 0
-4174 118 0
-4174 131 0
-53 -118 -131 4174 0
-4175 54 0
-4175 119 0
-4175 132 0
-54 -119 -132 4175 0
-4176 55 0
-4176 120 0
-4176 133 0
-55 -120 -133 4176 0
-4177 56 0
-4177 121 0
-4177 134 0
-56 -121 -134 4177 0
-4178 57 0
-4178 122 0
-4178 135 0
-57 -122 -135 4178 0
-4179 58 0
-4179 123 0
-4179 136 0
-58 -123 -136 4179 0
-4180 59 0
-4180 124 0
-4180 137 0
-59 -124 -137 4180 0
-4181 60 0
-4181 125 0
-4181 138 0
-60 -125 -138 4181 0
-4182 61 0
-4182 126 0
-4182 139 0
-61 -126 -139 4182 0
-4183 62 0
-4183 127 0
-4183 140 0
-62 -127 -140 4183 0
-4184 63 0
-4184 128 0
-4184 141 0
-63 -128 -141 4184 0
-4185 64 0
-4185 129 0
-4185 142 0
-64 -129 -142 4185 0
-4186 65 0
-4186 130 0
-4186 143 0
-65 -130 -143 4186 0
-4174 5204 0
-4175 5204 0
-4176 5204 0
-4177 5204 0
-4178 5204 0
-4179 5204 0
-4180 5204 0
-4181 5204 0
-4182 5204 0
-4183 5204 0
-4184 5204 0
-4185 5204 0
-4186 5204 0
-5204 4174 4175 4176 4177 4178 4179 4180 4181 4182 4183 4184 4185 4186 0
-4187 53 0
-4187 118 0
-4187 144 0
-53 -118 -144 4187 0
-4188 54 0
-4188 119 0
-4188 145 0
-54 -119 -145 4188 0
-4189 55 0
-4189 120 0
-4189 146 0
-55 -120 -146 4189 0
-4190 56 0
-4190 121 0
-4190 147 0
-56 -121 -147 4190 0
-4191 57 0
-4191 122 0
-4191 148 0
-57 -122 -148 4191 0
-4192 58 0
-4192 123 0
-4192 149 0
-58 -123 -149 4192 0
-4193 59 0
-4193 124 0
-4193 150 0
-59 -124 -150 4193 0
-4194 60 0
-4194 125 0
-4194 151 0
-60 -125 -151 4194 0
-4195 61 0
-4195 126 0
-4195 152 0
-61 -126 -152 4195 0
-4196 62 0
-4196 127 0
-4196 153 0
-62 -127 -153 4196 0
-4197 63 0
-4197 128 0
-4197 154 0
-63 -128 -154 4197 0
-4198 64 0
-4198 129 0
-4198 155 0
-64 -129 -155 4198 0
-4199 65 0
-4199 130 0
-4199 156 0
-65 -130 -156 4199 0
-4187 5205 0
-4188 5205 0
-4189 5205 0
-4190 5205 0
-4191 5205 0
-4192 5205 0
-4193 5205 0
-4194 5205 0
-4195 5205 0
-4196 5205 0
-4197 5205 0
-4198 5205 0
-4199 5205 0
-5205 4187 4188 4189 4190 4191 4192 4193 4194 4195 4196 4197 4198 4199 0
-4200 53 0
-4200 118 0
-4200 157 0
-53 -118 -157 4200 0
-4201 54 0
-4201 119 0
-4201 158 0
-54 -119 -158 4201 0
-4202 55 0
-4202 120 0
-4202 159 0
-55 -120 -159 4202 0
-4203 56 0
-4203 121 0
-4203 160 0
-56 -121 -160 4203 0
-4204 57 0
-4204 122 0
-4204 161 0
-57 -122 -161 4204 0
-4205 58 0
-4205 123 0
-4205 162 0
-58 -123 -162 4205 0
-4206 59 0
-4206 124 0
-4206 163 0
-59 -124 -163 4206 0
-4207 60 0
-4207 125 0
-4207 164 0
-60 -125 -164 4207 0
-4208 61 0
-4208 126 0
-4208 165 0
-61 -126 -165 4208 0
-4209 62 0
-4209 127 0
-4209 166 0
-62 -127 -166 4209 0
-4210 63 0
-4210 128 0
-4210 167 0
-63 -128 -167 4210 0
-4211 64 0
-4211 129 0
-4211 168 0
-64 -129 -168 4211 0
-4212 65 0
-4212 130 0
-4212 169 0
-65 -130 -169 4212 0
-4200 5206 0
-4201 5206 0
-4202 5206 0
-4203 5206 0
-4204 5206 0
-4205 5206 0
-4206 5206 0
-4207 5206 0
-4208 5206 0
-4209 5206 0
-4210 5206 0
-4211 5206 0
-4212 5206 0
-5206 4200 4201 4202 4203 4204 4205 4206 4207 4208 4209 4210 4211 4212 0
-4213 53 0
-4213 131 0
-4213 144 0
-53 -131 -144 4213 0
-4214 54 0
-4214 132 0
-4214 145 0
-54 -132 -145 4214 0
-4215 55 0
-4215 133 0
-4215 146 0
-55 -133 -146 4215 0
-4216 56 0
-4216 134 0
-4216 147 0
-56 -134 -147 4216 0
-4217 57 0
-4217 135 0
-4217 148 0
-57 -135 -148 4217 0
-4218 58 0
-4218 136 0
-4218 149 0
-58 -136 -149 4218 0
-4219 59 0
-4219 137 0
-4219 150 0
-59 -137 -150 4219 0
-4220 60 0
-4220 138 0
-4220 151 0
-60 -138 -151 4220 0
-4221 61 0
-4221 139 0
-4221 152 0
-61 -139 -152 4221 0
-4222 62 0
-4222 140 0
-4222 153 0
-62 -140 -153 4222 0
-4223 63 0
-4223 141 0
-4223 154 0
-63 -141 -154 4223 0
-4224 64 0
-4224 142 0
-4224 155 0
-64 -142 -155 4224 0
-4225 65 0
-4225 143 0
-4225 156 0
-65 -143 -156 4225 0
-4213 5207 0
-4214 5207 0
-4215 5207 0
-4216 5207 0
-4217 5207 0
-4218 5207 0
-4219 5207 0
-4220 5207 0
-4221 5207 0
-4222 5207 0
-4223 5207 0
-4224 5207 0
-4225 5207 0
-5207 4213 4214 4215 4216 4217 4218 4219 4220 4221 4222 4223 4224 4225 0
-4226 53 0
-4226 131 0
-4226 157 0
-53 -131 -157 4226 0
-4227 54 0
-4227 132 0
-4227 158 0
-54 -132 -158 4227 0
-4228 55 0
-4228 133 0
-4228 159 0
-55 -133 -159 4228 0
-4229 56 0
-4229 134 0
-4229 160 0
-56 -134 -160 4229 0
-4230 57 0
-4230 135 0
-4230 161 0
-57 -135 -161 4230 0
-4231 58 0
-4231 136 0
-4231 162 0
-58 -136 -162 4231 0
-4232 59 0
-4232 137 0
-4232 163 0
-59 -137 -163 4232 0
-4233 60 0
-4233 138 0
-4233 164 0
-60 -138 -164 4233 0
-4234 61 0
-4234 139 0
-4234 165 0
-61 -139 -165 4234 0
-4235 62 0
-4235 140 0
-4235 166 0
-62 -140 -166 4235 0
-4236 63 0
-4236 141 0
-4236 167 0
-63 -141 -167 4236 0
-4237 64 0
-4237 142 0
-4237 168 0
-64 -142 -168 4237 0
-4238 65 0
-4238 143 0
-4238 169 0
-65 -143 -169 4238 0
-4226 5208 0
-4227 5208 0
-4228 5208 0
-4229 5208 0
-4230 5208 0
-4231 5208 0
-4232 5208 0
-4233 5208 0
-4234 5208 0
-4235 5208 0
-4236 5208 0
-4237 5208 0
-4238 5208 0
-5208 4226 4227 4228 4229 4230 4231 4232 4233 4234 4235 4236 4237 4238 0
-4239 53 0
-4239 144 0
-4239 157 0
-53 -144 -157 4239 0
-4240 54 0
-4240 145 0
-4240 158 0
-54 -145 -158 4240 0
-4241 55 0
-4241 146 0
-4241 159 0
-55 -146 -159 4241 0
-4242 56 0
-4242 147 0
-4242 160 0
-56 -147 -160 4242 0
-4243 57 0
-4243 148 0
-4243 161 0
-57 -148 -161 4243 0
-4244 58 0
-4244 149 0
-4244 162 0
-58 -149 -162 4244 0
-4245 59 0
-4245 150 0
-4245 163 0
-59 -150 -163 4245 0
-4246 60 0
-4246 151 0
-4246 164 0
-60 -151 -164 4246 0
-4247 61 0
-4247 152 0
-4247 165 0
-61 -152 -165 4247 0
-4248 62 0
-4248 153 0
-4248 166 0
-62 -153 -166 4248 0
-4249 63 0
-4249 154 0
-4249 167 0
-63 -154 -167 4249 0
-4250 64 0
-4250 155 0
-4250 168 0
-64 -155 -168 4250 0
-4251 65 0
-4251 156 0
-4251 169 0
-65 -156 -169 4251 0
-4239 5209 0
-4240 5209 0
-4241 5209 0
-4242 5209 0
-4243 5209 0
-4244 5209 0
-4245 5209 0
-4246 5209 0
-4247 5209 0
-4248 5209 0
-4249 5209 0
-4250 5209 0
-4251 5209 0
-5209 4239 4240 4241 4242 4243 4244 4245 4246 4247 4248 4249 4250 4251 0
-4252 66 0
-4252 79 0
-4252 92 0
-66 -79 -92 4252 0
-4253 67 0
-4253 80 0
-4253 93 0
-67 -80 -93 4253 0
-4254 68 0
-4254 81 0
-4254 94 0
-68 -81 -94 4254 0
-4255 69 0
-4255 82 0
-4255 95 0
-69 -82 -95 4255 0
-4256 70 0
-4256 83 0
-4256 96 0
-70 -83 -96 4256 0
-4257 71 0
-4257 84 0
-4257 97 0
-71 -84 -97 4257 0
-4258 72 0
-4258 85 0
-4258 98 0
-72 -85 -98 4258 0
-4259 73 0
-4259 86 0
-4259 99 0
-73 -86 -99 4259 0
-4260 74 0
-4260 87 0
-4260 100 0
-74 -87 -100 4260 0
-4261 75 0
-4261 88 0
-4261 101 0
-75 -88 -101 4261 0
-4262 76 0
-4262 89 0
-4262 102 0
-76 -89 -102 4262 0
-4263 77 0
-4263 90 0
-4263 103 0
-77 -90 -103 4263 0
-4264 78 0
-4264 91 0
-4264 104 0
-78 -91 -104 4264 0
-4252 5210 0
-4253 5210 0
-4254 5210 0
-4255 5210 0
-4256 5210 0
-4257 5210 0
-4258 5210 0
-4259 5210 0
-4260 5210 0
-4261 5210 0
-4262 5210 0
-4263 5210 0
-4264 5210 0
-5210 4252 4253 4254 4255 4256 4257 4258 4259 4260 4261 4262 4263 4264 0
-4265 66 0
-4265 79 0
-4265 105 0
-66 -79 -105 4265 0
-4266 67 0
-4266 80 0
-4266 106 0
-67 -80 -106 4266 0
-4267 68 0
-4267 81 0
-4267 107 0
-68 -81 -107 4267 0
-4268 69 0
-4268 82 0
-4268 108 0
-69 -82 -108 4268 0
-4269 70 0
-4269 83 0
-4269 109 0
-70 -83 -109 4269 0
-4270 71 0
-4270 84 0
-4270 110 0
-71 -84 -110 4270 0
-4271 72 0
-4271 85 0
-4271 111 0
-72 -85 -111 4271 0
-4272 73 0
-4272 86 0
-4272 112 0
-73 -86 -112 4272 0
-4273 74 0
-4273 87 0
-4273 113 0
-74 -87 -113 4273 0
-4274 75 0
-4274 88 0
-4274 114 0
-75 -88 -114 4274 0
-4275 76 0
-4275 89 0
-4275 115 0
-76 -89 -115 4275 0
-4276 77 0
-4276 90 0
-4276 116 0
-77 -90 -116 4276 0
-4277 78 0
-4277 91 0
-4277 117 0
-78 -91 -117 4277 0
-4265 5211 0
-4266 5211 0
-4267 5211 0
-4268 5211 0
-4269 5211 0
-4270 5211 0
-4271 5211 0
-4272 5211 0
-4273 5211 0
-4274 5211 0
-4275 5211 0
-4276 5211 0
-4277 5211 0
-5211 4265 4266 4267 4268 4269 4270 4271 4272 4273 4274 4275 4276 4277 0
-4278 66 0
-4278 79 0
-4278 118 0
-66 -79 -118 4278 0
-4279 67 0
-4279 80 0
-4279 119 0
-67 -80 -119 4279 0
-4280 68 0
-4280 81 0
-4280 120 0
-68 -81 -120 4280 0
-4281 69 0
-4281 82 0
-4281 121 0
-69 -82 -121 4281 0
-4282 70 0
-4282 83 0
-4282 122 0
-70 -83 -122 4282 0
-4283 71 0
-4283 84 0
-4283 123 0
-71 -84 -123 4283 0
-4284 72 0
-4284 85 0
-4284 124 0
-72 -85 -124 4284 0
-4285 73 0
-4285 86 0
-4285 125 0
-73 -86 -125 4285 0
-4286 74 0
-4286 87 0
-4286 126 0
-74 -87 -126 4286 0
-4287 75 0
-4287 88 0
-4287 127 0
-75 -88 -127 4287 0
-4288 76 0
-4288 89 0
-4288 128 0
-76 -89 -128 4288 0
-4289 77 0
-4289 90 0
-4289 129 0
-77 -90 -129 4289 0
-4290 78 0
-4290 91 0
-4290 130 0
-78 -91 -130 4290 0
-4278 5212 0
-4279 5212 0
-4280 5212 0
-4281 5212 0
-4282 5212 0
-4283 5212 0
-4284 5212 0
-4285 5212 0
-4286 5212 0
-4287 5212 0
-4288 5212 0
-4289 5212 0
-4290 5212 0
-5212 4278 4279 4280 4281 4282 4283 4284 4285 4286 4287 4288 4289 4290 0
-4291 66 0
-4291 79 0
-4291 131 0
-66 -79 -131 4291 0
-4292 67 0
-4292 80 0
-4292 132 0
-67 -80 -132 4292 0
-4293 68 0
-4293 81 0
-4293 133 0
-68 -81 -133 4293 0
-4294 69 0
-4294 82 0
-4294 134 0
-69 -82 -134 4294 0
-4295 70 0
-4295 83 0
-4295 135 0
-70 -83 -135 4295 0
-4296 71 0
-4296 84 0
-4296 136 0
-71 -84 -136 4296 0
-4297 72 0
-4297 85 0
-4297 137 0
-72 -85 -137 4297 0
-4298 73 0
-4298 86 0
-4298 138 0
-73 -86 -138 4298 0
-4299 74 0
-4299 87 0
-4299 139 0
-74 -87 -139 4299 0
-4300 75 0
-4300 88 0
-4300 140 0
-75 -88 -140 4300 0
-4301 76 0
-4301 89 0
-4301 141 0
-76 -89 -141 4301 0
-4302 77 0
-4302 90 0
-4302 142 0
-77 -90 -142 4302 0
-4303 78 0
-4303 91 0
-4303 143 0
-78 -91 -143 4303 0
-4291 5213 0
-4292 5213 0
-4293 5213 0
-4294 5213 0
-4295 5213 0
-4296 5213 0
-4297 5213 0
-4298 5213 0
-4299 5213 0
-4300 5213 0
-4301 5213 0
-4302 5213 0
-4303 5213 0
-5213 4291 4292 4293 4294 4295 4296 4297 4298 4299 4300 4301 4302 4303 0
-4304 66 0
-4304 79 0
-4304 144 0
-66 -79 -144 4304 0
-4305 67 0
-4305 80 0
-4305 145 0
-67 -80 -145 4305 0
-4306 68 0
-4306 81 0
-4306 146 0
-68 -81 -146 4306 0
-4307 69 0
-4307 82 0
-4307 147 0
-69 -82 -147 4307 0
-4308 70 0
-4308 83 0
-4308 148 0
-70 -83 -148 4308 0
-4309 71 0
-4309 84 0
-4309 149 0
-71 -84 -149 4309 0
-4310 72 0
-4310 85 0
-4310 150 0
-72 -85 -150 4310 0
-4311 73 0
-4311 86 0
-4311 151 0
-73 -86 -151 4311 0
-4312 74 0
-4312 87 0
-4312 152 0
-74 -87 -152 4312 0
-4313 75 0
-4313 88 0
-4313 153 0
-75 -88 -153 4313 0
-4314 76 0
-4314 89 0
-4314 154 0
-76 -89 -154 4314 0
-4315 77 0
-4315 90 0
-4315 155 0
-77 -90 -155 4315 0
-4316 78 0
-4316 91 0
-4316 156 0
-78 -91 -156 4316 0
-4304 5214 0
-4305 5214 0
-4306 5214 0
-4307 5214 0
-4308 5214 0
-4309 5214 0
-4310 5214 0
-4311 5214 0
-4312 5214 0
-4313 5214 0
-4314 5214 0
-4315 5214 0
-4316 5214 0
-5214 4304 4305 4306 4307 4308 4309 4310 4311 4312 4313 4314 4315 4316 0
-4317 66 0
-4317 79 0
-4317 157 0
-66 -79 -157 4317 0
-4318 67 0
-4318 80 0
-4318 158 0
-67 -80 -158 4318 0
-4319 68 0
-4319 81 0
-4319 159 0
-68 -81 -159 4319 0
-4320 69 0
-4320 82 0
-4320 160 0
-69 -82 -160 4320 0
-4321 70 0
-4321 83 0
-4321 161 0
-70 -83 -161 4321 0
-4322 71 0
-4322 84 0
-4322 162 0
-71 -84 -162 4322 0
-4323 72 0
-4323 85 0
-4323 163 0
-72 -85 -163 4323 0
-4324 73 0
-4324 86 0
-4324 164 0
-73 -86 -164 4324 0
-4325 74 0
-4325 87 0
-4325 165 0
-74 -87 -165 4325 0
-4326 75 0
-4326 88 0
-4326 166 0
-75 -88 -166 4326 0
-4327 76 0
-4327 89 0
-4327 167 0
-76 -89 -167 4327 0
-4328 77 0
-4328 90 0
-4328 168 0
-77 -90 -168 4328 0
-4329 78 0
-4329 91 0
-4329 169 0
-78 -91 -169 4329 0
-4317 5215 0
-4318 5215 0
-4319 5215 0
-4320 5215 0
-4321 5215 0
-4322 5215 0
-4323 5215 0
-4324 5215 0
-4325 5215 0
-4326 5215 0
-4327 5215 0
-4328 5215 0
-4329 5215 0
-5215 4317 4318 4319 4320 4321 4322 4323 4324 4325 4326 4327 4328 4329 0
-4330 66 0
-4330 92 0
-4330 105 0
-66 -92 -105 4330 0
-4331 67 0
-4331 93 0
-4331 106 0
-67 -93 -106 4331 0
-4332 68 0
-4332 94 0
-4332 107 0
-68 -94 -107 4332 0
-4333 69 0
-4333 95 0
-4333 108 0
-69 -95 -108 4333 0
-4334 70 0
-4334 96 0
-4334 109 0
-70 -96 -109 4334 0
-4335 71 0
-4335 97 0
-4335 110 0
-71 -97 -110 4335 0
-4336 72 0
-4336 98 0
-4336 111 0
-72 -98 -111 4336 0
-4337 73 0
-4337 99 0
-4337 112 0
-73 -99 -112 4337 0
-4338 74 0
-4338 100 0
-4338 113 0
-74 -100 -113 4338 0
-4339 75 0
-4339 101 0
-4339 114 0
-75 -101 -114 4339 0
-4340 76 0
-4340 102 0
-4340 115 0
-76 -102 -115 4340 0
-4341 77 0
-4341 103 0
-4341 116 0
-77 -103 -116 4341 0
-4342 78 0
-4342 104 0
-4342 117 0
-78 -104 -117 4342 0
-4330 5216 0
-4331 5216 0
-4332 5216 0
-4333 5216 0
-4334 5216 0
-4335 5216 0
-4336 5216 0
-4337 5216 0
-4338 5216 0
-4339 5216 0
-4340 5216 0
-4341 5216 0
-4342 5216 0
-5216 4330 4331 4332 4333 4334 4335 4336 4337 4338 4339 4340 4341 4342 0
-4343 66 0
-4343 92 0
-4343 118 0
-66 -92 -118 4343 0
-4344 67 0
-4344 93 0
-4344 119 0
-67 -93 -119 4344 0
-4345 68 0
-4345 94 0
-4345 120 0
-68 -94 -120 4345 0
-4346 69 0
-4346 95 0
-4346 121 0
-69 -95 -121 4346 0
-4347 70 0
-4347 96 0
-4347 122 0
-70 -96 -122 4347 0
-4348 71 0
-4348 97 0
-4348 123 0
-71 -97 -123 4348 0
-4349 72 0
-4349 98 0
-4349 124 0
-72 -98 -124 4349 0
-4350 73 0
-4350 99 0
-4350 125 0
-73 -99 -125 4350 0
-4351 74 0
-4351 100 0
-4351 126 0
-74 -100 -126 4351 0
-4352 75 0
-4352 101 0
-4352 127 0
-75 -101 -127 4352 0
-4353 76 0
-4353 102 0
-4353 128 0
-76 -102 -128 4353 0
-4354 77 0
-4354 103 0
-4354 129 0
-77 -103 -129 4354 0
-4355 78 0
-4355 104 0
-4355 130 0
-78 -104 -130 4355 0
-4343 5217 0
-4344 5217 0
-4345 5217 0
-4346 5217 0
-4347 5217 0
-4348 5217 0
-4349 5217 0
-4350 5217 0
-4351 5217 0
-4352 5217 0
-4353 5217 0
-4354 5217 0
-4355 5217 0
-5217 4343 4344 4345 4346 4347 4348 4349 4350 4351 4352 4353 4354 4355 0
-4356 66 0
-4356 92 0
-4356 131 0
-66 -92 -131 4356 0
-4357 67 0
-4357 93 0
-4357 132 0
-67 -93 -132 4357 0
-4358 68 0
-4358 94 0
-4358 133 0
-68 -94 -133 4358 0
-4359 69 0
-4359 95 0
-4359 134 0
-69 -95 -134 4359 0
-4360 70 0
-4360 96 0
-4360 135 0
-70 -96 -135 4360 0
-4361 71 0
-4361 97 0
-4361 136 0
-71 -97 -136 4361 0
-4362 72 0
-4362 98 0
-4362 137 0
-72 -98 -137 4362 0
-4363 73 0
-4363 99 0
-4363 138 0
-73 -99 -138 4363 0
-4364 74 0
-4364 100 0
-4364 139 0
-74 -100 -139 4364 0
-4365 75 0
-4365 101 0
-4365 140 0
-75 -101 -140 4365 0
-4366 76 0
-4366 102 0
-4366 141 0
-76 -102 -141 4366 0
-4367 77 0
-4367 103 0
-4367 142 0
-77 -103 -142 4367 0
-4368 78 0
-4368 104 0
-4368 143 0
-78 -104 -143 4368 0
-4356 5218 0
-4357 5218 0
-4358 5218 0
-4359 5218 0
-4360 5218 0
-4361 5218 0
-4362 5218 0
-4363 5218 0
-4364 5218 0
-4365 5218 0
-4366 5218 0
-4367 5218 0
-4368 5218 0
-5218 4356 4357 4358 4359 4360 4361 4362 4363 4364 4365 4366 4367 4368 0
-4369 66 0
-4369 92 0
-4369 144 0
-66 -92 -144 4369 0
-4370 67 0
-4370 93 0
-4370 145 0
-67 -93 -145 4370 0
-4371 68 0
-4371 94 0
-4371 146 0
-68 -94 -146 4371 0
-4372 69 0
-4372 95 0
-4372 147 0
-69 -95 -147 4372 0
-4373 70 0
-4373 96 0
-4373 148 0
-70 -96 -148 4373 0
-4374 71 0
-4374 97 0
-4374 149 0
-71 -97 -149 4374 0
-4375 72 0
-4375 98 0
-4375 150 0
-72 -98 -150 4375 0
-4376 73 0
-4376 99 0
-4376 151 0
-73 -99 -151 4376 0
-4377 74 0
-4377 100 0
-4377 152 0
-74 -100 -152 4377 0
-4378 75 0
-4378 101 0
-4378 153 0
-75 -101 -153 4378 0
-4379 76 0
-4379 102 0
-4379 154 0
-76 -102 -154 4379 0
-4380 77 0
-4380 103 0
-4380 155 0
-77 -103 -155 4380 0
-4381 78 0
-4381 104 0
-4381 156 0
-78 -104 -156 4381 0
-4369 5219 0
-4370 5219 0
-4371 5219 0
-4372 5219 0
-4373 5219 0
-4374 5219 0
-4375 5219 0
-4376 5219 0
-4377 5219 0
-4378 5219 0
-4379 5219 0
-4380 5219 0
-4381 5219 0
-5219 4369 4370 4371 4372 4373 4374 4375 4376 4377 4378 4379 4380 4381 0
-4382 66 0
-4382 92 0
-4382 157 0
-66 -92 -157 4382 0
-4383 67 0
-4383 93 0
-4383 158 0
-67 -93 -158 4383 0
-4384 68 0
-4384 94 0
-4384 159 0
-68 -94 -159 4384 0
-4385 69 0
-4385 95 0
-4385 160 0
-69 -95 -160 4385 0
-4386 70 0
-4386 96 0
-4386 161 0
-70 -96 -161 4386 0
-4387 71 0
-4387 97 0
-4387 162 0
-71 -97 -162 4387 0
-4388 72 0
-4388 98 0
-4388 163 0
-72 -98 -163 4388 0
-4389 73 0
-4389 99 0
-4389 164 0
-73 -99 -164 4389 0
-4390 74 0
-4390 100 0
-4390 165 0
-74 -100 -165 4390 0
-4391 75 0
-4391 101 0
-4391 166 0
-75 -101 -166 4391 0
-4392 76 0
-4392 102 0
-4392 167 0
-76 -102 -167 4392 0
-4393 77 0
-4393 103 0
-4393 168 0
-77 -103 -168 4393 0
-4394 78 0
-4394 104 0
-4394 169 0
-78 -104 -169 4394 0
-4382 5220 0
-4383 5220 0
-4384 5220 0
-4385 5220 0
-4386 5220 0
-4387 5220 0
-4388 5220 0
-4389 5220 0
-4390 5220 0
-4391 5220 0
-4392 5220 0
-4393 5220 0
-4394 5220 0
-5220 4382 4383 4384 4385 4386 4387 4388 4389 4390 4391 4392 4393 4394 0
-4395 66 0
-4395 105 0
-4395 118 0
-66 -105 -118 4395 0
-4396 67 0
-4396 106 0
-4396 119 0
-67 -106 -119 4396 0
-4397 68 0
-4397 107 0
-4397 120 0
-68 -107 -120 4397 0
-4398 69 0
-4398 108 0
-4398 121 0
-69 -108 -121 4398 0
-4399 70 0
-4399 109 0
-4399 122 0
-70 -109 -122 4399 0
-4400 71 0
-4400 110 0
-4400 123 0
-71 -110 -123 4400 0
-4401 72 0
-4401 111 0
-4401 124 0
-72 -111 -124 4401 0
-4402 73 0
-4402 112 0
-4402 125 0
-73 -112 -125 4402 0
-4403 74 0
-4403 113 0
-4403 126 0
-74 -113 -126 4403 0
-4404 75 0
-4404 114 0
-4404 127 0
-75 -114 -127 4404 0
-4405 76 0
-4405 115 0
-4405 128 0
-76 -115 -128 4405 0
-4406 77 0
-4406 116 0
-4406 129 0
-77 -116 -129 4406 0
-4407 78 0
-4407 117 0
-4407 130 0
-78 -117 -130 4407 0
-4395 5221 0
-4396 5221 0
-4397 5221 0
-4398 5221 0
-4399 5221 0
-4400 5221 0
-4401 5221 0
-4402 5221 0
-4403 5221 0
-4404 5221 0
-4405 5221 0
-4406 5221 0
-4407 5221 0
-5221 4395 4396 4397 4398 4399 4400 4401 4402 4403 4404 4405 4406 4407 0
-4408 66 0
-4408 105 0
-4408 131 0
-66 -105 -131 4408 0
-4409 67 0
-4409 106 0
-4409 132 0
-67 -106 -132 4409 0
-4410 68 0
-4410 107 0
-4410 133 0
-68 -107 -133 4410 0
-4411 69 0
-4411 108 0
-4411 134 0
-69 -108 -134 4411 0
-4412 70 0
-4412 109 0
-4412 135 0
-70 -109 -135 4412 0
-4413 71 0
-4413 110 0
-4413 136 0
-71 -110 -136 4413 0
-4414 72 0
-4414 111 0
-4414 137 0
-72 -111 -137 4414 0
-4415 73 0
-4415 112 0
-4415 138 0
-73 -112 -138 4415 0
-4416 74 0
-4416 113 0
-4416 139 0
-74 -113 -139 4416 0
-4417 75 0
-4417 114 0
-4417 140 0
-75 -114 -140 4417 0
-4418 76 0
-4418 115 0
-4418 141 0
-76 -115 -141 4418 0
-4419 77 0
-4419 116 0
-4419 142 0
-77 -116 -142 4419 0
-4420 78 0
-4420 117 0
-4420 143 0
-78 -117 -143 4420 0
-4408 5222 0
-4409 5222 0
-4410 5222 0
-4411 5222 0
-4412 5222 0
-4413 5222 0
-4414 5222 0
-4415 5222 0
-4416 5222 0
-4417 5222 0
-4418 5222 0
-4419 5222 0
-4420 5222 0
-5222 4408 4409 4410 4411 4412 4413 4414 4415 4416 4417 4418 4419 4420 0
-4421 66 0
-4421 105 0
-4421 144 0
-66 -105 -144 4421 0
-4422 67 0
-4422 106 0
-4422 145 0
-67 -106 -145 4422 0
-4423 68 0
-4423 107 0
-4423 146 0
-68 -107 -146 4423 0
-4424 69 0
-4424 108 0
-4424 147 0
-69 -108 -147 4424 0
-4425 70 0
-4425 109 0
-4425 148 0
-70 -109 -148 4425 0
-4426 71 0
-4426 110 0
-4426 149 0
-71 -110 -149 4426 0
-4427 72 0
-4427 111 0
-4427 150 0
-72 -111 -150 4427 0
-4428 73 0
-4428 112 0
-4428 151 0
-73 -112 -151 4428 0
-4429 74 0
-4429 113 0
-4429 152 0
-74 -113 -152 4429 0
-4430 75 0
-4430 114 0
-4430 153 0
-75 -114 -153 4430 0
-4431 76 0
-4431 115 0
-4431 154 0
-76 -115 -154 4431 0
-4432 77 0
-4432 116 0
-4432 155 0
-77 -116 -155 4432 0
-4433 78 0
-4433 117 0
-4433 156 0
-78 -117 -156 4433 0
-4421 5223 0
-4422 5223 0
-4423 5223 0
-4424 5223 0
-4425 5223 0
-4426 5223 0
-4427 5223 0
-4428 5223 0
-4429 5223 0
-4430 5223 0
-4431 5223 0
-4432 5223 0
-4433 5223 0
-5223 4421 4422 4423 4424 4425 4426 4427 4428 4429 4430 4431 4432 4433 0
-4434 66 0
-4434 105 0
-4434 157 0
-66 -105 -157 4434 0
-4435 67 0
-4435 106 0
-4435 158 0
-67 -106 -158 4435 0
-4436 68 0
-4436 107 0
-4436 159 0
-68 -107 -159 4436 0
-4437 69 0
-4437 108 0
-4437 160 0
-69 -108 -160 4437 0
-4438 70 0
-4438 109 0
-4438 161 0
-70 -109 -161 4438 0
-4439 71 0
-4439 110 0
-4439 162 0
-71 -110 -162 4439 0
-4440 72 0
-4440 111 0
-4440 163 0
-72 -111 -163 4440 0
-4441 73 0
-4441 112 0
-4441 164 0
-73 -112 -164 4441 0
-4442 74 0
-4442 113 0
-4442 165 0
-74 -113 -165 4442 0
-4443 75 0
-4443 114 0
-4443 166 0
-75 -114 -166 4443 0
-4444 76 0
-4444 115 0
-4444 167 0
-76 -115 -167 4444 0
-4445 77 0
-4445 116 0
-4445 168 0
-77 -116 -168 4445 0
-4446 78 0
-4446 117 0
-4446 169 0
-78 -117 -169 4446 0
-4434 5224 0
-4435 5224 0
-4436 5224 0
-4437 5224 0
-4438 5224 0
-4439 5224 0
-4440 5224 0
-4441 5224 0
-4442 5224 0
-4443 5224 0
-4444 5224 0
-4445 5224 0
-4446 5224 0
-5224 4434 4435 4436 4437 4438 4439 4440 4441 4442 4443 4444 4445 4446 0
-4447 66 0
-4447 118 0
-4447 131 0
-66 -118 -131 4447 0
-4448 67 0
-4448 119 0
-4448 132 0
-67 -119 -132 4448 0
-4449 68 0
-4449 120 0
-4449 133 0
-68 -120 -133 4449 0
-4450 69 0
-4450 121 0
-4450 134 0
-69 -121 -134 4450 0
-4451 70 0
-4451 122 0
-4451 135 0
-70 -122 -135 4451 0
-4452 71 0
-4452 123 0
-4452 136 0
-71 -123 -136 4452 0
-4453 72 0
-4453 124 0
-4453 137 0
-72 -124 -137 4453 0
-4454 73 0
-4454 125 0
-4454 138 0
-73 -125 -138 4454 0
-4455 74 0
-4455 126 0
-4455 139 0
-74 -126 -139 4455 0
-4456 75 0
-4456 127 0
-4456 140 0
-75 -127 -140 4456 0
-4457 76 0
-4457 128 0
-4457 141 0
-76 -128 -141 4457 0
-4458 77 0
-4458 129 0
-4458 142 0
-77 -129 -142 4458 0
-4459 78 0
-4459 130 0
-4459 143 0
-78 -130 -143 4459 0
-4447 5225 0
-4448 5225 0
-4449 5225 0
-4450 5225 0
-4451 5225 0
-4452 5225 0
-4453 5225 0
-4454 5225 0
-4455 5225 0
-4456 5225 0
-4457 5225 0
-4458 5225 0
-4459 5225 0
-5225 4447 4448 4449 4450 4451 4452 4453 4454 4455 4456 4457 4458 4459 0
-4460 66 0
-4460 118 0
-4460 144 0
-66 -118 -144 4460 0
-4461 67 0
-4461 119 0
-4461 145 0
-67 -119 -145 4461 0
-4462 68 0
-4462 120 0
-4462 146 0
-68 -120 -146 4462 0
-4463 69 0
-4463 121 0
-4463 147 0
-69 -121 -147 4463 0
-4464 70 0
-4464 122 0
-4464 148 0
-70 -122 -148 4464 0
-4465 71 0
-4465 123 0
-4465 149 0
-71 -123 -149 4465 0
-4466 72 0
-4466 124 0
-4466 150 0
-72 -124 -150 4466 0
-4467 73 0
-4467 125 0
-4467 151 0
-73 -125 -151 4467 0
-4468 74 0
-4468 126 0
-4468 152 0
-74 -126 -152 4468 0
-4469 75 0
-4469 127 0
-4469 153 0
-75 -127 -153 4469 0
-4470 76 0
-4470 128 0
-4470 154 0
-76 -128 -154 4470 0
-4471 77 0
-4471 129 0
-4471 155 0
-77 -129 -155 4471 0
-4472 78 0
-4472 130 0
-4472 156 0
-78 -130 -156 4472 0
-4460 5226 0
-4461 5226 0
-4462 5226 0
-4463 5226 0
-4464 5226 0
-4465 5226 0
-4466 5226 0
-4467 5226 0
-4468 5226 0
-4469 5226 0
-4470 5226 0
-4471 5226 0
-4472 5226 0
-5226 4460 4461 4462 4463 4464 4465 4466 4467 4468 4469 4470 4471 4472 0
-4473 66 0
-4473 118 0
-4473 157 0
-66 -118 -157 4473 0
-4474 67 0
-4474 119 0
-4474 158 0
-67 -119 -158 4474 0
-4475 68 0
-4475 120 0
-4475 159 0
-68 -120 -159 4475 0
-4476 69 0
-4476 121 0
-4476 160 0
-69 -121 -160 4476 0
-4477 70 0
-4477 122 0
-4477 161 0
-70 -122 -161 4477 0
-4478 71 0
-4478 123 0
-4478 162 0
-71 -123 -162 4478 0
-4479 72 0
-4479 124 0
-4479 163 0
-72 -124 -163 4479 0
-4480 73 0
-4480 125 0
-4480 164 0
-73 -125 -164 4480 0
-4481 74 0
-4481 126 0
-4481 165 0
-74 -126 -165 4481 0
-4482 75 0
-4482 127 0
-4482 166 0
-75 -127 -166 4482 0
-4483 76 0
-4483 128 0
-4483 167 0
-76 -128 -167 4483 0
-4484 77 0
-4484 129 0
-4484 168 0
-77 -129 -168 4484 0
-4485 78 0
-4485 130 0
-4485 169 0
-78 -130 -169 4485 0
-4473 5227 0
-4474 5227 0
-4475 5227 0
-4476 5227 0
-4477 5227 0
-4478 5227 0
-4479 5227 0
-4480 5227 0
-4481 5227 0
-4482 5227 0
-4483 5227 0
-4484 5227 0
-4485 5227 0
-5227 4473 4474 4475 4476 4477 4478 4479 4480 4481 4482 4483 4484 4485 0
-4486 66 0
-4486 131 0
-4486 144 0
-66 -131 -144 4486 0
-4487 67 0
-4487 132 0
-4487 145 0
-67 -132 -145 4487 0
-4488 68 0
-4488 133 0
-4488 146 0
-68 -133 -146 4488 0
-4489 69 0
-4489 134 0
-4489 147 0
-69 -134 -147 4489 0
-4490 70 0
-4490 135 0
-4490 148 0
-70 -135 -148 4490 0
-4491 71 0
-4491 136 0
-4491 149 0
-71 -136 -149 4491 0
-4492 72 0
-4492 137 0
-4492 150 0
-72 -137 -150 4492 0
-4493 73 0
-4493 138 0
-4493 151 0
-73 -138 -151 4493 0
-4494 74 0
-4494 139 0
-4494 152 0
-74 -139 -152 4494 0
-4495 75 0
-4495 140 0
-4495 153 0
-75 -140 -153 4495 0
-4496 76 0
-4496 141 0
-4496 154 0
-76 -141 -154 4496 0
-4497 77 0
-4497 142 0
-4497 155 0
-77 -142 -155 4497 0
-4498 78 0
-4498 143 0
-4498 156 0
-78 -143 -156 4498 0
-4486 5228 0
-4487 5228 0
-4488 5228 0
-4489 5228 0
-4490 5228 0
-4491 5228 0
-4492 5228 0
-4493 5228 0
-4494 5228 0
-4495 5228 0
-4496 5228 0
-4497 5228 0
-4498 5228 0
-5228 4486 4487 4488 4489 4490 4491 4492 4493 4494 4495 4496 4497 4498 0
-4499 66 0
-4499 131 0
-4499 157 0
-66 -131 -157 4499 0
-4500 67 0
-4500 132 0
-4500 158 0
-67 -132 -158 4500 0
-4501 68 0
-4501 133 0
-4501 159 0
-68 -133 -159 4501 0
-4502 69 0
-4502 134 0
-4502 160 0
-69 -134 -160 4502 0
-4503 70 0
-4503 135 0
-4503 161 0
-70 -135 -161 4503 0
-4504 71 0
-4504 136 0
-4504 162 0
-71 -136 -162 4504 0
-4505 72 0
-4505 137 0
-4505 163 0
-72 -137 -163 4505 0
-4506 73 0
-4506 138 0
-4506 164 0
-73 -138 -164 4506 0
-4507 74 0
-4507 139 0
-4507 165 0
-74 -139 -165 4507 0
-4508 75 0
-4508 140 0
-4508 166 0
-75 -140 -166 4508 0
-4509 76 0
-4509 141 0
-4509 167 0
-76 -141 -167 4509 0
-4510 77 0
-4510 142 0
-4510 168 0
-77 -142 -168 4510 0
-4511 78 0
-4511 143 0
-4511 169 0
-78 -143 -169 4511 0
-4499 5229 0
-4500 5229 0
-4501 5229 0
-4502 5229 0
-4503 5229 0
-4504 5229 0
-4505 5229 0
-4506 5229 0
-4507 5229 0
-4508 5229 0
-4509 5229 0
-4510 5229 0
-4511 5229 0
-5229 4499 4500 4501 4502 4503 4504 4505 4506 4507 4508 4509 4510 4511 0
-4512 66 0
-4512 144 0
-4512 157 0
-66 -144 -157 4512 0
-4513 67 0
-4513 145 0
-4513 158 0
-67 -145 -158 4513 0
-4514 68 0
-4514 146 0
-4514 159 0
-68 -146 -159 4514 0
-4515 69 0
-4515 147 0
-4515 160 0
-69 -147 -160 4515 0
-4516 70 0
-4516 148 0
-4516 161 0
-70 -148 -161 4516 0
-4517 71 0
-4517 149 0
-4517 162 0
-71 -149 -162 4517 0
-4518 72 0
-4518 150 0
-4518 163 0
-72 -150 -163 4518 0
-4519 73 0
-4519 151 0
-4519 164 0
-73 -151 -164 4519 0
-4520 74 0
-4520 152 0
-4520 165 0
-74 -152 -165 4520 0
-4521 75 0
-4521 153 0
-4521 166 0
-75 -153 -166 4521 0
-4522 76 0
-4522 154 0
-4522 167 0
-76 -154 -167 4522 0
-4523 77 0
-4523 155 0
-4523 168 0
-77 -155 -168 4523 0
-4524 78 0
-4524 156 0
-4524 169 0
-78 -156 -169 4524 0
-4512 5230 0
-4513 5230 0
-4514 5230 0
-4515 5230 0
-4516 5230 0
-4517 5230 0
-4518 5230 0
-4519 5230 0
-4520 5230 0
-4521 5230 0
-4522 5230 0
-4523 5230 0
-4524 5230 0
-5230 4512 4513 4514 4515 4516 4517 4518 4519 4520 4521 4522 4523 4524 0
-4525 79 0
-4525 92 0
-4525 105 0
-79 -92 -105 4525 0
-4526 80 0
-4526 93 0
-4526 106 0
-80 -93 -106 4526 0
-4527 81 0
-4527 94 0
-4527 107 0
-81 -94 -107 4527 0
-4528 82 0
-4528 95 0
-4528 108 0
-82 -95 -108 4528 0
-4529 83 0
-4529 96 0
-4529 109 0
-83 -96 -109 4529 0
-4530 84 0
-4530 97 0
-4530 110 0
-84 -97 -110 4530 0
-4531 85 0
-4531 98 0
-4531 111 0
-85 -98 -111 4531 0
-4532 86 0
-4532 99 0
-4532 112 0
-86 -99 -112 4532 0
-4533 87 0
-4533 100 0
-4533 113 0
-87 -100 -113 4533 0
-4534 88 0
-4534 101 0
-4534 114 0
-88 -101 -114 4534 0
-4535 89 0
-4535 102 0
-4535 115 0
-89 -102 -115 4535 0
-4536 90 0
-4536 103 0
-4536 116 0
-90 -103 -116 4536 0
-4537 91 0
-4537 104 0
-4537 117 0
-91 -104 -117 4537 0
-4525 5231 0
-4526 5231 0
-4527 5231 0
-4528 5231 0
-4529 5231 0
-4530 5231 0
-4531 5231 0
-4532 5231 0
-4533 5231 0
-4534 5231 0
-4535 5231 0
-4536 5231 0
-4537 5231 0
-5231 4525 4526 4527 4528 4529 4530 4531 4532 4533 4534 4535 4536 4537 0
-4538 79 0
-4538 92 0
-4538 118 0
-79 -92 -118 4538 0
-4539 80 0
-4539 93 0
-4539 119 0
-80 -93 -119 4539 0
-4540 81 0
-4540 94 0
-4540 120 0
-81 -94 -120 4540 0
-4541 82 0
-4541 95 0
-4541 121 0
-82 -95 -121 4541 0
-4542 83 0
-4542 96 0
-4542 122 0
-83 -96 -122 4542 0
-4543 84 0
-4543 97 0
-4543 123 0
-84 -97 -123 4543 0
-4544 85 0
-4544 98 0
-4544 124 0
-85 -98 -124 4544 0
-4545 86 0
-4545 99 0
-4545 125 0
-86 -99 -125 4545 0
-4546 87 0
-4546 100 0
-4546 126 0
-87 -100 -126 4546 0
-4547 88 0
-4547 101 0
-4547 127 0
-88 -101 -127 4547 0
-4548 89 0
-4548 102 0
-4548 128 0
-89 -102 -128 4548 0
-4549 90 0
-4549 103 0
-4549 129 0
-90 -103 -129 4549 0
-4550 91 0
-4550 104 0
-4550 130 0
-91 -104 -130 4550 0
-4538 5232 0
-4539 5232 0
-4540 5232 0
-4541 5232 0
-4542 5232 0
-4543 5232 0
-4544 5232 0
-4545 5232 0
-4546 5232 0
-4547 5232 0
-4548 5232 0
-4549 5232 0
-4550 5232 0
-5232 4538 4539 4540 4541 4542 4543 4544 4545 4546 4547 4548 4549 4550 0
-4551 79 0
-4551 92 0
-4551 131 0
-79 -92 -131 4551 0
-4552 80 0
-4552 93 0
-4552 132 0
-80 -93 -132 4552 0
-4553 81 0
-4553 94 0
-4553 133 0
-81 -94 -133 4553 0
-4554 82 0
-4554 95 0
-4554 134 0
-82 -95 -134 4554 0
-4555 83 0
-4555 96 0
-4555 135 0
-83 -96 -135 4555 0
-4556 84 0
-4556 97 0
-4556 136 0
-84 -97 -136 4556 0
-4557 85 0
-4557 98 0
-4557 137 0
-85 -98 -137 4557 0
-4558 86 0
-4558 99 0
-4558 138 0
-86 -99 -138 4558 0
-4559 87 0
-4559 100 0
-4559 139 0
-87 -100 -139 4559 0
-4560 88 0
-4560 101 0
-4560 140 0
-88 -101 -140 4560 0
-4561 89 0
-4561 102 0
-4561 141 0
-89 -102 -141 4561 0
-4562 90 0
-4562 103 0
-4562 142 0
-90 -103 -142 4562 0
-4563 91 0
-4563 104 0
-4563 143 0
-91 -104 -143 4563 0
-4551 5233 0
-4552 5233 0
-4553 5233 0
-4554 5233 0
-4555 5233 0
-4556 5233 0
-4557 5233 0
-4558 5233 0
-4559 5233 0
-4560 5233 0
-4561 5233 0
-4562 5233 0
-4563 5233 0
-5233 4551 4552 4553 4554 4555 4556 4557 4558 4559 4560 4561 4562 4563 0
-4564 79 0
-4564 92 0
-4564 144 0
-79 -92 -144 4564 0
-4565 80 0
-4565 93 0
-4565 145 0
-80 -93 -145 4565 0
-4566 81 0
-4566 94 0
-4566 146 0
-81 -94 -146 4566 0
-4567 82 0
-4567 95 0
-4567 147 0
-82 -95 -147 4567 0
-4568 83 0
-4568 96 0
-4568 148 0
-83 -96 -148 4568 0
-4569 84 0
-4569 97 0
-4569 149 0
-84 -97 -149 4569 0
-4570 85 0
-4570 98 0
-4570 150 0
-85 -98 -150 4570 0
-4571 86 0
-4571 99 0
-4571 151 0
-86 -99 -151 4571 0
-4572 87 0
-4572 100 0
-4572 152 0
-87 -100 -152 4572 0
-4573 88 0
-4573 101 0
-4573 153 0
-88 -101 -153 4573 0
-4574 89 0
-4574 102 0
-4574 154 0
-89 -102 -154 4574 0
-4575 90 0
-4575 103 0
-4575 155 0
-90 -103 -155 4575 0
-4576 91 0
-4576 104 0
-4576 156 0
-91 -104 -156 4576 0
-4564 5234 0
-4565 5234 0
-4566 5234 0
-4567 5234 0
-4568 5234 0
-4569 5234 0
-4570 5234 0
-4571 5234 0
-4572 5234 0
-4573 5234 0
-4574 5234 0
-4575 5234 0
-4576 5234 0
-5234 4564 4565 4566 4567 4568 4569 4570 4571 4572 4573 4574 4575 4576 0
-4577 79 0
-4577 92 0
-4577 157 0
-79 -92 -157 4577 0
-4578 80 0
-4578 93 0
-4578 158 0
-80 -93 -158 4578 0
-4579 81 0
-4579 94 0
-4579 159 0
-81 -94 -159 4579 0
-4580 82 0
-4580 95 0
-4580 160 0
-82 -95 -160 4580 0
-4581 83 0
-4581 96 0
-4581 161 0
-83 -96 -161 4581 0
-4582 84 0
-4582 97 0
-4582 162 0
-84 -97 -162 4582 0
-4583 85 0
-4583 98 0
-4583 163 0
-85 -98 -163 4583 0
-4584 86 0
-4584 99 0
-4584 164 0
-86 -99 -164 4584 0
-4585 87 0
-4585 100 0
-4585 165 0
-87 -100 -165 4585 0
-4586 88 0
-4586 101 0
-4586 166 0
-88 -101 -166 4586 0
-4587 89 0
-4587 102 0
-4587 167 0
-89 -102 -167 4587 0
-4588 90 0
-4588 103 0
-4588 168 0
-90 -103 -168 4588 0
-4589 91 0
-4589 104 0
-4589 169 0
-91 -104 -169 4589 0
-4577 5235 0
-4578 5235 0
-4579 5235 0
-4580 5235 0
-4581 5235 0
-4582 5235 0
-4583 5235 0
-4584 5235 0
-4585 5235 0
-4586 5235 0
-4587 5235 0
-4588 5235 0
-4589 5235 0
-5235 4577 4578 4579 4580 4581 4582 4583 4584 4585 4586 4587 4588 4589 0
-4590 79 0
-4590 105 0
-4590 118 0
-79 -105 -118 4590 0
-4591 80 0
-4591 106 0
-4591 119 0
-80 -106 -119 4591 0
-4592 81 0
-4592 107 0
-4592 120 0
-81 -107 -120 4592 0
-4593 82 0
-4593 108 0
-4593 121 0
-82 -108 -121 4593 0
-4594 83 0
-4594 109 0
-4594 122 0
-83 -109 -122 4594 0
-4595 84 0
-4595 110 0
-4595 123 0
-84 -110 -123 4595 0
-4596 85 0
-4596 111 0
-4596 124 0
-85 -111 -124 4596 0
-4597 86 0
-4597 112 0
-4597 125 0
-86 -112 -125 4597 0
-4598 87 0
-4598 113 0
-4598 126 0
-87 -113 -126 4598 0
-4599 88 0
-4599 114 0
-4599 127 0
-88 -114 -127 4599 0
-4600 89 0
-4600 115 0
-4600 128 0
-89 -115 -128 4600 0
-4601 90 0
-4601 116 0
-4601 129 0
-90 -116 -129 4601 0
-4602 91 0
-4602 117 0
-4602 130 0
-91 -117 -130 4602 0
-4590 5236 0
-4591 5236 0
-4592 5236 0
-4593 5236 0
-4594 5236 0
-4595 5236 0
-4596 5236 0
-4597 5236 0
-4598 5236 0
-4599 5236 0
-4600 5236 0
-4601 5236 0
-4602 5236 0
-5236 4590 4591 4592 4593 4594 4595 4596 4597 4598 4599 4600 4601 4602 0
-4603 79 0
-4603 105 0
-4603 131 0
-79 -105 -131 4603 0
-4604 80 0
-4604 106 0
-4604 132 0
-80 -106 -132 4604 0
-4605 81 0
-4605 107 0
-4605 133 0
-81 -107 -133 4605 0
-4606 82 0
-4606 108 0
-4606 134 0
-82 -108 -134 4606 0
-4607 83 0
-4607 109 0
-4607 135 0
-83 -109 -135 4607 0
-4608 84 0
-4608 110 0
-4608 136 0
-84 -110 -136 4608 0
-4609 85 0
-4609 111 0
-4609 137 0
-85 -111 -137 4609 0
-4610 86 0
-4610 112 0
-4610 138 0
-86 -112 -138 4610 0
-4611 87 0
-4611 113 0
-4611 139 0
-87 -113 -139 4611 0
-4612 88 0
-4612 114 0
-4612 140 0
-88 -114 -140 4612 0
-4613 89 0
-4613 115 0
-4613 141 0
-89 -115 -141 4613 0
-4614 90 0
-4614 116 0
-4614 142 0
-90 -116 -142 4614 0
-4615 91 0
-4615 117 0
-4615 143 0
-91 -117 -143 4615 0
-4603 5237 0
-4604 5237 0
-4605 5237 0
-4606 5237 0
-4607 5237 0
-4608 5237 0
-4609 5237 0
-4610 5237 0
-4611 5237 0
-4612 5237 0
-4613 5237 0
-4614 5237 0
-4615 5237 0
-5237 4603 4604 4605 4606 4607 4608 4609 4610 4611 4612 4613 4614 4615 0
-4616 79 0
-4616 105 0
-4616 144 0
-79 -105 -144 4616 0
-4617 80 0
-4617 106 0
-4617 145 0
-80 -106 -145 4617 0
-4618 81 0
-4618 107 0
-4618 146 0
-81 -107 -146 4618 0
-4619 82 0
-4619 108 0
-4619 147 0
-82 -108 -147 4619 0
-4620 83 0
-4620 109 0
-4620 148 0
-83 -109 -148 4620 0
-4621 84 0
-4621 110 0
-4621 149 0
-84 -110 -149 4621 0
-4622 85 0
-4622 111 0
-4622 150 0
-85 -111 -150 4622 0
-4623 86 0
-4623 112 0
-4623 151 0
-86 -112 -151 4623 0
-4624 87 0
-4624 113 0
-4624 152 0
-87 -113 -152 4624 0
-4625 88 0
-4625 114 0
-4625 153 0
-88 -114 -153 4625 0
-4626 89 0
-4626 115 0
-4626 154 0
-89 -115 -154 4626 0
-4627 90 0
-4627 116 0
-4627 155 0
-90 -116 -155 4627 0
-4628 91 0
-4628 117 0
-4628 156 0
-91 -117 -156 4628 0
-4616 5238 0
-4617 5238 0
-4618 5238 0
-4619 5238 0
-4620 5238 0
-4621 5238 0
-4622 5238 0
-4623 5238 0
-4624 5238 0
-4625 5238 0
-4626 5238 0
-4627 5238 0
-4628 5238 0
-5238 4616 4617 4618 4619 4620 4621 4622 4623 4624 4625 4626 4627 4628 0
-4629 79 0
-4629 105 0
-4629 157 0
-79 -105 -157 4629 0
-4630 80 0
-4630 106 0
-4630 158 0
-80 -106 -158 4630 0
-4631 81 0
-4631 107 0
-4631 159 0
-81 -107 -159 4631 0
-4632 82 0
-4632 108 0
-4632 160 0
-82 -108 -160 4632 0
-4633 83 0
-4633 109 0
-4633 161 0
-83 -109 -161 4633 0
-4634 84 0
-4634 110 0
-4634 162 0
-84 -110 -162 4634 0
-4635 85 0
-4635 111 0
-4635 163 0
-85 -111 -163 4635 0
-4636 86 0
-4636 112 0
-4636 164 0
-86 -112 -164 4636 0
-4637 87 0
-4637 113 0
-4637 165 0
-87 -113 -165 4637 0
-4638 88 0
-4638 114 0
-4638 166 0
-88 -114 -166 4638 0
-4639 89 0
-4639 115 0
-4639 167 0
-89 -115 -167 4639 0
-4640 90 0
-4640 116 0
-4640 168 0
-90 -116 -168 4640 0
-4641 91 0
-4641 117 0
-4641 169 0
-91 -117 -169 4641 0
-4629 5239 0
-4630 5239 0
-4631 5239 0
-4632 5239 0
-4633 5239 0
-4634 5239 0
-4635 5239 0
-4636 5239 0
-4637 5239 0
-4638 5239 0
-4639 5239 0
-4640 5239 0
-4641 5239 0
-5239 4629 4630 4631 4632 4633 4634 4635 4636 4637 4638 4639 4640 4641 0
-4642 79 0
-4642 118 0
-4642 131 0
-79 -118 -131 4642 0
-4643 80 0
-4643 119 0
-4643 132 0
-80 -119 -132 4643 0
-4644 81 0
-4644 120 0
-4644 133 0
-81 -120 -133 4644 0
-4645 82 0
-4645 121 0
-4645 134 0
-82 -121 -134 4645 0
-4646 83 0
-4646 122 0
-4646 135 0
-83 -122 -135 4646 0
-4647 84 0
-4647 123 0
-4647 136 0
-84 -123 -136 4647 0
-4648 85 0
-4648 124 0
-4648 137 0
-85 -124 -137 4648 0
-4649 86 0
-4649 125 0
-4649 138 0
-86 -125 -138 4649 0
-4650 87 0
-4650 126 0
-4650 139 0
-87 -126 -139 4650 0
-4651 88 0
-4651 127 0
-4651 140 0
-88 -127 -140 4651 0
-4652 89 0
-4652 128 0
-4652 141 0
-89 -128 -141 4652 0
-4653 90 0
-4653 129 0
-4653 142 0
-90 -129 -142 4653 0
-4654 91 0
-4654 130 0
-4654 143 0
-91 -130 -143 4654 0
-4642 5240 0
-4643 5240 0
-4644 5240 0
-4645 5240 0
-4646 5240 0
-4647 5240 0
-4648 5240 0
-4649 5240 0
-4650 5240 0
-4651 5240 0
-4652 5240 0
-4653 5240 0
-4654 5240 0
-5240 4642 4643 4644 4645 4646 4647 4648 4649 4650 4651 4652 4653 4654 0
-4655 79 0
-4655 118 0
-4655 144 0
-79 -118 -144 4655 0
-4656 80 0
-4656 119 0
-4656 145 0
-80 -119 -145 4656 0
-4657 81 0
-4657 120 0
-4657 146 0
-81 -120 -146 4657 0
-4658 82 0
-4658 121 0
-4658 147 0
-82 -121 -147 4658 0
-4659 83 0
-4659 122 0
-4659 148 0
-83 -122 -148 4659 0
-4660 84 0
-4660 123 0
-4660 149 0
-84 -123 -149 4660 0
-4661 85 0
-4661 124 0
-4661 150 0
-85 -124 -150 4661 0
-4662 86 0
-4662 125 0
-4662 151 0
-86 -125 -151 4662 0
-4663 87 0
-4663 126 0
-4663 152 0
-87 -126 -152 4663 0
-4664 88 0
-4664 127 0
-4664 153 0
-88 -127 -153 4664 0
-4665 89 0
-4665 128 0
-4665 154 0
-89 -128 -154 4665 0
-4666 90 0
-4666 129 0
-4666 155 0
-90 -129 -155 4666 0
-4667 91 0
-4667 130 0
-4667 156 0
-91 -130 -156 4667 0
-4655 5241 0
-4656 5241 0
-4657 5241 0
-4658 5241 0
-4659 5241 0
-4660 5241 0
-4661 5241 0
-4662 5241 0
-4663 5241 0
-4664 5241 0
-4665 5241 0
-4666 5241 0
-4667 5241 0
-5241 4655 4656 4657 4658 4659 4660 4661 4662 4663 4664 4665 4666 4667 0
-4668 79 0
-4668 118 0
-4668 157 0
-79 -118 -157 4668 0
-4669 80 0
-4669 119 0
-4669 158 0
-80 -119 -158 4669 0
-4670 81 0
-4670 120 0
-4670 159 0
-81 -120 -159 4670 0
-4671 82 0
-4671 121 0
-4671 160 0
-82 -121 -160 4671 0
-4672 83 0
-4672 122 0
-4672 161 0
-83 -122 -161 4672 0
-4673 84 0
-4673 123 0
-4673 162 0
-84 -123 -162 4673 0
-4674 85 0
-4674 124 0
-4674 163 0
-85 -124 -163 4674 0
-4675 86 0
-4675 125 0
-4675 164 0
-86 -125 -164 4675 0
-4676 87 0
-4676 126 0
-4676 165 0
-87 -126 -165 4676 0
-4677 88 0
-4677 127 0
-4677 166 0
-88 -127 -166 4677 0
-4678 89 0
-4678 128 0
-4678 167 0
-89 -128 -167 4678 0
-4679 90 0
-4679 129 0
-4679 168 0
-90 -129 -168 4679 0
-4680 91 0
-4680 130 0
-4680 169 0
-91 -130 -169 4680 0
-4668 5242 0
-4669 5242 0
-4670 5242 0
-4671 5242 0
-4672 5242 0
-4673 5242 0
-4674 5242 0
-4675 5242 0
-4676 5242 0
-4677 5242 0
-4678 5242 0
-4679 5242 0
-4680 5242 0
-5242 4668 4669 4670 4671 4672 4673 4674 4675 4676 4677 4678 4679 4680 0
-4681 79 0
-4681 131 0
-4681 144 0
-79 -131 -144 4681 0
-4682 80 0
-4682 132 0
-4682 145 0
-80 -132 -145 4682 0
-4683 81 0
-4683 133 0
-4683 146 0
-81 -133 -146 4683 0
-4684 82 0
-4684 134 0
-4684 147 0
-82 -134 -147 4684 0
-4685 83 0
-4685 135 0
-4685 148 0
-83 -135 -148 4685 0
-4686 84 0
-4686 136 0
-4686 149 0
-84 -136 -149 4686 0
-4687 85 0
-4687 137 0
-4687 150 0
-85 -137 -150 4687 0
-4688 86 0
-4688 138 0
-4688 151 0
-86 -138 -151 4688 0
-4689 87 0
-4689 139 0
-4689 152 0
-87 -139 -152 4689 0
-4690 88 0
-4690 140 0
-4690 153 0
-88 -140 -153 4690 0
-4691 89 0
-4691 141 0
-4691 154 0
-89 -141 -154 4691 0
-4692 90 0
-4692 142 0
-4692 155 0
-90 -142 -155 4692 0
-4693 91 0
-4693 143 0
-4693 156 0
-91 -143 -156 4693 0
-4681 5243 0
-4682 5243 0
-4683 5243 0
-4684 5243 0
-4685 5243 0
-4686 5243 0
-4687 5243 0
-4688 5243 0
-4689 5243 0
-4690 5243 0
-4691 5243 0
-4692 5243 0
-4693 5243 0
-5243 4681 4682 4683 4684 4685 4686 4687 4688 4689 4690 4691 4692 4693 0
-4694 79 0
-4694 131 0
-4694 157 0
-79 -131 -157 4694 0
-4695 80 0
-4695 132 0
-4695 158 0
-80 -132 -158 4695 0
-4696 81 0
-4696 133 0
-4696 159 0
-81 -133 -159 4696 0
-4697 82 0
-4697 134 0
-4697 160 0
-82 -134 -160 4697 0
-4698 83 0
-4698 135 0
-4698 161 0
-83 -135 -161 4698 0
-4699 84 0
-4699 136 0
-4699 162 0
-84 -136 -162 4699 0
-4700 85 0
-4700 137 0
-4700 163 0
-85 -137 -163 4700 0
-4701 86 0
-4701 138 0
-4701 164 0
-86 -138 -164 4701 0
-4702 87 0
-4702 139 0
-4702 165 0
-87 -139 -165 4702 0
-4703 88 0
-4703 140 0
-4703 166 0
-88 -140 -166 4703 0
-4704 89 0
-4704 141 0
-4704 167 0
-89 -141 -167 4704 0
-4705 90 0
-4705 142 0
-4705 168 0
-90 -142 -168 4705 0
-4706 91 0
-4706 143 0
-4706 169 0
-91 -143 -169 4706 0
-4694 5244 0
-4695 5244 0
-4696 5244 0
-4697 5244 0
-4698 5244 0
-4699 5244 0
-4700 5244 0
-4701 5244 0
-4702 5244 0
-4703 5244 0
-4704 5244 0
-4705 5244 0
-4706 5244 0
-5244 4694 4695 4696 4697 4698 4699 4700 4701 4702 4703 4704 4705 4706 0
-4707 79 0
-4707 144 0
-4707 157 0
-79 -144 -157 4707 0
-4708 80 0
-4708 145 0
-4708 158 0
-80 -145 -158 4708 0
-4709 81 0
-4709 146 0
-4709 159 0
-81 -146 -159 4709 0
-4710 82 0
-4710 147 0
-4710 160 0
-82 -147 -160 4710 0
-4711 83 0
-4711 148 0
-4711 161 0
-83 -148 -161 4711 0
-4712 84 0
-4712 149 0
-4712 162 0
-84 -149 -162 4712 0
-4713 85 0
-4713 150 0
-4713 163 0
-85 -150 -163 4713 0
-4714 86 0
-4714 151 0
-4714 164 0
-86 -151 -164 4714 0
-4715 87 0
-4715 152 0
-4715 165 0
-87 -152 -165 4715 0
-4716 88 0
-4716 153 0
-4716 166 0
-88 -153 -166 4716 0
-4717 89 0
-4717 154 0
-4717 167 0
-89 -154 -167 4717 0
-4718 90 0
-4718 155 0
-4718 168 0
-90 -155 -168 4718 0
-4719 91 0
-4719 156 0
-4719 169 0
-91 -156 -169 4719 0
-4707 5245 0
-4708 5245 0
-4709 5245 0
-4710 5245 0
-4711 5245 0
-4712 5245 0
-4713 5245 0
-4714 5245 0
-4715 5245 0
-4716 5245 0
-4717 5245 0
-4718 5245 0
-4719 5245 0
-5245 4707 4708 4709 4710 4711 4712 4713 4714 4715 4716 4717 4718 4719 0
-4720 92 0
-4720 105 0
-4720 118 0
-92 -105 -118 4720 0
-4721 93 0
-4721 106 0
-4721 119 0
-93 -106 -119 4721 0
-4722 94 0
-4722 107 0
-4722 120 0
-94 -107 -120 4722 0
-4723 95 0
-4723 108 0
-4723 121 0
-95 -108 -121 4723 0
-4724 96 0
-4724 109 0
-4724 122 0
-96 -109 -122 4724 0
-4725 97 0
-4725 110 0
-4725 123 0
-97 -110 -123 4725 0
-4726 98 0
-4726 111 0
-4726 124 0
-98 -111 -124 4726 0
-4727 99 0
-4727 112 0
-4727 125 0
-99 -112 -125 4727 0
-4728 100 0
-4728 113 0
-4728 126 0
-100 -113 -126 4728 0
-4729 101 0
-4729 114 0
-4729 127 0
-101 -114 -127 4729 0
-4730 102 0
-4730 115 0
-4730 128 0
-102 -115 -128 4730 0
-4731 103 0
-4731 116 0
-4731 129 0
-103 -116 -129 4731 0
-4732 104 0
-4732 117 0
-4732 130 0
-104 -117 -130 4732 0
-4720 5246 0
-4721 5246 0
-4722 5246 0
-4723 5246 0
-4724 5246 0
-4725 5246 0
-4726 5246 0
-4727 5246 0
-4728 5246 0
-4729 5246 0
-4730 5246 0
-4731 5246 0
-4732 5246 0
-5246 4720 4721 4722 4723 4724 4725 4726 4727 4728 4729 4730 4731 4732 0
-4733 92 0
-4733 105 0
-4733 131 0
-92 -105 -131 4733 0
-4734 93 0
-4734 106 0
-4734 132 0
-93 -106 -132 4734 0
-4735 94 0
-4735 107 0
-4735 133 0
-94 -107 -133 4735 0
-4736 95 0
-4736 108 0
-4736 134 0
-95 -108 -134 4736 0
-4737 96 0
-4737 109 0
-4737 135 0
-96 -109 -135 4737 0
-4738 97 0
-4738 110 0
-4738 136 0
-97 -110 -136 4738 0
-4739 98 0
-4739 111 0
-4739 137 0
-98 -111 -137 4739 0
-4740 99 0
-4740 112 0
-4740 138 0
-99 -112 -138 4740 0
-4741 100 0
-4741 113 0
-4741 139 0
-100 -113 -139 4741 0
-4742 101 0
-4742 114 0
-4742 140 0
-101 -114 -140 4742 0
-4743 102 0
-4743 115 0
-4743 141 0
-102 -115 -141 4743 0
-4744 103 0
-4744 116 0
-4744 142 0
-103 -116 -142 4744 0
-4745 104 0
-4745 117 0
-4745 143 0
-104 -117 -143 4745 0
-4733 5247 0
-4734 5247 0
-4735 5247 0
-4736 5247 0
-4737 5247 0
-4738 5247 0
-4739 5247 0
-4740 5247 0
-4741 5247 0
-4742 5247 0
-4743 5247 0
-4744 5247 0
-4745 5247 0
-5247 4733 4734 4735 4736 4737 4738 4739 4740 4741 4742 4743 4744 4745 0
-4746 92 0
-4746 105 0
-4746 144 0
-92 -105 -144 4746 0
-4747 93 0
-4747 106 0
-4747 145 0
-93 -106 -145 4747 0
-4748 94 0
-4748 107 0
-4748 146 0
-94 -107 -146 4748 0
-4749 95 0
-4749 108 0
-4749 147 0
-95 -108 -147 4749 0
-4750 96 0
-4750 109 0
-4750 148 0
-96 -109 -148 4750 0
-4751 97 0
-4751 110 0
-4751 149 0
-97 -110 -149 4751 0
-4752 98 0
-4752 111 0
-4752 150 0
-98 -111 -150 4752 0
-4753 99 0
-4753 112 0
-4753 151 0
-99 -112 -151 4753 0
-4754 100 0
-4754 113 0
-4754 152 0
-100 -113 -152 4754 0
-4755 101 0
-4755 114 0
-4755 153 0
-101 -114 -153 4755 0
-4756 102 0
-4756 115 0
-4756 154 0
-102 -115 -154 4756 0
-4757 103 0
-4757 116 0
-4757 155 0
-103 -116 -155 4757 0
-4758 104 0
-4758 117 0
-4758 156 0
-104 -117 -156 4758 0
-4746 5248 0
-4747 5248 0
-4748 5248 0
-4749 5248 0
-4750 5248 0
-4751 5248 0
-4752 5248 0
-4753 5248 0
-4754 5248 0
-4755 5248 0
-4756 5248 0
-4757 5248 0
-4758 5248 0
-5248 4746 4747 4748 4749 4750 4751 4752 4753 4754 4755 4756 4757 4758 0
-4759 92 0
-4759 105 0
-4759 157 0
-92 -105 -157 4759 0
-4760 93 0
-4760 106 0
-4760 158 0
-93 -106 -158 4760 0
-4761 94 0
-4761 107 0
-4761 159 0
-94 -107 -159 4761 0
-4762 95 0
-4762 108 0
-4762 160 0
-95 -108 -160 4762 0
-4763 96 0
-4763 109 0
-4763 161 0
-96 -109 -161 4763 0
-4764 97 0
-4764 110 0
-4764 162 0
-97 -110 -162 4764 0
-4765 98 0
-4765 111 0
-4765 163 0
-98 -111 -163 4765 0
-4766 99 0
-4766 112 0
-4766 164 0
-99 -112 -164 4766 0
-4767 100 0
-4767 113 0
-4767 165 0
-100 -113 -165 4767 0
-4768 101 0
-4768 114 0
-4768 166 0
-101 -114 -166 4768 0
-4769 102 0
-4769 115 0
-4769 167 0
-102 -115 -167 4769 0
-4770 103 0
-4770 116 0
-4770 168 0
-103 -116 -168 4770 0
-4771 104 0
-4771 117 0
-4771 169 0
-104 -117 -169 4771 0
-4759 5249 0
-4760 5249 0
-4761 5249 0
-4762 5249 0
-4763 5249 0
-4764 5249 0
-4765 5249 0
-4766 5249 0
-4767 5249 0
-4768 5249 0
-4769 5249 0
-4770 5249 0
-4771 5249 0
-5249 4759 4760 4761 4762 4763 4764 4765 4766 4767 4768 4769 4770 4771 0
-4772 92 0
-4772 118 0
-4772 131 0
-92 -118 -131 4772 0
-4773 93 0
-4773 119 0
-4773 132 0
-93 -119 -132 4773 0
-4774 94 0
-4774 120 0
-4774 133 0
-94 -120 -133 4774 0
-4775 95 0
-4775 121 0
-4775 134 0
-95 -121 -134 4775 0
-4776 96 0
-4776 122 0
-4776 135 0
-96 -122 -135 4776 0
-4777 97 0
-4777 123 0
-4777 136 0
-97 -123 -136 4777 0
-4778 98 0
-4778 124 0
-4778 137 0
-98 -124 -137 4778 0
-4779 99 0
-4779 125 0
-4779 138 0
-99 -125 -138 4779 0
-4780 100 0
-4780 126 0
-4780 139 0
-100 -126 -139 4780 0
-4781 101 0
-4781 127 0
-4781 140 0
-101 -127 -140 4781 0
-4782 102 0
-4782 128 0
-4782 141 0
-102 -128 -141 4782 0
-4783 103 0
-4783 129 0
-4783 142 0
-103 -129 -142 4783 0
-4784 104 0
-4784 130 0
-4784 143 0
-104 -130 -143 4784 0
-4772 5250 0
-4773 5250 0
-4774 5250 0
-4775 5250 0
-4776 5250 0
-4777 5250 0
-4778 5250 0
-4779 5250 0
-4780 5250 0
-4781 5250 0
-4782 5250 0
-4783 5250 0
-4784 5250 0
-5250 4772 4773 4774 4775 4776 4777 4778 4779 4780 4781 4782 4783 4784 0
-4785 92 0
-4785 118 0
-4785 144 0
-92 -118 -144 4785 0
-4786 93 0
-4786 119 0
-4786 145 0
-93 -119 -145 4786 0
-4787 94 0
-4787 120 0
-4787 146 0
-94 -120 -146 4787 0
-4788 95 0
-4788 121 0
-4788 147 0
-95 -121 -147 4788 0
-4789 96 0
-4789 122 0
-4789 148 0
-96 -122 -148 4789 0
-4790 97 0
-4790 123 0
-4790 149 0
-97 -123 -149 4790 0
-4791 98 0
-4791 124 0
-4791 150 0
-98 -124 -150 4791 0
-4792 99 0
-4792 125 0
-4792 151 0
-99 -125 -151 4792 0
-4793 100 0
-4793 126 0
-4793 152 0
-100 -126 -152 4793 0
-4794 101 0
-4794 127 0
-4794 153 0
-101 -127 -153 4794 0
-4795 102 0
-4795 128 0
-4795 154 0
-102 -128 -154 4795 0
-4796 103 0
-4796 129 0
-4796 155 0
-103 -129 -155 4796 0
-4797 104 0
-4797 130 0
-4797 156 0
-104 -130 -156 4797 0
-4785 5251 0
-4786 5251 0
-4787 5251 0
-4788 5251 0
-4789 5251 0
-4790 5251 0
-4791 5251 0
-4792 5251 0
-4793 5251 0
-4794 5251 0
-4795 5251 0
-4796 5251 0
-4797 5251 0
-5251 4785 4786 4787 4788 4789 4790 4791 4792 4793 4794 4795 4796 4797 0
-4798 92 0
-4798 118 0
-4798 157 0
-92 -118 -157 4798 0
-4799 93 0
-4799 119 0
-4799 158 0
-93 -119 -158 4799 0
-4800 94 0
-4800 120 0
-4800 159 0
-94 -120 -159 4800 0
-4801 95 0
-4801 121 0
-4801 160 0
-95 -121 -160 4801 0
-4802 96 0
-4802 122 0
-4802 161 0
-96 -122 -161 4802 0
-4803 97 0
-4803 123 0
-4803 162 0
-97 -123 -162 4803 0
-4804 98 0
-4804 124 0
-4804 163 0
-98 -124 -163 4804 0
-4805 99 0
-4805 125 0
-4805 164 0
-99 -125 -164 4805 0
-4806 100 0
-4806 126 0
-4806 165 0
-100 -126 -165 4806 0
-4807 101 0
-4807 127 0
-4807 166 0
-101 -127 -166 4807 0
-4808 102 0
-4808 128 0
-4808 167 0
-102 -128 -167 4808 0
-4809 103 0
-4809 129 0
-4809 168 0
-103 -129 -168 4809 0
-4810 104 0
-4810 130 0
-4810 169 0
-104 -130 -169 4810 0
-4798 5252 0
-4799 5252 0
-4800 5252 0
-4801 5252 0
-4802 5252 0
-4803 5252 0
-4804 5252 0
-4805 5252 0
-4806 5252 0
-4807 5252 0
-4808 5252 0
-4809 5252 0
-4810 5252 0
-5252 4798 4799 4800 4801 4802 4803 4804 4805 4806 4807 4808 4809 4810 0
-4811 92 0
-4811 131 0
-4811 144 0
-92 -131 -144 4811 0
-4812 93 0
-4812 132 0
-4812 145 0
-93 -132 -145 4812 0
-4813 94 0
-4813 133 0
-4813 146 0
-94 -133 -146 4813 0
-4814 95 0
-4814 134 0
-4814 147 0
-95 -134 -147 4814 0
-4815 96 0
-4815 135 0
-4815 148 0
-96 -135 -148 4815 0
-4816 97 0
-4816 136 0
-4816 149 0
-97 -136 -149 4816 0
-4817 98 0
-4817 137 0
-4817 150 0
-98 -137 -150 4817 0
-4818 99 0
-4818 138 0
-4818 151 0
-99 -138 -151 4818 0
-4819 100 0
-4819 139 0
-4819 152 0
-100 -139 -152 4819 0
-4820 101 0
-4820 140 0
-4820 153 0
-101 -140 -153 4820 0
-4821 102 0
-4821 141 0
-4821 154 0
-102 -141 -154 4821 0
-4822 103 0
-4822 142 0
-4822 155 0
-103 -142 -155 4822 0
-4823 104 0
-4823 143 0
-4823 156 0
-104 -143 -156 4823 0
-4811 5253 0
-4812 5253 0
-4813 5253 0
-4814 5253 0
-4815 5253 0
-4816 5253 0
-4817 5253 0
-4818 5253 0
-4819 5253 0
-4820 5253 0
-4821 5253 0
-4822 5253 0
-4823 5253 0
-5253 4811 4812 4813 4814 4815 4816 4817 4818 4819 4820 4821 4822 4823 0
-4824 92 0
-4824 131 0
-4824 157 0
-92 -131 -157 4824 0
-4825 93 0
-4825 132 0
-4825 158 0
-93 -132 -158 4825 0
-4826 94 0
-4826 133 0
-4826 159 0
-94 -133 -159 4826 0
-4827 95 0
-4827 134 0
-4827 160 0
-95 -134 -160 4827 0
-4828 96 0
-4828 135 0
-4828 161 0
-96 -135 -161 4828 0
-4829 97 0
-4829 136 0
-4829 162 0
-97 -136 -162 4829 0
-4830 98 0
-4830 137 0
-4830 163 0
-98 -137 -163 4830 0
-4831 99 0
-4831 138 0
-4831 164 0
-99 -138 -164 4831 0
-4832 100 0
-4832 139 0
-4832 165 0
-100 -139 -165 4832 0
-4833 101 0
-4833 140 0
-4833 166 0
-101 -140 -166 4833 0
-4834 102 0
-4834 141 0
-4834 167 0
-102 -141 -167 4834 0
-4835 103 0
-4835 142 0
-4835 168 0
-103 -142 -168 4835 0
-4836 104 0
-4836 143 0
-4836 169 0
-104 -143 -169 4836 0
-4824 5254 0
-4825 5254 0
-4826 5254 0
-4827 5254 0
-4828 5254 0
-4829 5254 0
-4830 5254 0
-4831 5254 0
-4832 5254 0
-4833 5254 0
-4834 5254 0
-4835 5254 0
-4836 5254 0
-5254 4824 4825 4826 4827 4828 4829 4830 4831 4832 4833 4834 4835 4836 0
-4837 92 0
-4837 144 0
-4837 157 0
-92 -144 -157 4837 0
-4838 93 0
-4838 145 0
-4838 158 0
-93 -145 -158 4838 0
-4839 94 0
-4839 146 0
-4839 159 0
-94 -146 -159 4839 0
-4840 95 0
-4840 147 0
-4840 160 0
-95 -147 -160 4840 0
-4841 96 0
-4841 148 0
-4841 161 0
-96 -148 -161 4841 0
-4842 97 0
-4842 149 0
-4842 162 0
-97 -149 -162 4842 0
-4843 98 0
-4843 150 0
-4843 163 0
-98 -150 -163 4843 0
-4844 99 0
-4844 151 0
-4844 164 0
-99 -151 -164 4844 0
-4845 100 0
-4845 152 0
-4845 165 0
-100 -152 -165 4845 0
-4846 101 0
-4846 153 0
-4846 166 0
-101 -153 -166 4846 0
-4847 102 0
-4847 154 0
-4847 167 0
-102 -154 -167 4847 0
-4848 103 0
-4848 155 0
-4848 168 0
-103 -155 -168 4848 0
-4849 104 0
-4849 156 0
-4849 169 0
-104 -156 -169 4849 0
-4837 5255 0
-4838 5255 0
-4839 5255 0
-4840 5255 0
-4841 5255 0
-4842 5255 0
-4843 5255 0
-4844 5255 0
-4845 5255 0
-4846 5255 0
-4847 5255 0
-4848 5255 0
-4849 5255 0
-5255 4837 4838 4839 4840 4841 4842 4843 4844 4845 4846 4847 4848 4849 0
-4850 105 0
-4850 118 0
-4850 131 0
-105 -118 -131 4850 0
-4851 106 0
-4851 119 0
-4851 132 0
-106 -119 -132 4851 0
-4852 107 0
-4852 120 0
-4852 133 0
-107 -120 -133 4852 0
-4853 108 0
-4853 121 0
-4853 134 0
-108 -121 -134 4853 0
-4854 109 0
-4854 122 0
-4854 135 0
-109 -122 -135 4854 0
-4855 110 0
-4855 123 0
-4855 136 0
-110 -123 -136 4855 0
-4856 111 0
-4856 124 0
-4856 137 0
-111 -124 -137 4856 0
-4857 112 0
-4857 125 0
-4857 138 0
-112 -125 -138 4857 0
-4858 113 0
-4858 126 0
-4858 139 0
-113 -126 -139 4858 0
-4859 114 0
-4859 127 0
-4859 140 0
-114 -127 -140 4859 0
-4860 115 0
-4860 128 0
-4860 141 0
-115 -128 -141 4860 0
-4861 116 0
-4861 129 0
-4861 142 0
-116 -129 -142 4861 0
-4862 117 0
-4862 130 0
-4862 143 0
-117 -130 -143 4862 0
-4850 5256 0
-4851 5256 0
-4852 5256 0
-4853 5256 0
-4854 5256 0
-4855 5256 0
-4856 5256 0
-4857 5256 0
-4858 5256 0
-4859 5256 0
-4860 5256 0
-4861 5256 0
-4862 5256 0
-5256 4850 4851 4852 4853 4854 4855 4856 4857 4858 4859 4860 4861 4862 0
-4863 105 0
-4863 118 0
-4863 144 0
-105 -118 -144 4863 0
-4864 106 0
-4864 119 0
-4864 145 0
-106 -119 -145 4864 0
-4865 107 0
-4865 120 0
-4865 146 0
-107 -120 -146 4865 0
-4866 108 0
-4866 121 0
-4866 147 0
-108 -121 -147 4866 0
-4867 109 0
-4867 122 0
-4867 148 0
-109 -122 -148 4867 0
-4868 110 0
-4868 123 0
-4868 149 0
-110 -123 -149 4868 0
-4869 111 0
-4869 124 0
-4869 150 0
-111 -124 -150 4869 0
-4870 112 0
-4870 125 0
-4870 151 0
-112 -125 -151 4870 0
-4871 113 0
-4871 126 0
-4871 152 0
-113 -126 -152 4871 0
-4872 114 0
-4872 127 0
-4872 153 0
-114 -127 -153 4872 0
-4873 115 0
-4873 128 0
-4873 154 0
-115 -128 -154 4873 0
-4874 116 0
-4874 129 0
-4874 155 0
-116 -129 -155 4874 0
-4875 117 0
-4875 130 0
-4875 156 0
-117 -130 -156 4875 0
-4863 5257 0
-4864 5257 0
-4865 5257 0
-4866 5257 0
-4867 5257 0
-4868 5257 0
-4869 5257 0
-4870 5257 0
-4871 5257 0
-4872 5257 0
-4873 5257 0
-4874 5257 0
-4875 5257 0
-5257 4863 4864 4865 4866 4867 4868 4869 4870 4871 4872 4873 4874 4875 0
-4876 105 0
-4876 118 0
-4876 157 0
-105 -118 -157 4876 0
-4877 106 0
-4877 119 0
-4877 158 0
-106 -119 -158 4877 0
-4878 107 0
-4878 120 0
-4878 159 0
-107 -120 -159 4878 0
-4879 108 0
-4879 121 0
-4879 160 0
-108 -121 -160 4879 0
-4880 109 0
-4880 122 0
-4880 161 0
-109 -122 -161 4880 0
-4881 110 0
-4881 123 0
-4881 162 0
-110 -123 -162 4881 0
-4882 111 0
-4882 124 0
-4882 163 0
-111 -124 -163 4882 0
-4883 112 0
-4883 125 0
-4883 164 0
-112 -125 -164 4883 0
-4884 113 0
-4884 126 0
-4884 165 0
-113 -126 -165 4884 0
-4885 114 0
-4885 127 0
-4885 166 0
-114 -127 -166 4885 0
-4886 115 0
-4886 128 0
-4886 167 0
-115 -128 -167 4886 0
-4887 116 0
-4887 129 0
-4887 168 0
-116 -129 -168 4887 0
-4888 117 0
-4888 130 0
-4888 169 0
-117 -130 -169 4888 0
-4876 5258 0
-4877 5258 0
-4878 5258 0
-4879 5258 0
-4880 5258 0
-4881 5258 0
-4882 5258 0
-4883 5258 0
-4884 5258 0
-4885 5258 0
-4886 5258 0
-4887 5258 0
-4888 5258 0
-5258 4876 4877 4878 4879 4880 4881 4882 4883 4884 4885 4886 4887 4888 0
-4889 105 0
-4889 131 0
-4889 144 0
-105 -131 -144 4889 0
-4890 106 0
-4890 132 0
-4890 145 0
-106 -132 -145 4890 0
-4891 107 0
-4891 133 0
-4891 146 0
-107 -133 -146 4891 0
-4892 108 0
-4892 134 0
-4892 147 0
-108 -134 -147 4892 0
-4893 109 0
-4893 135 0
-4893 148 0
-109 -135 -148 4893 0
-4894 110 0
-4894 136 0
-4894 149 0
-110 -136 -149 4894 0
-4895 111 0
-4895 137 0
-4895 150 0
-111 -137 -150 4895 0
-4896 112 0
-4896 138 0
-4896 151 0
-112 -138 -151 4896 0
-4897 113 0
-4897 139 0
-4897 152 0
-113 -139 -152 4897 0
-4898 114 0
-4898 140 0
-4898 153 0
-114 -140 -153 4898 0
-4899 115 0
-4899 141 0
-4899 154 0
-115 -141 -154 4899 0
-4900 116 0
-4900 142 0
-4900 155 0
-116 -142 -155 4900 0
-4901 117 0
-4901 143 0
-4901 156 0
-117 -143 -156 4901 0
-4889 5259 0
-4890 5259 0
-4891 5259 0
-4892 5259 0
-4893 5259 0
-4894 5259 0
-4895 5259 0
-4896 5259 0
-4897 5259 0
-4898 5259 0
-4899 5259 0
-4900 5259 0
-4901 5259 0
-5259 4889 4890 4891 4892 4893 4894 4895 4896 4897 4898 4899 4900 4901 0
-4902 105 0
-4902 131 0
-4902 157 0
-105 -131 -157 4902 0
-4903 106 0
-4903 132 0
-4903 158 0
-106 -132 -158 4903 0
-4904 107 0
-4904 133 0
-4904 159 0
-107 -133 -159 4904 0
-4905 108 0
-4905 134 0
-4905 160 0
-108 -134 -160 4905 0
-4906 109 0
-4906 135 0
-4906 161 0
-109 -135 -161 4906 0
-4907 110 0
-4907 136 0
-4907 162 0
-110 -136 -162 4907 0
-4908 111 0
-4908 137 0
-4908 163 0
-111 -137 -163 4908 0
-4909 112 0
-4909 138 0
-4909 164 0
-112 -138 -164 4909 0
-4910 113 0
-4910 139 0
-4910 165 0
-113 -139 -165 4910 0
-4911 114 0
-4911 140 0
-4911 166 0
-114 -140 -166 4911 0
-4912 115 0
-4912 141 0
-4912 167 0
-115 -141 -167 4912 0
-4913 116 0
-4913 142 0
-4913 168 0
-116 -142 -168 4913 0
-4914 117 0
-4914 143 0
-4914 169 0
-117 -143 -169 4914 0
-4902 5260 0
-4903 5260 0
-4904 5260 0
-4905 5260 0
-4906 5260 0
-4907 5260 0
-4908 5260 0
-4909 5260 0
-4910 5260 0
-4911 5260 0
-4912 5260 0
-4913 5260 0
-4914 5260 0
-5260 4902 4903 4904 4905 4906 4907 4908 4909 4910 4911 4912 4913 4914 0
-4915 105 0
-4915 144 0
-4915 157 0
-105 -144 -157 4915 0
-4916 106 0
-4916 145 0
-4916 158 0
-106 -145 -158 4916 0
-4917 107 0
-4917 146 0
-4917 159 0
-107 -146 -159 4917 0
-4918 108 0
-4918 147 0
-4918 160 0
-108 -147 -160 4918 0
-4919 109 0
-4919 148 0
-4919 161 0
-109 -148 -161 4919 0
-4920 110 0
-4920 149 0
-4920 162 0
-110 -149 -162 4920 0
-4921 111 0
-4921 150 0
-4921 163 0
-111 -150 -163 4921 0
-4922 112 0
-4922 151 0
-4922 164 0
-112 -151 -164 4922 0
-4923 113 0
-4923 152 0
-4923 165 0
-113 -152 -165 4923 0
-4924 114 0
-4924 153 0
-4924 166 0
-114 -153 -166 4924 0
-4925 115 0
-4925 154 0
-4925 167 0
-115 -154 -167 4925 0
-4926 116 0
-4926 155 0
-4926 168 0
-116 -155 -168 4926 0
-4927 117 0
-4927 156 0
-4927 169 0
-117 -156 -169 4927 0
-4915 5261 0
-4916 5261 0
-4917 5261 0
-4918 5261 0
-4919 5261 0
-4920 5261 0
-4921 5261 0
-4922 5261 0
-4923 5261 0
-4924 5261 0
-4925 5261 0
-4926 5261 0
-4927 5261 0
-5261 4915 4916 4917 4918 4919 4920 4921 4922 4923 4924 4925 4926 4927 0
-4928 118 0
-4928 131 0
-4928 144 0
-118 -131 -144 4928 0
-4929 119 0
-4929 132 0
-4929 145 0
-119 -132 -145 4929 0
-4930 120 0
-4930 133 0
-4930 146 0
-120 -133 -146 4930 0
-4931 121 0
-4931 134 0
-4931 147 0
-121 -134 -147 4931 0
-4932 122 0
-4932 135 0
-4932 148 0
-122 -135 -148 4932 0
-4933 123 0
-4933 136 0
-4933 149 0
-123 -136 -149 4933 0
-4934 124 0
-4934 137 0
-4934 150 0
-124 -137 -150 4934 0
-4935 125 0
-4935 138 0
-4935 151 0
-125 -138 -151 4935 0
-4936 126 0
-4936 139 0
-4936 152 0
-126 -139 -152 4936 0
-4937 127 0
-4937 140 0
-4937 153 0
-127 -140 -153 4937 0
-4938 128 0
-4938 141 0
-4938 154 0
-128 -141 -154 4938 0
-4939 129 0
-4939 142 0
-4939 155 0
-129 -142 -155 4939 0
-4940 130 0
-4940 143 0
-4940 156 0
-130 -143 -156 4940 0
-4928 5262 0
-4929 5262 0
-4930 5262 0
-4931 5262 0
-4932 5262 0
-4933 5262 0
-4934 5262 0
-4935 5262 0
-4936 5262 0
-4937 5262 0
-4938 5262 0
-4939 5262 0
-4940 5262 0
-5262 4928 4929 4930 4931 4932 4933 4934 4935 4936 4937 4938 4939 4940 0
-4941 118 0
-4941 131 0
-4941 157 0
-118 -131 -157 4941 0
-4942 119 0
-4942 132 0
-4942 158 0
-119 -132 -158 4942 0
-4943 120 0
-4943 133 0
-4943 159 0
-120 -133 -159 4943 0
-4944 121 0
-4944 134 0
-4944 160 0
-121 -134 -160 4944 0
-4945 122 0
-4945 135 0
-4945 161 0
-122 -135 -161 4945 0
-4946 123 0
-4946 136 0
-4946 162 0
-123 -136 -162 4946 0
-4947 124 0
-4947 137 0
-4947 163 0
-124 -137 -163 4947 0
-4948 125 0
-4948 138 0
-4948 164 0
-125 -138 -164 4948 0
-4949 126 0
-4949 139 0
-4949 165 0
-126 -139 -165 4949 0
-4950 127 0
-4950 140 0
-4950 166 0
-127 -140 -166 4950 0
-4951 128 0
-4951 141 0
-4951 167 0
-128 -141 -167 4951 0
-4952 129 0
-4952 142 0
-4952 168 0
-129 -142 -168 4952 0
-4953 130 0
-4953 143 0
-4953 169 0
-130 -143 -169 4953 0
-4941 5263 0
-4942 5263 0
-4943 5263 0
-4944 5263 0
-4945 5263 0
-4946 5263 0
-4947 5263 0
-4948 5263 0
-4949 5263 0
-4950 5263 0
-4951 5263 0
-4952 5263 0
-4953 5263 0
-5263 4941 4942 4943 4944 4945 4946 4947 4948 4949 4950 4951 4952 4953 0
-4954 118 0
-4954 144 0
-4954 157 0
-118 -144 -157 4954 0
-4955 119 0
-4955 145 0
-4955 158 0
-119 -145 -158 4955 0
-4956 120 0
-4956 146 0
-4956 159 0
-120 -146 -159 4956 0
-4957 121 0
-4957 147 0
-4957 160 0
-121 -147 -160 4957 0
-4958 122 0
-4958 148 0
-4958 161 0
-122 -148 -161 4958 0
-4959 123 0
-4959 149 0
-4959 162 0
-123 -149 -162 4959 0
-4960 124 0
-4960 150 0
-4960 163 0
-124 -150 -163 4960 0
-4961 125 0
-4961 151 0
-4961 164 0
-125 -151 -164 4961 0
-4962 126 0
-4962 152 0
-4962 165 0
-126 -152 -165 4962 0
-4963 127 0
-4963 153 0
-4963 166 0
-127 -153 -166 4963 0
-4964 128 0
-4964 154 0
-4964 167 0
-128 -154 -167 4964 0
-4965 129 0
-4965 155 0
-4965 168 0
-129 -155 -168 4965 0
-4966 130 0
-4966 156 0
-4966 169 0
-130 -156 -169 4966 0
-4954 5264 0
-4955 5264 0
-4956 5264 0
-4957 5264 0
-4958 5264 0
-4959 5264 0
-4960 5264 0
-4961 5264 0
-4962 5264 0
-4963 5264 0
-4964 5264 0
-4965 5264 0
-4966 5264 0
-5264 4954 4955 4956 4957 4958 4959 4960 4961 4962 4963 4964 4965 4966 0
-4967 131 0
-4967 144 0
-4967 157 0
-131 -144 -157 4967 0
-4968 132 0
-4968 145 0
-4968 158 0
-132 -145 -158 4968 0
-4969 133 0
-4969 146 0
-4969 159 0
-133 -146 -159 4969 0
-4970 134 0
-4970 147 0
-4970 160 0
-134 -147 -160 4970 0
-4971 135 0
-4971 148 0
-4971 161 0
-135 -148 -161 4971 0
-4972 136 0
-4972 149 0
-4972 162 0
-136 -149 -162 4972 0
-4973 137 0
-4973 150 0
-4973 163 0
-137 -150 -163 4973 0
-4974 138 0
-4974 151 0
-4974 164 0
-138 -151 -164 4974 0
-4975 139 0
-4975 152 0
-4975 165 0
-139 -152 -165 4975 0
-4976 140 0
-4976 153 0
-4976 166 0
-140 -153 -166 4976 0
-4977 141 0
-4977 154 0
-4977 167 0
-141 -154 -167 4977 0
-4978 142 0
-4978 155 0
-4978 168 0
-142 -155 -168 4978 0
-4979 143 0
-4979 156 0
-4979 169 0
-143 -156 -169 4979 0
-4967 5265 0
-4968 5265 0
-4969 5265 0
-4970 5265 0
-4971 5265 0
-4972 5265 0
-4973 5265 0
-4974 5265 0
-4975 5265 0
-4976 5265 0
-4977 5265 0
-4978 5265 0
-4979 5265 0
-5265 4967 4968 4969 4970 4971 4972 4973 4974 4975 4976 4977 4978 4979 0
-1184 -1196 -1207 -1186 4980 5046 4991 4981 0
-1184 -1197 -1207 -1185 4981 5046 4991 4980 0
-1185 -1196 -1197 -1186 4980 5046 4981 4991 0
-1184 -1196 -1208 -1187 4980 5047 4992 4982 0
-1184 -1198 -1208 -1185 4982 5047 4992 4980 0
-1185 -1196 -1198 -1187 4980 5047 4982 4992 0
-1184 -1196 -1209 -1188 4980 5048 4993 4983 0
-1184 -1199 -1209 -1185 4983 5048 4993 4980 0
-1185 -1196 -1199 -1188 4980 5048 4983 4993 0
-1184 -1196 -1210 -1189 4980 5049 4994 4984 0
-1184 -1200 -1210 -1185 4984 5049 4994 4980 0
-1185 -1196 -1200 -1189 4980 5049 4984 4994 0
-1184 -1196 -1211 -1190 4980 5050 4995 4985 0
-1184 -1201 -1211 -1185 4985 5050 4995 4980 0
-1185 -1196 -1201 -1190 4980 5050 4985 4995 0
-1184 -1196 -1212 -1191 4980 5051 4996 4986 0
-1184 -1202 -1212 -1185 4986 5051 4996 4980 0
-1185 -1196 -1202 -1191 4980 5051 4986 4996 0
-1184 -1196 -1213 -1192 4980 5052 4997 4987 0
-1184 -1203 -1213 -1185 4987 5052 4997 4980 0
-1185 -1196 -1203 -1192 4980 5052 4987 4997 0
-1184 -1196 -1214 -1193 4980 5053 4998 4988 0
-1184 -1204 -1214 -1185 4988 5053 4998 4980 0
-1185 -1196 -1204 -1193 4980 5053 4988 4998 0
-1184 -1196 -1215 -1194 4980 5054 4999 4989 0
-1184 -1205 -1215 -1185 4989 5054 4999 4980 0
-1185 -1196 -1205 -1194 4980 5054 4989 4999 0
-1184 -1196 -1216 -1195 4980 5055 5000 4990 0
-1184 -1206 -1216 -1185 4990 5055 5000 4980 0
-1185 -1196 -1206 -1195 4980 5055 4990 5000 0
-1184 -1197 -1217 -1187 4981 5056 5001 4982 0
-1184 -1198 -1217 -1186 4982 5056 5001 4981 0
-1186 -1197 -1198 -1187 4981 5056 4982 5001 0
-1184 -1197 -1218 -1188 4981 5057 5002 4983 0
-1184 -1199 -1218 -1186 4983 5057 5002 4981 0
-1186 -1197 -1199 -1188 4981 5057 4983 5002 0
-1184 -1197 -1219 -1189 4981 5058 5003 4984 0
-1184 -1200 -1219 -1186 4984 5058 5003 4981 0
-1186 -1197 -1200 -1189 4981 5058 4984 5003 0
-1184 -1197 -1220 -1190 4981 5059 5004 4985 0
-1184 -1201 -1220 -1186 4985 5059 5004 4981 0
-1186 -1197 -1201 -1190 4981 5059 4985 5004 0
-1184 -1197 -1221 -1191 4981 5060 5005 4986 0
-1184 -1202 -1221 -1186 4986 5060 5005 4981 0
-1186 -1197 -1202 -1191 4981 5060 4986 5005 0
-1184 -1197 -1222 -1192 4981 5061 5006 4987 0
-1184 -1203 -1222 -1186 4987 5061 5006 4981 0
-1186 -1197 -1203 -1192 4981 5061 4987 5006 0
-1184 -1197 -1223 -1193 4981 5062 5007 4988 0
-1184 -1204 -1223 -1186 4988 5062 5007 4981 0
-1186 -1197 -1204 -1193 4981 5062 4988 5007 0
-1184 -1197 -1224 -1194 4981 5063 5008 4989 0
-1184 -1205 -1224 -1186 4989 5063 5008 4981 0
-1186 -1197 -1205 -1194 4981 5063 4989 5008 0
-1184 -1197 -1225 -1195 4981 5064 5009 4990 0
-1184 -1206 -1225 -1186 4990 5064 5009 4981 0
-1186 -1197 -1206 -1195 4981 5064 4990 5009 0
-1184 -1198 -1226 -1188 4982 5065 5010 4983 0
-1184 -1199 -1226 -1187 4983 5065 5010 4982 0
-1187 -1198 -1199 -1188 4982 5065 4983 5010 0
-1184 -1198 -1227 -1189 4982 5066 5011 4984 0
-1184 -1200 -1227 -1187 4984 5066 5011 4982 0
-1187 -1198 -1200 -1189 4982 5066 4984 5011 0
-1184 -1198 -1228 -1190 4982 5067 5012 4985 0
-1184 -1201 -1228 -1187 4985 5067 5012 4982 0
-1187 -1198 -1201 -1190 4982 5067 4985 5012 0
-1184 -1198 -1229 -1191 4982 5068 5013 4986 0
-1184 -1202 -1229 -1187 4986 5068 5013 4982 0
-1187 -1198 -1202 -1191 4982 5068 4986 5013 0
-1184 -1198 -1230 -1192 4982 5069 5014 4987 0
-1184 -1203 -1230 -1187 4987 5069 5014 4982 0
-1187 -1198 -1203 -1192 4982 5069 4987 5014 0
-1184 -1198 -1231 -1193 4982 5070 5015 4988 0
-1184 -1204 -1231 -1187 4988 5070 5015 4982 0
-1187 -1198 -1204 -1193 4982 5070 4988 5015 0
-1184 -1198 -1232 -1194 4982 5071 5016 4989 0
-1184 -1205 -1232 -1187 4989 5071 5016 4982 0
-1187 -1198 -1205 -1194 4982 5071 4989 5016 0
-1184 -1198 -1233 -1195 4982 5072 5017 4990 0
-1184 -1206 -1233 -1187 4990 5072 5017 4982 0
-1187 -1198 -1206 -1195 4982 5072 4990 5017 0
-1184 -1199 -1234 -1189 4983 5073 5018 4984 0
-1184 -1200 -1234 -1188 4984 5073 5018 4983 0
-1188 -1199 -1200 -1189 4983 5073 4984 5018 0
-1184 -1199 -1235 -1190 4983 5074 5019 4985 0
-1184 -1201 -1235 -1188 4985 5074 5019 4983 0
-1188 -1199 -1201 -1190 4983 5074 4985 5019 0
-1184 -1199 -1236 -1191 4983 5075 5020 4986 0
-1184 -1202 -1236 -1188 4986 5075 5020 4983 0
-1188 -1199 -1202 -1191 4983 5075 4986 5020 0
-1184 -1199 -1237 -1192 4983 5076 5021 4987 0
-1184 -1203 -1237 -1188 4987 5076 5021 4983 0
-1188 -1199 -1203 -1192 4983 5076 4987 5021 0
-1184 -1199 -1238 -1193 4983 5077 5022 4988 0
-1184 -1204 -1238 -1188 4988 5077 5022 4983 0
-1188 -1199 -1204 -1193 4983 5077 4988 5022 0
-1184 -1199 -1239 -1194 4983 5078 5023 4989 0
-1184 -1205 -1239 -1188 4989 5078 5023 4983 0
-1188 -1199 -1205 -1194 4983 5078 4989 5023 0
-1184 -1199 -1240 -1195 4983 5079 5024 4990 0
-1184 -1206 -1240 -1188 4990 5079 5024 4983 0
-1188 -1199 -1206 -1195 4983 5079 4990 5024 0
-1184 -1200 -1241 -1190 4984 5080 5025 4985 0
-1184 -1201 -1241 -1189 4985 5080 5025 4984 0
-1189 -1200 -1201 -1190 4984 5080 4985 5025 0
-1184 -1200 -1242 -1191 4984 5081 5026 4986 0
-1184 -1202 -1242 -1189 4986 5081 5026 4984 0
-1189 -1200 -1202 -1191 4984 5081 4986 5026 0
-1184 -1200 -1243 -1192 4984 5082 5027 4987 0
-1184 -1203 -1243 -1189 4987 5082 5027 4984 0
-1189 -1200 -1203 -1192 4984 5082 4987 5027 0
-1184 -1200 -1244 -1193 4984 5083 5028 4988 0
-1184 -1204 -1244 -1189 4988 5083 5028 4984 0
-1189 -1200 -1204 -1193 4984 5083 4988 5028 0
-1184 -1200 -1245 -1194 4984 5084 5029 4989 0
-1184 -1205 -1245 -1189 4989 5084 5029 4984 0
-1189 -1200 -1205 -1194 4984 5084 4989 5029 0
-1184 -1200 -1246 -1195 4984 5085 5030 4990 0
-1184 -1206 -1246 -1189 4990 5085 5030 4984 0
-1189 -1200 -1206 -1195 4984 5085 4990 5030 0
-1184 -1201 -1247 -1191 4985 5086 5031 4986 0
-1184 -1202 -1247 -1190 4986 5086 5031 4985 0
-1190 -1201 -1202 -1191 4985 5086 4986 5031 0
-1184 -1201 -1248 -1192 4985 5087 5032 4987 0
-1184 -1203 -1248 -1190 4987 5087 5032 4985 0
-1190 -1201 -1203 -1192 4985 5087 4987 5032 0
-1184 -1201 -1249 -1193 4985 5088 5033 4988 0
-1184 -1204 -1249 -1190 4988 5088 5033 4985 0
-1190 -1201 -1204 -1193 4985 5088 4988 5033 0
-1184 -1201 -1250 -1194 4985 5089 5034 4989 0
-1184 -1205 -1250 -1190 4989 5089 5034 4985 0
-1190 -1201 -1205 -1194 4985 5089 4989 5034 0
-1184 -1201 -1251 -1195 4985 5090 5035 4990 0
-1184 -1206 -1251 -1190 4990 5090 5035 4985 0
-1190 -1201 -1206 -1195 4985 5090 4990 5035 0
-1184 -1202 -1252 -1192 4986 5091 5036 4987 0
-1184 -1203 -1252 -1191 4987 5091 5036 4986 0
-1191 -1202 -1203 -1192 4986 5091 4987 5036 0
-1184 -1202 -1253 -1193 4986 5092 5037 4988 0
-1184 -1204 -1253 -1191 4988 5092 5037 4986 0
-1191 -1202 -1204 -1193 4986 5092 4988 5037 0
-1184 -1202 -1254 -1194 4986 5093 5038 4989 0
-1184 -1205 -1254 -1191 4989 5093 5038 4986 0
-1191 -1202 -1205 -1194 4986 5093 4989 5038 0
-1184 -1202 -1255 -1195 4986 5094 5039 4990 0
-1184 -1206 -1255 -1191 4990 5094 5039 4986 0
-1191 -1202 -1206 -1195 4986 5094 4990 5039 0
-1184 -1203 -1256 -1193 4987 5095 5040 4988 0
-1184 -1204 -1256 -1192 4988 5095 5040 4987 0
-1192 -1203 -1204 -1193 4987 5095 4988 5040 0
-1184 -1203 -1257 -1194 4987 5096 5041 4989 0
-1184 -1205 -1257 -1192 4989 5096 5041 4987 0
-1192 -1203 -1205 -1194 4987 5096 4989 5041 0
-1184 -1203 -1258 -1195 4987 5097 5042 4990 0
-1184 -1206 -1258 -1192 4990 5097 5042 4987 0
-1192 -1203 -1206 -1195 4987 5097 4990 5042 0
-1184 -1204 -1259 -1194 4988 5098 5043 4989 0
-1184 -1205 -1259 -1193 4989 5098 5043 4988 0
-1193 -1204 -1205 -1194 4988 5098 4989 5043 0
-1184 -1204 -1260 -1195 4988 5099 5044 4990 0
-1184 -1206 -1260 -1193 4990 5099 5044 4988 0
-1193 -1204 -1206 -1195 4988 5099 4990 5044 0
-1184 -1205 -1261 -1195 4989 5100 5045 4990 0
-1184 -1206 -1261 -1194 4990 5100 5045 4989 0
-1194 -1205 -1206 -1195 4989 5100 4990 5045 0
-1185 -1207 -1217 -1187 4991 5101 5001 4992 0
-1185 -1208 -1217 -1186 4992 5101 5001 4991 0
-1186 -1207 -1208 -1187 4991 5101 4992 5001 0
-1185 -1207 -1218 -1188 4991 5102 5002 4993 0
-1185 -1209 -1218 -1186 4993 5102 5002 4991 0
-1186 -1207 -1209 -1188 4991 5102 4993 5002 0
-1185 -1207 -1219 -1189 4991 5103 5003 4994 0
-1185 -1210 -1219 -1186 4994 5103 5003 4991 0
-1186 -1207 -1210 -1189 4991 5103 4994 5003 0
-1185 -1207 -1220 -1190 4991 5104 5004 4995 0
-1185 -1211 -1220 -1186 4995 5104 5004 4991 0
-1186 -1207 -1211 -1190 4991 5104 4995 5004 0
-1185 -1207 -1221 -1191 4991 5105 5005 4996 0
-1185 -1212 -1221 -1186 4996 5105 5005 4991 0
-1186 -1207 -1212 -1191 4991 5105 4996 5005 0
-1185 -1207 -1222 -1192 4991 5106 5006 4997 0
-1185 -1213 -1222 -1186 4997 5106 5006 4991 0
-1186 -1207 -1213 -1192 4991 5106 4997 5006 0
-1185 -1207 -1223 -1193 4991 5107 5007 4998 0
-1185 -1214 -1223 -1186 4998 5107 5007 4991 0
-1186 -1207 -1214 -1193 4991 5107 4998 5007 0
-1185 -1207 -1224 -1194 4991 5108 5008 4999 0
-1185 -1215 -1224 -1186 4999 5108 5008 4991 0
-1186 -1207 -1215 -1194 4991 5108 4999 5008 0
-1185 -1207 -1225 -1195 4991 5109 5009 5000 0
-1185 -1216 -1225 -1186 5000 5109 5009 4991 0
-1186 -1207 -1216 -1195 4991 5109 5000 5009 0
-1185 -1208 -1226 -1188 4992 5110 5010 4993 0
-1185 -1209 -1226 -1187 4993 5110 5010 4992 0
-1187 -1208 -1209 -1188 4992 5110 4993 5010 0
-1185 -1208 -1227 -1189 4992 5111 5011 4994 0
-1185 -1210 -1227 -1187 4994 5111 5011 4992 0
-1187 -1208 -1210 -1189 4992 5111 4994 5011 0
-1185 -1208 -1228 -1190 4992 5112 5012 4995 0
-1185 -1211 -1228 -1187 4995 5112 5012 4992 0
-1187 -1208 -1211 -1190 4992 5112 4995 5012 0
-1185 -1208 -1229 -1191 4992 5113 5013 4996 0
-1185 -1212 -1229 -1187 4996 5113 5013 4992 0
-1187 -1208 -1212 -1191 4992 5113 4996 5013 0
-1185 -1208 -1230 -1192 4992 5114 5014 4997 0
-1185 -1213 -1230 -1187 4997 5114 5014 4992 0
-1187 -1208 -1213 -1192 4992 5114 4997 5014 0
-1185 -1208 -1231 -1193 4992 5115 5015 4998 0
-1185 -1214 -1231 -1187 4998 5115 5015 4992 0
-1187 -1208 -1214 -1193 4992 5115 4998 5015 0
-1185 -1208 -1232 -1194 4992 5116 5016 4999 0
-1185 -1215 -1232 -1187 4999 5116 5016 4992 0
-1187 -1208 -1215 -1194 4992 5116 4999 5016 0
-1185 -1208 -1233 -1195 4992 5117 5017 5000 0
-1185 -1216 -1233 -1187 5000 5117 5017 4992 0
-1187 -1208 -1216 -1195 4992 5117 5000 5017 0
-1185 -1209 -1234 -1189 4993 5118 5018 4994 0
-1185 -1210 -1234 -1188 4994 5118 5018 4993 0
-1188 -1209 -1210 -1189 4993 5118 4994 5018 0
-1185 -1209 -1235 -1190 4993 5119 5019 4995 0
-1185 -1211 -1235 -1188 4995 5119 5019 4993 0
-1188 -1209 -1211 -1190 4993 5119 4995 5019 0
-1185 -1209 -1236 -1191 4993 5120 5020 4996 0
-1185 -1212 -1236 -1188 4996 5120 5020 4993 0
-1188 -1209 -1212 -1191 4993 5120 4996 5020 0
-1185 -1209 -1237 -1192 4993 5121 5021 4997 0
-1185 -1213 -1237 -1188 4997 5121 5021 4993 0
-1188 -1209 -1213 -1192 4993 5121 4997 5021 0
-1185 -1209 -1238 -1193 4993 5122 5022 4998 0
-1185 -1214 -1238 -1188 4998 5122 5022 4993 0
-1188 -1209 -1214 -1193 4993 5122 4998 5022 0
-1185 -1209 -1239 -1194 4993 5123 5023 4999 0
-1185 -1215 -1239 -1188 4999 5123 5023 4993 0
-1188 -1209 -1215 -1194 4993 5123 4999 5023 0
-1185 -1209 -1240 -1195 4993 5124 5024 5000 0
-1185 -1216 -1240 -1188 5000 5124 5024 4993 0
-1188 -1209 -1216 -1195 4993 5124 5000 5024 0
-1185 -1210 -1241 -1190 4994 5125 5025 4995 0
-1185 -1211 -1241 -1189 4995 5125 5025 4994 0
-1189 -1210 -1211 -1190 4994 5125 4995 5025 0
-1185 -1210 -1242 -1191 4994 5126 5026 4996 0
-1185 -1212 -1242 -1189 4996 5126 5026 4994 0
-1189 -1210 -1212 -1191 4994 5126 4996 5026 0
-1185 -1210 -1243 -1192 4994 5127 5027 4997 0
-1185 -1213 -1243 -1189 4997 5127 5027 4994 0
-1189 -1210 -1213 -1192 4994 5127 4997 5027 0
-1185 -1210 -1244 -1193 4994 5128 5028 4998 0
-1185 -1214 -1244 -1189 4998 5128 5028 4994 0
-1189 -1210 -1214 -1193 4994 5128 4998 5028 0
-1185 -1210 -1245 -1194 4994 5129 5029 4999 0
-1185 -1215 -1245 -1189 4999 5129 5029 4994 0
-1189 -1210 -1215 -1194 4994 5129 4999 5029 0
-1185 -1210 -1246 -1195 4994 5130 5030 5000 0
-1185 -1216 -1246 -1189 5000 5130 5030 4994 0
-1189 -1210 -1216 -1195 4994 5130 5000 5030 0
-1185 -1211 -1247 -1191 4995 5131 5031 4996 0
-1185 -1212 -1247 -1190 4996 5131 5031 4995 0
-1190 -1211 -1212 -1191 4995 5131 4996 5031 0
-1185 -1211 -1248 -1192 4995 5132 5032 4997 0
-1185 -1213 -1248 -1190 4997 5132 5032 4995 0
-1190 -1211 -1213 -1192 4995 5132 4997 5032 0
-1185 -1211 -1249 -1193 4995 5133 5033 4998 0
-1185 -1214 -1249 -1190 4998 5133 5033 4995 0
-1190 -1211 -1214 -1193 4995 5133 4998 5033 0
-1185 -1211 -1250 -1194 4995 5134 5034 4999 0
-1185 -1215 -1250 -1190 4999 5134 5034 4995 0
-1190 -1211 -1215 -1194 4995 5134 4999 5034 0
-1185 -1211 -1251 -1195 4995 5135 5035 5000 0
-1185 -1216 -1251 -1190 5000 5135 5035 4995 0
-1190 -1211 -1216 -1195 4995 5135 5000 5035 0
-1185 -1212 -1252 -1192 4996 5136 5036 4997 0
-1185 -1213 -1252 -1191 4997 5136 5036 4996 0
-1191 -1212 -1213 -1192 4996 5136 4997 5036 0
-1185 -1212 -1253 -1193 4996 5137 5037 4998 0
-1185 -1214 -1253 -1191 4998 5137 5037 4996 0
-1191 -1212 -1214 -1193 4996 5137 4998 5037 0
-1185 -1212 -1254 -1194 4996 5138 5038 4999 0
-1185 -1215 -1254 -1191 4999 5138 5038 4996 0
-1191 -1212 -1215 -1194 4996 5138 4999 5038 0
-1185 -1212 -1255 -1195 4996 5139 5039 5000 0
-1185 -1216 -1255 -1191 5000 5139 5039 4996 0
-1191 -1212 -1216 -1195 4996 5139 5000 5039 0
-1185 -1213 -1256 -1193 4997 5140 5040 4998 0
-1185 -1214 -1256 -1192 4998 5140 5040 4997 0
-1192 -1213 -1214 -1193 4997 5140 4998 5040 0
-1185 -1213 -1257 -1194 4997 5141 5041 4999 0
-1185 -1215 -1257 -1192 4999 5141 5041 4997 0
-1192 -1213 -1215 -1194 4997 5141 4999 5041 0
-1185 -1213 -1258 -1195 4997 5142 5042 5000 0
-1185 -1216 -1258 -1192 5000 5142 5042 4997 0
-1192 -1213 -1216 -1195 4997 5142 5000 5042 0
-1185 -1214 -1259 -1194 4998 5143 5043 4999 0
-1185 -1215 -1259 -1193 4999 5143 5043 4998 0
-1193 -1214 -1215 -1194 4998 5143 4999 5043 0
-1185 -1214 -1260 -1195 4998 5144 5044 5000 0
-1185 -1216 -1260 -1193 5000 5144 5044 4998 0
-1193 -1214 -1216 -1195 4998 5144 5000 5044 0
-1185 -1215 -1261 -1195 4999 5145 5045 5000 0
-1185 -1216 -1261 -1194 5000 5145 5045 4999 0
-1194 -1215 -1216 -1195 4999 5145 5000 5045 0
-1186 -1217 -1226 -1188 5001 5146 5010 5002 0
-1186 -1218 -1226 -1187 5002 5146 5010 5001 0
-1187 -1217 -1218 -1188 5001 5146 5002 5010 0
-1186 -1217 -1227 -1189 5001 5147 5011 5003 0
-1186 -1219 -1227 -1187 5003 5147 5011 5001 0
-1187 -1217 -1219 -1189 5001 5147 5003 5011 0
-1186 -1217 -1228 -1190 5001 5148 5012 5004 0
-1186 -1220 -1228 -1187 5004 5148 5012 5001 0
-1187 -1217 -1220 -1190 5001 5148 5004 5012 0
-1186 -1217 -1229 -1191 5001 5149 5013 5005 0
-1186 -1221 -1229 -1187 5005 5149 5013 5001 0
-1187 -1217 -1221 -1191 5001 5149 5005 5013 0
-1186 -1217 -1230 -1192 5001 5150 5014 5006 0
-1186 -1222 -1230 -1187 5006 5150 5014 5001 0
-1187 -1217 -1222 -1192 5001 5150 5006 5014 0
-1186 -1217 -1231 -1193 5001 5151 5015 5007 0
-1186 -1223 -1231 -1187 5007 5151 5015 5001 0
-1187 -1217 -1223 -1193 5001 5151 5007 5015 0
-1186 -1217 -1232 -1194 5001 5152 5016 5008 0
-1186 -1224 -1232 -1187 5008 5152 5016 5001 0
-1187 -1217 -1224 -1194 5001 5152 5008 5016 0
-1186 -1217 -1233 -1195 5001 5153 5017 5009 0
-1186 -1225 -1233 -1187 5009 5153 5017 5001 0
-1187 -1217 -1225 -1195 5001 5153 5009 5017 0
-1186 -1218 -1234 -1189 5002 5154 5018 5003 0
-1186 -1219 -1234 -1188 5003 5154 5018 5002 0
-1188 -1218 -1219 -1189 5002 5154 5003 5018 0
-1186 -1218 -1235 -1190 5002 5155 5019 5004 0
-1186 -1220 -1235 -1188 5004 5155 5019 5002 0
-1188 -1218 -1220 -1190 5002 5155 5004 5019 0
-1186 -1218 -1236 -1191 5002 5156 5020 5005 0
-1186 -1221 -1236 -1188 5005 5156 5020 5002 0
-1188 -1218 -1221 -1191 5002 5156 5005 5020 0
-1186 -1218 -1237 -1192 5002 5157 5021 5006 0
-1186 -1222 -1237 -1188 5006 5157 5021 5002 0
-1188 -1218 -1222 -1192 5002 5157 5006 5021 0
-1186 -1218 -1238 -1193 5002 5158 5022 5007 0
-1186 -1223 -1238 -1188 5007 5158 5022 5002 0
-1188 -1218 -1223 -1193 5002 5158 5007 5022 0
-1186 -1218 -1239 -1194 5002 5159 5023 5008 0
-1186 -1224 -1239 -1188 5008 5159 5023 5002 0
-1188 -1218 -1224 -1194 5002 5159 5008 5023 0
-1186 -1218 -1240 -1195 5002 5160 5024 5009 0
-1186 -1225 -1240 -1188 5009 5160 5024 5002 0
-1188 -1218 -1225 -1195 5002 5160 5009 5024 0
-1186 -1219 -1241 -1190 5003 5161 5025 5004 0
-1186 -1220 -1241 -1189 5004 5161 5025 5003 0
-1189 -1219 -1220 -1190 5003 5161 5004 5025 0
-1186 -1219 -1242 -1191 5003 5162 5026 5005 0
-1186 -1221 -1242 -1189 5005 5162 5026 5003 0
-1189 -1219 -1221 -1191 5003 5162 5005 5026 0
-1186 -1219 -1243 -1192 5003 5163 5027 5006 0
-1186 -1222 -1243 -1189 5006 5163 5027 5003 0
-1189 -1219 -1222 -1192 5003 5163 5006 5027 0
-1186 -1219 -1244 -1193 5003 5164 5028 5007 0
-1186 -1223 -1244 -1189 5007 5164 5028 5003 0
-1189 -1219 -1223 -1193 5003 5164 5007 5028 0
-1186 -1219 -1245 -1194 5003 5165 5029 5008 0
-1186 -1224 -1245 -1189 5008 5165 5029 5003 0
-1189 -1219 -1224 -1194 5003 5165 5008 5029 0
-1186 -1219 -1246 -1195 5003 5166 5030 5009 0
-1186 -1225 -1246 -1189 5009 5166 5030 5003 0
-1189 -1219 -1225 -1195 5003 5166 5009 5030 0
-1186 -1220 -1247 -1191 5004 5167 5031 5005 0
-1186 -1221 -1247 -1190 5005 5167 5031 5004 0
-1190 -1220 -1221 -1191 5004 5167 5005 5031 0
-1186 -1220 -1248 -1192 5004 5168 5032 5006 0
-1186 -1222 -1248 -1190 5006 5168 5032 5004 0
-1190 -1220 -1222 -1192 5004 5168 5006 5032 0
-1186 -1220 -1249 -1193 5004 5169 5033 5007 0
-1186 -1223 -1249 -1190 5007 5169 5033 5004 0
-1190 -1220 -1223 -1193 5004 5169 5007 5033 0
-1186 -1220 -1250 -1194 5004 5170 5034 5008 0
-1186 -1224 -1250 -1190 5008 5170 5034 5004 0
-1190 -1220 -1224 -1194 5004 5170 5008 5034 0
-1186 -1220 -1251 -1195 5004 5171 5035 5009 0
-1186 -1225 -1251 -1190 5009 5171 5035 5004 0
-1190 -1220 -1225 -1195 5004 5171 5009 5035 0
-1186 -1221 -1252 -1192 5005 5172 5036 5006 0
-1186 -1222 -1252 -1191 5006 5172 5036 5005 0
-1191 -1221 -1222 -1192 5005 5172 5006 5036 0
-1186 -1221 -1253 -1193 5005 5173 5037 5007 0
-1186 -1223 -1253 -1191 5007 5173 5037 5005 0
-1191 -1221 -1223 -1193 5005 5173 5007 5037 0
-1186 -1221 -1254 -1194 5005 5174 5038 5008 0
-1186 -1224 -1254 -1191 5008 5174 5038 5005 0
-1191 -1221 -1224 -1194 5005 5174 5008 5038 0
-1186 -1221 -1255 -1195 5005 5175 5039 5009 0
-1186 -1225 -1255 -1191 5009 5175 5039 5005 0
-1191 -1221 -1225 -1195 5005 5175 5009 5039 0
-1186 -1222 -1256 -1193 5006 5176 5040 5007 0
-1186 -1223 -1256 -1192 5007 5176 5040 5006 0
-1192 -1222 -1223 -1193 5006 5176 5007 5040 0
-1186 -1222 -1257 -1194 5006 5177 5041 5008 0
-1186 -1224 -1257 -1192 5008 5177 5041 5006 0
-1192 -1222 -1224 -1194 5006 5177 5008 5041 0
-1186 -1222 -1258 -1195 5006 5178 5042 5009 0
-1186 -1225 -1258 -1192 5009 5178 5042 5006 0
-1192 -1222 -1225 -1195 5006 5178 5009 5042 0
-1186 -1223 -1259 -1194 5007 5179 5043 5008 0
-1186 -1224 -1259 -1193 5008 5179 5043 5007 0
-1193 -1223 -1224 -1194 5007 5179 5008 5043 0
-1186 -1223 -1260 -1195 5007 5180 5044 5009 0
-1186 -1225 -1260 -1193 5009 5180 5044 5007 0
-1193 -1223 -1225 -1195 5007 5180 5009 5044 0
-1186 -1224 -1261 -1195 5008 5181 5045 5009 0
-1186 -1225 -1261 -1194 5009 5181 5045 5008 0
-1194 -1224 -1225 -1195 5008 5181 5009 5045 0
-1187 -1226 -1234 -1189 5010 5182 5018 5011 0
-1187 -1227 -1234 -1188 5011 5182 5018 5010 0
-1188 -1226 -1227 -1189 5010 5182 5011 5018 0
-1187 -1226 -1235 -1190 5010 5183 5019 5012 0
-1187 -1228 -1235 -1188 5012 5183 5019 5010 0
-1188 -1226 -1228 -1190 5010 5183 5012 5019 0
-1187 -1226 -1236 -1191 5010 5184 5020 5013 0
-1187 -1229 -1236 -1188 5013 5184 5020 5010 0
-1188 -1226 -1229 -1191 5010 5184 5013 5020 0
-1187 -1226 -1237 -1192 5010 5185 5021 5014 0
-1187 -1230 -1237 -1188 5014 5185 5021 5010 0
-1188 -1226 -1230 -1192 5010 5185 5014 5021 0
-1187 -1226 -1238 -1193 5010 5186 5022 5015 0
-1187 -1231 -1238 -1188 5015 5186 5022 5010 0
-1188 -1226 -1231 -1193 5010 5186 5015 5022 0
-1187 -1226 -1239 -1194 5010 5187 5023 5016 0
-1187 -1232 -1239 -1188 5016 5187 5023 5010 0
-1188 -1226 -1232 -1194 5010 5187 5016 5023 0
-1187 -1226 -1240 -1195 5010 5188 5024 5017 0
-1187 -1233 -1240 -1188 5017 5188 5024 5010 0
-1188 -1226 -1233 -1195 5010 5188 5017 5024 0
-1187 -1227 -1241 -1190 5011 5189 5025 5012 0
-1187 -1228 -1241 -1189 5012 5189 5025 5011 0
-1189 -1227 -1228 -1190 5011 5189 5012 5025 0
-1187 -1227 -1242 -1191 5011 5190 5026 5013 0
-1187 -1229 -1242 -1189 5013 5190 5026 5011 0
-1189 -1227 -1229 -1191 5011 5190 5013 5026 0
-1187 -1227 -1243 -1192 5011 5191 5027 5014 0
-1187 -1230 -1243 -1189 5014 5191 5027 5011 0
-1189 -1227 -1230 -1192 5011 5191 5014 5027 0
-1187 -1227 -1244 -1193 5011 5192 5028 5015 0
-1187 -1231 -1244 -1189 5015 5192 5028 5011 0
-1189 -1227 -1231 -1193 5011 5192 5015 5028 0
-1187 -1227 -1245 -1194 5011 5193 5029 5016 0
-1187 -1232 -1245 -1189 5016 5193 5029 5011 0
-1189 -1227 -1232 -1194 5011 5193 5016 5029 0
-1187 -1227 -1246 -1195 5011 5194 5030 5017 0
-1187 -1233 -1246 -1189 5017 5194 5030 5011 0
-1189 -1227 -1233 -1195 5011 5194 5017 5030 0
-1187 -1228 -1247 -1191 5012 5195 5031 5013 0
-1187 -1229 -1247 -1190 5013 5195 5031 5012 0
-1190 -1228 -1229 -1191 5012 5195 5013 5031 0
-1187 -1228 -1248 -1192 5012 5196 5032 5014 0
-1187 -1230 -1248 -1190 5014 5196 5032 5012 0
-1190 -1228 -1230 -1192 5012 5196 5014 5032 0
-1187 -1228 -1249 -1193 5012 5197 5033 5015 0
-1187 -1231 -1249 -1190 5015 5197 5033 5012 0
-1190 -1228 -1231 -1193 5012 5197 5015 5033 0
-1187 -1228 -1250 -1194 5012 5198 5034 5016 0
-1187 -1232 -1250 -1190 5016 5198 5034 5012 0
-1190 -1228 -1232 -1194 5012 5198 5016 5034 0
-1187 -1228 -1251 -1195 5012 5199 5035 5017 0
-1187 -1233 -1251 -1190 5017 5199 5035 5012 0
-1190 -1228 -1233 -1195 5012 5199 5017 5035 0
-1187 -1229 -1252 -1192 5013 5200 5036 5014 0
-1187 -1230 -1252 -1191 5014 5200 5036 5013 0
-1191 -1229 -1230 -1192 5013 5200 5014 5036 0
-1187 -1229 -1253 -1193 5013 5201 5037 5015 0
-1187 -1231 -1253 -1191 5015 5201 5037 5013 0
-1191 -1229 -1231 -1193 5013 5201 5015 5037 0
-1187 -1229 -1254 -1194 5013 5202 5038 5016 0
-1187 -1232 -1254 -1191 5016 5202 5038 5013 0
-1191 -1229 -1232 -1194 5013 5202 5016 5038 0
-1187 -1229 -1255 -1195 5013 5203 5039 5017 0
-1187 -1233 -1255 -1191 5017 5203 5039 5013 0
-1191 -1229 -1233 -1195 5013 5203 5017 5039 0
-1187 -1230 -1256 -1193 5014 5204 5040 5015 0
-1187 -1231 -1256 -1192 5015 5204 5040 5014 0
-1192 -1230 -1231 -1193 5014 5204 5015 5040 0
-1187 -1230 -1257 -1194 5014 5205 5041 5016 0
-1187 -1232 -1257 -1192 5016 5205 5041 5014 0
-1192 -1230 -1232 -1194 5014 5205 5016 5041 0
-1187 -1230 -1258 -1195 5014 5206 5042 5017 0
-1187 -1233 -1258 -1192 5017 5206 5042 5014 0
-1192 -1230 -1233 -1195 5014 5206 5017 5042 0
-1187 -1231 -1259 -1194 5015 5207 5043 5016 0
-1187 -1232 -1259 -1193 5016 5207 5043 5015 0
-1193 -1231 -1232 -1194 5015 5207 5016 5043 0
-1187 -1231 -1260 -1195 5015 5208 5044 5017 0
-1187 -1233 -1260 -1193 5017 5208 5044 5015 0
-1193 -1231 -1233 -1195 5015 5208 5017 5044 0
-1187 -1232 -1261 -1195 5016 5209 5045 5017 0
-1187 -1233 -1261 -1194 5017 5209 5045 5016 0
-1194 -1232 -1233 -1195 5016 5209 5017 5045 0
-1188 -1234 -1241 -1190 5018 5210 5025 5019 0
-1188 -1235 -1241 -1189 5019 5210 5025 5018 0
-1189 -1234 -1235 -1190 5018 5210 5019 5025 0
-1188 -1234 -1242 -1191 5018 5211 5026 5020 0
-1188 -1236 -1242 -1189 5020 5211 5026 5018 0
-1189 -1234 -1236 -1191 5018 5211 5020 5026 0
-1188 -1234 -1243 -1192 5018 5212 5027 5021 0
-1188 -1237 -1243 -1189 5021 5212 5027 5018 0
-1189 -1234 -1237 -1192 5018 5212 5021 5027 0
-1188 -1234 -1244 -1193 5018 5213 5028 5022 0
-1188 -1238 -1244 -1189 5022 5213 5028 5018 0
-1189 -1234 -1238 -1193 5018 5213 5022 5028 0
-1188 -1234 -1245 -1194 5018 5214 5029 5023 0
-1188 -1239 -1245 -1189 5023 5214 5029 5018 0
-1189 -1234 -1239 -1194 5018 5214 5023 5029 0
-1188 -1234 -1246 -1195 5018 5215 5030 5024 0
-1188 -1240 -1246 -1189 5024 5215 5030 5018 0
-1189 -1234 -1240 -1195 5018 5215 5024 5030 0
-1188 -1235 -1247 -1191 5019 5216 5031 5020 0
-1188 -1236 -1247 -1190 5020 5216 5031 5019 0
-1190 -1235 -1236 -1191 5019 5216 5020 5031 0
-1188 -1235 -1248 -1192 5019 5217 5032 5021 0
-1188 -1237 -1248 -1190 5021 5217 5032 5019 0
-1190 -1235 -1237 -1192 5019 5217 5021 5032 0
-1188 -1235 -1249 -1193 5019 5218 5033 5022 0
-1188 -1238 -1249 -1190 5022 5218 5033 5019 0
-1190 -1235 -1238 -1193 5019 5218 5022 5033 0
-1188 -1235 -1250 -1194 5019 5219 5034 5023 0
-1188 -1239 -1250 -1190 5023 5219 5034 5019 0
-1190 -1235 -1239 -1194 5019 5219 5023 5034 0
-1188 -1235 -1251 -1195 5019 5220 5035 5024 0
-1188 -1240 -1251 -1190 5024 5220 5035 5019 0
-1190 -1235 -1240 -1195 5019 5220 5024 5035 0
-1188 -1236 -1252 -1192 5020 5221 5036 5021 0
-1188 -1237 -1252 -1191 5021 5221 5036 5020 0
-1191 -1236 -1237 -1192 5020 5221 5021 5036 0
-1188 -1236 -1253 -1193 5020 5222 5037 5022 0
-1188 -1238 -1253 -1191 5022 5222 5037 5020 0
-1191 -1236 -1238 -1193 5020 5222 5022 5037 0
-1188 -1236 -1254 -1194 5020 5223 5038 5023 0
-1188 -1239 -1254 -1191 5023 5223 5038 5020 0
-1191 -1236 -1239 -1194 5020 5223 5023 5038 0
-1188 -1236 -1255 -1195 5020 5224 5039 5024 0
-1188 -1240 -1255 -1191 5024 5224 5039 5020 0
-1191 -1236 -1240 -1195 5020 5224 5024 5039 0
-1188 -1237 -1256 -1193 5021 5225 5040 5022 0
-1188 -1238 -1256 -1192 5022 5225 5040 5021 0
-1192 -1237 -1238 -1193 5021 5225 5022 5040 0
-1188 -1237 -1257 -1194 5021 5226 5041 5023 0
-1188 -1239 -1257 -1192 5023 5226 5041 5021 0
-1192 -1237 -1239 -1194 5021 5226 5023 5041 0
-1188 -1237 -1258 -1195 5021 5227 5042 5024 0
-1188 -1240 -1258 -1192 5024 5227 5042 5021 0
-1192 -1237 -1240 -1195 5021 5227 5024 5042 0
-1188 -1238 -1259 -1194 5022 5228 5043 5023 0
-1188 -1239 -1259 -1193 5023 5228 5043 5022 0
-1193 -1238 -1239 -1194 5022 5228 5023 5043 0
-1188 -1238 -1260 -1195 5022 5229 5044 5024 0
-1188 -1240 -1260 -1193 5024 5229 5044 5022 0
-1193 -1238 -1240 -1195 5022 5229 5024 5044 0
-1188 -1239 -1261 -1195 5023 5230 5045 5024 0
-1188 -1240 -1261 -1194 5024 5230 5045 5023 0
-1194 -1239 -1240 -1195 5023 5230 5024 5045 0
-1189 -1241 -1247 -1191 5025 5231 5031 5026 0
-1189 -1242 -1247 -1190 5026 5231 5031 5025 0
-1190 -1241 -1242 -1191 5025 5231 5026 5031 0
-1189 -1241 -1248 -1192 5025 5232 5032 5027 0
-1189 -1243 -1248 -1190 5027 5232 5032 5025 0
-1190 -1241 -1243 -1192 5025 5232 5027 5032 0
-1189 -1241 -1249 -1193 5025 5233 5033 5028 0
-1189 -1244 -1249 -1190 5028 5233 5033 5025 0
-1190 -1241 -1244 -1193 5025 5233 5028 5033 0
-1189 -1241 -1250 -1194 5025 5234 5034 5029 0
-1189 -1245 -1250 -1190 5029 5234 5034 5025 0
-1190 -1241 -1245 -1194 5025 5234 5029 5034 0
-1189 -1241 -1251 -1195 5025 5235 5035 5030 0
-1189 -1246 -1251 -1190 5030 5235 5035 5025 0
-1190 -1241 -1246 -1195 5025 5235 5030 5035 0
-1189 -1242 -1252 -1192 5026 5236 5036 5027 0
-1189 -1243 -1252 -1191 5027 5236 5036 5026 0
-1191 -1242 -1243 -1192 5026 5236 5027 5036 0
-1189 -1242 -1253 -1193 5026 5237 5037 5028 0
-1189 -1244 -1253 -1191 5028 5237 5037 5026 0
-1191 -1242 -1244 -1193 5026 5237 5028 5037 0
-1189 -1242 -1254 -1194 5026 5238 5038 5029 0
-1189 -1245 -1254 -1191 5029 5238 5038 5026 0
-1191 -1242 -1245 -1194 5026 5238 5029 5038 0
-1189 -1242 -1255 -1195 5026 5239 5039 5030 0
-1189 -1246 -1255 -1191 5030 5239 5039 5026 0
-1191 -1242 -1246 -1195 5026 5239 5030 5039 0
-1189 -1243 -1256 -1193 5027 5240 5040 5028 0
-1189 -1244 -1256 -1192 5028 5240 5040 5027 0
-1192 -1243 -1244 -1193 5027 5240 5028 5040 0
-1189 -1243 -1257 -1194 5027 5241 5041 5029 0
-1189 -1245 -1257 -1192 5029 5241 5041 5027 0
-1192 -1243 -1245 -1194 5027 5241 5029 5041 0
-1189 -1243 -1258 -1195 5027 5242 5042 5030 0
-1189 -1246 -1258 -1192 5030 5242 5042 5027 0
-1192 -1243 -1246 -1195 5027 5242 5030 5042 0
-1189 -1244 -1259 -1194 5028 5243 5043 5029 0
-1189 -1245 -1259 -1193 5029 5243 5043 5028 0
-1193 -1244 -1245 -1194 5028 5243 5029 5043 0
-1189 -1244 -1260 -1195 5028 5244 5044 5030 0
-1189 -1246 -1260 -1193 5030 5244 5044 5028 0
-1193 -1244 -1246 -1195 5028 5244 5030 5044 0
-1189 -1245 -1261 -1195 5029 5245 5045 5030 0
-1189 -1246 -1261 -1194 5030 5245 5045 5029 0
-1194 -1245 -1246 -1195 5029 5245 5030 5045 0
-1190 -1247 -1252 -1192 5031 5246 5036 5032 0
-1190 -1248 -1252 -1191 5032 5246 5036 5031 0
-1191 -1247 -1248 -1192 5031 5246 5032 5036 0
-1190 -1247 -1253 -1193 5031 5247 5037 5033 0
-1190 -1249 -1253 -1191 5033 5247 5037 5031 0
-1191 -1247 -1249 -1193 5031 5247 5033 5037 0
-1190 -1247 -1254 -1194 5031 5248 5038 5034 0
-1190 -1250 -1254 -1191 5034 5248 5038 5031 0
-1191 -1247 -1250 -1194 5031 5248 5034 5038 0
-1190 -1247 -1255 -1195 5031 5249 5039 5035 0
-1190 -1251 -1255 -1191 5035 5249 5039 5031 0
-1191 -1247 -1251 -1195 5031 5249 5035 5039 0
-1190 -1248 -1256 -1193 5032 5250 5040 5033 0
-1190 -1249 -1256 -1192 5033 5250 5040 5032 0
-1192 -1248 -1249 -1193 5032 5250 5033 5040 0
-1190 -1248 -1257 -1194 5032 5251 5041 5034 0
-1190 -1250 -1257 -1192 5034 5251 5041 5032 0
-1192 -1248 -1250 -1194 5032 5251 5034 5041 0
-1190 -1248 -1258 -1195 5032 5252 5042 5035 0
-1190 -1251 -1258 -1192 5035 5252 5042 5032 0
-1192 -1248 -1251 -1195 5032 5252 5035 5042 0
-1190 -1249 -1259 -1194 5033 5253 5043 5034 0
-1190 -1250 -1259 -1193 5034 5253 5043 5033 0
-1193 -1249 -1250 -1194 5033 5253 5034 5043 0
-1190 -1249 -1260 -1195 5033 5254 5044 5035 0
-1190 -1251 -1260 -1193 5035 5254 5044 5033 0
-1193 -1249 -1251 -1195 5033 5254 5035 5044 0
-1190 -1250 -1261 -1195 5034 5255 5045 5035 0
-1190 -1251 -1261 -1194 5035 5255 5045 5034 0
-1194 -1250 -1251 -1195 5034 5255 5035 5045 0
-1191 -1252 -1256 -1193 5036 5256 5040 5037 0
-1191 -1253 -1256 -1192 5037 5256 5040 5036 0
-1192 -1252 -1253 -1193 5036 5256 5037 5040 0
-1191 -1252 -1257 -1194 5036 5257 5041 5038 0
-1191 -1254 -1257 -1192 5038 5257 5041 5036 0
-1192 -1252 -1254 -1194 5036 5257 5038 5041 0
-1191 -1252 -1258 -1195 5036 5258 5042 5039 0
-1191 -1255 -1258 -1192 5039 5258 5042 5036 0
-1192 -1252 -1255 -1195 5036 5258 5039 5042 0
-1191 -1253 -1259 -1194 5037 5259 5043 5038 0
-1191 -1254 -1259 -1193 5038 5259 5043 5037 0
-1193 -1253 -1254 -1194 5037 5259 5038 5043 0
-1191 -1253 -1260 -1195 5037 5260 5044 5039 0
-1191 -1255 -1260 -1193 5039 5260 5044 5037 0
-1193 -1253 -1255 -1195 5037 5260 5039 5044 0
-1191 -1254 -1261 -1195 5038 5261 5045 5039 0
-1191 -1255 -1261 -1194 5039 5261 5045 5038 0
-1194 -1254 -1255 -1195 5038 5261 5039 5045 0
-1192 -1256 -1259 -1194 5040 5262 5043 5041 0
-1192 -1257 -1259 -1193 5041 5262 5043 5040 0
-1193 -1256 -1257 -1194 5040 5262 5041 5043 0
-1192 -1256 -1260 -1195 5040 5263 5044 5042 0
-1192 -1258 -1260 -1193 5042 5263 5044 5040 0
-1193 -1256 -1258 -1195 5040 5263 5042 5044 0
-1192 -1257 -1261 -1195 5041 5264 5045 5042 0
-1192 -1258 -1261 -1194 5042 5264 5045 5041 0
-1194 -1257 -1258 -1195 5041 5264 5042 5045 0
-1193 -1259 -1261 -1195 5043 5265 5045 5044 0
-1193 -1260 -1261 -1194 5044 5265 5045 5043 0
-1194 -1259 -1260 -1195 5043 5265 5044 5045 0
-1196 -1207 -1217 -1198 5046 5101 5056 5047 0
-1196 -1208 -1217 -1197 5047 5101 5056 5046 0
-1197 -1207 -1208 -1198 5046 5101 5047 5056 0
-1196 -1207 -1218 -1199 5046 5102 5057 5048 0
-1196 -1209 -1218 -1197 5048 5102 5057 5046 0
-1197 -1207 -1209 -1199 5046 5102 5048 5057 0
-1196 -1207 -1219 -1200 5046 5103 5058 5049 0
-1196 -1210 -1219 -1197 5049 5103 5058 5046 0
-1197 -1207 -1210 -1200 5046 5103 5049 5058 0
-1196 -1207 -1220 -1201 5046 5104 5059 5050 0
-1196 -1211 -1220 -1197 5050 5104 5059 5046 0
-1197 -1207 -1211 -1201 5046 5104 5050 5059 0
-1196 -1207 -1221 -1202 5046 5105 5060 5051 0
-1196 -1212 -1221 -1197 5051 5105 5060 5046 0
-1197 -1207 -1212 -1202 5046 5105 5051 5060 0
-1196 -1207 -1222 -1203 5046 5106 5061 5052 0
-1196 -1213 -1222 -1197 5052 5106 5061 5046 0
-1197 -1207 -1213 -1203 5046 5106 5052 5061 0
-1196 -1207 -1223 -1204 5046 5107 5062 5053 0
-1196 -1214 -1223 -1197 5053 5107 5062 5046 0
-1197 -1207 -1214 -1204 5046 5107 5053 5062 0
-1196 -1207 -1224 -1205 5046 5108 5063 5054 0
-1196 -1215 -1224 -1197 5054 5108 5063 5046 0
-1197 -1207 -1215 -1205 5046 5108 5054 5063 0
-1196 -1207 -1225 -1206 5046 5109 5064 5055 0
-1196 -1216 -1225 -1197 5055 5109 5064 5046 0
-1197 -1207 -1216 -1206 5046 5109 5055 5064 0
-1196 -1208 -1226 -1199 5047 5110 5065 5048 0
-1196 -1209 -1226 -1198 5048 5110 5065 5047 0
-1198 -1208 -1209 -1199 5047 5110 5048 5065 0
-1196 -1208 -1227 -1200 5047 5111 5066 5049 0
-1196 -1210 -1227 -1198 5049 5111 5066 5047 0
-1198 -1208 -1210 -1200 5047 5111 5049 5066 0
-1196 -1208 -1228 -1201 5047 5112 5067 5050 0
-1196 -1211 -1228 -1198 5050 5112 5067 5047 0
-1198 -1208 -1211 -1201 5047 5112 5050 5067 0
-1196 -1208 -1229 -1202 5047 5113 5068 5051 0
-1196 -1212 -1229 -1198 5051 5113 5068 5047 0
-1198 -1208 -1212 -1202 5047 5113 5051 5068 0
-1196 -1208 -1230 -1203 5047 5114 5069 5052 0
-1196 -1213 -1230 -1198 5052 5114 5069 5047 0
-1198 -1208 -1213 -1203 5047 5114 5052 5069 0
-1196 -1208 -1231 -1204 5047 5115 5070 5053 0
-1196 -1214 -1231 -1198 5053 5115 5070 5047 0
-1198 -1208 -1214 -1204 5047 5115 5053 5070 0
-1196 -1208 -1232 -1205 5047 5116 5071 5054 0
-1196 -1215 -1232 -1198 5054 5116 5071 5047 0
-1198 -1208 -1215 -1205 5047 5116 5054 5071 0
-1196 -1208 -1233 -1206 5047 5117 5072 5055 0
-1196 -1216 -1233 -1198 5055 5117 5072 5047 0
-1198 -1208 -1216 -1206 5047 5117 5055 5072 0
-1196 -1209 -1234 -1200 5048 5118 5073 5049 0
-1196 -1210 -1234 -1199 5049 5118 5073 5048 0
-1199 -1209 -1210 -1200 5048 5118 5049 5073 0
-1196 -1209 -1235 -1201 5048 5119 5074 5050 0
-1196 -1211 -1235 -1199 5050 5119 5074 5048 0
-1199 -1209 -1211 -1201 5048 5119 5050 5074 0
-1196 -1209 -1236 -1202 5048 5120 5075 5051 0
-1196 -1212 -1236 -1199 5051 5120 5075 5048 0
-1199 -1209 -1212 -1202 5048 5120 5051 5075 0
-1196 -1209 -1237 -1203 5048 5121 5076 5052 0
-1196 -1213 -1237 -1199 5052 5121 5076 5048 0
-1199 -1209 -1213 -1203 5048 5121 5052 5076 0
-1196 -1209 -1238 -1204 5048 5122 5077 5053 0
-1196 -1214 -1238 -1199 5053 5122 5077 5048 0
-1199 -1209 -1214 -1204 5048 5122 5053 5077 0
-1196 -1209 -1239 -1205 5048 5123 5078 5054 0
-1196 -1215 -1239 -1199 5054 5123 5078 5048 0
-1199 -1209 -1215 -1205 5048 5123 5054 5078 0
-1196 -1209 -1240 -1206 5048 5124 5079 5055 0
-1196 -1216 -1240 -1199 5055 5124 5079 5048 0
-1199 -1209 -1216 -1206 5048 5124 5055 5079 0
-1196 -1210 -1241 -1201 5049 5125 5080 5050 0
-1196 -1211 -1241 -1200 5050 5125 5080 5049 0
-1200 -1210 -1211 -1201 5049 5125 5050 5080 0
-1196 -1210 -1242 -1202 5049 5126 5081 5051 0
-1196 -1212 -1242 -1200 5051 5126 5081 5049 0
-1200 -1210 -1212 -1202 5049 5126 5051 5081 0
-1196 -1210 -1243 -1203 5049 5127 5082 5052 0
-1196 -1213 -1243 -1200 5052 5127 5082 5049 0
-1200 -1210 -1213 -1203 5049 5127 5052 5082 0
-1196 -1210 -1244 -1204 5049 5128 5083 5053 0
-1196 -1214 -1244 -1200 5053 5128 5083 5049 0
-1200 -1210 -1214 -1204 5049 5128 5053 5083 0
-1196 -1210 -1245 -1205 5049 5129 5084 5054 0
-1196 -1215 -1245 -1200 5054 5129 5084 5049 0
-1200 -1210 -1215 -1205 5049 5129 5054 5084 0
-1196 -1210 -1246 -1206 5049 5130 5085 5055 0
-1196 -1216 -1246 -1200 5055 5130 5085 5049 0
-1200 -1210 -1216 -1206 5049 5130 5055 5085 0
-1196 -1211 -1247 -1202 5050 5131 5086 5051 0
-1196 -1212 -1247 -1201 5051 5131 5086 5050 0
-1201 -1211 -1212 -1202 5050 5131 5051 5086 0
-1196 -1211 -1248 -1203 5050 5132 5087 5052 0
-1196 -1213 -1248 -1201 5052 5132 5087 5050 0
-1201 -1211 -1213 -1203 5050 5132 5052 5087 0
-1196 -1211 -1249 -1204 5050 5133 5088 5053 0
-1196 -1214 -1249 -1201 5053 5133 5088 5050 0
-1201 -1211 -1214 -1204 5050 5133 5053 5088 0
-1196 -1211 -1250 -1205 5050 5134 5089 5054 0
-1196 -1215 -1250 -1201 5054 5134 5089 5050 0
-1201 -1211 -1215 -1205 5050 5134 5054 5089 0
-1196 -1211 -1251 -1206 5050 5135 5090 5055 0
-1196 -1216 -1251 -1201 5055 5135 5090 5050 0
-1201 -1211 -1216 -1206 5050 5135 5055 5090 0
-1196 -1212 -1252 -1203 5051 5136 5091 5052 0
-1196 -1213 -1252 -1202 5052 5136 5091 5051 0
-1202 -1212 -1213 -1203 5051 5136 5052 5091 0
-1196 -1212 -1253 -1204 5051 5137 5092 5053 0
-1196 -1214 -1253 -1202 5053 5137 5092 5051 0
-1202 -1212 -1214 -1204 5051 5137 5053 5092 0
-1196 -1212 -1254 -1205 5051 5138 5093 5054 0
-1196 -1215 -1254 -1202 5054 5138 5093 5051 0
-1202 -1212 -1215 -1205 5051 5138 5054 5093 0
-1196 -1212 -1255 -1206 5051 5139 5094 5055 0
-1196 -1216 -1255 -1202 5055 5139 5094 5051 0
-1202 -1212 -1216 -1206 5051 5139 5055 5094 0
-1196 -1213 -1256 -1204 5052 5140 5095 5053 0
-1196 -1214 -1256 -1203 5053 5140 5095 5052 0
-1203 -1213 -1214 -1204 5052 5140 5053 5095 0
-1196 -1213 -1257 -1205 5052 5141 5096 5054 0
-1196 -1215 -1257 -1203 5054 5141 5096 5052 0
-1203 -1213 -1215 -1205 5052 5141 5054 5096 0
-1196 -1213 -1258 -1206 5052 5142 5097 5055 0
-1196 -1216 -1258 -1203 5055 5142 5097 5052 0
-1203 -1213 -1216 -1206 5052 5142 5055 5097 0
-1196 -1214 -1259 -1205 5053 5143 5098 5054 0
-1196 -1215 -1259 -1204 5054 5143 5098 5053 0
-1204 -1214 -1215 -1205 5053 5143 5054 5098 0
-1196 -1214 -1260 -1206 5053 5144 5099 5055 0
-1196 -1216 -1260 -1204 5055 5144 5099 5053 0
-1204 -1214 -1216 -1206 5053 5144 5055 5099 0
-1196 -1215 -1261 -1206 5054 5145 5100 5055 0
-1196 -1216 -1261 -1205 5055 5145 5100 5054 0
-1205 -1215 -1216 -1206 5054 5145 5055 5100 0
-1197 -1217 -1226 -1199 5056 5146 5065 5057 0
-1197 -1218 -1226 -1198 5057 5146 5065 5056 0
-1198 -1217 -1218 -1199 5056 5146 5057 5065 0
-1197 -1217 -1227 -1200 5056 5147 5066 5058 0
-1197 -1219 -1227 -1198 5058 5147 5066 5056 0
-1198 -1217 -1219 -1200 5056 5147 5058 5066 0
-1197 -1217 -1228 -1201 5056 5148 5067 5059 0
-1197 -1220 -1228 -1198 5059 5148 5067 5056 0
-1198 -1217 -1220 -1201 5056 5148 5059 5067 0
-1197 -1217 -1229 -1202 5056 5149 5068 5060 0
-1197 -1221 -1229 -1198 5060 5149 5068 5056 0
-1198 -1217 -1221 -1202 5056 5149 5060 5068 0
-1197 -1217 -1230 -1203 5056 5150 5069 5061 0
-1197 -1222 -1230 -1198 5061 5150 5069 5056 0
-1198 -1217 -1222 -1203 5056 5150 5061 5069 0
-1197 -1217 -1231 -1204 5056 5151 5070 5062 0
-1197 -1223 -1231 -1198 5062 5151 5070 5056 0
-1198 -1217 -1223 -1204 5056 5151 5062 5070 0
-1197 -1217 -1232 -1205 5056 5152 5071 5063 0
-1197 -1224 -1232 -1198 5063 5152 5071 5056 0
-1198 -1217 -1224 -1205 5056 5152 5063 5071 0
-1197 -1217 -1233 -1206 5056 5153 5072 5064 0
-1197 -1225 -1233 -1198 5064 5153 5072 5056 0
-1198 -1217 -1225 -1206 5056 5153 5064 5072 0
-1197 -1218 -1234 -1200 5057 5154 5073 5058 0
-1197 -1219 -1234 -1199 5058 5154 5073 5057 0
-1199 -1218 -1219 -1200 5057 5154 5058 5073 0
-1197 -1218 -1235 -1201 5057 5155 5074 5059 0
-1197 -1220 -1235 -1199 5059 5155 5074 5057 0
-1199 -1218 -1220 -1201 5057 5155 5059 5074 0
-1197 -1218 -1236 -1202 5057 5156 5075 5060 0
-1197 -1221 -1236 -1199 5060 5156 5075 5057 0
-1199 -1218 -1221 -1202 5057 5156 5060 5075 0
-1197 -1218 -1237 -1203 5057 5157 5076 5061 0
-1197 -1222 -1237 -1199 5061 5157 5076 5057 0
-1199 -1218 -1222 -1203 5057 5157 5061 5076 0
-1197 -1218 -1238 -1204 5057 5158 5077 5062 0
-1197 -1223 -1238 -1199 5062 5158 5077 5057 0
-1199 -1218 -1223 -1204 5057 5158 5062 5077 0
-1197 -1218 -1239 -1205 5057 5159 5078 5063 0
-1197 -1224 -1239 -1199 5063 5159 5078 5057 0
-1199 -1218 -1224 -1205 5057 5159 5063 5078 0
-1197 -1218 -1240 -1206 5057 5160 5079 5064 0
-1197 -1225 -1240 -1199 5064 5160 5079 5057 0
-1199 -1218 -1225 -1206 5057 5160 5064 5079 0
-1197 -1219 -1241 -1201 5058 5161 5080 5059 0
-1197 -1220 -1241 -1200 5059 5161 5080 5058 0
-1200 -1219 -1220 -1201 5058 5161 5059 5080 0
-1197 -1219 -1242 -1202 5058 5162 5081 5060 0
-1197 -1221 -1242 -1200 5060 5162 5081 5058 0
-1200 -1219 -1221 -1202 5058 5162 5060 5081 0
-1197 -1219 -1243 -1203 5058 5163 5082 5061 0
-1197 -1222 -1243 -1200 5061 5163 5082 5058 0
-1200 -1219 -1222 -1203 5058 5163 5061 5082 0
-1197 -1219 -1244 -1204 5058 5164 5083 5062 0
-1197 -1223 -1244 -1200 5062 5164 5083 5058 0
-1200 -1219 -1223 -1204 5058 5164 5062 5083 0
-1197 -1219 -1245 -1205 5058 5165 5084 5063 0
-1197 -1224 -1245 -1200 5063 5165 5084 5058 0
-1200 -1219 -1224 -1205 5058 5165 5063 5084 0
-1197 -1219 -1246 -1206 5058 5166 5085 5064 0
-1197 -1225 -1246 -1200 5064 5166 5085 5058 0
-1200 -1219 -1225 -1206 5058 5166 5064 5085 0
-1197 -1220 -1247 -1202 5059 5167 5086 5060 0
-1197 -1221 -1247 -1201 5060 5167 5086 5059 0
-1201 -1220 -1221 -1202 5059 5167 5060 5086 0
-1197 -1220 -1248 -1203 5059 5168 5087 5061 0
-1197 -1222 -1248 -1201 5061 5168 5087 5059 0
-1201 -1220 -1222 -1203 5059 5168 5061 5087 0
-1197 -1220 -1249 -1204 5059 5169 5088 5062 0
-1197 -1223 -1249 -1201 5062 5169 5088 5059 0
-1201 -1220 -1223 -1204 5059 5169 5062 5088 0
-1197 -1220 -1250 -1205 5059 5170 5089 5063 0
-1197 -1224 -1250 -1201 5063 5170 5089 5059 0
-1201 -1220 -1224 -1205 5059 5170 5063 5089 0
-1197 -1220 -1251 -1206 5059 5171 5090 5064 0
-1197 -1225 -1251 -1201 5064 5171 5090 5059 0
-1201 -1220 -1225 -1206 5059 5171 5064 5090 0
-1197 -1221 -1252 -1203 5060 5172 5091 5061 0
-1197 -1222 -1252 -1202 5061 5172 5091 5060 0
-1202 -1221 -1222 -1203 5060 5172 5061 5091 0
-1197 -1221 -1253 -1204 5060 5173 5092 5062 0
-1197 -1223 -1253 -1202 5062 5173 5092 5060 0
-1202 -1221 -1223 -1204 5060 5173 5062 5092 0
-1197 -1221 -1254 -1205 5060 5174 5093 5063 0
-1197 -1224 -1254 -1202 5063 5174 5093 5060 0
-1202 -1221 -1224 -1205 5060 5174 5063 5093 0
-1197 -1221 -1255 -1206 5060 5175 5094 5064 0
-1197 -1225 -1255 -1202 5064 5175 5094 5060 0
-1202 -1221 -1225 -1206 5060 5175 5064 5094 0
-1197 -1222 -1256 -1204 5061 5176 5095 5062 0
-1197 -1223 -1256 -1203 5062 5176 5095 5061 0
-1203 -1222 -1223 -1204 5061 5176 5062 5095 0
-1197 -1222 -1257 -1205 5061 5177 5096 5063 0
-1197 -1224 -1257 -1203 5063 5177 5096 5061 0
-1203 -1222 -1224 -1205 5061 5177 5063 5096 0
-1197 -1222 -1258 -1206 5061 5178 5097 5064 0
-1197 -1225 -1258 -1203 5064 5178 5097 5061 0
-1203 -1222 -1225 -1206 5061 5178 5064 5097 0
-1197 -1223 -1259 -1205 5062 5179 5098 5063 0
-1197 -1224 -1259 -1204 5063 5179 5098 5062 0
-1204 -1223 -1224 -1205 5062 5179 5063 5098 0
-1197 -1223 -1260 -1206 5062 5180 5099 5064 0
-1197 -1225 -1260 -1204 5064 5180 5099 5062 0
-1204 -1223 -1225 -1206 5062 5180 5064 5099 0
-1197 -1224 -1261 -1206 5063 5181 5100 5064 0
-1197 -1225 -1261 -1205 5064 5181 5100 5063 0
-1205 -1224 -1225 -1206 5063 5181 5064 5100 0
-1198 -1226 -1234 -1200 5065 5182 5073 5066 0
-1198 -1227 -1234 -1199 5066 5182 5073 5065 0
-1199 -1226 -1227 -1200 5065 5182 5066 5073 0
-1198 -1226 -1235 -1201 5065 5183 5074 5067 0
-1198 -1228 -1235 -1199 5067 5183 5074 5065 0
-1199 -1226 -1228 -1201 5065 5183 5067 5074 0
-1198 -1226 -1236 -1202 5065 5184 5075 5068 0
-1198 -1229 -1236 -1199 5068 5184 5075 5065 0
-1199 -1226 -1229 -1202 5065 5184 5068 5075 0
-1198 -1226 -1237 -1203 5065 5185 5076 5069 0
-1198 -1230 -1237 -1199 5069 5185 5076 5065 0
-1199 -1226 -1230 -1203 5065 5185 5069 5076 0
-1198 -1226 -1238 -1204 5065 5186 5077 5070 0
-1198 -1231 -1238 -1199 5070 5186 5077 5065 0
-1199 -1226 -1231 -1204 5065 5186 5070 5077 0
-1198 -1226 -1239 -1205 5065 5187 5078 5071 0
-1198 -1232 -1239 -1199 5071 5187 5078 5065 0
-1199 -1226 -1232 -1205 5065 5187 5071 5078 0
-1198 -1226 -1240 -1206 5065 5188 5079 5072 0
-1198 -1233 -1240 -1199 5072 5188 5079 5065 0
-1199 -1226 -1233 -1206 5065 5188 5072 5079 0
-1198 -1227 -1241 -1201 5066 5189 5080 5067 0
-1198 -1228 -1241 -1200 5067 5189 5080 5066 0
-1200 -1227 -1228 -1201 5066 5189 5067 5080 0
-1198 -1227 -1242 -1202 5066 5190 5081 5068 0
-1198 -1229 -1242 -1200 5068 5190 5081 5066 0
-1200 -1227 -1229 -1202 5066 5190 5068 5081 0
-1198 -1227 -1243 -1203 5066 5191 5082 5069 0
-1198 -1230 -1243 -1200 5069 5191 5082 5066 0
-1200 -1227 -1230 -1203 5066 5191 5069 5082 0
-1198 -1227 -1244 -1204 5066 5192 5083 5070 0
-1198 -1231 -1244 -1200 5070 5192 5083 5066 0
-1200 -1227 -1231 -1204 5066 5192 5070 5083 0
-1198 -1227 -1245 -1205 5066 5193 5084 5071 0
-1198 -1232 -1245 -1200 5071 5193 5084 5066 0
-1200 -1227 -1232 -1205 5066 5193 5071 5084 0
-1198 -1227 -1246 -1206 5066 5194 5085 5072 0
-1198 -1233 -1246 -1200 5072 5194 5085 5066 0
-1200 -1227 -1233 -1206 5066 5194 5072 5085 0
-1198 -1228 -1247 -1202 5067 5195 5086 5068 0
-1198 -1229 -1247 -1201 5068 5195 5086 5067 0
-1201 -1228 -1229 -1202 5067 5195 5068 5086 0
-1198 -1228 -1248 -1203 5067 5196 5087 5069 0
-1198 -1230 -1248 -1201 5069 5196 5087 5067 0
-1201 -1228 -1230 -1203 5067 5196 5069 5087 0
-1198 -1228 -1249 -1204 5067 5197 5088 5070 0
-1198 -1231 -1249 -1201 5070 5197 5088 5067 0
-1201 -1228 -1231 -1204 5067 5197 5070 5088 0
-1198 -1228 -1250 -1205 5067 5198 5089 5071 0
-1198 -1232 -1250 -1201 5071 5198 5089 5067 0
-1201 -1228 -1232 -1205 5067 5198 5071 5089 0
-1198 -1228 -1251 -1206 5067 5199 5090 5072 0
-1198 -1233 -1251 -1201 5072 5199 5090 5067 0
-1201 -1228 -1233 -1206 5067 5199 5072 5090 0
-1198 -1229 -1252 -1203 5068 5200 5091 5069 0
-1198 -1230 -1252 -1202 5069 5200 5091 5068 0
-1202 -1229 -1230 -1203 5068 5200 5069 5091 0
-1198 -1229 -1253 -1204 5068 5201 5092 5070 0
-1198 -1231 -1253 -1202 5070 5201 5092 5068 0
-1202 -1229 -1231 -1204 5068 5201 5070 5092 0
-1198 -1229 -1254 -1205 5068 5202 5093 5071 0
-1198 -1232 -1254 -1202 5071 5202 5093 5068 0
-1202 -1229 -1232 -1205 5068 5202 5071 5093 0
-1198 -1229 -1255 -1206 5068 5203 5094 5072 0
-1198 -1233 -1255 -1202 5072 5203 5094 5068 0
-1202 -1229 -1233 -1206 5068 5203 5072 5094 0
-1198 -1230 -1256 -1204 5069 5204 5095 5070 0
-1198 -1231 -1256 -1203 5070 5204 5095 5069 0
-1203 -1230 -1231 -1204 5069 5204 5070 5095 0
-1198 -1230 -1257 -1205 5069 5205 5096 5071 0
-1198 -1232 -1257 -1203 5071 5205 5096 5069 0
-1203 -1230 -1232 -1205 5069 5205 5071 5096 0
-1198 -1230 -1258 -1206 5069 5206 5097 5072 0
-1198 -1233 -1258 -1203 5072 5206 5097 5069 0
-1203 -1230 -1233 -1206 5069 5206 5072 5097 0
-1198 -1231 -1259 -1205 5070 5207 5098 5071 0
-1198 -1232 -1259 -1204 5071 5207 5098 5070 0
-1204 -1231 -1232 -1205 5070 5207 5071 5098 0
-1198 -1231 -1260 -1206 5070 5208 5099 5072 0
-1198 -1233 -1260 -1204 5072 5208 5099 5070 0
-1204 -1231 -1233 -1206 5070 5208 5072 5099 0
-1198 -1232 -1261 -1206 5071 5209 5100 5072 0
-1198 -1233 -1261 -1205 5072 5209 5100 5071 0
-1205 -1232 -1233 -1206 5071 5209 5072 5100 0
-1199 -1234 -1241 -1201 5073 5210 5080 5074 0
-1199 -1235 -1241 -1200 5074 5210 5080 5073 0
-1200 -1234 -1235 -1201 5073 5210 5074 5080 0
-1199 -1234 -1242 -1202 5073 5211 5081 5075 0
-1199 -1236 -1242 -1200 5075 5211 5081 5073 0
-1200 -1234 -1236 -1202 5073 5211 5075 5081 0
-1199 -1234 -1243 -1203 5073 5212 5082 5076 0
-1199 -1237 -1243 -1200 5076 5212 5082 5073 0
-1200 -1234 -1237 -1203 5073 5212 5076 5082 0
-1199 -1234 -1244 -1204 5073 5213 5083 5077 0
-1199 -1238 -1244 -1200 5077 5213 5083 5073 0
-1200 -1234 -1238 -1204 5073 5213 5077 5083 0
-1199 -1234 -1245 -1205 5073 5214 5084 5078 0
-1199 -1239 -1245 -1200 5078 5214 5084 5073 0
-1200 -1234 -1239 -1205 5073 5214 5078 5084 0
-1199 -1234 -1246 -1206 5073 5215 5085 5079 0
-1199 -1240 -1246 -1200 5079 5215 5085 5073 0
-1200 -1234 -1240 -1206 5073 5215 5079 5085 0
-1199 -1235 -1247 -1202 5074 5216 5086 5075 0
-1199 -1236 -1247 -1201 5075 5216 5086 5074 0
-1201 -1235 -1236 -1202 5074 5216 5075 5086 0
-1199 -1235 -1248 -1203 5074 5217 5087 5076 0
-1199 -1237 -1248 -1201 5076 5217 5087 5074 0
-1201 -1235 -1237 -1203 5074 5217 5076 5087 0
-1199 -1235 -1249 -1204 5074 5218 5088 5077 0
-1199 -1238 -1249 -1201 5077 5218 5088 5074 0
-1201 -1235 -1238 -1204 5074 5218 5077 5088 0
-1199 -1235 -1250 -1205 5074 5219 5089 5078 0
-1199 -1239 -1250 -1201 5078 5219 5089 5074 0
-1201 -1235 -1239 -1205 5074 5219 5078 5089 0
-1199 -1235 -1251 -1206 5074 5220 5090 5079 0
-1199 -1240 -1251 -1201 5079 5220 5090 5074 0
-1201 -1235 -1240 -1206 5074 5220 5079 5090 0
-1199 -1236 -1252 -1203 5075 5221 5091 5076 0
-1199 -1237 -1252 -1202 5076 5221 5091 5075 0
-1202 -1236 -1237 -1203 5075 5221 5076 5091 0
-1199 -1236 -1253 -1204 5075 5222 5092 5077 0
-1199 -1238 -1253 -1202 5077 5222 5092 5075 0
-1202 -1236 -1238 -1204 5075 5222 5077 5092 0
-1199 -1236 -1254 -1205 5075 5223 5093 5078 0
-1199 -1239 -1254 -1202 5078 5223 5093 5075 0
-1202 -1236 -1239 -1205 5075 5223 5078 5093 0
-1199 -1236 -1255 -1206 5075 5224 5094 5079 0
-1199 -1240 -1255 -1202 5079 5224 5094 5075 0
-1202 -1236 -1240 -1206 5075 5224 5079 5094 0
-1199 -1237 -1256 -1204 5076 5225 5095 5077 0
-1199 -1238 -1256 -1203 5077 5225 5095 5076 0
-1203 -1237 -1238 -1204 5076 5225 5077 5095 0
-1199 -1237 -1257 -1205 5076 5226 5096 5078 0
-1199 -1239 -1257 -1203 5078 5226 5096 5076 0
-1203 -1237 -1239 -1205 5076 5226 5078 5096 0
-1199 -1237 -1258 -1206 5076 5227 5097 5079 0
-1199 -1240 -1258 -1203 5079 5227 5097 5076 0
-1203 -1237 -1240 -1206 5076 5227 5079 5097 0
-1199 -1238 -1259 -1205 5077 5228 5098 5078 0
-1199 -1239 -1259 -1204 5078 5228 5098 5077 0
-1204 -1238 -1239 -1205 5077 5228 5078 5098 0
-1199 -1238 -1260 -1206 5077 5229 5099 5079 0
-1199 -1240 -1260 -1204 5079 5229 5099 5077 0
-1204 -1238 -1240 -1206 5077 5229 5079 5099 0
-1199 -1239 -1261 -1206 5078 5230 5100 5079 0
-1199 -1240 -1261 -1205 5079 5230 5100 5078 0
-1205 -1239 -1240 -1206 5078 5230 5079 5100 0
-1200 -1241 -1247 -1202 5080 5231 5086 5081 0
-1200 -1242 -1247 -1201 5081 5231 5086 5080 0
-1201 -1241 -1242 -1202 5080 5231 5081 5086 0
-1200 -1241 -1248 -1203 5080 5232 5087 5082 0
-1200 -1243 -1248 -1201 5082 5232 5087 5080 0
-1201 -1241 -1243 -1203 5080 5232 5082 5087 0
-1200 -1241 -1249 -1204 5080 5233 5088 5083 0
-1200 -1244 -1249 -1201 5083 5233 5088 5080 0
-1201 -1241 -1244 -1204 5080 5233 5083 5088 0
-1200 -1241 -1250 -1205 5080 5234 5089 5084 0
-1200 -1245 -1250 -1201 5084 5234 5089 5080 0
-1201 -1241 -1245 -1205 5080 5234 5084 5089 0
-1200 -1241 -1251 -1206 5080 5235 5090 5085 0
-1200 -1246 -1251 -1201 5085 5235 5090 5080 0
-1201 -1241 -1246 -1206 5080 5235 5085 5090 0
-1200 -1242 -1252 -1203 5081 5236 5091 5082 0
-1200 -1243 -1252 -1202 5082 5236 5091 5081 0
-1202 -1242 -1243 -1203 5081 5236 5082 5091 0
-1200 -1242 -1253 -1204 5081 5237 5092 5083 0
-1200 -1244 -1253 -1202 5083 5237 5092 5081 0
-1202 -1242 -1244 -1204 5081 5237 5083 5092 0
-1200 -1242 -1254 -1205 5081 5238 5093 5084 0
-1200 -1245 -1254 -1202 5084 5238 5093 5081 0
-1202 -1242 -1245 -1205 5081 5238 5084 5093 0
-1200 -1242 -1255 -1206 5081 5239 5094 5085 0
-1200 -1246 -1255 -1202 5085 5239 5094 5081 0
-1202 -1242 -1246 -1206 5081 5239 5085 5094 0
-1200 -1243 -1256 -1204 5082 5240 5095 5083 0
-1200 -1244 -1256 -1203 5083 5240 5095 5082 0
-1203 -1243 -1244 -1204 5082 5240 5083 5095 0
-1200 -1243 -1257 -1205 5082 5241 5096 5084 0
-1200 -1245 -1257 -1203 5084 5241 5096 5082 0
-1203 -1243 -1245 -1205 5082 5241 5084 5096 0
-1200 -1243 -1258 -1206 5082 5242 5097 5085 0
-1200 -1246 -1258 -1203 5085 5242 5097 5082 0
-1203 -1243 -1246 -1206 5082 5242 5085 5097 0
-1200 -1244 -1259 -1205 5083 5243 5098 5084 0
-1200 -1245 -1259 -1204 5084 5243 5098 5083 0
-1204 -1244 -1245 -1205 5083 5243 5084 5098 0
-1200 -1244 -1260 -1206 5083 5244 5099 5085 0
-1200 -1246 -1260 -1204 5085 5244 5099 5083 0
-1204 -1244 -1246 -1206 5083 5244 5085 5099 0
-1200 -1245 -1261 -1206 5084 5245 5100 5085 0
-1200 -1246 -1261 -1205 5085 5245 5100 5084 0
-1205 -1245 -1246 -1206 5084 5245 5085 5100 0
-1201 -1247 -1252 -1203 5086 5246 5091 5087 0
-1201 -1248 -1252 -1202 5087 5246 5091 5086 0
-1202 -1247 -1248 -1203 5086 5246 5087 5091 0
-1201 -1247 -1253 -1204 5086 5247 5092 5088 0
-1201 -1249 -1253 -1202 5088 5247 5092 5086 0
-1202 -1247 -1249 -1204 5086 5247 5088 5092 0
-1201 -1247 -1254 -1205 5086 5248 5093 5089 0
-1201 -1250 -1254 -1202 5089 5248 5093 5086 0
-1202 -1247 -1250 -1205 5086 5248 5089 5093 0
-1201 -1247 -1255 -1206 5086 5249 5094 5090 0
-1201 -1251 -1255 -1202 5090 5249 5094 5086 0
-1202 -1247 -1251 -1206 5086 5249 5090 5094 0
-1201 -1248 -1256 -1204 5087 5250 5095 5088 0
-1201 -1249 -1256 -1203 5088 5250 5095 5087 0
-1203 -1248 -1249 -1204 5087 5250 5088 5095 0
-1201 -1248 -1257 -1205 5087 5251 5096 5089 0
-1201 -1250 -1257 -1203 5089 5251 5096 5087 0
-1203 -1248 -1250 -1205 5087 5251 5089 5096 0
-1201 -1248 -1258 -1206 5087 5252 5097 5090 0
-1201 -1251 -1258 -1203 5090 5252 5097 5087 0
-1203 -1248 -1251 -1206 5087 5252 5090 5097 0
-1201 -1249 -1259 -1205 5088 5253 5098 5089 0
-1201 -1250 -1259 -1204 5089 5253 5098 5088 0
-1204 -1249 -1250 -1205 5088 5253 5089 5098 0
-1201 -1249 -1260 -1206 5088 5254 5099 5090 0
-1201 -1251 -1260 -1204 5090 5254 5099 5088 0
-1204 -1249 -1251 -1206 5088 5254 5090 5099 0
-1201 -1250 -1261 -1206 5089 5255 5100 5090 0
-1201 -1251 -1261 -1205 5090 5255 5100 5089 0
-1205 -1250 -1251 -1206 5089 5255 5090 5100 0
-1202 -1252 -1256 -1204 5091 5256 5095 5092 0
-1202 -1253 -1256 -1203 5092 5256 5095 5091 0
-1203 -1252 -1253 -1204 5091 5256 5092 5095 0
-1202 -1252 -1257 -1205 5091 5257 5096 5093 0
-1202 -1254 -1257 -1203 5093 5257 5096 5091 0
-1203 -1252 -1254 -1205 5091 5257 5093 5096 0
-1202 -1252 -1258 -1206 5091 5258 5097 5094 0
-1202 -1255 -1258 -1203 5094 5258 5097 5091 0
-1203 -1252 -1255 -1206 5091 5258 5094 5097 0
-1202 -1253 -1259 -1205 5092 5259 5098 5093 0
-1202 -1254 -1259 -1204 5093 5259 5098 5092 0
-1204 -1253 -1254 -1205 5092 5259 5093 5098 0
-1202 -1253 -1260 -1206 5092 5260 5099 5094 0
-1202 -1255 -1260 -1204 5094 5260 5099 5092 0
-1204 -1253 -1255 -1206 5092 5260 5094 5099 0
-1202 -1254 -1261 -1206 5093 5261 5100 5094 0
-1202 -1255 -1261 -1205 5094 5261 5100 5093 0
-1205 -1254 -1255 -1206 5093 5261 5094 5100 0
-1203 -1256 -1259 -1205 5095 5262 5098 5096 0
-1203 -1257 -1259 -1204 5096 5262 5098 5095 0
-1204 -1256 -1257 -1205 5095 5262 5096 5098 0
-1203 -1256 -1260 -1206 5095 5263 5099 5097 0
-1203 -1258 -1260 -1204 5097 5263 5099 5095 0
-1204 -1256 -1258 -1206 5095 5263 5097 5099 0
-1203 -1257 -1261 -1206 5096 5264 5100 5097 0
-1203 -1258 -1261 -1205 5097 5264 5100 5096 0
-1205 -1257 -1258 -1206 5096 5264 5097 5100 0
-1204 -1259 -1261 -1206 5098 5265 5100 5099 0
-1204 -1260 -1261 -1205 5099 5265 5100 5098 0
-1205 -1259 -1260 -1206 5098 5265 5099 5100 0
-1207 -1217 -1226 -1209 5101 5146 5110 5102 0
-1207 -1218 -1226 -1208 5102 5146 5110 5101 0
-1208 -1217 -1218 -1209 5101 5146 5102 5110 0
-1207 -1217 -1227 -1210 5101 5147 5111 5103 0
-1207 -1219 -1227 -1208 5103 5147 5111 5101 0
-1208 -1217 -1219 -1210 5101 5147 5103 5111 0
-1207 -1217 -1228 -1211 5101 5148 5112 5104 0
-1207 -1220 -1228 -1208 5104 5148 5112 5101 0
-1208 -1217 -1220 -1211 5101 5148 5104 5112 0
-1207 -1217 -1229 -1212 5101 5149 5113 5105 0
-1207 -1221 -1229 -1208 5105 5149 5113 5101 0
-1208 -1217 -1221 -1212 5101 5149 5105 5113 0
-1207 -1217 -1230 -1213 5101 5150 5114 5106 0
-1207 -1222 -1230 -1208 5106 5150 5114 5101 0
-1208 -1217 -1222 -1213 5101 5150 5106 5114 0
-1207 -1217 -1231 -1214 5101 5151 5115 5107 0
-1207 -1223 -1231 -1208 5107 5151 5115 5101 0
-1208 -1217 -1223 -1214 5101 5151 5107 5115 0
-1207 -1217 -1232 -1215 5101 5152 5116 5108 0
-1207 -1224 -1232 -1208 5108 5152 5116 5101 0
-1208 -1217 -1224 -1215 5101 5152 5108 5116 0
-1207 -1217 -1233 -1216 5101 5153 5117 5109 0
-1207 -1225 -1233 -1208 5109 5153 5117 5101 0
-1208 -1217 -1225 -1216 5101 5153 5109 5117 0
-1207 -1218 -1234 -1210 5102 5154 5118 5103 0
-1207 -1219 -1234 -1209 5103 5154 5118 5102 0
-1209 -1218 -1219 -1210 5102 5154 5103 5118 0
-1207 -1218 -1235 -1211 5102 5155 5119 5104 0
-1207 -1220 -1235 -1209 5104 5155 5119 5102 0
-1209 -1218 -1220 -1211 5102 5155 5104 5119 0
-1207 -1218 -1236 -1212 5102 5156 5120 5105 0
-1207 -1221 -1236 -1209 5105 5156 5120 5102 0
-1209 -1218 -1221 -1212 5102 5156 5105 5120 0
-1207 -1218 -1237 -1213 5102 5157 5121 5106 0
-1207 -1222 -1237 -1209 5106 5157 5121 5102 0
-1209 -1218 -1222 -1213 5102 5157 5106 5121 0
-1207 -1218 -1238 -1214 5102 5158 5122 5107 0
-1207 -1223 -1238 -1209 5107 5158 5122 5102 0
-1209 -1218 -1223 -1214 5102 5158 5107 5122 0
-1207 -1218 -1239 -1215 5102 5159 5123 5108 0
-1207 -1224 -1239 -1209 5108 5159 5123 5102 0
-1209 -1218 -1224 -1215 5102 5159 5108 5123 0
-1207 -1218 -1240 -1216 5102 5160 5124 5109 0
-1207 -1225 -1240 -1209 5109 5160 5124 5102 0
-1209 -1218 -1225 -1216 5102 5160 5109 5124 0
-1207 -1219 -1241 -1211 5103 5161 5125 5104 0
-1207 -1220 -1241 -1210 5104 5161 5125 5103 0
-1210 -1219 -1220 -1211 5103 5161 5104 5125 0
-1207 -1219 -1242 -1212 5103 5162 5126 5105 0
-1207 -1221 -1242 -1210 5105 5162 5126 5103 0
-1210 -1219 -1221 -1212 5103 5162 5105 5126 0
-1207 -1219 -1243 -1213 5103 5163 5127 5106 0
-1207 -1222 -1243 -1210 5106 5163 5127 5103 0
-1210 -1219 -1222 -1213 5103 5163 5106 5127 0
-1207 -1219 -1244 -1214 5103 5164 5128 5107 0
-1207 -1223 -1244 -1210 5107 5164 5128 5103 0
-1210 -1219 -1223 -1214 5103 5164 5107 5128 0
-1207 -1219 -1245 -1215 5103 5165 5129 5108 0
-1207 -1224 -1245 -1210 5108 5165 5129 5103 0
-1210 -1219 -1224 -1215 5103 5165 5108 5129 0
-1207 -1219 -1246 -1216 5103 5166 5130 5109 0
-1207 -1225 -1246 -1210 5109 5166 5130 5103 0
-1210 -1219 -1225 -1216 5103 5166 5109 5130 0
-1207 -1220 -1247 -1212 5104 5167 5131 5105 0
-1207 -1221 -1247 -1211 5105 5167 5131 5104 0
-1211 -1220 -1221 -1212 5104 5167 5105 5131 0
-1207 -1220 -1248 -1213 5104 5168 5132 5106 0
-1207 -1222 -1248 -1211 5106 5168 5132 5104 0
-1211 -1220 -1222 -1213 5104 5168 5106 5132 0
-1207 -1220 -1249 -1214 5104 5169 5133 5107 0
-1207 -1223 -1249 -1211 5107 5169 5133 5104 0
-1211 -1220 -1223 -1214 5104 5169 5107 5133 0
-1207 -1220 -1250 -1215 5104 5170 5134 5108 0
-1207 -1224 -1250 -1211 5108 5170 5134 5104 0
-1211 -1220 -1224 -1215 5104 5170 5108 5134 0
-1207 -1220 -1251 -1216 5104 5171 5135 5109 0
-1207 -1225 -1251 -1211 5109 5171 5135 5104 0
-1211 -1220 -1225 -1216 5104 5171 5109 5135 0
-1207 -1221 -1252 -1213 5105 5172 5136 5106 0
-1207 -1222 -1252 -1212 5106 5172 5136 5105 0
-1212 -1221 -1222 -1213 5105 5172 5106 5136 0
-1207 -1221 -1253 -1214 5105 5173 5137 5107 0
-1207 -1223 -1253 -1212 5107 5173 5137 5105 0
-1212 -1221 -1223 -1214 5105 5173 5107 5137 0
-1207 -1221 -1254 -1215 5105 5174 5138 5108 0
-1207 -1224 -1254 -1212 5108 5174 5138 5105 0
-1212 -1221 -1224 -1215 5105 5174 5108 5138 0
-1207 -1221 -1255 -1216 5105 5175 5139 5109 0
-1207 -1225 -1255 -1212 5109 5175 5139 5105 0
-1212 -1221 -1225 -1216 5105 5175 5109 5139 0
-1207 -1222 -1256 -1214 5106 5176 5140 5107 0
-1207 -1223 -1256 -1213 5107 5176 5140 5106 0
-1213 -1222 -1223 -1214 5106 5176 5107 5140 0
-1207 -1222 -1257 -1215 5106 5177 5141 5108 0
-1207 -1224 -1257 -1213 5108 5177 5141 5106 0
-1213 -1222 -1224 -1215 5106 5177 5108 5141 0
-1207 -1222 -1258 -1216 5106 5178 5142 5109 0
-1207 -1225 -1258 -1213 5109 5178 5142 5106 0
-1213 -1222 -1225 -1216 5106 5178 5109 5142 0
-1207 -1223 -1259 -1215 5107 5179 5143 5108 0
-1207 -1224 -1259 -1214 5108 5179 5143 5107 0
-1214 -1223 -1224 -1215 5107 5179 5108 5143 0
-1207 -1223 -1260 -1216 5107 5180 5144 5109 0
-1207 -1225 -1260 -1214 5109 5180 5144 5107 0
-1214 -1223 -1225 -1216 5107 5180 5109 5144 0
-1207 -1224 -1261 -1216 5108 5181 5145 5109 0
-1207 -1225 -1261 -1215 5109 5181 5145 5108 0
-1215 -1224 -1225 -1216 5108 5181 5109 5145 0
-1208 -1226 -1234 -1210 5110 5182 5118 5111 0
-1208 -1227 -1234 -1209 5111 5182 5118 5110 0
-1209 -1226 -1227 -1210 5110 5182 5111 5118 0
-1208 -1226 -1235 -1211 5110 5183 5119 5112 0
-1208 -1228 -1235 -1209 5112 5183 5119 5110 0
-1209 -1226 -1228 -1211 5110 5183 5112 5119 0
-1208 -1226 -1236 -1212 5110 5184 5120 5113 0
-1208 -1229 -1236 -1209 5113 5184 5120 5110 0
-1209 -1226 -1229 -1212 5110 5184 5113 5120 0
-1208 -1226 -1237 -1213 5110 5185 5121 5114 0
-1208 -1230 -1237 -1209 5114 5185 5121 5110 0
-1209 -1226 -1230 -1213 5110 5185 5114 5121 0
-1208 -1226 -1238 -1214 5110 5186 5122 5115 0
-1208 -1231 -1238 -1209 5115 5186 5122 5110 0
-1209 -1226 -1231 -1214 5110 5186 5115 5122 0
-1208 -1226 -1239 -1215 5110 5187 5123 5116 0
-1208 -1232 -1239 -1209 5116 5187 5123 5110 0
-1209 -1226 -1232 -1215 5110 5187 5116 5123 0
-1208 -1226 -1240 -1216 5110 5188 5124 5117 0
-1208 -1233 -1240 -1209 5117 5188 5124 5110 0
-1209 -1226 -1233 -1216 5110 5188 5117 5124 0
-1208 -1227 -1241 -1211 5111 5189 5125 5112 0
-1208 -1228 -1241 -1210 5112 5189 5125 5111 0
-1210 -1227 -1228 -1211 5111 5189 5112 5125 0
-1208 -1227 -1242 -1212 5111 5190 5126 5113 0
-1208 -1229 -1242 -1210 5113 5190 5126 5111 0
-1210 -1227 -1229 -1212 5111 5190 5113 5126 0
-1208 -1227 -1243 -1213 5111 5191 5127 5114 0
-1208 -1230 -1243 -1210 5114 5191 5127 5111 0
-1210 -1227 -1230 -1213 5111 5191 5114 5127 0
-1208 -1227 -1244 -1214 5111 5192 5128 5115 0
-1208 -1231 -1244 -1210 5115 5192 5128 5111 0
-1210 -1227 -1231 -1214 5111 5192 5115 5128 0
-1208 -1227 -1245 -1215 5111 5193 5129 5116 0
-1208 -1232 -1245 -1210 5116 5193 5129 5111 0
-1210 -1227 -1232 -1215 5111 5193 5116 5129 0
-1208 -1227 -1246 -1216 5111 5194 5130 5117 0
-1208 -1233 -1246 -1210 5117 5194 5130 5111 0
-1210 -1227 -1233 -1216 5111 5194 5117 5130 0
-1208 -1228 -1247 -1212 5112 5195 5131 5113 0
-1208 -1229 -1247 -1211 5113 5195 5131 5112 0
-1211 -1228 -1229 -1212 5112 5195 5113 5131 0
-1208 -1228 -1248 -1213 5112 5196 5132 5114 0
-1208 -1230 -1248 -1211 5114 5196 5132 5112 0
-1211 -1228 -1230 -1213 5112 5196 5114 5132 0
-1208 -1228 -1249 -1214 5112 5197 5133 5115 0
-1208 -1231 -1249 -1211 5115 5197 5133 5112 0
-1211 -1228 -1231 -1214 5112 5197 5115 5133 0
-1208 -1228 -1250 -1215 5112 5198 5134 5116 0
-1208 -1232 -1250 -1211 5116 5198 5134 5112 0
-1211 -1228 -1232 -1215 5112 5198 5116 5134 0
-1208 -1228 -1251 -1216 5112 5199 5135 5117 0
-1208 -1233 -1251 -1211 5117 5199 5135 5112 0
-1211 -1228 -1233 -1216 5112 5199 5117 5135 0
-1208 -1229 -1252 -1213 5113 5200 5136 5114 0
-1208 -1230 -1252 -1212 5114 5200 5136 5113 0
-1212 -1229 -1230 -1213 5113 5200 5114 5136 0
-1208 -1229 -1253 -1214 5113 5201 5137 5115 0
-1208 -1231 -1253 -1212 5115 5201 5137 5113 0
-1212 -1229 -1231 -1214 5113 5201 5115 5137 0
-1208 -1229 -1254 -1215 5113 5202 5138 5116 0
-1208 -1232 -1254 -1212 5116 5202 5138 5113 0
-1212 -1229 -1232 -1215 5113 5202 5116 5138 0
-1208 -1229 -1255 -1216 5113 5203 5139 5117 0
-1208 -1233 -1255 -1212 5117 5203 5139 5113 0
-1212 -1229 -1233 -1216 5113 5203 5117 5139 0
-1208 -1230 -1256 -1214 5114 5204 5140 5115 0
-1208 -1231 -1256 -1213 5115 5204 5140 5114 0
-1213 -1230 -1231 -1214 5114 5204 5115 5140 0
-1208 -1230 -1257 -1215 5114 5205 5141 5116 0
-1208 -1232 -1257 -1213 5116 5205 5141 5114 0
-1213 -1230 -1232 -1215 5114 5205 5116 5141 0
-1208 -1230 -1258 -1216 5114 5206 5142 5117 0
-1208 -1233 -1258 -1213 5117 5206 5142 5114 0
-1213 -1230 -1233 -1216 5114 5206 5117 5142 0
-1208 -1231 -1259 -1215 5115 5207 5143 5116 0
-1208 -1232 -1259 -1214 5116 5207 5143 5115 0
-1214 -1231 -1232 -1215 5115 5207 5116 5143 0
-1208 -1231 -1260 -1216 5115 5208 5144 5117 0
-1208 -1233 -1260 -1214 5117 5208 5144 5115 0
-1214 -1231 -1233 -1216 5115 5208 5117 5144 0
-1208 -1232 -1261 -1216 5116 5209 5145 5117 0
-1208 -1233 -1261 -1215 5117 5209 5145 5116 0
-1215 -1232 -1233 -1216 5116 5209 5117 5145 0
-1209 -1234 -1241 -1211 5118 5210 5125 5119 0
-1209 -1235 -1241 -1210 5119 5210 5125 5118 0
-1210 -1234 -1235 -1211 5118 5210 5119 5125 0
-1209 -1234 -1242 -1212 5118 5211 5126 5120 0
-1209 -1236 -1242 -1210 5120 5211 5126 5118 0
-1210 -1234 -1236 -1212 5118 5211 5120 5126 0
-1209 -1234 -1243 -1213 5118 5212 5127 5121 0
-1209 -1237 -1243 -1210 5121 5212 5127 5118 0
-1210 -1234 -1237 -1213 5118 5212 5121 5127 0
-1209 -1234 -1244 -1214 5118 5213 5128 5122 0
-1209 -1238 -1244 -1210 5122 5213 5128 5118 0
-1210 -1234 -1238 -1214 5118 5213 5122 5128 0
-1209 -1234 -1245 -1215 5118 5214 5129 5123 0
-1209 -1239 -1245 -1210 5123 5214 5129 5118 0
-1210 -1234 -1239 -1215 5118 5214 5123 5129 0
-1209 -1234 -1246 -1216 5118 5215 5130 5124 0
-1209 -1240 -1246 -1210 5124 5215 5130 5118 0
-1210 -1234 -1240 -1216 5118 5215 5124 5130 0
-1209 -1235 -1247 -1212 5119 5216 5131 5120 0
-1209 -1236 -1247 -1211 5120 5216 5131 5119 0
-1211 -1235 -1236 -1212 5119 5216 5120 5131 0
-1209 -1235 -1248 -1213 5119 5217 5132 5121 0
-1209 -1237 -1248 -1211 5121 5217 5132 5119 0
-1211 -1235 -1237 -1213 5119 5217 5121 5132 0
-1209 -1235 -1249 -1214 5119 5218 5133 5122 0
-1209 -1238 -1249 -1211 5122 5218 5133 5119 0
-1211 -1235 -1238 -1214 5119 5218 5122 5133 0
-1209 -1235 -1250 -1215 5119 5219 5134 5123 0
-1209 -1239 -1250 -1211 5123 5219 5134 5119 0
-1211 -1235 -1239 -1215 5119 5219 5123 5134 0
-1209 -1235 -1251 -1216 5119 5220 5135 5124 0
-1209 -1240 -1251 -1211 5124 5220 5135 5119 0
-1211 -1235 -1240 -1216 5119 5220 5124 5135 0
-1209 -1236 -1252 -1213 5120 5221 5136 5121 0
-1209 -1237 -1252 -1212 5121 5221 5136 5120 0
-1212 -1236 -1237 -1213 5120 5221 5121 5136 0
-1209 -1236 -1253 -1214 5120 5222 5137 5122 0
-1209 -1238 -1253 -1212 5122 5222 5137 5120 0
-1212 -1236 -1238 -1214 5120 5222 5122 5137 0
-1209 -1236 -1254 -1215 5120 5223 5138 5123 0
-1209 -1239 -1254 -1212 5123 5223 5138 5120 0
-1212 -1236 -1239 -1215 5120 5223 5123 5138 0
-1209 -1236 -1255 -1216 5120 5224 5139 5124 0
-1209 -1240 -1255 -1212 5124 5224 5139 5120 0
-1212 -1236 -1240 -1216 5120 5224 5124 5139 0
-1209 -1237 -1256 -1214 5121 5225 5140 5122 0
-1209 -1238 -1256 -1213 5122 5225 5140 5121 0
-1213 -1237 -1238 -1214 5121 5225 5122 5140 0
-1209 -1237 -1257 -1215 5121 5226 5141 5123 0
-1209 -1239 -1257 -1213 5123 5226 5141 5121 0
-1213 -1237 -1239 -1215 5121 5226 5123 5141 0
-1209 -1237 -1258 -1216 5121 5227 5142 5124 0
-1209 -1240 -1258 -1213 5124 5227 5142 5121 0
-1213 -1237 -1240 -1216 5121 5227 5124 5142 0
-1209 -1238 -1259 -1215 5122 5228 5143 5123 0
-1209 -1239 -1259 -1214 5123 5228 5143 5122 0
-1214 -1238 -1239 -1215 5122 5228 5123 5143 0
-1209 -1238 -1260 -1216 5122 5229 5144 5124 0
-1209 -1240 -1260 -1214 5124 5229 5144 5122 0
-1214 -1238 -1240 -1216 5122 5229 5124 5144 0
-1209 -1239 -1261 -1216 5123 5230 5145 5124 0
-1209 -1240 -1261 -1215 5124 5230 5145 5123 0
-1215 -1239 -1240 -1216 5123 5230 5124 5145 0
-1210 -1241 -1247 -1212 5125 5231 5131 5126 0
-1210 -1242 -1247 -1211 5126 5231 5131 5125 0
-1211 -1241 -1242 -1212 5125 5231 5126 5131 0
-1210 -1241 -1248 -1213 5125 5232 5132 5127 0
-1210 -1243 -1248 -1211 5127 5232 5132 5125 0
-1211 -1241 -1243 -1213 5125 5232 5127 5132 0
-1210 -1241 -1249 -1214 5125 5233 5133 5128 0
-1210 -1244 -1249 -1211 5128 5233 5133 5125 0
-1211 -1241 -1244 -1214 5125 5233 5128 5133 0
-1210 -1241 -1250 -1215 5125 5234 5134 5129 0
-1210 -1245 -1250 -1211 5129 5234 5134 5125 0
-1211 -1241 -1245 -1215 5125 5234 5129 5134 0
-1210 -1241 -1251 -1216 5125 5235 5135 5130 0
-1210 -1246 -1251 -1211 5130 5235 5135 5125 0
-1211 -1241 -1246 -1216 5125 5235 5130 5135 0
-1210 -1242 -1252 -1213 5126 5236 5136 5127 0
-1210 -1243 -1252 -1212 5127 5236 5136 5126 0
-1212 -1242 -1243 -1213 5126 5236 5127 5136 0
-1210 -1242 -1253 -1214 5126 5237 5137 5128 0
-1210 -1244 -1253 -1212 5128 5237 5137 5126 0
-1212 -1242 -1244 -1214 5126 5237 5128 5137 0
-1210 -1242 -1254 -1215 5126 5238 5138 5129 0
-1210 -1245 -1254 -1212 5129 5238 5138 5126 0
-1212 -1242 -1245 -1215 5126 5238 5129 5138 0
-1210 -1242 -1255 -1216 5126 5239 5139 5130 0
-1210 -1246 -1255 -1212 5130 5239 5139 5126 0
-1212 -1242 -1246 -1216 5126 5239 5130 5139 0
-1210 -1243 -1256 -1214 5127 5240 5140 5128 0
-1210 -1244 -1256 -1213 5128 5240 5140 5127 0
-1213 -1243 -1244 -1214 5127 5240 5128 5140 0
-1210 -1243 -1257 -1215 5127 5241 5141 5129 0
-1210 -1245 -1257 -1213 5129 5241 5141 5127 0
-1213 -1243 -1245 -1215 5127 5241 5129 5141 0
-1210 -1243 -1258 -1216 5127 5242 5142 5130 0
-1210 -1246 -1258 -1213 5130 5242 5142 5127 0
-1213 -1243 -1246 -1216 5127 5242 5130 5142 0
-1210 -1244 -1259 -1215 5128 5243 5143 5129 0
-1210 -1245 -1259 -1214 5129 5243 5143 5128 0
-1214 -1244 -1245 -1215 5128 5243 5129 5143 0
-1210 -1244 -1260 -1216 5128 5244 5144 5130 0
-1210 -1246 -1260 -1214 5130 5244 5144 5128 0
-1214 -1244 -1246 -1216 5128 5244 5130 5144 0
-1210 -1245 -1261 -1216 5129 5245 5145 5130 0
-1210 -1246 -1261 -1215 5130 5245 5145 5129 0
-1215 -1245 -1246 -1216 5129 5245 5130 5145 0
-1211 -1247 -1252 -1213 5131 5246 5136 5132 0
-1211 -1248 -1252 -1212 5132 5246 5136 5131 0
-1212 -1247 -1248 -1213 5131 5246 5132 5136 0
-1211 -1247 -1253 -1214 5131 5247 5137 5133 0
-1211 -1249 -1253 -1212 5133 5247 5137 5131 0
-1212 -1247 -1249 -1214 5131 5247 5133 5137 0
-1211 -1247 -1254 -1215 5131 5248 5138 5134 0
-1211 -1250 -1254 -1212 5134 5248 5138 5131 0
-1212 -1247 -1250 -1215 5131 5248 5134 5138 0
-1211 -1247 -1255 -1216 5131 5249 5139 5135 0
-1211 -1251 -1255 -1212 5135 5249 5139 5131 0
-1212 -1247 -1251 -1216 5131 5249 5135 5139 0
-1211 -1248 -1256 -1214 5132 5250 5140 5133 0
-1211 -1249 -1256 -1213 5133 5250 5140 5132 0
-1213 -1248 -1249 -1214 5132 5250 5133 5140 0
-1211 -1248 -1257 -1215 5132 5251 5141 5134 0
-1211 -1250 -1257 -1213 5134 5251 5141 5132 0
-1213 -1248 -1250 -1215 5132 5251 5134 5141 0
-1211 -1248 -1258 -1216 5132 5252 5142 5135 0
-1211 -1251 -1258 -1213 5135 5252 5142 5132 0
-1213 -1248 -1251 -1216 5132 5252 5135 5142 0
-1211 -1249 -1259 -1215 5133 5253 5143 5134 0
-1211 -1250 -1259 -1214 5134 5253 5143 5133 0
-1214 -1249 -1250 -1215 5133 5253 5134 5143 0
-1211 -1249 -1260 -1216 5133 5254 5144 5135 0
-1211 -1251 -1260 -1214 5135 5254 5144 5133 0
-1214 -1249 -1251 -1216 5133 5254 5135 5144 0
-1211 -1250 -1261 -1216 5134 5255 5145 5135 0
-1211 -1251 -1261 -1215 5135 5255 5145 5134 0
-1215 -1250 -1251 -1216 5134 5255 5135 5145 0
-1212 -1252 -1256 -1214 5136 5256 5140 5137 0
-1212 -1253 -1256 -1213 5137 5256 5140 5136 0
-1213 -1252 -1253 -1214 5136 5256 5137 5140 0
-1212 -1252 -1257 -1215 5136 5257 5141 5138 0
-1212 -1254 -1257 -1213 5138 5257 5141 5136 0
-1213 -1252 -1254 -1215 5136 5257 5138 5141 0
-1212 -1252 -1258 -1216 5136 5258 5142 5139 0
-1212 -1255 -1258 -1213 5139 5258 5142 5136 0
-1213 -1252 -1255 -1216 5136 5258 5139 5142 0
-1212 -1253 -1259 -1215 5137 5259 5143 5138 0
-1212 -1254 -1259 -1214 5138 5259 5143 5137 0
-1214 -1253 -1254 -1215 5137 5259 5138 5143 0
-1212 -1253 -1260 -1216 5137 5260 5144 5139 0
-1212 -1255 -1260 -1214 5139 5260 5144 5137 0
-1214 -1253 -1255 -1216 5137 5260 5139 5144 0
-1212 -1254 -1261 -1216 5138 5261 5145 5139 0
-1212 -1255 -1261 -1215 5139 5261 5145 5138 0
-1215 -1254 -1255 -1216 5138 5261 5139 5145 0
-1213 -1256 -1259 -1215 5140 5262 5143 5141 0
-1213 -1257 -1259 -1214 5141 5262 5143 5140 0
-1214 -1256 -1257 -1215 5140 5262 5141 5143 0
-1213 -1256 -1260 -1216 5140 5263 5144 5142 0
-1213 -1258 -1260 -1214 5142 5263 5144 5140 0
-1214 -1256 -1258 -1216 5140 5263 5142 5144 0
-1213 -1257 -1261 -1216 5141 5264 5145 5142 0
-1213 -1258 -1261 -1215 5142 5264 5145 5141 0
-1215 -1257 -1258 -1216 5141 5264 5142 5145 0
-1214 -1259 -1261 -1216 5143 5265 5145 5144 0
-1214 -1260 -1261 -1215 5144 5265 5145 5143 0
-1215 -1259 -1260 -1216 5143 5265 5144 5145 0
-1217 -1226 -1234 -1219 5146 5182 5154 5147 0
-1217 -1227 -1234 -1218 5147 5182 5154 5146 0
-1218 -1226 -1227 -1219 5146 5182 5147 5154 0
-1217 -1226 -1235 -1220 5146 5183 5155 5148 0
-1217 -1228 -1235 -1218 5148 5183 5155 5146 0
-1218 -1226 -1228 -1220 5146 5183 5148 5155 0
-1217 -1226 -1236 -1221 5146 5184 5156 5149 0
-1217 -1229 -1236 -1218 5149 5184 5156 5146 0
-1218 -1226 -1229 -1221 5146 5184 5149 5156 0
-1217 -1226 -1237 -1222 5146 5185 5157 5150 0
-1217 -1230 -1237 -1218 5150 5185 5157 5146 0
-1218 -1226 -1230 -1222 5146 5185 5150 5157 0
-1217 -1226 -1238 -1223 5146 5186 5158 5151 0
-1217 -1231 -1238 -1218 5151 5186 5158 5146 0
-1218 -1226 -1231 -1223 5146 5186 5151 5158 0
-1217 -1226 -1239 -1224 5146 5187 5159 5152 0
-1217 -1232 -1239 -1218 5152 5187 5159 5146 0
-1218 -1226 -1232 -1224 5146 5187 5152 5159 0
-1217 -1226 -1240 -1225 5146 5188 5160 5153 0
-1217 -1233 -1240 -1218 5153 5188 5160 5146 0
-1218 -1226 -1233 -1225 5146 5188 5153 5160 0
-1217 -1227 -1241 -1220 5147 5189 5161 5148 0
-1217 -1228 -1241 -1219 5148 5189 5161 5147 0
-1219 -1227 -1228 -1220 5147 5189 5148 5161 0
-1217 -1227 -1242 -1221 5147 5190 5162 5149 0
-1217 -1229 -1242 -1219 5149 5190 5162 5147 0
-1219 -1227 -1229 -1221 5147 5190 5149 5162 0
-1217 -1227 -1243 -1222 5147 5191 5163 5150 0
-1217 -1230 -1243 -1219 5150 5191 5163 5147 0
-1219 -1227 -1230 -1222 5147 5191 5150 5163 0
-1217 -1227 -1244 -1223 5147 5192 5164 5151 0
-1217 -1231 -1244 -1219 5151 5192 5164 5147 0
-1219 -1227 -1231 -1223 5147 5192 5151 5164 0
-1217 -1227 -1245 -1224 5147 5193 5165 5152 0
-1217 -1232 -1245 -1219 5152 5193 5165 5147 0
-1219 -1227 -1232 -1224 5147 5193 5152 5165 0
-1217 -1227 -1246 -1225 5147 5194 5166 5153 0
-1217 -1233 -1246 -1219 5153 5194 5166 5147 0
-1219 -1227 -1233 -1225 5147 5194 5153 5166 0
-1217 -1228 -1247 -1221 5148 5195 5167 5149 0
-1217 -1229 -1247 -1220 5149 5195 5167 5148 0
-1220 -1228 -1229 -1221 5148 5195 5149 5167 0
-1217 -1228 -1248 -1222 5148 5196 5168 5150 0
-1217 -1230 -1248 -1220 5150 5196 5168 5148 0
-1220 -1228 -1230 -1222 5148 5196 5150 5168 0
-1217 -1228 -1249 -1223 5148 5197 5169 5151 0
-1217 -1231 -1249 -1220 5151 5197 5169 5148 0
-1220 -1228 -1231 -1223 5148 5197 5151 5169 0
-1217 -1228 -1250 -1224 5148 5198 5170 5152 0
-1217 -1232 -1250 -1220 5152 5198 5170 5148 0
-1220 -1228 -1232 -1224 5148 5198 5152 5170 0
-1217 -1228 -1251 -1225 5148 5199 5171 5153 0
-1217 -1233 -1251 -1220 5153 5199 5171 5148 0
-1220 -1228 -1233 -1225 5148 5199 5153 5171 0
-1217 -1229 -1252 -1222 5149 5200 5172 5150 0
-1217 -1230 -1252 -1221 5150 5200 5172 5149 0
-1221 -1229 -1230 -1222 5149 5200 5150 5172 0
-1217 -1229 -1253 -1223 5149 5201 5173 5151 0
-1217 -1231 -1253 -1221 5151 5201 5173 5149 0
-1221 -1229 -1231 -1223 5149 5201 5151 5173 0
-1217 -1229 -1254 -1224 5149 5202 5174 5152 0
-1217 -1232 -1254 -1221 5152 5202 5174 5149 0
-1221 -1229 -1232 -1224 5149 5202 5152 5174 0
-1217 -1229 -1255 -1225 5149 5203 5175 5153 0
-1217 -1233 -1255 -1221 5153 5203 5175 5149 0
-1221 -1229 -1233 -1225 5149 5203 5153 5175 0
-1217 -1230 -1256 -1223 5150 5204 5176 5151 0
-1217 -1231 -1256 -1222 5151 5204 5176 5150 0
-1222 -1230 -1231 -1223 5150 5204 5151 5176 0
-1217 -1230 -1257 -1224 5150 5205 5177 5152 0
-1217 -1232 -1257 -1222 5152 5205 5177 5150 0
-1222 -1230 -1232 -1224 5150 5205 5152 5177 0
-1217 -1230 -1258 -1225 5150 5206 5178 5153 0
-1217 -1233 -1258 -1222 5153 5206 5178 5150 0
-1222 -1230 -1233 -1225 5150 5206 5153 5178 0
-1217 -1231 -1259 -1224 5151 5207 5179 5152 0
-1217 -1232 -1259 -1223 5152 5207 5179 5151 0
-1223 -1231 -1232 -1224 5151 5207 5152 5179 0
-1217 -1231 -1260 -1225 5151 5208 5180 5153 0
-1217 -1233 -1260 -1223 5153 5208 5180 5151 0
-1223 -1231 -1233 -1225 5151 5208 5153 5180 0
-1217 -1232 -1261 -1225 5152 5209 5181 5153 0
-1217 -1233 -1261 -1224 5153 5209 5181 5152 0
-1224 -1232 -1233 -1225 5152 5209 5153 5181 0
-1218 -1234 -1241 -1220 5154 5210 5161 5155 0
-1218 -1235 -1241 -1219 5155 5210 5161 5154 0
-1219 -1234 -1235 -1220 5154 5210 5155 5161 0
-1218 -1234 -1242 -1221 5154 5211 5162 5156 0
-1218 -1236 -1242 -1219 5156 5211 5162 5154 0
-1219 -1234 -1236 -1221 5154 5211 5156 5162 0
-1218 -1234 -1243 -1222 5154 5212 5163 5157 0
-1218 -1237 -1243 -1219 5157 5212 5163 5154 0
-1219 -1234 -1237 -1222 5154 5212 5157 5163 0
-1218 -1234 -1244 -1223 5154 5213 5164 5158 0
-1218 -1238 -1244 -1219 5158 5213 5164 5154 0
-1219 -1234 -1238 -1223 5154 5213 5158 5164 0
-1218 -1234 -1245 -1224 5154 5214 5165 5159 0
-1218 -1239 -1245 -1219 5159 5214 5165 5154 0
-1219 -1234 -1239 -1224 5154 5214 5159 5165 0
-1218 -1234 -1246 -1225 5154 5215 5166 5160 0
-1218 -1240 -1246 -1219 5160 5215 5166 5154 0
-1219 -1234 -1240 -1225 5154 5215 5160 5166 0
-1218 -1235 -1247 -1221 5155 5216 5167 5156 0
-1218 -1236 -1247 -1220 5156 5216 5167 5155 0
-1220 -1235 -1236 -1221 5155 5216 5156 5167 0
-1218 -1235 -1248 -1222 5155 5217 5168 5157 0
-1218 -1237 -1248 -1220 5157 5217 5168 5155 0
-1220 -1235 -1237 -1222 5155 5217 5157 5168 0
-1218 -1235 -1249 -1223 5155 5218 5169 5158 0
-1218 -1238 -1249 -1220 5158 5218 5169 5155 0
-1220 -1235 -1238 -1223 5155 5218 5158 5169 0
-1218 -1235 -1250 -1224 5155 5219 5170 5159 0
-1218 -1239 -1250 -1220 5159 5219 5170 5155 0
-1220 -1235 -1239 -1224 5155 5219 5159 5170 0
-1218 -1235 -1251 -1225 5155 5220 5171 5160 0
-1218 -1240 -1251 -1220 5160 5220 5171 5155 0
-1220 -1235 -1240 -1225 5155 5220 5160 5171 0
-1218 -1236 -1252 -1222 5156 5221 5172 5157 0
-1218 -1237 -1252 -1221 5157 5221 5172 5156 0
-1221 -1236 -1237 -1222 5156 5221 5157 5172 0
-1218 -1236 -1253 -1223 5156 5222 5173 5158 0
-1218 -1238 -1253 -1221 5158 5222 5173 5156 0
-1221 -1236 -1238 -1223 5156 5222 5158 5173 0
-1218 -1236 -1254 -1224 5156 5223 5174 5159 0
-1218 -1239 -1254 -1221 5159 5223 5174 5156 0
-1221 -1236 -1239 -1224 5156 5223 5159 5174 0
-1218 -1236 -1255 -1225 5156 5224 5175 5160 0
-1218 -1240 -1255 -1221 5160 5224 5175 5156 0
-1221 -1236 -1240 -1225 5156 5224 5160 5175 0
-1218 -1237 -1256 -1223 5157 5225 5176 5158 0
-1218 -1238 -1256 -1222 5158 5225 5176 5157 0
-1222 -1237 -1238 -1223 5157 5225 5158 5176 0
-1218 -1237 -1257 -1224 5157 5226 5177 5159 0
-1218 -1239 -1257 -1222 5159 5226 5177 5157 0
-1222 -1237 -1239 -1224 5157 5226 5159 5177 0
-1218 -1237 -1258 -1225 5157 5227 5178 5160 0
-1218 -1240 -1258 -1222 5160 5227 5178 5157 0
-1222 -1237 -1240 -1225 5157 5227 5160 5178 0
-1218 -1238 -1259 -1224 5158 5228 5179 5159 0
-1218 -1239 -1259 -1223 5159 5228 5179 5158 0
-1223 -1238 -1239 -1224 5158 5228 5159 5179 0
-1218 -1238 -1260 -1225 5158 5229 5180 5160 0
-1218 -1240 -1260 -1223 5160 5229 5180 5158 0
-1223 -1238 -1240 -1225 5158 5229 5160 5180 0
-1218 -1239 -1261 -1225 5159 5230 5181 5160 0
-1218 -1240 -1261 -1224 5160 5230 5181 5159 0
-1224 -1239 -1240 -1225 5159 5230 5160 5181 0
-1219 -1241 -1247 -1221 5161 5231 5167 5162 0
-1219 -1242 -1247 -1220 5162 5231 5167 5161 0
-1220 -1241 -1242 -1221 5161 5231 5162 5167 0
-1219 -1241 -1248 -1222 5161 5232 5168 5163 0
-1219 -1243 -1248 -1220 5163 5232 5168 5161 0
-1220 -1241 -1243 -1222 5161 5232 5163 5168 0
-1219 -1241 -1249 -1223 5161 5233 5169 5164 0
-1219 -1244 -1249 -1220 5164 5233 5169 5161 0
-1220 -1241 -1244 -1223 5161 5233 5164 5169 0
-1219 -1241 -1250 -1224 5161 5234 5170 5165 0
-1219 -1245 -1250 -1220 5165 5234 5170 5161 0
-1220 -1241 -1245 -1224 5161 5234 5165 5170 0
-1219 -1241 -1251 -1225 5161 5235 5171 5166 0
-1219 -1246 -1251 -1220 5166 5235 5171 5161 0
-1220 -1241 -1246 -1225 5161 5235 5166 5171 0
-1219 -1242 -1252 -1222 5162 5236 5172 5163 0
-1219 -1243 -1252 -1221 5163 5236 5172 5162 0
-1221 -1242 -1243 -1222 5162 5236 5163 5172 0
-1219 -1242 -1253 -1223 5162 5237 5173 5164 0
-1219 -1244 -1253 -1221 5164 5237 5173 5162 0
-1221 -1242 -1244 -1223 5162 5237 5164 5173 0
-1219 -1242 -1254 -1224 5162 5238 5174 5165 0
-1219 -1245 -1254 -1221 5165 5238 5174 5162 0
-1221 -1242 -1245 -1224 5162 5238 5165 5174 0
-1219 -1242 -1255 -1225 5162 5239 5175 5166 0
-1219 -1246 -1255 -1221 5166 5239 5175 5162 0
-1221 -1242 -1246 -1225 5162 5239 5166 5175 0
-1219 -1243 -1256 -1223 5163 5240 5176 5164 0
-1219 -1244 -1256 -1222 5164 5240 5176 5163 0
-1222 -1243 -1244 -1223 5163 5240 5164 5176 0
-1219 -1243 -1257 -1224 5163 5241 5177 5165 0
-1219 -1245 -1257 -1222 5165 5241 5177 5163 0
-1222 -1243 -1245 -1224 5163 5241 5165 5177 0
-1219 -1243 -1258 -1225 5163 5242 5178 5166 0
-1219 -1246 -1258 -1222 5166 5242 5178 5163 0
-1222 -1243 -1246 -1225 5163 5242 5166 5178 0
-1219 -1244 -1259 -1224 5164 5243 5179 5165 0
-1219 -1245 -1259 -1223 5165 5243 5179 5164 0
-1223 -1244 -1245 -1224 5164 5243 5165 5179 0
-1219 -1244 -1260 -1225 5164 5244 5180 5166 0
-1219 -1246 -1260 -1223 5166 5244 5180 5164 0
-1223 -1244 -1246 -1225 5164 5244 5166 5180 0
-1219 -1245 -1261 -1225 5165 5245 5181 5166 0
-1219 -1246 -1261 -1224 5166 5245 5181 5165 0
-1224 -1245 -1246 -1225 5165 5245 5166 5181 0
-1220 -1247 -1252 -1222 5167 5246 5172 5168 0
-1220 -1248 -1252 -1221 5168 5246 5172 5167 0
-1221 -1247 -1248 -1222 5167 5246 5168 5172 0
-1220 -1247 -1253 -1223 5167 5247 5173 5169 0
-1220 -1249 -1253 -1221 5169 5247 5173 5167 0
-1221 -1247 -1249 -1223 5167 5247 5169 5173 0
-1220 -1247 -1254 -1224 5167 5248 5174 5170 0
-1220 -1250 -1254 -1221 5170 5248 5174 5167 0
-1221 -1247 -1250 -1224 5167 5248 5170 5174 0
-1220 -1247 -1255 -1225 5167 5249 5175 5171 0
-1220 -1251 -1255 -1221 5171 5249 5175 5167 0
-1221 -1247 -1251 -1225 5167 5249 5171 5175 0
-1220 -1248 -1256 -1223 5168 5250 5176 5169 0
-1220 -1249 -1256 -1222 5169 5250 5176 5168 0
-1222 -1248 -1249 -1223 5168 5250 5169 5176 0
-1220 -1248 -1257 -1224 5168 5251 5177 5170 0
-1220 -1250 -1257 -1222 5170 5251 5177 5168 0
-1222 -1248 -1250 -1224 5168 5251 5170 5177 0
-1220 -1248 -1258 -1225 5168 5252 5178 5171 0
-1220 -1251 -1258 -1222 5171 5252 5178 5168 0
-1222 -1248 -1251 -1225 5168 5252 5171 5178 0
-1220 -1249 -1259 -1224 5169 5253 5179 5170 0
-1220 -1250 -1259 -1223 5170 5253 5179 5169 0
-1223 -1249 -1250 -1224 5169 5253 5170 5179 0
-1220 -1249 -1260 -1225 5169 5254 5180 5171 0
-1220 -1251 -1260 -1223 5171 5254 5180 5169 0
-1223 -1249 -1251 -1225 5169 5254 5171 5180 0
-1220 -1250 -1261 -1225 5170 5255 5181 5171 0
-1220 -1251 -1261 -1224 5171 5255 5181 5170 0
-1224 -1250 -1251 -1225 5170 5255 5171 5181 0
-1221 -1252 -1256 -1223 5172 5256 5176 5173 0
-1221 -1253 -1256 -1222 5173 5256 5176 5172 0
-1222 -1252 -1253 -1223 5172 5256 5173 5176 0
-1221 -1252 -1257 -1224 5172 5257 5177 5174 0
-1221 -1254 -1257 -1222 5174 5257 5177 5172 0
-1222 -1252 -1254 -1224 5172 5257 5174 5177 0
-1221 -1252 -1258 -1225 5172 5258 5178 5175 0
-1221 -1255 -1258 -1222 5175 5258 5178 5172 0
-1222 -1252 -1255 -1225 5172 5258 5175 5178 0
-1221 -1253 -1259 -1224 5173 5259 5179 5174 0
-1221 -1254 -1259 -1223 5174 5259 5179 5173 0
-1223 -1253 -1254 -1224 5173 5259 5174 5179 0
-1221 -1253 -1260 -1225 5173 5260 5180 5175 0
-1221 -1255 -1260 -1223 5175 5260 5180 5173 0
-1223 -1253 -1255 -1225 5173 5260 5175 5180 0
-1221 -1254 -1261 -1225 5174 5261 5181 5175 0
-1221 -1255 -1261 -1224 5175 5261 5181 5174 0
-1224 -1254 -1255 -1225 5174 5261 5175 5181 0
-1222 -1256 -1259 -1224 5176 5262 5179 5177 0
-1222 -1257 -1259 -1223 5177 5262 5179 5176 0
-1223 -1256 -1257 -1224 5176 5262 5177 5179 0
-1222 -1256 -1260 -1225 5176 5263 5180 5178 0
-1222 -1258 -1260 -1223 5178 5263 5180 5176 0
-1223 -1256 -1258 -1225 5176 5263 5178 5180 0
-1222 -1257 -1261 -1225 5177 5264 5181 5178 0
-1222 -1258 -1261 -1224 5178 5264 5181 5177 0
-1224 -1257 -1258 -1225 5177 5264 5178 5181 0
-1223 -1259 -1261 -1225 5179 5265 5181 5180 0
-1223 -1260 -1261 -1224 5180 5265 5181 5179 0
-1224 -1259 -1260 -1225 5179 5265 5180 5181 0
-1226 -1234 -1241 -1228 5182 5210 5189 5183 0
-1226 -1235 -1241 -1227 5183 5210 5189 5182 0
-1227 -1234 -1235 -1228 5182 5210 5183 5189 0
-1226 -1234 -1242 -1229 5182 5211 5190 5184 0
-1226 -1236 -1242 -1227 5184 5211 5190 5182 0
-1227 -1234 -1236 -1229 5182 5211 5184 5190 0
-1226 -1234 -1243 -1230 5182 5212 5191 5185 0
-1226 -1237 -1243 -1227 5185 5212 5191 5182 0
-1227 -1234 -1237 -1230 5182 5212 5185 5191 0
-1226 -1234 -1244 -1231 5182 5213 5192 5186 0
-1226 -1238 -1244 -1227 5186 5213 5192 5182 0
-1227 -1234 -1238 -1231 5182 5213 5186 5192 0
-1226 -1234 -1245 -1232 5182 5214 5193 5187 0
-1226 -1239 -1245 -1227 5187 5214 5193 5182 0
-1227 -1234 -1239 -1232 5182 5214 5187 5193 0
-1226 -1234 -1246 -1233 5182 5215 5194 5188 0
-1226 -1240 -1246 -1227 5188 5215 5194 5182 0
-1227 -1234 -1240 -1233 5182 5215 5188 5194 0
-1226 -1235 -1247 -1229 5183 5216 5195 5184 0
-1226 -1236 -1247 -1228 5184 5216 5195 5183 0
-1228 -1235 -1236 -1229 5183 5216 5184 5195 0
-1226 -1235 -1248 -1230 5183 5217 5196 5185 0
-1226 -1237 -1248 -1228 5185 5217 5196 5183 0
-1228 -1235 -1237 -1230 5183 5217 5185 5196 0
-1226 -1235 -1249 -1231 5183 5218 5197 5186 0
-1226 -1238 -1249 -1228 5186 5218 5197 5183 0
-1228 -1235 -1238 -1231 5183 5218 5186 5197 0
-1226 -1235 -1250 -1232 5183 5219 5198 5187 0
-1226 -1239 -1250 -1228 5187 5219 5198 5183 0
-1228 -1235 -1239 -1232 5183 5219 5187 5198 0
-1226 -1235 -1251 -1233 5183 5220 5199 5188 0
-1226 -1240 -1251 -1228 5188 5220 5199 5183 0
-1228 -1235 -1240 -1233 5183 5220 5188 5199 0
-1226 -1236 -1252 -1230 5184 5221 5200 5185 0
-1226 -1237 -1252 -1229 5185 5221 5200 5184 0
-1229 -1236 -1237 -1230 5184 5221 5185 5200 0
-1226 -1236 -1253 -1231 5184 5222 5201 5186 0
-1226 -1238 -1253 -1229 5186 5222 5201 5184 0
-1229 -1236 -1238 -1231 5184 5222 5186 5201 0
-1226 -1236 -1254 -1232 5184 5223 5202 5187 0
-1226 -1239 -1254 -1229 5187 5223 5202 5184 0
-1229 -1236 -1239 -1232 5184 5223 5187 5202 0
-1226 -1236 -1255 -1233 5184 5224 5203 5188 0
-1226 -1240 -1255 -1229 5188 5224 5203 5184 0
-1229 -1236 -1240 -1233 5184 5224 5188 5203 0
-1226 -1237 -1256 -1231 5185 5225 5204 5186 0
-1226 -1238 -1256 -1230 5186 5225 5204 5185 0
-1230 -1237 -1238 -1231 5185 5225 5186 5204 0
-1226 -1237 -1257 -1232 5185 5226 5205 5187 0
-1226 -1239 -1257 -1230 5187 5226 5205 5185 0
-1230 -1237 -1239 -1232 5185 5226 5187 5205 0
-1226 -1237 -1258 -1233 5185 5227 5206 5188 0
-1226 -1240 -1258 -1230 5188 5227 5206 5185 0
-1230 -1237 -1240 -1233 5185 5227 5188 5206 0
-1226 -1238 -1259 -1232 5186 5228 5207 5187 0
-1226 -1239 -1259 -1231 5187 5228 5207 5186 0
-1231 -1238 -1239 -1232 5186 5228 5187 5207 0
-1226 -1238 -1260 -1233 5186 5229 5208 5188 0
-1226 -1240 -1260 -1231 5188 5229 5208 5186 0
-1231 -1238 -1240 -1233 5186 5229 5188 5208 0
-1226 -1239 -1261 -1233 5187 5230 5209 5188 0
-1226 -1240 -1261 -1232 5188 5230 5209 5187 0
-1232 -1239 -1240 -1233 5187 5230 5188 5209 0
-1227 -1241 -1247 -1229 5189 5231 5195 5190 0
-1227 -1242 -1247 -1228 5190 5231 5195 5189 0
-1228 -1241 -1242 -1229 5189 5231 5190 5195 0
-1227 -1241 -1248 -1230 5189 5232 5196 5191 0
-1227 -1243 -1248 -1228 5191 5232 5196 5189 0
-1228 -1241 -1243 -1230 5189 5232 5191 5196 0
-1227 -1241 -1249 -1231 5189 5233 5197 5192 0
-1227 -1244 -1249 -1228 5192 5233 5197 5189 0
-1228 -1241 -1244 -1231 5189 5233 5192 5197 0
-1227 -1241 -1250 -1232 5189 5234 5198 5193 0
-1227 -1245 -1250 -1228 5193 5234 5198 5189 0
-1228 -1241 -1245 -1232 5189 5234 5193 5198 0
-1227 -1241 -1251 -1233 5189 5235 5199 5194 0
-1227 -1246 -1251 -1228 5194 5235 5199 5189 0
-1228 -1241 -1246 -1233 5189 5235 5194 5199 0
-1227 -1242 -1252 -1230 5190 5236 5200 5191 0
-1227 -1243 -1252 -1229 5191 5236 5200 5190 0
-1229 -1242 -1243 -1230 5190 5236 5191 5200 0
-1227 -1242 -1253 -1231 5190 5237 5201 5192 0
-1227 -1244 -1253 -1229 5192 5237 5201 5190 0
-1229 -1242 -1244 -1231 5190 5237 5192 5201 0
-1227 -1242 -1254 -1232 5190 5238 5202 5193 0
-1227 -1245 -1254 -1229 5193 5238 5202 5190 0
-1229 -1242 -1245 -1232 5190 5238 5193 5202 0
-1227 -1242 -1255 -1233 5190 5239 5203 5194 0
-1227 -1246 -1255 -1229 5194 5239 5203 5190 0
-1229 -1242 -1246 -1233 5190 5239 5194 5203 0
-1227 -1243 -1256 -1231 5191 5240 5204 5192 0
-1227 -1244 -1256 -1230 5192 5240 5204 5191 0
-1230 -1243 -1244 -1231 5191 5240 5192 5204 0
-1227 -1243 -1257 -1232 5191 5241 5205 5193 0
-1227 -1245 -1257 -1230 5193 5241 5205 5191 0
-1230 -1243 -1245 -1232 5191 5241 5193 5205 0
-1227 -1243 -1258 -1233 5191 5242 5206 5194 0
-1227 -1246 -1258 -1230 5194 5242 5206 5191 0
-1230 -1243 -1246 -1233 5191 5242 5194 5206 0
-1227 -1244 -1259 -1232 5192 5243 5207 5193 0
-1227 -1245 -1259 -1231 5193 5243 5207 5192 0
-1231 -1244 -1245 -1232 5192 5243 5193 5207 0
-1227 -1244 -1260 -1233 5192 5244 5208 5194 0
-1227 -1246 -1260 -1231 5194 5244 5208 5192 0
-1231 -1244 -1246 -1233 5192 5244 5194 5208 0
-1227 -1245 -1261 -1233 5193 5245 5209 5194 0
-1227 -1246 -1261 -1232 5194 5245 5209 5193 0
-1232 -1245 -1246 -1233 5193 5245 5194 5209 0
-1228 -1247 -1252 -1230 5195 5246 5200 5196 0
-1228 -1248 -1252 -1229 5196 5246 5200 5195 0
-1229 -1247 -1248 -1230 5195 5246 5196 5200 0
-1228 -1247 -1253 -1231 5195 5247 5201 5197 0
-1228 -1249 -1253 -1229 5197 5247 5201 5195 0
-1229 -1247 -1249 -1231 5195 5247 5197 5201 0
-1228 -1247 -1254 -1232 5195 5248 5202 5198 0
-1228 -1250 -1254 -1229 5198 5248 5202 5195 0
-1229 -1247 -1250 -1232 5195 5248 5198 5202 0
-1228 -1247 -1255 -1233 5195 5249 5203 5199 0
-1228 -1251 -1255 -1229 5199 5249 5203 5195 0
-1229 -1247 -1251 -1233 5195 5249 5199 5203 0
-1228 -1248 -1256 -1231 5196 5250 5204 5197 0
-1228 -1249 -1256 -1230 5197 5250 5204 5196 0
-1230 -1248 -1249 -1231 5196 5250 5197 5204 0
-1228 -1248 -1257 -1232 5196 5251 5205 5198 0
-1228 -1250 -1257 -1230 5198 5251 5205 5196 0
-1230 -1248 -1250 -1232 5196 5251 5198 5205 0
-1228 -1248 -1258 -1233 5196 5252 5206 5199 0
-1228 -1251 -1258 -1230 5199 5252 5206 5196 0
-1230 -1248 -1251 -1233 5196 5252 5199 5206 0
-1228 -1249 -1259 -1232 5197 5253 5207 5198 0
-1228 -1250 -1259 -1231 5198 5253 5207 5197 0
-1231 -1249 -1250 -1232 5197 5253 5198 5207 0
-1228 -1249 -1260 -1233 5197 5254 5208 5199 0
-1228 -1251 -1260 -1231 5199 5254 5208 5197 0
-1231 -1249 -1251 -1233 5197 5254 5199 5208 0
-1228 -1250 -1261 -1233 5198 5255 5209 5199 0
-1228 -1251 -1261 -1232 5199 5255 5209 5198 0
-1232 -1250 -1251 -1233 5198 5255 5199 5209 0
-1229 -1252 -1256 -1231 5200 5256 5204 5201 0
-1229 -1253 -1256 -1230 5201 5256 5204 5200 0
-1230 -1252 -1253 -1231 5200 5256 5201 5204 0
-1229 -1252 -1257 -1232 5200 5257 5205 5202 0
-1229 -1254 -1257 -1230 5202 5257 5205 5200 0
-1230 -1252 -1254 -1232 5200 5257 5202 5205 0
-1229 -1252 -1258 -1233 5200 5258 5206 5203 0
-1229 -1255 -1258 -1230 5203 5258 5206 5200 0
-1230 -1252 -1255 -1233 5200 5258 5203 5206 0
-1229 -1253 -1259 -1232 5201 5259 5207 5202 0
-1229 -1254 -1259 -1231 5202 5259 5207 5201 0
-1231 -1253 -1254 -1232 5201 5259 5202 5207 0
-1229 -1253 -1260 -1233 5201 5260 5208 5203 0
-1229 -1255 -1260 -1231 5203 5260 5208 5201 0
-1231 -1253 -1255 -1233 5201 5260 5203 5208 0
-1229 -1254 -1261 -1233 5202 5261 5209 5203 0
-1229 -1255 -1261 -1232 5203 5261 5209 5202 0
-1232 -1254 -1255 -1233 5202 5261 5203 5209 0
-1230 -1256 -1259 -1232 5204 5262 5207 5205 0
-1230 -1257 -1259 -1231 5205 5262 5207 5204 0
-1231 -1256 -1257 -1232 5204 5262 5205 5207 0
-1230 -1256 -1260 -1233 5204 5263 5208 5206 0
-1230 -1258 -1260 -1231 5206 5263 5208 5204 0
-1231 -1256 -1258 -1233 5204 5263 5206 5208 0
-1230 -1257 -1261 -1233 5205 5264 5209 5206 0
-1230 -1258 -1261 -1232 5206 5264 5209 5205 0
-1232 -1257 -1258 -1233 5205 5264 5206 5209 0
-1231 -1259 -1261 -1233 5207 5265 5209 5208 0
-1231 -1260 -1261 -1232 5208 5265 5209 5207 0
-1232 -1259 -1260 -1233 5207 5265 5208 5209 0
-1234 -1241 -1247 -1236 5210 5231 5216 5211 0
-1234 -1242 -1247 -1235 5211 5231 5216 5210 0
-1235 -1241 -1242 -1236 5210 5231 5211 5216 0
-1234 -1241 -1248 -1237 5210 5232 5217 5212 0
-1234 -1243 -1248 -1235 5212 5232 5217 5210 0
-1235 -1241 -1243 -1237 5210 5232 5212 5217 0
-1234 -1241 -1249 -1238 5210 5233 5218 5213 0
-1234 -1244 -1249 -1235 5213 5233 5218 5210 0
-1235 -1241 -1244 -1238 5210 5233 5213 5218 0
-1234 -1241 -1250 -1239 5210 5234 5219 5214 0
-1234 -1245 -1250 -1235 5214 5234 5219 5210 0
-1235 -1241 -1245 -1239 5210 5234 5214 5219 0
-1234 -1241 -1251 -1240 5210 5235 5220 5215 0
-1234 -1246 -1251 -1235 5215 5235 5220 5210 0
-1235 -1241 -1246 -1240 5210 5235 5215 5220 0
-1234 -1242 -1252 -1237 5211 5236 5221 5212 0
-1234 -1243 -1252 -1236 5212 5236 5221 5211 0
-1236 -1242 -1243 -1237 5211 5236 5212 5221 0
-1234 -1242 -1253 -1238 5211 5237 5222 5213 0
-1234 -1244 -1253 -1236 5213 5237 5222 5211 0
-1236 -1242 -1244 -1238 5211 5237 5213 5222 0
-1234 -1242 -1254 -1239 5211 5238 5223 5214 0
-1234 -1245 -1254 -1236 5214 5238 5223 5211 0
-1236 -1242 -1245 -1239 5211 5238 5214 5223 0
-1234 -1242 -1255 -1240 5211 5239 5224 5215 0
-1234 -1246 -1255 -1236 5215 5239 5224 5211 0
-1236 -1242 -1246 -1240 5211 5239 5215 5224 0
-1234 -1243 -1256 -1238 5212 5240 5225 5213 0
-1234 -1244 -1256 -1237 5213 5240 5225 5212 0
-1237 -1243 -1244 -1238 5212 5240 5213 5225 0
-1234 -1243 -1257 -1239 5212 5241 5226 5214 0
-1234 -1245 -1257 -1237 5214 5241 5226 5212 0
-1237 -1243 -1245 -1239 5212 5241 5214 5226 0
-1234 -1243 -1258 -1240 5212 5242 5227 5215 0
-1234 -1246 -1258 -1237 5215 5242 5227 5212 0
-1237 -1243 -1246 -1240 5212 5242 5215 5227 0
-1234 -1244 -1259 -1239 5213 5243 5228 5214 0
-1234 -1245 -1259 -1238 5214 5243 5228 5213 0
-1238 -1244 -1245 -1239 5213 5243 5214 5228 0
-1234 -1244 -1260 -1240 5213 5244 5229 5215 0
-1234 -1246 -1260 -1238 5215 5244 5229 5213 0
-1238 -1244 -1246 -1240 5213 5244 5215 5229 0
-1234 -1245 -1261 -1240 5214 5245 5230 5215 0
-1234 -1246 -1261 -1239 5215 5245 5230 5214 0
-1239 -1245 -1246 -1240 5214 5245 5215 5230 0
-1235 -1247 -1252 -1237 5216 5246 5221 5217 0
-1235 -1248 -1252 -1236 5217 5246 5221 5216 0
-1236 -1247 -1248 -1237 5216 5246 5217 5221 0
-1235 -1247 -1253 -1238 5216 5247 5222 5218 0
-1235 -1249 -1253 -1236 5218 5247 5222 5216 0
-1236 -1247 -1249 -1238 5216 5247 5218 5222 0
-1235 -1247 -1254 -1239 5216 5248 5223 5219 0
-1235 -1250 -1254 -1236 5219 5248 5223 5216 0
-1236 -1247 -1250 -1239 5216 5248 5219 5223 0
-1235 -1247 -1255 -1240 5216 5249 5224 5220 0
-1235 -1251 -1255 -1236 5220 5249 5224 5216 0
-1236 -1247 -1251 -1240 5216 5249 5220 5224 0
-1235 -1248 -1256 -1238 5217 5250 5225 5218 0
-1235 -1249 -1256 -1237 5218 5250 5225 5217 0
-1237 -1248 -1249 -1238 5217 5250 5218 5225 0
-1235 -1248 -1257 -1239 5217 5251 5226 5219 0
-1235 -1250 -1257 -1237 5219 5251 5226 5217 0
-1237 -1248 -1250 -1239 5217 5251 5219 5226 0
-1235 -1248 -1258 -1240 5217 5252 5227 5220 0
-1235 -1251 -1258 -1237 5220 5252 5227 5217 0
-1237 -1248 -1251 -1240 5217 5252 5220 5227 0
-1235 -1249 -1259 -1239 5218 5253 5228 5219 0
-1235 -1250 -1259 -1238 5219 5253 5228 5218 0
-1238 -1249 -1250 -1239 5218 5253 5219 5228 0
-1235 -1249 -1260 -1240 5218 5254 5229 5220 0
-1235 -1251 -1260 -1238 5220 5254 5229 5218 0
-1238 -1249 -1251 -1240 5218 5254 5220 5229 0
-1235 -1250 -1261 -1240 5219 5255 5230 5220 0
-1235 -1251 -1261 -1239 5220 5255 5230 5219 0
-1239 -1250 -1251 -1240 5219 5255 5220 5230 0
-1236 -1252 -1256 -1238 5221 5256 5225 5222 0
-1236 -1253 -1256 -1237 5222 5256 5225 5221 0
-1237 -1252 -1253 -1238 5221 5256 5222 5225 0
-1236 -1252 -1257 -1239 5221 5257 5226 5223 0
-1236 -1254 -1257 -1237 5223 5257 5226 5221 0
-1237 -1252 -1254 -1239 5221 5257 5223 5226 0
-1236 -1252 -1258 -1240 5221 5258 5227 5224 0
-1236 -1255 -1258 -1237 5224 5258 5227 5221 0
-1237 -1252 -1255 -1240 5221 5258 5224 5227 0
-1236 -1253 -1259 -1239 5222 5259 5228 5223 0
-1236 -1254 -1259 -1238 5223 5259 5228 5222 0
-1238 -1253 -1254 -1239 5222 5259 5223 5228 0
-1236 -1253 -1260 -1240 5222 5260 5229 5224 0
-1236 -1255 -1260 -1238 5224 5260 5229 5222 0
-1238 -1253 -1255 -1240 5222 5260 5224 5229 0
-1236 -1254 -1261 -1240 5223 5261 5230 5224 0
-1236 -1255 -1261 -1239 5224 5261 5230 5223 0
-1239 -1254 -1255 -1240 5223 5261 5224 5230 0
-1237 -1256 -1259 -1239 5225 5262 5228 5226 0
-1237 -1257 -1259 -1238 5226 5262 5228 5225 0
-1238 -1256 -1257 -1239 5225 5262 5226 5228 0
-1237 -1256 -1260 -1240 5225 5263 5229 5227 0
-1237 -1258 -1260 -1238 5227 5263 5229 5225 0
-1238 -1256 -1258 -1240 5225 5263 5227 5229 0
-1237 -1257 -1261 -1240 5226 5264 5230 5227 0
-1237 -1258 -1261 -1239 5227 5264 5230 5226 0
-1239 -1257 -1258 -1240 5226 5264 5227 5230 0
-1238 -1259 -1261 -1240 5228 5265 5230 5229 0
-1238 -1260 -1261 -1239 5229 5265 5230 5228 0
-1239 -1259 -1260 -1240 5228 5265 5229 5230 0
-1241 -1247 -1252 -1243 5231 5246 5236 5232 0
-1241 -1248 -1252 -1242 5232 5246 5236 5231 0
-1242 -1247 -1248 -1243 5231 5246 5232 5236 0
-1241 -1247 -1253 -1244 5231 5247 5237 5233 0
-1241 -1249 -1253 -1242 5233 5247 5237 5231 0
-1242 -1247 -1249 -1244 5231 5247 5233 5237 0
-1241 -1247 -1254 -1245 5231 5248 5238 5234 0
-1241 -1250 -1254 -1242 5234 5248 5238 5231 0
-1242 -1247 -1250 -1245 5231 5248 5234 5238 0
-1241 -1247 -1255 -1246 5231 5249 5239 5235 0
-1241 -1251 -1255 -1242 5235 5249 5239 5231 0
-1242 -1247 -1251 -1246 5231 5249 5235 5239 0
-1241 -1248 -1256 -1244 5232 5250 5240 5233 0
-1241 -1249 -1256 -1243 5233 5250 5240 5232 0
-1243 -1248 -1249 -1244 5232 5250 5233 5240 0
-1241 -1248 -1257 -1245 5232 5251 5241 5234 0
-1241 -1250 -1257 -1243 5234 5251 5241 5232 0
-1243 -1248 -1250 -1245 5232 5251 5234 5241 0
-1241 -1248 -1258 -1246 5232 5252 5242 5235 0
-1241 -1251 -1258 -1243 5235 5252 5242 5232 0
-1243 -1248 -1251 -1246 5232 5252 5235 5242 0
-1241 -1249 -1259 -1245 5233 5253 5243 5234 0
-1241 -1250 -1259 -1244 5234 5253 5243 5233 0
-1244 -1249 -1250 -1245 5233 5253 5234 5243 0
-1241 -1249 -1260 -1246 5233 5254 5244 5235 0
-1241 -1251 -1260 -1244 5235 5254 5244 5233 0
-1244 -1249 -1251 -1246 5233 5254 5235 5244 0
-1241 -1250 -1261 -1246 5234 5255 5245 5235 0
-1241 -1251 -1261 -1245 5235 5255 5245 5234 0
-1245 -1250 -1251 -1246 5234 5255 5235 5245 0
-1242 -1252 -1256 -1244 5236 5256 5240 5237 0
-1242 -1253 -1256 -1243 5237 5256 5240 5236 0
-1243 -1252 -1253 -1244 5236 5256 5237 5240 0
-1242 -1252 -1257 -1245 5236 5257 5241 5238 0
-1242 -1254 -1257 -1243 5238 5257 5241 5236 0
-1243 -1252 -1254 -1245 5236 5257 5238 5241 0
-1242 -1252 -1258 -1246 5236 5258 5242 5239 0
-1242 -1255 -1258 -1243 5239 5258 5242 5236 0
-1243 -1252 -1255 -1246 5236 5258 5239 5242 0
-1242 -1253 -1259 -1245 5237 5259 5243 5238 0
-1242 -1254 -1259 -1244 5238 5259 5243 5237 0
-1244 -1253 -1254 -1245 5237 5259 5238 5243 0
-1242 -1253 -1260 -1246 5237 5260 5244 5239 0
-1242 -1255 -1260 -1244 5239 5260 5244 5237 0
-1244 -1253 -1255 -1246 5237 5260 5239 5244 0
-1242 -1254 -1261 -1246 5238 5261 5245 5239 0
-1242 -1255 -1261 -1245 5239 5261 5245 5238 0
-1245 -1254 -1255 -1246 5238 5261 5239 5245 0
-1243 -1256 -1259 -1245 5240 5262 5243 5241 0
-1243 -1257 -1259 -1244 5241 5262 5243 5240 0
-1244 -1256 -1257 -1245 5240 5262 5241 5243 0
-1243 -1256 -1260 -1246 5240 5263 5244 5242 0
-1243 -1258 -1260 -1244 5242 5263 5244 5240 0
-1244 -1256 -1258 -1246 5240 5263 5242 5244 0
-1243 -1257 -1261 -1246 5241 5264 5245 5242 0
-1243 -1258 -1261 -1245 5242 5264 5245 5241 0
-1245 -1257 -1258 -1246 5241 5264 5242 5245 0
-1244 -1259 -1261 -1246 5243 5265 5245 5244 0
-1244 -1260 -1261 -1245 5244 5265 5245 5243 0
-1245 -1259 -1260 -1246 5243 5265 5244 5245 0
-1247 -1252 -1256 -1249 5246 5256 5250 5247 0
-1247 -1253 -1256 -1248 5247 5256 5250 5246 0
-1248 -1252 -1253 -1249 5246 5256 5247 5250 0
-1247 -1252 -1257 -1250 5246 5257 5251 5248 0
-1247 -1254 -1257 -1248 5248 5257 5251 5246 0
-1248 -1252 -1254 -1250 5246 5257 5248 5251 0
-1247 -1252 -1258 -1251 5246 5258 5252 5249 0
-1247 -1255 -1258 -1248 5249 5258 5252 5246 0
-1248 -1252 -1255 -1251 5246 5258 5249 5252 0
-1247 -1253 -1259 -1250 5247 5259 5253 5248 0
-1247 -1254 -1259 -1249 5248 5259 5253 5247 0
-1249 -1253 -1254 -1250 5247 5259 5248 5253 0
-1247 -1253 -1260 -1251 5247 5260 5254 5249 0
-1247 -1255 -1260 -1249 5249 5260 5254 5247 0
-1249 -1253 -1255 -1251 5247 5260 5249 5254 0
-1247 -1254 -1261 -1251 5248 5261 5255 5249 0
-1247 -1255 -1261 -1250 5249 5261 5255 5248 0
-1250 -1254 -1255 -1251 5248 5261 5249 5255 0
-1248 -1256 -1259 -1250 5250 5262 5253 5251 0
-1248 -1257 -1259 -1249 5251 5262 5253 5250 0
-1249 -1256 -1257 -1250 5250 5262 5251 5253 0
-1248 -1256 -1260 -1251 5250 5263 5254 5252 0
-1248 -1258 -1260 -1249 5252 5263 5254 5250 0
-1249 -1256 -1258 -1251 5250 5263 5252 5254 0
-1248 -1257 -1261 -1251 5251 5264 5255 5252 0
-1248 -1258 -1261 -1250 5252 5264 5255 5251 0
-1250 -1257 -1258 -1251 5251 5264 5252 5255 0
-1249 -1259 -1261 -1251 5253 5265 5255 5254 0
-1249 -1260 -1261 -1250 5254 5265 5255 5253 0
-1250 -1259 -1260 -1251 5253 5265 5254 5255 0
-1252 -1256 -1259 -1254 5256 5262 5259 5257 0
-1252 -1257 -1259 -1253 5257 5262 5259 5256 0
-1253 -1256 -1257 -1254 5256 5262 5257 5259 0
-1252 -1256 -1260 -1255 5256 5263 5260 5258 0
-1252 -1258 -1260 -1253 5258 5263 5260 5256 0
-1253 -1256 -1258 -1255 5256 5263 5258 5260 0
-1252 -1257 -1261 -1255 5257 5264 5261 5258 0
-1252 -1258 -1261 -1254 5258 5264 5261 5257 0
-1254 -1257 -1258 -1255 5257 5264 5258 5261 0
-1253 -1259 -1261 -1255 5259 5265 5261 5260 0
-1253 -1260 -1261 -1254 5260 5265 5261 5259 0
-1254 -1259 -1260 -1255 5259 5265 5260 5261 0
-1256 -1259 -1261 -1258 5262 5265 5264 5263 0
-1256 -1260 -1261 -1257 5263 5265 5264 5262 0
-1257 -1259 -1260 -1258 5262 5265 5263 5264 0
7730 0
-7730 2 -3 0
-7731 7730 0
-7731 2 -3 0
-7731 -2 3 0
-7730 -2 -3 7731 0
-7730 2 3 7731 0
-7731 15 -16 0
-7732 7731 0
-7732 15 -16 0
-7732 -15 16 0
-7731 -15 -16 7732 0
-7731 15 16 7732 0
-7732 28 -29 0
-7733 7732 0
-7733 28 -29 0
-7733 -28 29 0
-7732 -28 -29 7733 0
-7732 28 29 7733 0
-7733 41 -42 0
-7734 7733 0
-7734 41 -42 0
-7734 -41 42 0
-7733 -41 -42 7734 0
-7733 41 42 7734 0
-7734 54 -55 0
-7735 7734 0
-7735 54 -55 0
-7735 -54 55 0
-7734 -54 -55 7735 0
-7734 54 55 7735 0
-7735 67 -68 0
-7736 7735 0
-7736 67 -68 0
-7736 -67 68 0
-7735 -67 -68 7736 0
-7735 67 68 7736 0
-7736 80 -81 0
-7737 7736 0
-7737 80 -81 0
-7737 -80 81 0
-7736 -80 -81 7737 0
-7736 80 81 7737 0
-7737 93 -94 0
-7738 7737 0
-7738 93 -94 0
-7738 -93 94 0
-7737 -93 -94 7738 0
-7737 93 94 7738 0
-7738 106 -107 0
-7739 7738 0
-7739 106 -107 0
-7739 -106 107 0
-7738 -106 -107 7739 0
-7738 106 107 7739 0
-7739 119 -120 0
-7740 7739 0
-7740 119 -120 0
-7740 -119 120 0
-7739 -119 -120 7740 0
-7739 119 120 7740 0
-7740 132 -133 0
-7741 7740 0
-7741 132 -133 0
-7741 -132 133 0
-7740 -132 -133 7741 0
-7740 132 133 7741 0
-7741 145 -146 0
-7742 7741 0
-7742 145 -146 0
-7742 -145 146 0
-7741 -145 -146 7742 0
-7741 145 146 7742 0
-7742 158 -159 0
-7743 7742 0
-7743 158 -159 0
-7743 -158 159 0
-7742 -158 -159 7743 0
-7742 158 159 7743 0
7744 0
-7744 3 -4 0
-7745 7744 0
-7745 3 -4 0
-7745 -3 4 0
-7744 -3 -4 7745 0
-7744 3 4 7745 0
-7745 16 -17 0
-7746 7745 0
-7746 16 -17 0
-7746 -16 17 0
-7745 -16 -17 7746 0
-7745 16 17 7746 0
-7746 29 -30 0
-7747 7746 0
-7747 29 -30 0
-7747 -29 30 0
-7746 -29 -30 7747 0
-7746 29 30 7747 0
-7747 42 -43 0
-7748 7747 0
-7748 42 -43 0
-7748 -42 43 0
-7747 -42 -43 7748 0
-7747 42 43 7748 0
-7748 55 -56 0
-7749 7748 0
-7749 55 -56 0
-7749 -55 56 0
-7748 -55 -56 7749 0
-7748 55 56 7749 0
-7749 68 -69 0
-7750 7749 0
-7750 68 -69 0
-7750 -68 69 0
-7749 -68 -69 7750 0
-7749 68 69 7750 0
-7750 81 -82 0
-7751 7750 0
-7751 81 -82 0
-7751 -81 82 0
-7750 -81 -82 7751 0
-7750 81 82 7751 0
-7751 94 -95 0
-7752 7751 0
-7752 94 -95 0
-7752 -94 95 0
-7751 -94 -95 7752 0
-7751 94 95 7752 0
-7752 107 -108 0
-7753 7752 0
-7753 107 -108 0
-7753 -107 108 0
-7752 -107 -108 7753 0
-7752 107 108 7753 0
-7753 120 -121 0
-7754 7753 0
-7754 120 -121 0
-7754 -120 121 0
-7753 -120 -121 7754 0
-7753 120 121 7754 0
-7754 133 -134 0
-7755 7754 0
-7755 133 -134 0
-7755 -133 134 0
-7754 -133 -134 7755 0
-7754 133 134 7755 0
-7755 146 -147 0
-7756 7755 0
-7756 146 -147 0
-7756 -146 147 0
-7755 -146 -147 7756 0
-7755 146 147 7756 0
-7756 159 -160 0
-7757 7756 0
-7757 159 -160 0
-7757 -159 160 0
-7756 -159 -160 7757 0
-7756 159 160 7757 0
7758 0
-7758 4 -5 0
-7759 7758 0
-7759 4 -5 0
-7759 -4 5 0
-7758 -4 -5 7759 0
-7758 4 5 7759 0
-7759 17 -18 0
-7760 7759 0
-7760 17 -18 0
-7760 -17 18 0
-7759 -17 -18 7760 0
-7759 17 18 7760 0
-7760 30 -31 0
-7761 7760 0
-7761 30 -31 0
-7761 -30 31 0
-7760 -30 -31 7761 0
-7760 30 31 7761 0
-7761 43 -44 0
-7762 7761 0
-7762 43 -44 0
-7762 -43 44 0
-7761 -43 -44 7762 0
-7761 43 44 7762 0
-7762 56 -57 0
-7763 7762 0
-7763 56 -57 0
-7763 -56 57 0
-7762 -56 -57 7763 0
-7762 56 57 7763 0
-7763 69 -70 0
-7764 7763 0
-7764 69 -70 0
-7764 -69 70 0
-7763 -69 -70 7764 0
-7763 69 70 7764 0
-7764 82 -83 0
-7765 7764 0
-7765 82 -83 0
-7765 -82 83 0
-7764 -82 -83 7765 0
-7764 82 83 7765 0
-7765 95 -96 0
-7766 7765 0
-7766 95 -96 0
-7766 -95 96 0
-7765 -95 -96 7766 0
-7765 95 96 7766 0
-7766 108 -109 0
-7767 7766 0
-7767 108 -109 0
-7767 -108 109 0
-7766 -108 -109 7767 0
-7766 108 109 7767 0
-7767 121 -122 0
-7768 7767 0
-7768 121 -122 0
-7768 -121 122 0
-7767 -121 -122 7768 0
-7767 121 122 7768 0
-7768 134 -135 0
-7769 7768 0
-7769 134 -135 0
-7769 -134 135 0
-7768 -134 -135 7769 0
-7768 134 135 7769 0
-7769 147 -148 0
-7770 7769 0
-7770 147 -148 0
-7770 -147 148 0
-7769 -147 -148 7770 0
-7769 147 148 7770 0
-7770 160 -161 0
-7771 7770 0
-7771 160 -161 0
-7771 -160 161 0
-7770 -160 -161 7771 0
-7770 160 161 7771 0
7772 0
-7772 5 -6 0
-7773 7772 0
-7773 5 -6 0
-7773 -5 6 0
-7772 -5 -6 7773 0
-7772 5 6 7773 0
-7773 18 -19 0
-7774 7773 0
-7774 18 -19 0
-7774 -18 19 0
-7773 -18 -19 7774 0
-7773 18 19 7774 0
-7774 31 -32 0
-7775 7774 0
-7775 31 -32 0
-7775 -31 32 0
-7774 -31 -32 7775 0
-7774 31 32 7775 0
-7775 44 -45 0
-7776 7775 0
-7776 44 -45 0
-7776 -44 45 0
-7775 -44 -45 7776 0
-7775 44 45 7776 0
-7776 57 -58 0
-7777 7776 0
-7777 57 -58 0
-7777 -57 58 0
-7776 -57 -58 7777 0
-7776 57 58 7777 0
-7777 70 -71 0
-7778 7777 0
-7778 70 -71 0
-7778 -70 71 0
-7777 -70 -71 7778 0
-7777 70 71 7778 0
-7778 83 -84 0
-7779 7778 0
-7779 83 -84 0
-7779 -83 84 0
-7778 -83 -84 7779 0
-7778 83 84 7779 0
-7779 96 -97 0
-7780 7779 0
-7780 96 -97 0
-7780 -96 97 0
-7779 -96 -97 7780 0
-7779 96 97 7780 0
-7780 109 -110 0
-7781 7780 0
-7781 109 -110 0
-7781 -109 110 0
-7780 -109 -110 7781 0
-7780 109 110 7781 0
-7781 122 -123 0
-7782 7781 0
-7782 122 -123 0
-7782 -122 123 0
-7781 -122 -123 7782 0
-7781 122 123 7782 0
-7782 135 -136 0
-7783 7782 0
-7783 135 -136 0
-7783 -135 136 0
-7782 -135 -136 7783 0
-7782 135 136 7783 0
-7783 148 -149 0
-7784 7783 0
-7784 148 -149 0
-7784 -148 149 0
-7783 -148 -149 7784 0
-7783 148 149 7784 0
-7784 161 -162 0
-7785 7784 0
-7785 161 -162 0
-7785 -161 162 0
-7784 -161 -162 7785 0
-7784 161 162 7785 0
7786 0
-7786 6 -7 0
-7787 7786 0
-7787 6 -7 0
-7787 -6 7 0
-7786 -6 -7 7787 0
-7786 6 7 7787 0
-7787 19 -20 0
-7788 7787 0
-7788 19 -20 0
-7788 -19 20 0
-7787 -19 -20 7788 0
-7787 19 20 7788 0
-7788 32 -33 0
-7789 7788 0
-7789 32 -33 0
-7789 -32 33 0
-7788 -32 -33 7789 0
-7788 32 33 7789 0
-7789 45 -46 0
-7790 7789 0
-7790 45 -46 0
-7790 -45 46 0
-7789 -45 -46 7790 0
-7789 45 46 7790 0
-7790 58 -59 0
-7791 7790 0
-7791 58 -59 0
-7791 -58 59 0
-7790 -58 -59 7791 0
-7790 58 59 7791 0
-7791 71 -72 0
-7792 7791 0
-7792 71 -72 0
-7792 -71 72 0
-7791 -71 -72 7792 0
-7791 71 72 7792 0
-7792 84 -85 0
-7793 7792 0
-7793 84 -85 0
-7793 -84 85 0
-7792 -84 -85 7793 0
-7792 84 85 7793 0
-7793 97 -98 0
-7794 7793 0
-7794 97 -98 0
-7794 -97 98 0
-7793 -97 -98 7794 0
-7793 97 98 7794 0
-7794 110 -111 0
-7795 7794 0
-7795 110 -111 0
-7795 -110 111 0
-7794 -110 -111 7795 0
-7794 110 111 7795 0
-7795 123 -124 0
-7796 7795 0
-7796 123 -124 0
-7796 -123 124 0
-7795 -123 -124 7796 0
-7795 123 124 7796 0
-7796 136 -137 0
-7797 7796 0
-7797 136 -137 0
-7797 -136 137 0
-7796 -136 -137 7797 0
-7796 136 137 7797 0
-7797 149 -150 0
-7798 7797 0
-7798 149 -150 0
-7798 -149 150 0
-7797 -149 -150 7798 0
-7797 149 150 7798 0
-7798 162 -163 0
-7799 7798 0
-7799 162 -163 0
-7799 -162 163 0
-7798 -162 -163 7799 0
-7798 162 163 7799 0
7800 0
-7800 7 -8 0
-7801 7800 0
-7801 7 -8 0
-7801 -7 8 0
-7800 -7 -8 7801 0
-7800 7 8 7801 0
-7801 20 -21 0
-7802 7801 0
-7802 20 -21 0
-7802 -20 21 0
-7801 -20 -21 7802 0
-7801 20 21 7802 0
-7802 33 -34 0
-7803 7802 0
-7803 33 -34 0
-7803 -33 34 0
-7802 -33 -34 7803 0
-7802 33 34 7803 0
-7803 46 -47 0
-7804 7803 0
-7804 46 -47 0
-7804 -46 47 0
-7803 -46 -47 7804 0
-7803 46 47 7804 0
-7804 59 -60 0
-7805 7804 0
-7805 59 -60 0
-7805 -59 60 0
-7804 -59 -60 7805 0
-7804 59 60 7805 0
-7805 72 -73 0
-7806 7805 0
-7806 72 -73 0
-7806 -72 73 0
-7805 -72 -73 7806 0
-7805 72 73 7806 0
-7806 85 -86 0
-7807 7806 0
-7807 85 -86 0
-7807 -85 86 0
-7806 -85 -86 7807 0
-7806 85 86 7807 0
-7807 98 -99 0
-7808 7807 0
-7808 98 -99 0
-7808 -98 99 0
-7807 -98 -99 7808 0
-7807 98 99 7808 0
-7808 111 -112 0
-7809 7808 0
-7809 111 -112 0
-7809 -111 112 0
-7808 -111 -112 7809 0
-7808 111 112 7809 0
-7809 124 -125 0
-7810 7809 0
-7810 124 -125 0
-7810 -124 125 0
-7809 -124 -125 7810 0
-7809 124 125 7810 0
-7810 137 -138 0
-7811 7810 0
-7811 137 -138 0
-7811 -137 138 0
-7810 -137 -138 7811 0
-7810 137 138 7811 0
-7811 150 -151 0
-7812 7811 0
-7812 150 -151 0
-7812 -150 151 0
-7811 -150 -151 7812 0
-7811 150 151 7812 0
-7812 163 -164 0
-7813 7812 0
-7813 163 -164 0
-7813 -163 164 0
-7812 -163 -164 7813 0
-7812 163 164 7813 0
7814 0
-7814 8 -9 0
-7815 7814 0
-7815 8 -9 0
-7815 -8 9 0
-7814 -8 -9 7815 0
-7814 8 9 7815 0
-7815 21 -22 0
-7816 7815 0
-7816 21 -22 0
-7816 -21 22 0
-7815 -21 -22 7816 0
-7815 21 22 7816 0
-7816 34 -35 0
-7817 7816 0
-7817 34 -35 0
-7817 -34 35 0
-7816 -34 -35 7817 0
-7816 34 35 7817 0
-7817 47 -48 0
-7818 7817 0
-7818 47 -48 0
-7818 -47 48 0
-7817 -47 -48 7818 0
-7817 47 48 7818 0
-7818 60 -61 0
-7819 7818 0
-7819 60 -61 0
-7819 -60 61 0
-7818 -60 -61 7819 0
-7818 60 61 7819 0
-7819 73 -74 0
-7820 7819 0
-7820 73 -74 0
-7820 -73 74 0
-7819 -73 -74 7820 0
-7819 73 74 7820 0
-7820 86 -87 0
-7821 7820 0
-7821 86 -87 0
-7821 -86 87 0
-7820 -86 -87 7821 0
-7820 86 87 7821 0
-7821 99 -100 0
-7822 7821 0
-7822 99 -100 0
-7822 -99 100 0
-7821 -99 -100 7822 0
-7821 99 100 7822 0
-7822 112 -113 0
-7823 7822 0
-7823 112 -113 0
-7823 -112 113 0
-7822 -112 -113 7823 0
-7822 112 113 7823 0
-7823 125 -126 0
-7824 7823 0
-7824 125 -126 0
-7824 -125 126 0
-7823 -125 -126 7824 0
-7823 125 126 7824 0
-7824 138 -139 0
-7825 7824 0
-7825 138 -139 0
-7825 -138 139 0
-7824 -138 -139 7825 0
-7824 138 139 7825 0
-7825 151 -152 0
-7826 7825 0
-7826 151 -152 0
-7826 -151 152 0
-7825 -151 -152 7826 0
-7825 151 152 7826 0
-7826 164 -165 0
-7827 7826 0
-7827 164 -165 0
-7827 -164 165 0
-7826 -164 -165 7827 0
-7826 164 165 7827 0
7828 0
-7828 9 -10 0
-7829 7828 0
-7829 9 -10 0
-7829 -9 10 0
-7828 -9 -10 7829 0
-7828 9 10 7829 0
-7829 22 -23 0
-7830 7829 0
-7830 22 -23 0
-7830 -22 23 0
-7829 -22 -23 7830 0
-7829 22 23 7830 0
-7830 35 -36 0
-7831 7830 0
-7831 35 -36 0
-7831 -35 36 0
-7830 -35 -36 7831 0
-7830 35 36 7831 0
-7831 48 -49 0
-7832 7831 0
-7832 48 -49 0
-7832 -48 49 0
-7831 -48 -49 7832 0
-7831 48 49 7832 0
-7832 61 -62 0
-7833 7832 0
-7833 61 -62 0
-7833 -61 62 0
-7832 -61 -62 7833 0
-7832 61 62 7833 0
-7833 74 -75 0
-7834 7833 0
-7834 74 -75 0
-7834 -74 75 0
-7833 -74 -75 7834 0
-7833 74 75 7834 0
-7834 87 -88 0
-7835 7834 0
-7835 87 -88 0
-7835 -87 88 0
-7834 -87 -88 7835 0
-7834 87 88 7835 0
-7835 100 -101 0
-7836 7835 0
-7836 100 -101 0
-7836 -100 101 0
-7835 -100 -101 7836 0
-7835 100 101 7836 0
-7836 113 -114 0
-7837 7836 0
-7837 113 -114 0
-7837 -113 114 0
-7836 -113 -114 7837 0
-7836 113 114 7837 0
-7837 126 -127 0
-7838 7837 0
-7838 126 -127 0
-7838 -126 127 0
-7837 -126 -127 7838 0
-7837 126 127 7838 0
-7838 139 -140 0
-7839 7838 0
-7839 139 -140 0
-7839 -139 140 0
-7838 -139 -140 7839 0
-7838 139 140 7839 0
-7839 152 -153 0
-7840 7839 0
-7840 152 -153 0
-7840 -152 153 0
-7839 -152 -153 7840 0
-7839 152 153 7840 0
-7840 165 -166 0
-7841 7840 0
-7841 165 -166 0
-7841 -165 166 0
-7840 -165 -166 7841 0
-7840 165 166 7841 0
7842 0
-7842 10 -11 0
-7843 7842 0
-7843 10 -11 0
-7843 -10 11 0
-7842 -10 -11 7843 0
-7842 10 11 7843 0
-7843 23 -24 0
-7844 7843 0
-7844 23 -24 0
-7844 -23 24 0
-7843 -23 -24 7844 0
-7843 23 24 7844 0
-7844 36 -37 0
-7845 7844 0
-7845 36 -37 0
-7845 -36 37 0
-7844 -36 -37 7845 0
-7844 36 37 7845 0
-7845 49 -50 0
-7846 7845 0
-7846 49 -50 0
-7846 -49 50 0
-7845 -49 -50 7846 0
-7845 49 50 7846 0
-7846 62 -63 0
-7847 7846 0
-7847 62 -63 0
-7847 -62 63 0
-7846 -62 -63 7847 0
-7846 62 63 7847 0
-7847 75 -76 0
-7848 7847 0
-7848 75 -76 0
-7848 -75 76 0
-7847 -75 -76 7848 0
-7847 75 76 7848 0
-7848 88 -89 0
-7849 7848 0
-7849 88 -89 0
-7849 -88 89 0
-7848 -88 -89 7849 0
-7848 88 89 7849 0
-7849 101 -102 0
-7850 7849 0
-7850 101 -102 0
-7850 -101 102 0
-7849 -101 -102 7850 0
-7849 101 102 7850 0
-7850 114 -115 0
-7851 7850 0
-7851 114 -115 0
-7851 -114 115 0
-7850 -114 -115 7851 0
-7850 114 115 7851 0
-7851 127 -128 0
-7852 7851 0
-7852 127 -128 0
-7852 -127 128 0
-7851 -127 -128 7852 0
-7851 127 128 7852 0
-7852 140 -141 0
-7853 7852 0
-7853 140 -141 0
-7853 -140 141 0
-7852 -140 -141 7853 0
-7852 140 141 7853 0
-7853 153 -154 0
-7854 7853 0
-7854 153 -154 0
-7854 -153 154 0
-7853 -153 -154 7854 0
-7853 153 154 7854 0
-7854 166 -167 0
-7855 7854 0
-7855 166 -167 0
-7855 -166 167 0
-7854 -166 -167 7855 0
-7854 166 167 7855 0
7856 0
-7856 11 -12 0
-7857 7856 0
-7857 11 -12 0
-7857 -11 12 0
-7856 -11 -12 7857 0
-7856 11 12 7857 0
-7857 24 -25 0
-7858 7857 0
-7858 24 -25 0
-7858 -24 25 0
-7857 -24 -25 7858 0
-7857 24 25 7858 0
-7858 37 -38 0
-7859 7858 0
-7859 37 -38 0
-7859 -37 38 0
-7858 -37 -38 7859 0
-7858 37 38 7859 0
-7859 50 -51 0
-7860 7859 0
-7860 50 -51 0
-7860 -50 51 0
-7859 -50 -51 7860 0
-7859 50 51 7860 0
-7860 63 -64 0
-7861 7860 0
-7861 63 -64 0
-7861 -63 64 0
-7860 -63 -64 7861 0
-7860 63 64 7861 0
-7861 76 -77 0
-7862 7861 0
-7862 76 -77 0
-7862 -76 77 0
-7861 -76 -77 7862 0
-7861 76 77 7862 0
-7862 89 -90 0
-7863 7862 0
-7863 89 -90 0
-7863 -89 90 0
-7862 -89 -90 7863 0
-7862 89 90 7863 0
-7863 102 -103 0
-7864 7863 0
-7864 102 -103 0
-7864 -102 103 0
-7863 -102 -103 7864 0
-7863 102 103 7864 0
-7864 115 -116 0
-7865 7864 0
-7865 115 -116 0
-7865 -115 116 0
-7864 -115 -116 7865 0
-7864 115 116 7865 0
-7865 128 -129 0
-7866 7865 0
-7866 128 -129 0
-7866 -128 129 0
-7865 -128 -129 7866 0
-7865 128 129 7866 0
-7866 141 -142 0
-7867 7866 0
-7867 141 -142 0
-7867 -141 142 0
-7866 -141 -142 7867 0
-7866 141 142 7867 0
-7867 154 -155 0
-7868 7867 0
-7868 154 -155 0
-7868 -154 155 0
-7867 -154 -155 7868 0
-7867 154 155 7868 0
-7868 167 -168 0
-7869 7868 0
-7869 167 -168 0
-7869 -167 168 0
-7868 -167 -168 7869 0
-7868 167 168 7869 0
7870 0
-7870 12 -13 0
-7871 7870 0
-7871 12 -13 0
-7871 -12 13 0
-7870 -12 -13 7871 0
-7870 12 13 7871 0
-7871 25 -26 0
-7872 7871 0
-7872 25 -26 0
-7872 -25 26 0
-7871 -25 -26 7872 0
-7871 25 26 7872 0
-7872 38 -39 0
-7873 7872 0
-7873 38 -39 0
-7873 -38 39 0
-7872 -38 -39 7873 0
-7872 38 39 7873 0
-7873 51 -52 0
-7874 7873 0
-7874 51 -52 0
-7874 -51 52 0
-7873 -51 -52 7874 0
-7873 51 52 7874 0
-7874 64 -65 0
-7875 7874 0
-7875 64 -65 0
-7875 -64 65 0
-7874 -64 -65 7875 0
-7874 64 65 7875 0
-7875 77 -78 0
-7876 7875 0
-7876 77 -78 0
-7876 -77 78 0
-7875 -77 -78 7876 0
-7875 77 78 7876 0
-7876 90 -91 0
-7877 7876 0
-7877 90 -91 0
-7877 -90 91 0
-7876 -90 -91 7877 0
-7876 90 91 7877 0
-7877 103 -104 0
-7878 7877 0
-7878 103 -104 0
-7878 -103 104 0
-7877 -103 -104 7878 0
-7877 103 104 7878 0
-7878 116 -117 0
-7879 7878 0
-7879 116 -117 0
-7879 -116 117 0
-7878 -116 -117 7879 0
-7878 116 117 7879 0
-7879 129 -130 0
-7880 7879 0
-7880 129 -130 0
-7880 -129 130 0
-7879 -129 -130 7880 0
-7879 129 130 7880 0
-7880 142 -143 0
-7881 7880 0
-7881 142 -143 0
-7881 -142 143 0
-7880 -142 -143 7881 0
-7880 142 143 7881 0
-7881 155 -156 0
-7882 7881 0
-7882 155 -156 0
-7882 -155 156 0
-7881 -155 -156 7882 0
-7881 155 156 7882 0
-7882 168 -169 0
-7883 7882 0
-7883 168 -169 0
-7883 -168 169 0
-7882 -168 -169 7883 0
-7882 168 169 7883 0
7884 0
-7884 14 -27 0
-7885 7884 0
-7885 14 -27 0
-7885 -14 27 0
-7884 -14 -27 7885 0
-7884 14 27 7885 0
-7885 15 -28 0
-7886 7885 0
-7886 15 -28 0
-7886 -15 28 0
-7885 -15 -28 7886 0
-7885 15 28 7886 0
-7886 16 -29 0
-7887 7886 0
-7887 16 -29 0
-7887 -16 29 0
-7886 -16 -29 7887 0
-7886 16 29 7887 0
-7887 17 -30 0
-7888 7887 0
-7888 17 -30 0
-7888 -17 30 0
-7887 -17 -30 7888 0
-7887 17 30 7888 0
-7888 18 -31 0
-7889 7888 0
-7889 18 -31 0
-7889 -18 31 0
-7888 -18 -31 7889 0
-7888 18 31 7889 0
-7889 19 -32 0
-7890 7889 0
-7890 19 -32 0
-7890 -19 32 0
-7889 -19 -32 7890 0
-7889 19 32 7890 0
-7890 20 -33 0
-7891 7890 0
-7891 20 -33 0
-7891 -20 33 0
-7890 -20 -33 7891 0
-7890 20 33 7891 0
-7891 21 -34 0
-7892 7891 0
-7892 21 -34 0
-7892 -21 34 0
-7891 -21 -34 7892 0
-7891 21 34 7892 0
-7892 22 -35 0
-7893 7892 0
-7893 22 -35 0
-7893 -22 35 0
-7892 -22 -35 7893 0
-7892 22 35 7893 0
-7893 23 -36 0
-7894 7893 0
-7894 23 -36 0
-7894 -23 36 0
-7893 -23 -36 7894 0
-7893 23 36 7894 0
-7894 24 -37 0
-7895 7894 0
-7895 24 -37 0
-7895 -24 37 0
-7894 -24 -37 7895 0
-7894 24 37 7895 0
-7895 25 -38 0
-7896 7895 0
-7896 25 -38 0
-7896 -25 38 0
-7895 -25 -38 7896 0
-7895 25 38 7896 0
-7896 26 -39 0
-7897 7896 0
-7897 26 -39 0
-7897 -26 39 0
-7896 -26 -39 7897 0
-7896 26 39 7897 0
7898 0
-7898 27 -40 0
-7899 7898 0
-7899 27 -40 0
-7899 -27 40 0
-7898 -27 -40 7899 0
-7898 27 40 7899 0
-7899 28 -41 0
-7900 7899 0
-7900 28 -41 0
-7900 -28 41 0
-7899 -28 -41 7900 0
-7899 28 41 7900 0
-7900 29 -42 0
-7901 7900 0
-7901 29 -42 0
-7901 -29 42 0
-7900 -29 -42 7901 0
-7900 29 42 7901 0
-7901 30 -43 0
-7902 7901 0
-7902 30 -43 0
-7902 -30 43 0
-7901 -30 -43 7902 0
-7901 30 43 7902 0
-7902 31 -44 0
-7903 7902 0
-7903 31 -44 0
-7903 -31 44 0
-7902 -31 -44 7903 0
-7902 31 44 7903 0
-7903 32 -45 0
-7904 7903 0
-7904 32 -45 0
-7904 -32 45 0
-7903 -32 -45 7904 0
-7903 32 45 7904 0
-7904 33 -46 0
-7905 7904 0
-7905 33 -46 0
-7905 -33 46 0
-7904 -33 -46 7905 0
-7904 33 46 7905 0
-7905 34 -47 0
-7906 7905 0
-7906 34 -47 0
-7906 -34 47 0
-7905 -34 -47 7906 0
-7905 34 47 7906 0
-7906 35 -48 0
-7907 7906 0
-7907 35 -48 0
-7907 -35 48 0
-7906 -35 -48 7907 0
-7906 35 48 7907 0
-7907 36 -49 0
-7908 7907 0
-7908 36 -49 0
-7908 -36 49 0
-7907 -36 -49 7908 0
-7907 36 49 7908 0
-7908 37 -50 0
-7909 7908 0
-7909 37 -50 0
-7909 -37 50 0
-7908 -37 -50 7909 0
-7908 37 50 7909 0
-7909 38 -51 0
-7910 7909 0
-7910 38 -51 0
-7910 -38 51 0
-7909 -38 -51 7910 0
-7909 38 51 7910 0
-7910 39 -52 0
-7911 7910 0
-7911 39 -52 0
-7911 -39 52 0
-7910 -39 -52 7911 0
-7910 39 52 7911 0
7912 0
-7912 40 -53 0
-7913 7912 0
-7913 40 -53 0
-7913 -40 53 0
-7912 -40 -53 7913 0
-7912 40 53 7913 0
-7913 41 -54 0
-7914 7913 0
-7914 41 -54 0
-7914 -41 54 0
-7913 -41 -54 7914 0
-7913 41 54 7914 0
-7914 42 -55 0
-7915 7914 0
-7915 42 -55 0
-7915 -42 55 0
-7914 -42 -55 7915 0
-7914 42 55 7915 0
-7915 43 -56 0
-7916 7915 0
-7916 43 -56 0
-7916 -43 56 0
-7915 -43 -56 7916 0
-7915 43 56 7916 0
-7916 44 -57 0
-7917 7916 0
-7917 44 -57 0
-7917 -44 57 0
-7916 -44 -57 7917 0
-7916 44 57 7917 0
-7917 45 -58 0
-7918 7917 0
-7918 45 -58 0
-7918 -45 58 0
-7917 -45 -58 7918 0
-7917 45 58 7918 0
-7918 46 -59 0
-7919 7918 0
-7919 46 -59 0
-7919 -46 59 0
-7918 -46 -59 7919 0
-7918 46 59 7919 0
-7919 47 -60 0
-7920 7919 0
-7920 47 -60 0
-7920 -47 60 0
-7919 -47 -60 7920 0
-7919 47 60 7920 0
-7920 48 -61 0
-7921 7920 0
-7921 48 -61 0
-7921 -48 61 0
-7920 -48 -61 7921 0
-7920 48 61 7921 0
-7921 49 -62 0
-7922 7921 0
-7922 49 -62 0
-7922 -49 62 0
-7921 -49 -62 7922 0
-7921 49 62 7922 0
-7922 50 -63 0
-7923 7922 0
-7923 50 -63 0
-7923 -50 63 0
-7922 -50 -63 7923 0
-7922 50 63 7923 0
-7923 51 -64 0
-7924 7923 0
-7924 51 -64 0
-7924 -51 64 0
-7923 -51 -64 7924 0
-7923 51 64 7924 0
-7924 52 -65 0
-7925 7924 0
-7925 52 -65 0
-7925 -52 65 0
-7924 -52 -65 7925 0
-7924 52 65 7925 0
7926 0
-7926 53 -66 0
-7927 7926 0
-7927 53 -66 0
-7927 -53 66 0
-7926 -53 -66 7927 0
-7926 53 66 7927 0
-7927 54 -67 0
-7928 7927 0
-7928 54 -67 0
-7928 -54 67 0
-7927 -54 -67 7928 0
-7927 54 67 7928 0
-7928 55 -68 0
-7929 7928 0
-7929 55 -68 0
-7929 -55 68 0
-7928 -55 -68 7929 0
-7928 55 68 7929 0
-7929 56 -69 0
-7930 7929 0
-7930 56 -69 0
-7930 -56 69 0
-7929 -56 -69 7930 0
-7929 56 69 7930 0
-7930 57 -70 0
-7931 7930 0
-7931 57 -70 0
-7931 -57 70 0
-7930 -57 -70 7931 0
-7930 57 70 7931 0
-7931 58 -71 0
-7932 7931 0
-7932 58 -71 0
-7932 -58 71 0
-7931 -58 -71 7932 0
-7931 58 71 7932 0
-7932 59 -72 0
-7933 7932 0
-7933 59 -72 0
-7933 -59 72 0
-7932 -59 -72 7933 0
-7932 59 72 7933 0
-7933 60 -73 0
-7934 7933 0
-7934 60 -73 0
-7934 -60 73 0
-7933 -60 -73 7934 0
-7933 60 73 7934 0
-7934 61 -74 0
-7935 7934 0
-7935 61 -74 0
-7935 -61 74 0
-7934 -61 -74 7935 0
-7934 61 74 7935 0
-7935 62 -75 0
-7936 7935 0
-7936 62 -75 0
-7936 -62 75 0
-7935 -62 -75 7936 0
-7935 62 75 7936 0
-7936 63 -76 0
-7937 7936 0
-7937 63 -76 0
-7937 -63 76 0
-7936 -63 -76 7937 0
-7936 63 76 7937 0
-7937 64 -77 0
-7938 7937 0
-7938 64 -77 0
-7938 -64 77 0
-7937 -64 -77 7938 0
-7937 64 77 7938 0
-7938 65 -78 0
-7939 7938 0
-7939 65 -78 0
-7939 -65 78 0
-7938 -65 -78 7939 0
-7938 65 78 7939 0
7940 0
-7940 66 -79 0
-7941 7940 0
-7941 66 -79 0
-7941 -66 79 0
-7940 -66 -79 7941 0
-7940 66 79 7941 0
-7941 67 -80 0
-7942 7941 0
-7942 67 -80 0
-7942 -67 80 0
-7941 -67 -80 7942 0
-7941 67 80 7942 0
-7942 68 -81 0
-7943 7942 0
-7943 68 -81 0
-7943 -68 81 0
-7942 -68 -81 7943 0
-7942 68 81 7943 0
-7943 69 -82 0
-7944 7943 0
-7944 69 -82 0
-7944 -69 82 0
-7943 -69 -82 7944 0
-7943 69 82 7944 0
-7944 70 -83 0
-7945 7944 0
-7945 70 -83 0
-7945 -70 83 0
-7944 -70 -83 7945 0
-7944 70 83 7945 0
-7945 71 -84 0
-7946 7945 0
-7946 71 -84 0
-7946 -71 84 0
-7945 -71 -84 7946 0
-7945 71 84 7946 0
-7946 72 -85 0
-7947 7946 0
-7947 72 -85 0
-7947 -72 85 0
-7946 -72 -85 7947 0
-7946 72 85 7947 0
-7947 73 -86 0
-7948 7947 0
-7948 73 -86 0
-7948 -73 86 0
-7947 -73 -86 7948 0
-7947 73 86 7948 0
-7948 74 -87 0
-7949 7948 0
-7949 74 -87 0
-7949 -74 87 0
-7948 -74 -87 7949 0
-7948 74 87 7949 0
-7949 75 -88 0
-7950 7949 0
-7950 75 -88 0
-7950 -75 88 0
-7949 -75 -88 7950 0
-7949 75 88 7950 0
-7950 76 -89 0
-7951 7950 0
-7951 76 -89 0
-7951 -76 89 0
-7950 -76 -89 7951 0
-7950 76 89 7951 0
-7951 77 -90 0
-7952 7951 0
-7952 77 -90 0
-7952 -77 90 0
-7951 -77 -90 7952 0
-7951 77 90 7952 0
-7952 78 -91 0
-7953 7952 0
-7953 78 -91 0
-7953 -78 91 0
-7952 -78 -91 7953 0
-7952 78 91 7953 0
7954 0
-7954 79 -92 0
-7955 7954 0
-7955 79 -92 0
-7955 -79 92 0
-7954 -79 -92 7955 0
-7954 79 92 7955 0
-7955 80 -93 0
-7956 7955 0
-7956 80 -93 0
-7956 -80 93 0
-7955 -80 -93 7956 0
-7955 80 93 7956 0
-7956 81 -94 0
-7957 7956 0
-7957 81 -94 0
-7957 -81 94 0
-7956 -81 -94 7957 0
-7956 81 94 7957 0
-7957 82 -95 0
-7958 7957 0
-7958 82 -95 0
-7958 -82 95 0
-7957 -82 -95 7958 0
-7957 82 95 7958 0
-7958 83 -96 0
-7959 7958 0
-7959 83 -96 0
-7959 -83 96 0
-7958 -83 -96 7959 0
-7958 83 96 7959 0
-7959 84 -97 0
-7960 7959 0
-7960 84 -97 0
-7960 -84 97 0
-7959 -84 -97 7960 0
-7959 84 97 7960 0
-7960 85 -98 0
-7961 7960 0
-7961 85 -98 0
-7961 -85 98 0
-7960 -85 -98 7961 0
-7960 85 98 7961 0
-7961 86 -99 0
-7962 7961 0
-7962 86 -99 0
-7962 -86 99 0
-7961 -86 -99 7962 0
-7961 86 99 7962 0
-7962 87 -100 0
-7963 7962 0
-7963 87 -100 0
-7963 -87 100 0
-7962 -87 -100 7963 0
-7962 87 100 7963 0
-7963 88 -101 0
-7964 7963 0
-7964 88 -101 0
-7964 -88 101 0
-7963 -88 -101 7964 0
-7963 88 101 7964 0
-7964 89 -102 0
-7965 7964 0
-7965 89 -102 0
-7965 -89 102 0
-7964 -89 -102 7965 0
-7964 89 102 7965 0
-7965 90 -103 0
-7966 7965 0
-7966 90 -103 0
-7966 -90 103 0
-7965 -90 -103 7966 0
-7965 90 103 7966 0
-7966 91 -104 0
-7967 7966 0
-7967 91 -104 0
-7967 -91 104 0
-7966 -91 -104 7967 0
-7966 91 104 7967 0
7968 0
-7968 92 -105 0
-7969 7968 0
-7969 92 -105 0
-7969 -92 105 0
-7968 -92 -105 7969 0
-7968 92 105 7969 0
-7969 93 -106 0
-7970 7969 0
-7970 93 -106 0
-7970 -93 106 0
-7969 -93 -106 7970 0
-7969 93 106 7970 0
-7970 94 -107 0
-7971 7970 0
-7971 94 -107 0
-7971 -94 107 0
-7970 -94 -107 7971 0
-7970 94 107 7971 0
-7971 95 -108 0
-7972 7971 0
-7972 95 -108 0
-7972 -95 108 0
-7971 -95 -108 7972 0
-7971 95 108 7972 0
-7972 96 -109 0
-7973 7972 0
-7973 96 -109 0
-7973 -96 109 0
-7972 -96 -109 7973 0
-7972 96 109 7973 0
-7973 97 -110 0
-7974 7973 0
-7974 97 -110 0
-7974 -97 110 0
-7973 -97 -110 7974 0
-7973 97 110 7974 0
-7974 98 -111 0
-7975 7974 0
-7975 98 -111 0
-7975 -98 111 0
-7974 -98 -111 7975 0
-7974 98 111 7975 0
-7975 99 -112 0
-7976 7975 0
-7976 99 -112 0
-7976 -99 112 0
-7975 -99 -112 7976 0
-7975 99 112 7976 0
-7976 100 -113 0
-7977 7976 0
-7977 100 -113 0
-7977 -100 113 0
-7976 -100 -113 7977 0
-7976 100 113 7977 0
-7977 101 -114 0
-7978 7977 0
-7978 101 -114 0
-7978 -101 114 0
-7977 -101 -114 7978 0
-7977 101 114 7978 0
-7978 102 -115 0
-7979 7978 0
-7979 102 -115 0
-7979 -102 115 0
-7978 -102 -115 7979 0
-7978 102 115 7979 0
-7979 103 -116 0
-7980 7979 0
-7980 103 -116 0
-7980 -103 116 0
-7979 -103 -116 7980 0
-7979 103 116 7980 0
-7980 104 -117 0
-7981 7980 0
-7981 104 -117 0
-7981 -104 117 0
-7980 -104 -117 7981 0
-7980 104 117 7981 0
7982 0
-7982 105 -118 0
-7983 7982 0
-7983 105 -118 0
-7983 -105 118 0
-7982 -105 -118 7983 0
-7982 105 118 7983 0
-7983 106 -119 0
-7984 7983 0
-7984 106 -119 0
-7984 -106 119 0
-7983 -106 -119 7984 0
-7983 106 119 7984 0
-7984 107 -120 0
-7985 7984 0
-7985 107 -120 0
-7985 -107 120 0
-7984 -107 -120 7985 0
-7984 107 120 7985 0
-7985 108 -121 0
-7986 7985 0
-7986 108 -121 0
-7986 -108 121 0
-7985 -108 -121 7986 0
-7985 108 121 7986 0
-7986 109 -122 0
-7987 7986 0
-7987 109 -122 0
-7987 -109 122 0
-7986 -109 -122 7987 0
-7986 109 122 7987 0
-7987 110 -123 0
-7988 7987 0
-7988 110 -123 0
-7988 -110 123 0
-7987 -110 -123 7988 0
-7987 110 123 7988 0
-7988 111 -124 0
-7989 7988 0
-7989 111 -124 0
-7989 -111 124 0
-7988 -111 -124 7989 0
-7988 111 124 7989 0
-7989 112 -125 0
-7990 7989 0
-7990 112 -125 0
-7990 -112 125 0
-7989 -112 -125 7990 0
-7989 112 125 7990 0
-7990 113 -126 0
-7991 7990 0
-7991 113 -126 0
-7991 -113 126 0
-7990 -113 -126 7991 0
-7990 113 126 7991 0
-7991 114 -127 0
-7992 7991 0
-7992 114 -127 0
-7992 -114 127 0
-7991 -114 -127 7992 0
-7991 114 127 7992 0
-7992 115 -128 0
-7993 7992 0
-7993 115 -128 0
-7993 -115 128 0
-7992 -115 -128 7993 0
-7992 115 128 7993 0
-7993 116 -129 0
-7994 7993 0
-7994 116 -129 0
-7994 -116 129 0
-7993 -116 -129 7994 0
-7993 116 129 7994 0
-7994 117 -130 0
-7995 7994 0
-7995 117 -130 0
-7995 -117 130 0
-7994 -117 -130 7995 0
-7994 117 130 7995 0
7996 0
-7996 118 -131 0
-7997 7996 0
-7997 118 -131 0
-7997 -118 131 0
-7996 -118 -131 7997 0
-7996 118 131 7997 0
-7997 119 -132 0
-7998 7997 0
-7998 119 -132 0
-7998 -119 132 0
-7997 -119 -132 7998 0
-7997 119 132 7998 0
-7998 120 -133 0
-7999 7998 0
-7999 120 -133 0
-7999 -120 133 0
-7998 -120 -133 7999 0
-7998 120 133 7999 0
-7999 121 -134 0
-8000 7999 0
-8000 121 -134 0
-8000 -121 134 0
-7999 -121 -134 8000 0
-7999 121 134 8000 0
-8000 122 -135 0
-8001 8000 0
-8001 122 -135 0
-8001 -122 135 0
-8000 -122 -135 8001 0
-8000 122 135 8001 0
-8001 123 -136 0
-8002 8001 0
-8002 123 -136 0
-8002 -123 136 0
-8001 -123 -136 8002 0
-8001 123 136 8002 0
-8002 124 -137 0
-8003 8002 0
-8003 124 -137 0
-8003 -124 137 0
-8002 -124 -137 8003 0
-8002 124 137 8003 0
-8003 125 -138 0
-8004 8003 0
-8004 125 -138 0
-8004 -125 138 0
-8003 -125 -138 8004 0
-8003 125 138 8004 0
-8004 126 -139 0
-8005 8004 0
-8005 126 -139 0
-8005 -126 139 0
-8004 -126 -139 8005 0
-8004 126 139 8005 0
-8005 127 -140 0
-8006 8005 0
-8006 127 -140 0
-8006 -127 140 0
-8005 -127 -140 8006 0
-8005 127 140 8006 0
-8006 128 -141 0
-8007 8006 0
-8007 128 -141 0
-8007 -128 141 0
-8006 -128 -141 8007 0
-8006 128 141 8007 0
-8007 129 -142 0
-8008 8007 0
-8008 129 -142 0
-8008 -129 142 0
-8007 -129 -142 8008 0
-8007 129 142 8008 0
-8008 130 -143 0
-8009 8008 0
-8009 130 -143 0
-8009 -130 143 0
-8008 -130 -143 8009 0
-8008 130 143 8009 0
8010 0
-8010 131 -144 0
-8011 8010 0
-8011 131 -144 0
-8011 -131 144 0
-8010 -131 -144 8011 0
-8010 131 144 8011 0
-8011 132 -145 0
-8012 8011 0
-8012 132 -145 0
-8012 -132 145 0
-8011 -132 -145 8012 0
-8011 132 145 8012 0
-8012 133 -146 0
-8013 8012 0
-8013 133 -146 0
-8013 -133 146 0
-8012 -133 -146 8013 0
-8012 133 146 8013 0
-8013 134 -147 0
-8014 8013 0
-8014 134 -147 0
-8014 -134 147 0
-8013 -134 -147 8014 0
-8013 134 147 8014 0
-8014 135 -148 0
-8015 8014 0
-8015 135 -148 0
-8015 -135 148 0
-8014 -135 -148 8015 0
-8014 135 148 8015 0
-8015 136 -149 0
-8016 8015 0
-8016 136 -149 0
-8016 -136 149 0
-8015 -136 -149 8016 0
-8015 136 149 8016 0
-8016 137 -150 0
-8017 8016 0
-8017 137 -150 0
-8017 -137 150 0
-8016 -137 -150 8017 0
-8016 137 150 8017 0
-8017 138 -151 0
-8018 8017 0
-8018 138 -151 0
-8018 -138 151 0
-8017 -138 -151 8018 0
-8017 138 151 8018 0
-8018 139 -152 0
-8019 8018 0
-8019 139 -152 0
-8019 -139 152 0
-8018 -139 -152 8019 0
-8018 139 152 8019 0
-8019 140 -153 0
-8020 8019 0
-8020 140 -153 0
-8020 -140 153 0
-8019 -140 -153 8020 0
-8019 140 153 8020 0
-8020 141 -154 0
-8021 8020 0
-8021 141 -154 0
-8021 -141 154 0
-8020 -141 -154 8021 0
-8020 141 154 8021 0
-8021 142 -155 0
-8022 8021 0
-8022 142 -155 0
-8022 -142 155 0
-8021 -142 -155 8022 0
-8021 142 155 8022 0
-8022 143 -156 0
-8023 8022 0
-8023 143 -156 0
-8023 -143 156 0
-8022 -143 -156 8023 0
-8022 143 156 8023 0
8024 0
-8024 144 -157 0
-8025 8024 0
-8025 144 -157 0
-8025 -144 157 0
-8024 -144 -157 8025 0
-8024 144 157 8025 0
-8025 145 -158 0
-8026 8025 0
-8026 145 -158 0
-8026 -145 158 0
-8025 -145 -158 8026 0
-8025 145 158 8026 0
-8026 146 -159 0
-8027 8026 0
-8027 146 -159 0
-8027 -146 159 0
-8026 -146 -159 8027 0
-8026 146 159 8027 0
-8027 147 -160 0
-8028 8027 0
-8028 147 -160 0
-8028 -147 160 0
-8027 -147 -160 8028 0
-8027 147 160 8028 0
-8028 148 -161 0
-8029 8028 0
-8029 148 -161 0
-8029 -148 161 0
-8028 -148 -161 8029 0
-8028 148 161 8029 0
-8029 149 -162 0
-8030 8029 0
-8030 149 -162 0
-8030 -149 162 0
-8029 -149 -162 8030 0
-8029 149 162 8030 0
-8030 150 -163 0
-8031 8030 0
-8031 150 -163 0
-8031 -150 163 0
-8030 -150 -163 8031 0
-8030 150 163 8031 0
-8031 151 -164 0
-8032 8031 0
-8032 151 -164 0
-8032 -151 164 0
-8031 -151 -164 8032 0
-8031 151 164 8032 0
-8032 152 -165 0
-8033 8032 0
-8033 152 -165 0
-8033 -152 165 0
-8032 -152 -165 8033 0
-8032 152 165 8033 0
-8033 153 -166 0
-8034 8033 0
-8034 153 -166 0
-8034 -153 166 0
-8033 -153 -166 8034 0
-8033 153 166 8034 0
-8034 154 -167 0
-8035 8034 0
-8035 154 -167 0
-8035 -154 167 0
-8034 -154 -167 8035 0
-8034 154 167 8035 0
-8035 155 -168 0
-8036 8035 0
-8036 155 -168 0
-8036 -155 168 0
-8035 -155 -168 8036 0
-8035 155 168 8036 0
-8036 156 -169 0
-8037 8036 0
-8037 156 -169 0
-8037 -156 169 0
-8036 -156 -169 8037 0
-8036 156 169 8037 0
