p cnf 2890 5612
1 85 0
-85 86 0
2 -85 87 0
-87 88 0
3 -87 89 0
-89 90 0
4 -89 91 0
-91 92 0
5 -91 93 0
-93 94 0
6 -93 95 0
-95 96 0
7 -95 97 0
-97 98 0
8 -97 99 0
-99 100 0
9 -99 101 0
-101 102 0
10 -101 103 0
-103 104 0
11 -103 105 0
-105 106 0
12 -105 107 0
-107 108 0
13 -107 109 0
-109 110 0
14 -109 111 0
-111 112 0
15 -111 113 0
-113 114 0
16 -113 115 0
-115 116 0
17 -115 117 0
-117 118 0
18 -117 119 0
-119 120 0
19 -119 121 0
-121 122 0
20 -121 123 0
-123 124 0
21 -123 125 0
-125 126 0
22 -125 127 0
-127 128 0
23 -127 129 0
-129 130 0
24 -129 0
2 86 0
-86 131 0
3 -86 88 0
-88 132 0
4 -88 90 0
-90 133 0
5 -90 92 0
-92 134 0
6 -92 94 0
-94 135 0
7 -94 96 0
-96 136 0
8 -96 98 0
-98 137 0
9 -98 100 0
-100 138 0
10 -100 102 0
-102 139 0
11 -102 104 0
-104 140 0
12 -104 106 0
-106 141 0
13 -106 108 0
-108 142 0
14 -108 110 0
-110 143 0
15 -110 112 0
-112 144 0
16 -112 114 0
-114 145 0
17 -114 116 0
-116 146 0
18 -116 118 0
-118 147 0
19 -118 120 0
-120 148 0
20 -120 122 0
-122 149 0
21 -122 124 0
-124 150 0
22 -124 126 0
-126 151 0
23 -126 128 0
-128 152 0
24 -128 130 0
-130 153 0
25 -130 0
3 131 0
-131 154 0
4 -131 132 0
-132 155 0
5 -132 133 0
-133 156 0
6 -133 134 0
-134 157 0
7 -134 135 0
-135 158 0
8 -135 136 0
-136 159 0
9 -136 137 0
-137 160 0
10 -137 138 0
-138 161 0
11 -138 139 0
-139 162 0
12 -139 140 0
-140 163 0
13 -140 141 0
-141 164 0
14 -141 142 0
-142 165 0
15 -142 143 0
-143 166 0
16 -143 144 0
-144 167 0
17 -144 145 0
-145 168 0
18 -145 146 0
-146 169 0
19 -146 147 0
-147 170 0
20 -147 148 0
-148 171 0
21 -148 149 0
-149 172 0
22 -149 150 0
-150 173 0
23 -150 151 0
-151 174 0
24 -151 152 0
-152 175 0
25 -152 153 0
-153 176 0
26 -153 0
4 154 0
-154 177 0
5 -154 155 0
-155 178 0
6 -155 156 0
-156 179 0
7 -156 157 0
-157 180 0
8 -157 158 0
-158 181 0
9 -158 159 0
-159 182 0
10 -159 160 0
-160 183 0
11 -160 161 0
-161 184 0
12 -161 162 0
-162 185 0
13 -162 163 0
-163 186 0
14 -163 164 0
-164 187 0
15 -164 165 0
-165 188 0
16 -165 166 0
-166 189 0
17 -166 167 0
-167 190 0
18 -167 168 0
-168 191 0
19 -168 169 0
-169 192 0
20 -169 170 0
-170 193 0
21 -170 171 0
-171 194 0
22 -171 172 0
-172 195 0
23 -172 173 0
-173 196 0
24 -173 174 0
-174 197 0
25 -174 175 0
-175 198 0
26 -175 176 0
-176 199 0
27 -176 0
5 177 0
-177 200 0
6 -177 178 0
-178 201 0
7 -178 179 0
-179 202 0
8 -179 180 0
-180 203 0
9 -180 181 0
-181 204 0
10 -181 182 0
-182 205 0
11 -182 183 0
-183 206 0
12 -183 184 0
-184 207 0
13 -184 185 0
-185 208 0
14 -185 186 0
-186 209 0
15 -186 187 0
-187 210 0
16 -187 188 0
-188 211 0
17 -188 189 0
-189 212 0
18 -189 190 0
-190 213 0
19 -190 191 0
-191 214 0
20 -191 192 0
-192 215 0
21 -192 193 0
-193 216 0
22 -193 194 0
-194 217 0
23 -194 195 0
-195 218 0
24 -195 196 0
-196 219 0
25 -196 197 0
-197 220 0
26 -197 198 0
-198 221 0
27 -198 199 0
-199 222 0
28 -199 0
6 200 0
-200 223 0
7 -200 201 0
-201 224 0
8 -201 202 0
-202 225 0
9 -202 203 0
-203 226 0
10 -203 204 0
-204 227 0
11 -204 205 0
-205 228 0
12 -205 206 0
-206 229 0
13 -206 207 0
-207 230 0
14 -207 208 0
-208 231 0
15 -208 209 0
-209 232 0
16 -209 210 0
-210 233 0
17 -210 211 0
-211 234 0
18 -211 212 0
-212 235 0
19 -212 213 0
-213 236 0
20 -213 214 0
-214 237 0
21 -214 215 0
-215 238 0
22 -215 216 0
-216 239 0
23 -216 217 0
-217 240 0
24 -217 218 0
-218 241 0
25 -218 219 0
-219 242 0
26 -219 220 0
-220 243 0
27 -220 221 0
-221 244 0
28 -221 222 0
-222 245 0
29 -222 0
7 223 0
-223 246 0
8 -223 224 0
-224 247 0
9 -224 225 0
-225 248 0
10 -225 226 0
-226 249 0
11 -226 227 0
-227 250 0
12 -227 228 0
-228 251 0
13 -228 229 0
-229 252 0
14 -229 230 0
-230 253 0
15 -230 231 0
-231 254 0
16 -231 232 0
-232 255 0
17 -232 233 0
-233 256 0
18 -233 234 0
-234 257 0
19 -234 235 0
-235 258 0
20 -235 236 0
-236 259 0
21 -236 237 0
-237 260 0
22 -237 238 0
-238 261 0
23 -238 239 0
-239 262 0
24 -239 240 0
-240 263 0
25 -240 241 0
-241 264 0
26 -241 242 0
-242 265 0
27 -242 243 0
-243 266 0
28 -243 244 0
-244 267 0
29 -244 245 0
-245 268 0
30 -245 0
8 246 0
-246 269 0
9 -246 247 0
-247 270 0
10 -247 248 0
-248 271 0
11 -248 249 0
-249 272 0
12 -249 250 0
-250 273 0
13 -250 251 0
-251 274 0
14 -251 252 0
-252 275 0
15 -252 253 0
-253 276 0
16 -253 254 0
-254 277 0
17 -254 255 0
-255 278 0
18 -255 256 0
-256 279 0
19 -256 257 0
-257 280 0
20 -257 258 0
-258 281 0
21 -258 259 0
-259 282 0
22 -259 260 0
-260 283 0
23 -260 261 0
-261 284 0
24 -261 262 0
-262 285 0
25 -262 263 0
-263 286 0
26 -263 264 0
-264 287 0
27 -264 265 0
-265 288 0
28 -265 266 0
-266 289 0
29 -266 267 0
-267 290 0
30 -267 268 0
-268 291 0
31 -268 0
9 269 0
-269 292 0
10 -269 270 0
-270 293 0
11 -270 271 0
-271 294 0
12 -271 272 0
-272 295 0
13 -272 273 0
-273 296 0
14 -273 274 0
-274 297 0
15 -274 275 0
-275 298 0
16 -275 276 0
-276 299 0
17 -276 277 0
-277 300 0
18 -277 278 0
-278 301 0
19 -278 279 0
-279 302 0
20 -279 280 0
-280 303 0
21 -280 281 0
-281 304 0
22 -281 282 0
-282 305 0
23 -282 283 0
-283 306 0
24 -283 284 0
-284 307 0
25 -284 285 0
-285 308 0
26 -285 286 0
-286 309 0
27 -286 287 0
-287 310 0
28 -287 288 0
-288 311 0
29 -288 289 0
-289 312 0
30 -289 290 0
-290 313 0
31 -290 291 0
-291 314 0
32 -291 0
10 292 0
-292 315 0
11 -292 293 0
-293 316 0
12 -293 294 0
-294 317 0
13 -294 295 0
-295 318 0
14 -295 296 0
-296 319 0
15 -296 297 0
-297 320 0
16 -297 298 0
-298 321 0
17 -298 299 0
-299 322 0
18 -299 300 0
-300 323 0
19 -300 301 0
-301 324 0
20 -301 302 0
-302 325 0
21 -302 303 0
-303 326 0
22 -303 304 0
-304 327 0
23 -304 305 0
-305 328 0
24 -305 306 0
-306 329 0
25 -306 307 0
-307 330 0
26 -307 308 0
-308 331 0
27 -308 309 0
-309 332 0
28 -309 310 0
-310 333 0
29 -310 311 0
-311 334 0
30 -311 312 0
-312 335 0
31 -312 313 0
-313 336 0
32 -313 314 0
-314 337 0
33 -314 0
11 315 0
-315 338 0
12 -315 316 0
-316 339 0
13 -316 317 0
-317 340 0
14 -317 318 0
-318 341 0
15 -318 319 0
-319 342 0
16 -319 320 0
-320 343 0
17 -320 321 0
-321 344 0
18 -321 322 0
-322 345 0
19 -322 323 0
-323 346 0
20 -323 324 0
-324 347 0
21 -324 325 0
-325 348 0
22 -325 326 0
-326 349 0
23 -326 327 0
-327 350 0
24 -327 328 0
-328 351 0
25 -328 329 0
-329 352 0
26 -329 330 0
-330 353 0
27 -330 331 0
-331 354 0
28 -331 332 0
-332 355 0
29 -332 333 0
-333 356 0
30 -333 334 0
-334 357 0
31 -334 335 0
-335 358 0
32 -335 336 0
-336 359 0
33 -336 337 0
-337 360 0
34 -337 0
12 338 0
-338 361 0
13 -338 339 0
-339 362 0
14 -339 340 0
-340 363 0
15 -340 341 0
-341 364 0
16 -341 342 0
-342 365 0
17 -342 343 0
-343 366 0
18 -343 344 0
-344 367 0
19 -344 345 0
-345 368 0
20 -345 346 0
-346 369 0
21 -346 347 0
-347 370 0
22 -347 348 0
-348 371 0
23 -348 349 0
-349 372 0
24 -349 350 0
-350 373 0
25 -350 351 0
-351 374 0
26 -351 352 0
-352 375 0
27 -352 353 0
-353 376 0
28 -353 354 0
-354 377 0
29 -354 355 0
-355 378 0
30 -355 356 0
-356 379 0
31 -356 357 0
-357 380 0
32 -357 358 0
-358 381 0
33 -358 359 0
-359 382 0
34 -359 360 0
-360 383 0
35 -360 0
13 361 0
-361 384 0
14 -361 362 0
-362 385 0
15 -362 363 0
-363 386 0
16 -363 364 0
-364 387 0
17 -364 365 0
-365 388 0
18 -365 366 0
-366 389 0
19 -366 367 0
-367 390 0
20 -367 368 0
-368 391 0
21 -368 369 0
-369 392 0
22 -369 370 0
-370 393 0
23 -370 371 0
-371 394 0
24 -371 372 0
-372 395 0
25 -372 373 0
-373 396 0
26 -373 374 0
-374 397 0
27 -374 375 0
-375 398 0
28 -375 376 0
-376 399 0
29 -376 377 0
-377 400 0
30 -377 378 0
-378 401 0
31 -378 379 0
-379 402 0
32 -379 380 0
-380 403 0
33 -380 381 0
-381 404 0
34 -381 382 0
-382 405 0
35 -382 383 0
-383 406 0
36 -383 0
14 384 0
-384 407 0
15 -384 385 0
-385 408 0
16 -385 386 0
-386 409 0
17 -386 387 0
-387 410 0
18 -387 388 0
-388 411 0
19 -388 389 0
-389 412 0
20 -389 390 0
-390 413 0
21 -390 391 0
-391 414 0
22 -391 392 0
-392 415 0
23 -392 393 0
-393 416 0
24 -393 394 0
-394 417 0
25 -394 395 0
-395 418 0
26 -395 396 0
-396 419 0
27 -396 397 0
-397 420 0
28 -397 398 0
-398 421 0
29 -398 399 0
-399 422 0
30 -399 400 0
-400 423 0
31 -400 401 0
-401 424 0
32 -401 402 0
-402 425 0
33 -402 403 0
-403 426 0
34 -403 404 0
-404 427 0
35 -404 405 0
-405 428 0
36 -405 406 0
-406 429 0
37 -406 0
15 407 0
-407 430 0
16 -407 408 0
-408 431 0
17 -408 409 0
-409 432 0
18 -409 410 0
-410 433 0
19 -410 411 0
-411 434 0
20 -411 412 0
-412 435 0
21 -412 413 0
-413 436 0
22 -413 414 0
-414 437 0
23 -414 415 0
-415 438 0
24 -415 416 0
-416 439 0
25 -416 417 0
-417 440 0
26 -417 418 0
-418 441 0
27 -418 419 0
-419 442 0
28 -419 420 0
-420 443 0
29 -420 421 0
-421 444 0
30 -421 422 0
-422 445 0
31 -422 423 0
-423 446 0
32 -423 424 0
-424 447 0
33 -424 425 0
-425 448 0
34 -425 426 0
-426 449 0
35 -426 427 0
-427 450 0
36 -427 428 0
-428 451 0
37 -428 429 0
-429 452 0
38 -429 0
16 430 0
-430 453 0
17 -430 431 0
-431 454 0
18 -431 432 0
-432 455 0
19 -432 433 0
-433 456 0
20 -433 434 0
-434 457 0
21 -434 435 0
-435 458 0
22 -435 436 0
-436 459 0
23 -436 437 0
-437 460 0
24 -437 438 0
-438 461 0
25 -438 439 0
-439 462 0
26 -439 440 0
-440 463 0
27 -440 441 0
-441 464 0
28 -441 442 0
-442 465 0
29 -442 443 0
-443 466 0
30 -443 444 0
-444 467 0
31 -444 445 0
-445 468 0
32 -445 446 0
-446 469 0
33 -446 447 0
-447 470 0
34 -447 448 0
-448 471 0
35 -448 449 0
-449 472 0
36 -449 450 0
-450 473 0
37 -450 451 0
-451 474 0
38 -451 452 0
-452 475 0
39 -452 0
17 453 0
-453 476 0
18 -453 454 0
-454 477 0
19 -454 455 0
-455 478 0
20 -455 456 0
-456 479 0
21 -456 457 0
-457 480 0
22 -457 458 0
-458 481 0
23 -458 459 0
-459 482 0
24 -459 460 0
-460 483 0
25 -460 461 0
-461 484 0
26 -461 462 0
-462 485 0
27 -462 463 0
-463 486 0
28 -463 464 0
-464 487 0
29 -464 465 0
-465 488 0
30 -465 466 0
-466 489 0
31 -466 467 0
-467 490 0
32 -467 468 0
-468 491 0
33 -468 469 0
-469 492 0
34 -469 470 0
-470 493 0
35 -470 471 0
-471 494 0
36 -471 472 0
-472 495 0
37 -472 473 0
-473 496 0
38 -473 474 0
-474 497 0
39 -474 475 0
-475 498 0
40 -475 0
18 476 0
-476 499 0
19 -476 477 0
-477 500 0
20 -477 478 0
-478 501 0
21 -478 479 0
-479 502 0
22 -479 480 0
-480 503 0
23 -480 481 0
-481 504 0
24 -481 482 0
-482 505 0
25 -482 483 0
-483 506 0
26 -483 484 0
-484 507 0
27 -484 485 0
-485 508 0
28 -485 486 0
-486 509 0
29 -486 487 0
-487 510 0
30 -487 488 0
-488 511 0
31 -488 489 0
-489 512 0
32 -489 490 0
-490 513 0
33 -490 491 0
-491 514 0
34 -491 492 0
-492 515 0
35 -492 493 0
-493 516 0
36 -493 494 0
-494 517 0
37 -494 495 0
-495 518 0
38 -495 496 0
-496 519 0
39 -496 497 0
-497 520 0
40 -497 498 0
-498 521 0
41 -498 0
19 499 0
-499 522 0
20 -499 500 0
-500 523 0
21 -500 501 0
-501 524 0
22 -501 502 0
-502 525 0
23 -502 503 0
-503 526 0
24 -503 504 0
-504 527 0
25 -504 505 0
-505 528 0
26 -505 506 0
-506 529 0
27 -506 507 0
-507 530 0
28 -507 508 0
-508 531 0
29 -508 509 0
-509 532 0
30 -509 510 0
-510 533 0
31 -510 511 0
-511 534 0
32 -511 512 0
-512 535 0
33 -512 513 0
-513 536 0
34 -513 514 0
-514 537 0
35 -514 515 0
-515 538 0
36 -515 516 0
-516 539 0
37 -516 517 0
-517 540 0
38 -517 518 0
-518 541 0
39 -518 519 0
-519 542 0
40 -519 520 0
-520 543 0
41 -520 521 0
-521 544 0
42 -521 0
20 522 0
-522 545 0
21 -522 523 0
-523 546 0
22 -523 524 0
-524 547 0
23 -524 525 0
-525 548 0
24 -525 526 0
-526 549 0
25 -526 527 0
-527 550 0
26 -527 528 0
-528 551 0
27 -528 529 0
-529 552 0
28 -529 530 0
-530 553 0
29 -530 531 0
-531 554 0
30 -531 532 0
-532 555 0
31 -532 533 0
-533 556 0
32 -533 534 0
-534 557 0
33 -534 535 0
-535 558 0
34 -535 536 0
-536 559 0
35 -536 537 0
-537 560 0
36 -537 538 0
-538 561 0
37 -538 539 0
-539 562 0
38 -539 540 0
-540 563 0
39 -540 541 0
-541 564 0
40 -541 542 0
-542 565 0
41 -542 543 0
-543 566 0
42 -543 544 0
-544 567 0
43 -544 0
21 545 0
-545 568 0
22 -545 546 0
-546 569 0
23 -546 547 0
-547 570 0
24 -547 548 0
-548 571 0
25 -548 549 0
-549 572 0
26 -549 550 0
-550 573 0
27 -550 551 0
-551 574 0
28 -551 552 0
-552 575 0
29 -552 553 0
-553 576 0
30 -553 554 0
-554 577 0
31 -554 555 0
-555 578 0
32 -555 556 0
-556 579 0
33 -556 557 0
-557 580 0
34 -557 558 0
-558 581 0
35 -558 559 0
-559 582 0
36 -559 560 0
-560 583 0
37 -560 561 0
-561 584 0
38 -561 562 0
-562 585 0
39 -562 563 0
-563 586 0
40 -563 564 0
-564 587 0
41 -564 565 0
-565 588 0
42 -565 566 0
-566 589 0
43 -566 567 0
-567 590 0
44 -567 0
22 568 0
-568 591 0
23 -568 569 0
-569 592 0
24 -569 570 0
-570 593 0
25 -570 571 0
-571 594 0
26 -571 572 0
-572 595 0
27 -572 573 0
-573 596 0
28 -573 574 0
-574 597 0
29 -574 575 0
-575 598 0
30 -575 576 0
-576 599 0
31 -576 577 0
-577 600 0
32 -577 578 0
-578 601 0
33 -578 579 0
-579 602 0
34 -579 580 0
-580 603 0
35 -580 581 0
-581 604 0
36 -581 582 0
-582 605 0
37 -582 583 0
-583 606 0
38 -583 584 0
-584 607 0
39 -584 585 0
-585 608 0
40 -585 586 0
-586 609 0
41 -586 587 0
-587 610 0
42 -587 588 0
-588 611 0
43 -588 589 0
-589 612 0
44 -589 590 0
-590 613 0
45 -590 0
23 591 0
-591 614 0
24 -591 592 0
-592 615 0
25 -592 593 0
-593 616 0
26 -593 594 0
-594 617 0
27 -594 595 0
-595 618 0
28 -595 596 0
-596 619 0
29 -596 597 0
-597 620 0
30 -597 598 0
-598 621 0
31 -598 599 0
-599 622 0
32 -599 600 0
-600 623 0
33 -600 601 0
-601 624 0
34 -601 602 0
-602 625 0
35 -602 603 0
-603 626 0
36 -603 604 0
-604 627 0
37 -604 605 0
-605 628 0
38 -605 606 0
-606 629 0
39 -606 607 0
-607 630 0
40 -607 608 0
-608 631 0
41 -608 609 0
-609 632 0
42 -609 610 0
-610 633 0
43 -610 611 0
-611 634 0
44 -611 612 0
-612 635 0
45 -612 613 0
-613 636 0
46 -613 0
24 614 0
-614 637 0
25 -614 615 0
-615 638 0
26 -615 616 0
-616 639 0
27 -616 617 0
-617 640 0
28 -617 618 0
-618 641 0
29 -618 619 0
-619 642 0
30 -619 620 0
-620 643 0
31 -620 621 0
-621 644 0
32 -621 622 0
-622 645 0
33 -622 623 0
-623 646 0
34 -623 624 0
-624 647 0
35 -624 625 0
-625 648 0
36 -625 626 0
-626 649 0
37 -626 627 0
-627 650 0
38 -627 628 0
-628 651 0
39 -628 629 0
-629 652 0
40 -629 630 0
-630 653 0
41 -630 631 0
-631 654 0
42 -631 632 0
-632 655 0
43 -632 633 0
-633 656 0
44 -633 634 0
-634 657 0
45 -634 635 0
-635 658 0
46 -635 636 0
-636 659 0
47 -636 0
25 637 0
-637 660 0
26 -637 638 0
-638 661 0
27 -638 639 0
-639 662 0
28 -639 640 0
-640 663 0
29 -640 641 0
-641 664 0
30 -641 642 0
-642 665 0
31 -642 643 0
-643 666 0
32 -643 644 0
-644 667 0
33 -644 645 0
-645 668 0
34 -645 646 0
-646 669 0
35 -646 647 0
-647 670 0
36 -647 648 0
-648 671 0
37 -648 649 0
-649 672 0
38 -649 650 0
-650 673 0
39 -650 651 0
-651 674 0
40 -651 652 0
-652 675 0
41 -652 653 0
-653 676 0
42 -653 654 0
-654 677 0
43 -654 655 0
-655 678 0
44 -655 656 0
-656 679 0
45 -656 657 0
-657 680 0
46 -657 658 0
-658 681 0
47 -658 659 0
-659 682 0
48 -659 0
26 660 0
-660 683 0
27 -660 661 0
-661 684 0
28 -661 662 0
-662 685 0
29 -662 663 0
-663 686 0
30 -663 664 0
-664 687 0
31 -664 665 0
-665 688 0
32 -665 666 0
-666 689 0
33 -666 667 0
-667 690 0
34 -667 668 0
-668 691 0
35 -668 669 0
-669 692 0
36 -669 670 0
-670 693 0
37 -670 671 0
-671 694 0
38 -671 672 0
-672 695 0
39 -672 673 0
-673 696 0
40 -673 674 0
-674 697 0
41 -674 675 0
-675 698 0
42 -675 676 0
-676 699 0
43 -676 677 0
-677 700 0
44 -677 678 0
-678 701 0
45 -678 679 0
-679 702 0
46 -679 680 0
-680 703 0
47 -680 681 0
-681 704 0
48 -681 682 0
-682 705 0
49 -682 0
27 683 0
-683 706 0
28 -683 684 0
-684 707 0
29 -684 685 0
-685 708 0
30 -685 686 0
-686 709 0
31 -686 687 0
-687 710 0
32 -687 688 0
-688 711 0
33 -688 689 0
-689 712 0
34 -689 690 0
-690 713 0
35 -690 691 0
-691 714 0
36 -691 692 0
-692 715 0
37 -692 693 0
-693 716 0
38 -693 694 0
-694 717 0
39 -694 695 0
-695 718 0
40 -695 696 0
-696 719 0
41 -696 697 0
-697 720 0
42 -697 698 0
-698 721 0
43 -698 699 0
-699 722 0
44 -699 700 0
-700 723 0
45 -700 701 0
-701 724 0
46 -701 702 0
-702 725 0
47 -702 703 0
-703 726 0
48 -703 704 0
-704 727 0
49 -704 705 0
-705 728 0
50 -705 0
28 706 0
-706 729 0
29 -706 707 0
-707 730 0
30 -707 708 0
-708 731 0
31 -708 709 0
-709 732 0
32 -709 710 0
-710 733 0
33 -710 711 0
-711 734 0
34 -711 712 0
-712 735 0
35 -712 713 0
-713 736 0
36 -713 714 0
-714 737 0
37 -714 715 0
-715 738 0
38 -715 716 0
-716 739 0
39 -716 717 0
-717 740 0
40 -717 718 0
-718 741 0
41 -718 719 0
-719 742 0
42 -719 720 0
-720 743 0
43 -720 721 0
-721 744 0
44 -721 722 0
-722 745 0
45 -722 723 0
-723 746 0
46 -723 724 0
-724 747 0
47 -724 725 0
-725 748 0
48 -725 726 0
-726 749 0
49 -726 727 0
-727 750 0
50 -727 728 0
-728 751 0
51 -728 0
29 729 0
-729 752 0
30 -729 730 0
-730 753 0
31 -730 731 0
-731 754 0
32 -731 732 0
-732 755 0
33 -732 733 0
-733 756 0
34 -733 734 0
-734 757 0
35 -734 735 0
-735 758 0
36 -735 736 0
-736 759 0
37 -736 737 0
-737 760 0
38 -737 738 0
-738 761 0
39 -738 739 0
-739 762 0
40 -739 740 0
-740 763 0
41 -740 741 0
-741 764 0
42 -741 742 0
-742 765 0
43 -742 743 0
-743 766 0
44 -743 744 0
-744 767 0
45 -744 745 0
-745 768 0
46 -745 746 0
-746 769 0
47 -746 747 0
-747 770 0
48 -747 748 0
-748 771 0
49 -748 749 0
-749 772 0
50 -749 750 0
-750 773 0
51 -750 751 0
-751 774 0
52 -751 0
30 752 0
-752 775 0
31 -752 753 0
-753 776 0
32 -753 754 0
-754 777 0
33 -754 755 0
-755 778 0
34 -755 756 0
-756 779 0
35 -756 757 0
-757 780 0
36 -757 758 0
-758 781 0
37 -758 759 0
-759 782 0
38 -759 760 0
-760 783 0
39 -760 761 0
-761 784 0
40 -761 762 0
-762 785 0
41 -762 763 0
-763 786 0
42 -763 764 0
-764 787 0
43 -764 765 0
-765 788 0
44 -765 766 0
-766 789 0
45 -766 767 0
-767 790 0
46 -767 768 0
-768 791 0
47 -768 769 0
-769 792 0
48 -769 770 0
-770 793 0
49 -770 771 0
-771 794 0
50 -771 772 0
-772 795 0
51 -772 773 0
-773 796 0
52 -773 774 0
-774 797 0
53 -774 0
31 775 0
-775 798 0
32 -775 776 0
-776 799 0
33 -776 777 0
-777 800 0
34 -777 778 0
-778 801 0
35 -778 779 0
-779 802 0
36 -779 780 0
-780 803 0
37 -780 781 0
-781 804 0
38 -781 782 0
-782 805 0
39 -782 783 0
-783 806 0
40 -783 784 0
-784 807 0
41 -784 785 0
-785 808 0
42 -785 786 0
-786 809 0
43 -786 787 0
-787 810 0
44 -787 788 0
-788 811 0
45 -788 789 0
-789 812 0
46 -789 790 0
-790 813 0
47 -790 791 0
-791 814 0
48 -791 792 0
-792 815 0
49 -792 793 0
-793 816 0
50 -793 794 0
-794 817 0
51 -794 795 0
-795 818 0
52 -795 796 0
-796 819 0
53 -796 797 0
-797 820 0
54 -797 0
32 798 0
-798 821 0
33 -798 799 0
-799 822 0
34 -799 800 0
-800 823 0
35 -800 801 0
-801 824 0
36 -801 802 0
-802 825 0
37 -802 803 0
-803 826 0
38 -803 804 0
-804 827 0
39 -804 805 0
-805 828 0
40 -805 806 0
-806 829 0
41 -806 807 0
-807 830 0
42 -807 808 0
-808 831 0
43 -808 809 0
-809 832 0
44 -809 810 0
-810 833 0
45 -810 811 0
-811 834 0
46 -811 812 0
-812 835 0
47 -812 813 0
-813 836 0
48 -813 814 0
-814 837 0
49 -814 815 0
-815 838 0
50 -815 816 0
-816 839 0
51 -816 817 0
-817 840 0
52 -817 818 0
-818 841 0
53 -818 819 0
-819 842 0
54 -819 820 0
-820 843 0
55 -820 0
33 821 0
-821 844 0
34 -821 822 0
-822 845 0
35 -822 823 0
-823 846 0
36 -823 824 0
-824 847 0
37 -824 825 0
-825 848 0
38 -825 826 0
-826 849 0
39 -826 827 0
-827 850 0
40 -827 828 0
-828 851 0
41 -828 829 0
-829 852 0
42 -829 830 0
-830 853 0
43 -830 831 0
-831 854 0
44 -831 832 0
-832 855 0
45 -832 833 0
-833 856 0
46 -833 834 0
-834 857 0
47 -834 835 0
-835 858 0
48 -835 836 0
-836 859 0
49 -836 837 0
-837 860 0
50 -837 838 0
-838 861 0
51 -838 839 0
-839 862 0
52 -839 840 0
-840 863 0
53 -840 841 0
-841 864 0
54 -841 842 0
-842 865 0
55 -842 843 0
-843 866 0
56 -843 0
34 844 0
-844 867 0
35 -844 845 0
-845 868 0
36 -845 846 0
-846 869 0
37 -846 847 0
-847 870 0
38 -847 848 0
-848 871 0
39 -848 849 0
-849 872 0
40 -849 850 0
-850 873 0
41 -850 851 0
-851 874 0
42 -851 852 0
-852 875 0
43 -852 853 0
-853 876 0
44 -853 854 0
-854 877 0
45 -854 855 0
-855 878 0
46 -855 856 0
-856 879 0
47 -856 857 0
-857 880 0
48 -857 858 0
-858 881 0
49 -858 859 0
-859 882 0
50 -859 860 0
-860 883 0
51 -860 861 0
-861 884 0
52 -861 862 0
-862 885 0
53 -862 863 0
-863 886 0
54 -863 864 0
-864 887 0
55 -864 865 0
-865 888 0
56 -865 866 0
-866 889 0
57 -866 0
35 867 0
-867 890 0
36 -867 868 0
-868 891 0
37 -868 869 0
-869 892 0
38 -869 870 0
-870 893 0
39 -870 871 0
-871 894 0
40 -871 872 0
-872 895 0
41 -872 873 0
-873 896 0
42 -873 874 0
-874 897 0
43 -874 875 0
-875 898 0
44 -875 876 0
-876 899 0
45 -876 877 0
-877 900 0
46 -877 878 0
-878 901 0
47 -878 879 0
-879 902 0
48 -879 880 0
-880 903 0
49 -880 881 0
-881 904 0
50 -881 882 0
-882 905 0
51 -882 883 0
-883 906 0
52 -883 884 0
-884 907 0
53 -884 885 0
-885 908 0
54 -885 886 0
-886 909 0
55 -886 887 0
-887 910 0
56 -887 888 0
-888 911 0
57 -888 889 0
-889 912 0
58 -889 0
36 890 0
-890 913 0
37 -890 891 0
-891 914 0
38 -891 892 0
-892 915 0
39 -892 893 0
-893 916 0
40 -893 894 0
-894 917 0
41 -894 895 0
-895 918 0
42 -895 896 0
-896 919 0
43 -896 897 0
-897 920 0
44 -897 898 0
-898 921 0
45 -898 899 0
-899 922 0
46 -899 900 0
-900 923 0
47 -900 901 0
-901 924 0
48 -901 902 0
-902 925 0
49 -902 903 0
-903 926 0
50 -903 904 0
-904 927 0
51 -904 905 0
-905 928 0
52 -905 906 0
-906 929 0
53 -906 907 0
-907 930 0
54 -907 908 0
-908 931 0
55 -908 909 0
-909 932 0
56 -909 910 0
-910 933 0
57 -910 911 0
-911 934 0
58 -911 912 0
-912 935 0
59 -912 0
37 913 0
-913 936 0
38 -913 914 0
-914 937 0
39 -914 915 0
-915 938 0
40 -915 916 0
-916 939 0
41 -916 917 0
-917 940 0
42 -917 918 0
-918 941 0
43 -918 919 0
-919 942 0
44 -919 920 0
-920 943 0
45 -920 921 0
-921 944 0
46 -921 922 0
-922 945 0
47 -922 923 0
-923 946 0
48 -923 924 0
-924 947 0
49 -924 925 0
-925 948 0
50 -925 926 0
-926 949 0
51 -926 927 0
-927 950 0
52 -927 928 0
-928 951 0
53 -928 929 0
-929 952 0
54 -929 930 0
-930 953 0
55 -930 931 0
-931 954 0
56 -931 932 0
-932 955 0
57 -932 933 0
-933 956 0
58 -933 934 0
-934 957 0
59 -934 935 0
-935 958 0
60 -935 0
38 936 0
-936 959 0
39 -936 937 0
-937 960 0
40 -937 938 0
-938 961 0
41 -938 939 0
-939 962 0
42 -939 940 0
-940 963 0
43 -940 941 0
-941 964 0
44 -941 942 0
-942 965 0
45 -942 943 0
-943 966 0
46 -943 944 0
-944 967 0
47 -944 945 0
-945 968 0
48 -945 946 0
-946 969 0
49 -946 947 0
-947 970 0
50 -947 948 0
-948 971 0
51 -948 949 0
-949 972 0
52 -949 950 0
-950 973 0
53 -950 951 0
-951 974 0
54 -951 952 0
-952 975 0
55 -952 953 0
-953 976 0
56 -953 954 0
-954 977 0
57 -954 955 0
-955 978 0
58 -955 956 0
-956 979 0
59 -956 957 0
-957 980 0
60 -957 958 0
-958 981 0
61 -958 0
39 959 0
-959 982 0
40 -959 960 0
-960 983 0
41 -960 961 0
-961 984 0
42 -961 962 0
-962 985 0
43 -962 963 0
-963 986 0
44 -963 964 0
-964 987 0
45 -964 965 0
-965 988 0
46 -965 966 0
-966 989 0
47 -966 967 0
-967 990 0
48 -967 968 0
-968 991 0
49 -968 969 0
-969 992 0
50 -969 970 0
-970 993 0
51 -970 971 0
-971 994 0
52 -971 972 0
-972 995 0
53 -972 973 0
-973 996 0
54 -973 974 0
-974 997 0
55 -974 975 0
-975 998 0
56 -975 976 0
-976 999 0
57 -976 977 0
-977 1000 0
58 -977 978 0
-978 1001 0
59 -978 979 0
-979 1002 0
60 -979 980 0
-980 1003 0
61 -980 981 0
-981 1004 0
62 -981 0
40 982 0
-982 1005 0
41 -982 983 0
-983 1006 0
42 -983 984 0
-984 1007 0
43 -984 985 0
-985 1008 0
44 -985 986 0
-986 1009 0
45 -986 987 0
-987 1010 0
46 -987 988 0
-988 1011 0
47 -988 989 0
-989 1012 0
48 -989 990 0
-990 1013 0
49 -990 991 0
-991 1014 0
50 -991 992 0
-992 1015 0
51 -992 993 0
-993 1016 0
52 -993 994 0
-994 1017 0
53 -994 995 0
-995 1018 0
54 -995 996 0
-996 1019 0
55 -996 997 0
-997 1020 0
56 -997 998 0
-998 1021 0
57 -998 999 0
-999 1022 0
58 -999 1000 0
-1000 1023 0
59 -1000 1001 0
-1001 1024 0
60 -1001 1002 0
-1002 1025 0
61 -1002 1003 0
-1003 1026 0
62 -1003 1004 0
-1004 1027 0
63 -1004 0
41 1005 0
-1005 1028 0
42 -1005 1006 0
-1006 1029 0
43 -1006 1007 0
-1007 1030 0
44 -1007 1008 0
-1008 1031 0
45 -1008 1009 0
-1009 1032 0
46 -1009 1010 0
-1010 1033 0
47 -1010 1011 0
-1011 1034 0
48 -1011 1012 0
-1012 1035 0
49 -1012 1013 0
-1013 1036 0
50 -1013 1014 0
-1014 1037 0
51 -1014 1015 0
-1015 1038 0
52 -1015 1016 0
-1016 1039 0
53 -1016 1017 0
-1017 1040 0
54 -1017 1018 0
-1018 1041 0
55 -1018 1019 0
-1019 1042 0
56 -1019 1020 0
-1020 1043 0
57 -1020 1021 0
-1021 1044 0
58 -1021 1022 0
-1022 1045 0
59 -1022 1023 0
-1023 1046 0
60 -1023 1024 0
-1024 1047 0
61 -1024 1025 0
-1025 1048 0
62 -1025 1026 0
-1026 1049 0
63 -1026 1027 0
-1027 1050 0
64 -1027 0
42 1028 0
-1028 1051 0
43 -1028 1029 0
-1029 1052 0
44 -1029 1030 0
-1030 1053 0
45 -1030 1031 0
-1031 1054 0
46 -1031 1032 0
-1032 1055 0
47 -1032 1033 0
-1033 1056 0
48 -1033 1034 0
-1034 1057 0
49 -1034 1035 0
-1035 1058 0
50 -1035 1036 0
-1036 1059 0
51 -1036 1037 0
-1037 1060 0
52 -1037 1038 0
-1038 1061 0
53 -1038 1039 0
-1039 1062 0
54 -1039 1040 0
-1040 1063 0
55 -1040 1041 0
-1041 1064 0
56 -1041 1042 0
-1042 1065 0
57 -1042 1043 0
-1043 1066 0
58 -1043 1044 0
-1044 1067 0
59 -1044 1045 0
-1045 1068 0
60 -1045 1046 0
-1046 1069 0
61 -1046 1047 0
-1047 1070 0
62 -1047 1048 0
-1048 1071 0
63 -1048 1049 0
-1049 1072 0
64 -1049 1050 0
-1050 1073 0
65 -1050 0
43 1051 0
-1051 1074 0
44 -1051 1052 0
-1052 1075 0
45 -1052 1053 0
-1053 1076 0
46 -1053 1054 0
-1054 1077 0
47 -1054 1055 0
-1055 1078 0
48 -1055 1056 0
-1056 1079 0
49 -1056 1057 0
-1057 1080 0
50 -1057 1058 0
-1058 1081 0
51 -1058 1059 0
-1059 1082 0
52 -1059 1060 0
-1060 1083 0
53 -1060 1061 0
-1061 1084 0
54 -1061 1062 0
-1062 1085 0
55 -1062 1063 0
-1063 1086 0
56 -1063 1064 0
-1064 1087 0
57 -1064 1065 0
-1065 1088 0
58 -1065 1066 0
-1066 1089 0
59 -1066 1067 0
-1067 1090 0
60 -1067 1068 0
-1068 1091 0
61 -1068 1069 0
-1069 1092 0
62 -1069 1070 0
-1070 1093 0
63 -1070 1071 0
-1071 1094 0
64 -1071 1072 0
-1072 1095 0
65 -1072 1073 0
-1073 1096 0
66 -1073 0
44 1074 0
-1074 1097 0
45 -1074 1075 0
-1075 1098 0
46 -1075 1076 0
-1076 1099 0
47 -1076 1077 0
-1077 1100 0
48 -1077 1078 0
-1078 1101 0
49 -1078 1079 0
-1079 1102 0
50 -1079 1080 0
-1080 1103 0
51 -1080 1081 0
-1081 1104 0
52 -1081 1082 0
-1082 1105 0
53 -1082 1083 0
-1083 1106 0
54 -1083 1084 0
-1084 1107 0
55 -1084 1085 0
-1085 1108 0
56 -1085 1086 0
-1086 1109 0
57 -1086 1087 0
-1087 1110 0
58 -1087 1088 0
-1088 1111 0
59 -1088 1089 0
-1089 1112 0
60 -1089 1090 0
-1090 1113 0
61 -1090 1091 0
-1091 1114 0
62 -1091 1092 0
-1092 1115 0
63 -1092 1093 0
-1093 1116 0
64 -1093 1094 0
-1094 1117 0
65 -1094 1095 0
-1095 1118 0
66 -1095 1096 0
-1096 1119 0
67 -1096 0
45 1097 0
-1097 1120 0
46 -1097 1098 0
-1098 1121 0
47 -1098 1099 0
-1099 1122 0
48 -1099 1100 0
-1100 1123 0
49 -1100 1101 0
-1101 1124 0
50 -1101 1102 0
-1102 1125 0
51 -1102 1103 0
-1103 1126 0
52 -1103 1104 0
-1104 1127 0
53 -1104 1105 0
-1105 1128 0
54 -1105 1106 0
-1106 1129 0
55 -1106 1107 0
-1107 1130 0
56 -1107 1108 0
-1108 1131 0
57 -1108 1109 0
-1109 1132 0
58 -1109 1110 0
-1110 1133 0
59 -1110 1111 0
-1111 1134 0
60 -1111 1112 0
-1112 1135 0
61 -1112 1113 0
-1113 1136 0
62 -1113 1114 0
-1114 1137 0
63 -1114 1115 0
-1115 1138 0
64 -1115 1116 0
-1116 1139 0
65 -1116 1117 0
-1117 1140 0
66 -1117 1118 0
-1118 1141 0
67 -1118 1119 0
-1119 1142 0
68 -1119 0
46 1120 0
-1120 1143 0
47 -1120 1121 0
-1121 1144 0
48 -1121 1122 0
-1122 1145 0
49 -1122 1123 0
-1123 1146 0
50 -1123 1124 0
-1124 1147 0
51 -1124 1125 0
-1125 1148 0
52 -1125 1126 0
-1126 1149 0
53 -1126 1127 0
-1127 1150 0
54 -1127 1128 0
-1128 1151 0
55 -1128 1129 0
-1129 1152 0
56 -1129 1130 0
-1130 1153 0
57 -1130 1131 0
-1131 1154 0
58 -1131 1132 0
-1132 1155 0
59 -1132 1133 0
-1133 1156 0
60 -1133 1134 0
-1134 1157 0
61 -1134 1135 0
-1135 1158 0
62 -1135 1136 0
-1136 1159 0
63 -1136 1137 0
-1137 1160 0
64 -1137 1138 0
-1138 1161 0
65 -1138 1139 0
-1139 1162 0
66 -1139 1140 0
-1140 1163 0
67 -1140 1141 0
-1141 1164 0
68 -1141 1142 0
-1142 1165 0
69 -1142 0
47 1143 0
-1143 1166 0
48 -1143 1144 0
-1144 1167 0
49 -1144 1145 0
-1145 1168 0
50 -1145 1146 0
-1146 1169 0
51 -1146 1147 0
-1147 1170 0
52 -1147 1148 0
-1148 1171 0
53 -1148 1149 0
-1149 1172 0
54 -1149 1150 0
-1150 1173 0
55 -1150 1151 0
-1151 1174 0
56 -1151 1152 0
-1152 1175 0
57 -1152 1153 0
-1153 1176 0
58 -1153 1154 0
-1154 1177 0
59 -1154 1155 0
-1155 1178 0
60 -1155 1156 0
-1156 1179 0
61 -1156 1157 0
-1157 1180 0
62 -1157 1158 0
-1158 1181 0
63 -1158 1159 0
-1159 1182 0
64 -1159 1160 0
-1160 1183 0
65 -1160 1161 0
-1161 1184 0
66 -1161 1162 0
-1162 1185 0
67 -1162 1163 0
-1163 1186 0
68 -1163 1164 0
-1164 1187 0
69 -1164 1165 0
-1165 1188 0
70 -1165 0
48 1166 0
-1166 1189 0
49 -1166 1167 0
-1167 1190 0
50 -1167 1168 0
-1168 1191 0
51 -1168 1169 0
-1169 1192 0
52 -1169 1170 0
-1170 1193 0
53 -1170 1171 0
-1171 1194 0
54 -1171 1172 0
-1172 1195 0
55 -1172 1173 0
-1173 1196 0
56 -1173 1174 0
-1174 1197 0
57 -1174 1175 0
-1175 1198 0
58 -1175 1176 0
-1176 1199 0
59 -1176 1177 0
-1177 1200 0
60 -1177 1178 0
-1178 1201 0
61 -1178 1179 0
-1179 1202 0
62 -1179 1180 0
-1180 1203 0
63 -1180 1181 0
-1181 1204 0
64 -1181 1182 0
-1182 1205 0
65 -1182 1183 0
-1183 1206 0
66 -1183 1184 0
-1184 1207 0
67 -1184 1185 0
-1185 1208 0
68 -1185 1186 0
-1186 1209 0
69 -1186 1187 0
-1187 1210 0
70 -1187 1188 0
-1188 1211 0
71 -1188 0
49 1189 0
-1189 1212 0
50 -1189 1190 0
-1190 1213 0
51 -1190 1191 0
-1191 1214 0
52 -1191 1192 0
-1192 1215 0
53 -1192 1193 0
-1193 1216 0
54 -1193 1194 0
-1194 1217 0
55 -1194 1195 0
-1195 1218 0
56 -1195 1196 0
-1196 1219 0
57 -1196 1197 0
-1197 1220 0
58 -1197 1198 0
-1198 1221 0
59 -1198 1199 0
-1199 1222 0
60 -1199 1200 0
-1200 1223 0
61 -1200 1201 0
-1201 1224 0
62 -1201 1202 0
-1202 1225 0
63 -1202 1203 0
-1203 1226 0
64 -1203 1204 0
-1204 1227 0
65 -1204 1205 0
-1205 1228 0
66 -1205 1206 0
-1206 1229 0
67 -1206 1207 0
-1207 1230 0
68 -1207 1208 0
-1208 1231 0
69 -1208 1209 0
-1209 1232 0
70 -1209 1210 0
-1210 1233 0
71 -1210 1211 0
-1211 1234 0
72 -1211 0
50 1212 0
-1212 1235 0
51 -1212 1213 0
-1213 1236 0
52 -1213 1214 0
-1214 1237 0
53 -1214 1215 0
-1215 1238 0
54 -1215 1216 0
-1216 1239 0
55 -1216 1217 0
-1217 1240 0
56 -1217 1218 0
-1218 1241 0
57 -1218 1219 0
-1219 1242 0
58 -1219 1220 0
-1220 1243 0
59 -1220 1221 0
-1221 1244 0
60 -1221 1222 0
-1222 1245 0
61 -1222 1223 0
-1223 1246 0
62 -1223 1224 0
-1224 1247 0
63 -1224 1225 0
-1225 1248 0
64 -1225 1226 0
-1226 1249 0
65 -1226 1227 0
-1227 1250 0
66 -1227 1228 0
-1228 1251 0
67 -1228 1229 0
-1229 1252 0
68 -1229 1230 0
-1230 1253 0
69 -1230 1231 0
-1231 1254 0
70 -1231 1232 0
-1232 1255 0
71 -1232 1233 0
-1233 1256 0
72 -1233 1234 0
-1234 1257 0
73 -1234 0
51 1235 0
-1235 1258 0
52 -1235 1236 0
-1236 1259 0
53 -1236 1237 0
-1237 1260 0
54 -1237 1238 0
-1238 1261 0
55 -1238 1239 0
-1239 1262 0
56 -1239 1240 0
-1240 1263 0
57 -1240 1241 0
-1241 1264 0
58 -1241 1242 0
-1242 1265 0
59 -1242 1243 0
-1243 1266 0
60 -1243 1244 0
-1244 1267 0
61 -1244 1245 0
-1245 1268 0
62 -1245 1246 0
-1246 1269 0
63 -1246 1247 0
-1247 1270 0
64 -1247 1248 0
-1248 1271 0
65 -1248 1249 0
-1249 1272 0
66 -1249 1250 0
-1250 1273 0
67 -1250 1251 0
-1251 1274 0
68 -1251 1252 0
-1252 1275 0
69 -1252 1253 0
-1253 1276 0
70 -1253 1254 0
-1254 1277 0
71 -1254 1255 0
-1255 1278 0
72 -1255 1256 0
-1256 1279 0
73 -1256 1257 0
-1257 1280 0
74 -1257 0
52 1258 0
-1258 1281 0
53 -1258 1259 0
-1259 1282 0
54 -1259 1260 0
-1260 1283 0
55 -1260 1261 0
-1261 1284 0
56 -1261 1262 0
-1262 1285 0
57 -1262 1263 0
-1263 1286 0
58 -1263 1264 0
-1264 1287 0
59 -1264 1265 0
-1265 1288 0
60 -1265 1266 0
-1266 1289 0
61 -1266 1267 0
-1267 1290 0
62 -1267 1268 0
-1268 1291 0
63 -1268 1269 0
-1269 1292 0
64 -1269 1270 0
-1270 1293 0
65 -1270 1271 0
-1271 1294 0
66 -1271 1272 0
-1272 1295 0
67 -1272 1273 0
-1273 1296 0
68 -1273 1274 0
-1274 1297 0
69 -1274 1275 0
-1275 1298 0
70 -1275 1276 0
-1276 1299 0
71 -1276 1277 0
-1277 1300 0
72 -1277 1278 0
-1278 1301 0
73 -1278 1279 0
-1279 1302 0
74 -1279 1280 0
-1280 1303 0
75 -1280 0
53 1281 0
-1281 1304 0
54 -1281 1282 0
-1282 1305 0
55 -1282 1283 0
-1283 1306 0
56 -1283 1284 0
-1284 1307 0
57 -1284 1285 0
-1285 1308 0
58 -1285 1286 0
-1286 1309 0
59 -1286 1287 0
-1287 1310 0
60 -1287 1288 0
-1288 1311 0
61 -1288 1289 0
-1289 1312 0
62 -1289 1290 0
-1290 1313 0
63 -1290 1291 0
-1291 1314 0
64 -1291 1292 0
-1292 1315 0
65 -1292 1293 0
-1293 1316 0
66 -1293 1294 0
-1294 1317 0
67 -1294 1295 0
-1295 1318 0
68 -1295 1296 0
-1296 1319 0
69 -1296 1297 0
-1297 1320 0
70 -1297 1298 0
-1298 1321 0
71 -1298 1299 0
-1299 1322 0
72 -1299 1300 0
-1300 1323 0
73 -1300 1301 0
-1301 1324 0
74 -1301 1302 0
-1302 1325 0
75 -1302 1303 0
-1303 1326 0
76 -1303 0
54 1304 0
-1304 1327 0
55 -1304 1305 0
-1305 1328 0
56 -1305 1306 0
-1306 1329 0
57 -1306 1307 0
-1307 1330 0
58 -1307 1308 0
-1308 1331 0
59 -1308 1309 0
-1309 1332 0
60 -1309 1310 0
-1310 1333 0
61 -1310 1311 0
-1311 1334 0
62 -1311 1312 0
-1312 1335 0
63 -1312 1313 0
-1313 1336 0
64 -1313 1314 0
-1314 1337 0
65 -1314 1315 0
-1315 1338 0
66 -1315 1316 0
-1316 1339 0
67 -1316 1317 0
-1317 1340 0
68 -1317 1318 0
-1318 1341 0
69 -1318 1319 0
-1319 1342 0
70 -1319 1320 0
-1320 1343 0
71 -1320 1321 0
-1321 1344 0
72 -1321 1322 0
-1322 1345 0
73 -1322 1323 0
-1323 1346 0
74 -1323 1324 0
-1324 1347 0
75 -1324 1325 0
-1325 1348 0
76 -1325 1326 0
-1326 1349 0
77 -1326 0
55 1327 0
-1327 1350 0
56 -1327 1328 0
-1328 1351 0
57 -1328 1329 0
-1329 1352 0
58 -1329 1330 0
-1330 1353 0
59 -1330 1331 0
-1331 1354 0
60 -1331 1332 0
-1332 1355 0
61 -1332 1333 0
-1333 1356 0
62 -1333 1334 0
-1334 1357 0
63 -1334 1335 0
-1335 1358 0
64 -1335 1336 0
-1336 1359 0
65 -1336 1337 0
-1337 1360 0
66 -1337 1338 0
-1338 1361 0
67 -1338 1339 0
-1339 1362 0
68 -1339 1340 0
-1340 1363 0
69 -1340 1341 0
-1341 1364 0
70 -1341 1342 0
-1342 1365 0
71 -1342 1343 0
-1343 1366 0
72 -1343 1344 0
-1344 1367 0
73 -1344 1345 0
-1345 1368 0
74 -1345 1346 0
-1346 1369 0
75 -1346 1347 0
-1347 1370 0
76 -1347 1348 0
-1348 1371 0
77 -1348 1349 0
-1349 1372 0
78 -1349 0
56 1350 0
-1350 1373 0
57 -1350 1351 0
-1351 1374 0
58 -1351 1352 0
-1352 1375 0
59 -1352 1353 0
-1353 1376 0
60 -1353 1354 0
-1354 1377 0
61 -1354 1355 0
-1355 1378 0
62 -1355 1356 0
-1356 1379 0
63 -1356 1357 0
-1357 1380 0
64 -1357 1358 0
-1358 1381 0
65 -1358 1359 0
-1359 1382 0
66 -1359 1360 0
-1360 1383 0
67 -1360 1361 0
-1361 1384 0
68 -1361 1362 0
-1362 1385 0
69 -1362 1363 0
-1363 1386 0
70 -1363 1364 0
-1364 1387 0
71 -1364 1365 0
-1365 1388 0
72 -1365 1366 0
-1366 1389 0
73 -1366 1367 0
-1367 1390 0
74 -1367 1368 0
-1368 1391 0
75 -1368 1369 0
-1369 1392 0
76 -1369 1370 0
-1370 1393 0
77 -1370 1371 0
-1371 1394 0
78 -1371 1372 0
-1372 1395 0
79 -1372 0
57 1373 0
-1373 1396 0
58 -1373 1374 0
-1374 1397 0
59 -1374 1375 0
-1375 1398 0
60 -1375 1376 0
-1376 1399 0
61 -1376 1377 0
-1377 1400 0
62 -1377 1378 0
-1378 1401 0
63 -1378 1379 0
-1379 1402 0
64 -1379 1380 0
-1380 1403 0
65 -1380 1381 0
-1381 1404 0
66 -1381 1382 0
-1382 1405 0
67 -1382 1383 0
-1383 1406 0
68 -1383 1384 0
-1384 1407 0
69 -1384 1385 0
-1385 1408 0
70 -1385 1386 0
-1386 1409 0
71 -1386 1387 0
-1387 1410 0
72 -1387 1388 0
-1388 1411 0
73 -1388 1389 0
-1389 1412 0
74 -1389 1390 0
-1390 1413 0
75 -1390 1391 0
-1391 1414 0
76 -1391 1392 0
-1392 1415 0
77 -1392 1393 0
-1393 1416 0
78 -1393 1394 0
-1394 1417 0
79 -1394 1395 0
-1395 1418 0
80 -1395 0
58 1396 0
-1396 1419 0
59 -1396 1397 0
-1397 1420 0
60 -1397 1398 0
-1398 1421 0
61 -1398 1399 0
-1399 1422 0
62 -1399 1400 0
-1400 1423 0
63 -1400 1401 0
-1401 1424 0
64 -1401 1402 0
-1402 1425 0
65 -1402 1403 0
-1403 1426 0
66 -1403 1404 0
-1404 1427 0
67 -1404 1405 0
-1405 1428 0
68 -1405 1406 0
-1406 1429 0
69 -1406 1407 0
-1407 1430 0
70 -1407 1408 0
-1408 1431 0
71 -1408 1409 0
-1409 1432 0
72 -1409 1410 0
-1410 1433 0
73 -1410 1411 0
-1411 1434 0
74 -1411 1412 0
-1412 1435 0
75 -1412 1413 0
-1413 1436 0
76 -1413 1414 0
-1414 1437 0
77 -1414 1415 0
-1415 1438 0
78 -1415 1416 0
-1416 1439 0
79 -1416 1417 0
-1417 1440 0
80 -1417 1418 0
-1418 1441 0
81 -1418 0
59 1419 0
-1419 1442 0
60 -1419 1420 0
-1420 1443 0
61 -1420 1421 0
-1421 1444 0
62 -1421 1422 0
-1422 1445 0
63 -1422 1423 0
-1423 1446 0
64 -1423 1424 0
-1424 1447 0
65 -1424 1425 0
-1425 1448 0
66 -1425 1426 0
-1426 1449 0
67 -1426 1427 0
-1427 1450 0
68 -1427 1428 0
-1428 1451 0
69 -1428 1429 0
-1429 1452 0
70 -1429 1430 0
-1430 1453 0
71 -1430 1431 0
-1431 1454 0
72 -1431 1432 0
-1432 1455 0
73 -1432 1433 0
-1433 1456 0
74 -1433 1434 0
-1434 1457 0
75 -1434 1435 0
-1435 1458 0
76 -1435 1436 0
-1436 1459 0
77 -1436 1437 0
-1437 1460 0
78 -1437 1438 0
-1438 1461 0
79 -1438 1439 0
-1439 1462 0
80 -1439 1440 0
-1440 1463 0
81 -1440 1441 0
-1441 1464 0
82 -1441 0
60 1442 0
-1442 1465 0
61 -1442 1443 0
-1443 1466 0
62 -1443 1444 0
-1444 1467 0
63 -1444 1445 0
-1445 1468 0
64 -1445 1446 0
-1446 1469 0
65 -1446 1447 0
-1447 1470 0
66 -1447 1448 0
-1448 1471 0
67 -1448 1449 0
-1449 1472 0
68 -1449 1450 0
-1450 1473 0
69 -1450 1451 0
-1451 1474 0
70 -1451 1452 0
-1452 1475 0
71 -1452 1453 0
-1453 1476 0
72 -1453 1454 0
-1454 1477 0
73 -1454 1455 0
-1455 1478 0
74 -1455 1456 0
-1456 1479 0
75 -1456 1457 0
-1457 1480 0
76 -1457 1458 0
-1458 1481 0
77 -1458 1459 0
-1459 1482 0
78 -1459 1460 0
-1460 1483 0
79 -1460 1461 0
-1461 1484 0
80 -1461 1462 0
-1462 1485 0
81 -1462 1463 0
-1463 1486 0
82 -1463 1464 0
-1464 1487 0
83 -1464 0
61 1465 0
62 -1465 1466 0
63 -1466 1467 0
64 -1467 1468 0
65 -1468 1469 0
66 -1469 1470 0
67 -1470 1471 0
68 -1471 1472 0
69 -1472 1473 0
70 -1473 1474 0
71 -1474 1475 0
72 -1475 1476 0
73 -1476 1477 0
74 -1477 1478 0
75 -1478 1479 0
76 -1479 1480 0
77 -1480 1481 0
78 -1481 1482 0
79 -1482 1483 0
80 -1483 1484 0
81 -1484 1485 0
82 -1485 1486 0
83 -1486 1487 0
84 -1487 0
-1 1488 0
-1488 1489 0
-2 -1488 1490 0
-1490 1491 0
-3 -1490 1492 0
-1492 1493 0
-4 -1492 1494 0
-1494 1495 0
-5 -1494 1496 0
-1496 1497 0
-6 -1496 1498 0
-1498 1499 0
-7 -1498 1500 0
-1500 1501 0
-8 -1500 1502 0
-1502 1503 0
-9 -1502 1504 0
-1504 1505 0
-10 -1504 1506 0
-1506 1507 0
-11 -1506 1508 0
-1508 1509 0
-12 -1508 1510 0
-1510 1511 0
-13 -1510 1512 0
-1512 1513 0
-14 -1512 1514 0
-1514 1515 0
-15 -1514 1516 0
-1516 1517 0
-16 -1516 1518 0
-1518 1519 0
-17 -1518 1520 0
-1520 1521 0
-18 -1520 1522 0
-1522 1523 0
-19 -1522 1524 0
-1524 1525 0
-20 -1524 1526 0
-1526 1527 0
-21 -1526 1528 0
-1528 1529 0
-22 -1528 1530 0
-1530 1531 0
-23 -1530 1532 0
-1532 1533 0
-24 -1532 1534 0
-1534 1535 0
-25 -1534 1536 0
-1536 1537 0
-26 -1536 1538 0
-1538 1539 0
-27 -1538 1540 0
-1540 1541 0
-28 -1540 1542 0
-1542 1543 0
-29 -1542 1544 0
-1544 1545 0
-30 -1544 1546 0
-1546 1547 0
-31 -1546 1548 0
-1548 1549 0
-32 -1548 1550 0
-1550 1551 0
-33 -1550 1552 0
-1552 1553 0
-34 -1552 1554 0
-1554 1555 0
-35 -1554 1556 0
-1556 1557 0
-36 -1556 1558 0
-1558 1559 0
-37 -1558 1560 0
-1560 1561 0
-38 -1560 1562 0
-1562 1563 0
-39 -1562 1564 0
-1564 1565 0
-40 -1564 1566 0
-1566 1567 0
-41 -1566 1568 0
-1568 1569 0
-42 -1568 1570 0
-1570 1571 0
-43 -1570 1572 0
-1572 1573 0
-44 -1572 1574 0
-1574 1575 0
-45 -1574 1576 0
-1576 1577 0
-46 -1576 1578 0
-1578 1579 0
-47 -1578 1580 0
-1580 1581 0
-48 -1580 1582 0
-1582 1583 0
-49 -1582 1584 0
-1584 1585 0
-50 -1584 1586 0
-1586 1587 0
-51 -1586 1588 0
-1588 1589 0
-52 -1588 1590 0
-1590 1591 0
-53 -1590 1592 0
-1592 1593 0
-54 -1592 1594 0
-1594 1595 0
-55 -1594 1596 0
-1596 1597 0
-56 -1596 1598 0
-1598 1599 0
-57 -1598 1600 0
-1600 1601 0
-58 -1600 1602 0
-1602 1603 0
-59 -1602 1604 0
-1604 1605 0
-60 -1604 1606 0
-1606 1607 0
-61 -1606 1608 0
-1608 1609 0
-62 -1608 0
-2 1489 0
-1489 1610 0
-3 -1489 1491 0
-1491 1611 0
-4 -1491 1493 0
-1493 1612 0
-5 -1493 1495 0
-1495 1613 0
-6 -1495 1497 0
-1497 1614 0
-7 -1497 1499 0
-1499 1615 0
-8 -1499 1501 0
-1501 1616 0
-9 -1501 1503 0
-1503 1617 0
-10 -1503 1505 0
-1505 1618 0
-11 -1505 1507 0
-1507 1619 0
-12 -1507 1509 0
-1509 1620 0
-13 -1509 1511 0
-1511 1621 0
-14 -1511 1513 0
-1513 1622 0
-15 -1513 1515 0
-1515 1623 0
-16 -1515 1517 0
-1517 1624 0
-17 -1517 1519 0
-1519 1625 0
-18 -1519 1521 0
-1521 1626 0
-19 -1521 1523 0
-1523 1627 0
-20 -1523 1525 0
-1525 1628 0
-21 -1525 1527 0
-1527 1629 0
-22 -1527 1529 0
-1529 1630 0
-23 -1529 1531 0
-1531 1631 0
-24 -1531 1533 0
-1533 1632 0
-25 -1533 1535 0
-1535 1633 0
-26 -1535 1537 0
-1537 1634 0
-27 -1537 1539 0
-1539 1635 0
-28 -1539 1541 0
-1541 1636 0
-29 -1541 1543 0
-1543 1637 0
-30 -1543 1545 0
-1545 1638 0
-31 -1545 1547 0
-1547 1639 0
-32 -1547 1549 0
-1549 1640 0
-33 -1549 1551 0
-1551 1641 0
-34 -1551 1553 0
-1553 1642 0
-35 -1553 1555 0
-1555 1643 0
-36 -1555 1557 0
-1557 1644 0
-37 -1557 1559 0
-1559 1645 0
-38 -1559 1561 0
-1561 1646 0
-39 -1561 1563 0
-1563 1647 0
-40 -1563 1565 0
-1565 1648 0
-41 -1565 1567 0
-1567 1649 0
-42 -1567 1569 0
-1569 1650 0
-43 -1569 1571 0
-1571 1651 0
-44 -1571 1573 0
-1573 1652 0
-45 -1573 1575 0
-1575 1653 0
-46 -1575 1577 0
-1577 1654 0
-47 -1577 1579 0
-1579 1655 0
-48 -1579 1581 0
-1581 1656 0
-49 -1581 1583 0
-1583 1657 0
-50 -1583 1585 0
-1585 1658 0
-51 -1585 1587 0
-1587 1659 0
-52 -1587 1589 0
-1589 1660 0
-53 -1589 1591 0
-1591 1661 0
-54 -1591 1593 0
-1593 1662 0
-55 -1593 1595 0
-1595 1663 0
-56 -1595 1597 0
-1597 1664 0
-57 -1597 1599 0
-1599 1665 0
-58 -1599 1601 0
-1601 1666 0
-59 -1601 1603 0
-1603 1667 0
-60 -1603 1605 0
-1605 1668 0
-61 -1605 1607 0
-1607 1669 0
-62 -1607 1609 0
-1609 1670 0
-63 -1609 0
-3 1610 0
-1610 1671 0
-4 -1610 1611 0
-1611 1672 0
-5 -1611 1612 0
-1612 1673 0
-6 -1612 1613 0
-1613 1674 0
-7 -1613 1614 0
-1614 1675 0
-8 -1614 1615 0
-1615 1676 0
-9 -1615 1616 0
-1616 1677 0
-10 -1616 1617 0
-1617 1678 0
-11 -1617 1618 0
-1618 1679 0
-12 -1618 1619 0
-1619 1680 0
-13 -1619 1620 0
-1620 1681 0
-14 -1620 1621 0
-1621 1682 0
-15 -1621 1622 0
-1622 1683 0
-16 -1622 1623 0
-1623 1684 0
-17 -1623 1624 0
-1624 1685 0
-18 -1624 1625 0
-1625 1686 0
-19 -1625 1626 0
-1626 1687 0
-20 -1626 1627 0
-1627 1688 0
-21 -1627 1628 0
-1628 1689 0
-22 -1628 1629 0
-1629 1690 0
-23 -1629 1630 0
-1630 1691 0
-24 -1630 1631 0
-1631 1692 0
-25 -1631 1632 0
-1632 1693 0
-26 -1632 1633 0
-1633 1694 0
-27 -1633 1634 0
-1634 1695 0
-28 -1634 1635 0
-1635 1696 0
-29 -1635 1636 0
-1636 1697 0
-30 -1636 1637 0
-1637 1698 0
-31 -1637 1638 0
-1638 1699 0
-32 -1638 1639 0
-1639 1700 0
-33 -1639 1640 0
-1640 1701 0
-34 -1640 1641 0
-1641 1702 0
-35 -1641 1642 0
-1642 1703 0
-36 -1642 1643 0
-1643 1704 0
-37 -1643 1644 0
-1644 1705 0
-38 -1644 1645 0
-1645 1706 0
-39 -1645 1646 0
-1646 1707 0
-40 -1646 1647 0
-1647 1708 0
-41 -1647 1648 0
-1648 1709 0
-42 -1648 1649 0
-1649 1710 0
-43 -1649 1650 0
-1650 1711 0
-44 -1650 1651 0
-1651 1712 0
-45 -1651 1652 0
-1652 1713 0
-46 -1652 1653 0
-1653 1714 0
-47 -1653 1654 0
-1654 1715 0
-48 -1654 1655 0
-1655 1716 0
-49 -1655 1656 0
-1656 1717 0
-50 -1656 1657 0
-1657 1718 0
-51 -1657 1658 0
-1658 1719 0
-52 -1658 1659 0
-1659 1720 0
-53 -1659 1660 0
-1660 1721 0
-54 -1660 1661 0
-1661 1722 0
-55 -1661 1662 0
-1662 1723 0
-56 -1662 1663 0
-1663 1724 0
-57 -1663 1664 0
-1664 1725 0
-58 -1664 1665 0
-1665 1726 0
-59 -1665 1666 0
-1666 1727 0
-60 -1666 1667 0
-1667 1728 0
-61 -1667 1668 0
-1668 1729 0
-62 -1668 1669 0
-1669 1730 0
-63 -1669 1670 0
-1670 1731 0
-64 -1670 0
-4 1671 0
-1671 1732 0
-5 -1671 1672 0
-1672 1733 0
-6 -1672 1673 0
-1673 1734 0
-7 -1673 1674 0
-1674 1735 0
-8 -1674 1675 0
-1675 1736 0
-9 -1675 1676 0
-1676 1737 0
-10 -1676 1677 0
-1677 1738 0
-11 -1677 1678 0
-1678 1739 0
-12 -1678 1679 0
-1679 1740 0
-13 -1679 1680 0
-1680 1741 0
-14 -1680 1681 0
-1681 1742 0
-15 -1681 1682 0
-1682 1743 0
-16 -1682 1683 0
-1683 1744 0
-17 -1683 1684 0
-1684 1745 0
-18 -1684 1685 0
-1685 1746 0
-19 -1685 1686 0
-1686 1747 0
-20 -1686 1687 0
-1687 1748 0
-21 -1687 1688 0
-1688 1749 0
-22 -1688 1689 0
-1689 1750 0
-23 -1689 1690 0
-1690 1751 0
-24 -1690 1691 0
-1691 1752 0
-25 -1691 1692 0
-1692 1753 0
-26 -1692 1693 0
-1693 1754 0
-27 -1693 1694 0
-1694 1755 0
-28 -1694 1695 0
-1695 1756 0
-29 -1695 1696 0
-1696 1757 0
-30 -1696 1697 0
-1697 1758 0
-31 -1697 1698 0
-1698 1759 0
-32 -1698 1699 0
-1699 1760 0
-33 -1699 1700 0
-1700 1761 0
-34 -1700 1701 0
-1701 1762 0
-35 -1701 1702 0
-1702 1763 0
-36 -1702 1703 0
-1703 1764 0
-37 -1703 1704 0
-1704 1765 0
-38 -1704 1705 0
-1705 1766 0
-39 -1705 1706 0
-1706 1767 0
-40 -1706 1707 0
-1707 1768 0
-41 -1707 1708 0
-1708 1769 0
-42 -1708 1709 0
-1709 1770 0
-43 -1709 1710 0
-1710 1771 0
-44 -1710 1711 0
-1711 1772 0
-45 -1711 1712 0
-1712 1773 0
-46 -1712 1713 0
-1713 1774 0
-47 -1713 1714 0
-1714 1775 0
-48 -1714 1715 0
-1715 1776 0
-49 -1715 1716 0
-1716 1777 0
-50 -1716 1717 0
-1717 1778 0
-51 -1717 1718 0
-1718 1779 0
-52 -1718 1719 0
-1719 1780 0
-53 -1719 1720 0
-1720 1781 0
-54 -1720 1721 0
-1721 1782 0
-55 -1721 1722 0
-1722 1783 0
-56 -1722 1723 0
-1723 1784 0
-57 -1723 1724 0
-1724 1785 0
-58 -1724 1725 0
-1725 1786 0
-59 -1725 1726 0
-1726 1787 0
-60 -1726 1727 0
-1727 1788 0
-61 -1727 1728 0
-1728 1789 0
-62 -1728 1729 0
-1729 1790 0
-63 -1729 1730 0
-1730 1791 0
-64 -1730 1731 0
-1731 1792 0
-65 -1731 0
-5 1732 0
-1732 1793 0
-6 -1732 1733 0
-1733 1794 0
-7 -1733 1734 0
-1734 1795 0
-8 -1734 1735 0
-1735 1796 0
-9 -1735 1736 0
-1736 1797 0
-10 -1736 1737 0
-1737 1798 0
-11 -1737 1738 0
-1738 1799 0
-12 -1738 1739 0
-1739 1800 0
-13 -1739 1740 0
-1740 1801 0
-14 -1740 1741 0
-1741 1802 0
-15 -1741 1742 0
-1742 1803 0
-16 -1742 1743 0
-1743 1804 0
-17 -1743 1744 0
-1744 1805 0
-18 -1744 1745 0
-1745 1806 0
-19 -1745 1746 0
-1746 1807 0
-20 -1746 1747 0
-1747 1808 0
-21 -1747 1748 0
-1748 1809 0
-22 -1748 1749 0
-1749 1810 0
-23 -1749 1750 0
-1750 1811 0
-24 -1750 1751 0
-1751 1812 0
-25 -1751 1752 0
-1752 1813 0
-26 -1752 1753 0
-1753 1814 0
-27 -1753 1754 0
-1754 1815 0
-28 -1754 1755 0
-1755 1816 0
-29 -1755 1756 0
-1756 1817 0
-30 -1756 1757 0
-1757 1818 0
-31 -1757 1758 0
-1758 1819 0
-32 -1758 1759 0
-1759 1820 0
-33 -1759 1760 0
-1760 1821 0
-34 -1760 1761 0
-1761 1822 0
-35 -1761 1762 0
-1762 1823 0
-36 -1762 1763 0
-1763 1824 0
-37 -1763 1764 0
-1764 1825 0
-38 -1764 1765 0
-1765 1826 0
-39 -1765 1766 0
-1766 1827 0
-40 -1766 1767 0
-1767 1828 0
-41 -1767 1768 0
-1768 1829 0
-42 -1768 1769 0
-1769 1830 0
-43 -1769 1770 0
-1770 1831 0
-44 -1770 1771 0
-1771 1832 0
-45 -1771 1772 0
-1772 1833 0
-46 -1772 1773 0
-1773 1834 0
-47 -1773 1774 0
-1774 1835 0
-48 -1774 1775 0
-1775 1836 0
-49 -1775 1776 0
-1776 1837 0
-50 -1776 1777 0
-1777 1838 0
-51 -1777 1778 0
-1778 1839 0
-52 -1778 1779 0
-1779 1840 0
-53 -1779 1780 0
-1780 1841 0
-54 -1780 1781 0
-1781 1842 0
-55 -1781 1782 0
-1782 1843 0
-56 -1782 1783 0
-1783 1844 0
-57 -1783 1784 0
-1784 1845 0
-58 -1784 1785 0
-1785 1846 0
-59 -1785 1786 0
-1786 1847 0
-60 -1786 1787 0
-1787 1848 0
-61 -1787 1788 0
-1788 1849 0
-62 -1788 1789 0
-1789 1850 0
-63 -1789 1790 0
-1790 1851 0
-64 -1790 1791 0
-1791 1852 0
-65 -1791 1792 0
-1792 1853 0
-66 -1792 0
-6 1793 0
-1793 1854 0
-7 -1793 1794 0
-1794 1855 0
-8 -1794 1795 0
-1795 1856 0
-9 -1795 1796 0
-1796 1857 0
-10 -1796 1797 0
-1797 1858 0
-11 -1797 1798 0
-1798 1859 0
-12 -1798 1799 0
-1799 1860 0
-13 -1799 1800 0
-1800 1861 0
-14 -1800 1801 0
-1801 1862 0
-15 -1801 1802 0
-1802 1863 0
-16 -1802 1803 0
-1803 1864 0
-17 -1803 1804 0
-1804 1865 0
-18 -1804 1805 0
-1805 1866 0
-19 -1805 1806 0
-1806 1867 0
-20 -1806 1807 0
-1807 1868 0
-21 -1807 1808 0
-1808 1869 0
-22 -1808 1809 0
-1809 1870 0
-23 -1809 1810 0
-1810 1871 0
-24 -1810 1811 0
-1811 1872 0
-25 -1811 1812 0
-1812 1873 0
-26 -1812 1813 0
-1813 1874 0
-27 -1813 1814 0
-1814 1875 0
-28 -1814 1815 0
-1815 1876 0
-29 -1815 1816 0
-1816 1877 0
-30 -1816 1817 0
-1817 1878 0
-31 -1817 1818 0
-1818 1879 0
-32 -1818 1819 0
-1819 1880 0
-33 -1819 1820 0
-1820 1881 0
-34 -1820 1821 0
-1821 1882 0
-35 -1821 1822 0
-1822 1883 0
-36 -1822 1823 0
-1823 1884 0
-37 -1823 1824 0
-1824 1885 0
-38 -1824 1825 0
-1825 1886 0
-39 -1825 1826 0
-1826 1887 0
-40 -1826 1827 0
-1827 1888 0
-41 -1827 1828 0
-1828 1889 0
-42 -1828 1829 0
-1829 1890 0
-43 -1829 1830 0
-1830 1891 0
-44 -1830 1831 0
-1831 1892 0
-45 -1831 1832 0
-1832 1893 0
-46 -1832 1833 0
-1833 1894 0
-47 -1833 1834 0
-1834 1895 0
-48 -1834 1835 0
-1835 1896 0
-49 -1835 1836 0
-1836 1897 0
-50 -1836 1837 0
-1837 1898 0
-51 -1837 1838 0
-1838 1899 0
-52 -1838 1839 0
-1839 1900 0
-53 -1839 1840 0
-1840 1901 0
-54 -1840 1841 0
-1841 1902 0
-55 -1841 1842 0
-1842 1903 0
-56 -1842 1843 0
-1843 1904 0
-57 -1843 1844 0
-1844 1905 0
-58 -1844 1845 0
-1845 1906 0
-59 -1845 1846 0
-1846 1907 0
-60 -1846 1847 0
-1847 1908 0
-61 -1847 1848 0
-1848 1909 0
-62 -1848 1849 0
-1849 1910 0
-63 -1849 1850 0
-1850 1911 0
-64 -1850 1851 0
-1851 1912 0
-65 -1851 1852 0
-1852 1913 0
-66 -1852 1853 0
-1853 1914 0
-67 -1853 0
-7 1854 0
-1854 1915 0
-8 -1854 1855 0
-1855 1916 0
-9 -1855 1856 0
-1856 1917 0
-10 -1856 1857 0
-1857 1918 0
-11 -1857 1858 0
-1858 1919 0
-12 -1858 1859 0
-1859 1920 0
-13 -1859 1860 0
-1860 1921 0
-14 -1860 1861 0
-1861 1922 0
-15 -1861 1862 0
-1862 1923 0
-16 -1862 1863 0
-1863 1924 0
-17 -1863 1864 0
-1864 1925 0
-18 -1864 1865 0
-1865 1926 0
-19 -1865 1866 0
-1866 1927 0
-20 -1866 1867 0
-1867 1928 0
-21 -1867 1868 0
-1868 1929 0
-22 -1868 1869 0
-1869 1930 0
-23 -1869 1870 0
-1870 1931 0
-24 -1870 1871 0
-1871 1932 0
-25 -1871 1872 0
-1872 1933 0
-26 -1872 1873 0
-1873 1934 0
-27 -1873 1874 0
-1874 1935 0
-28 -1874 1875 0
-1875 1936 0
-29 -1875 1876 0
-1876 1937 0
-30 -1876 1877 0
-1877 1938 0
-31 -1877 1878 0
-1878 1939 0
-32 -1878 1879 0
-1879 1940 0
-33 -1879 1880 0
-1880 1941 0
-34 -1880 1881 0
-1881 1942 0
-35 -1881 1882 0
-1882 1943 0
-36 -1882 1883 0
-1883 1944 0
-37 -1883 1884 0
-1884 1945 0
-38 -1884 1885 0
-1885 1946 0
-39 -1885 1886 0
-1886 1947 0
-40 -1886 1887 0
-1887 1948 0
-41 -1887 1888 0
-1888 1949 0
-42 -1888 1889 0
-1889 1950 0
-43 -1889 1890 0
-1890 1951 0
-44 -1890 1891 0
-1891 1952 0
-45 -1891 1892 0
-1892 1953 0
-46 -1892 1893 0
-1893 1954 0
-47 -1893 1894 0
-1894 1955 0
-48 -1894 1895 0
-1895 1956 0
-49 -1895 1896 0
-1896 1957 0
-50 -1896 1897 0
-1897 1958 0
-51 -1897 1898 0
-1898 1959 0
-52 -1898 1899 0
-1899 1960 0
-53 -1899 1900 0
-1900 1961 0
-54 -1900 1901 0
-1901 1962 0
-55 -1901 1902 0
-1902 1963 0
-56 -1902 1903 0
-1903 1964 0
-57 -1903 1904 0
-1904 1965 0
-58 -1904 1905 0
-1905 1966 0
-59 -1905 1906 0
-1906 1967 0
-60 -1906 1907 0
-1907 1968 0
-61 -1907 1908 0
-1908 1969 0
-62 -1908 1909 0
-1909 1970 0
-63 -1909 1910 0
-1910 1971 0
-64 -1910 1911 0
-1911 1972 0
-65 -1911 1912 0
-1912 1973 0
-66 -1912 1913 0
-1913 1974 0
-67 -1913 1914 0
-1914 1975 0
-68 -1914 0
-8 1915 0
-1915 1976 0
-9 -1915 1916 0
-1916 1977 0
-10 -1916 1917 0
-1917 1978 0
-11 -1917 1918 0
-1918 1979 0
-12 -1918 1919 0
-1919 1980 0
-13 -1919 1920 0
-1920 1981 0
-14 -1920 1921 0
-1921 1982 0
-15 -1921 1922 0
-1922 1983 0
-16 -1922 1923 0
-1923 1984 0
-17 -1923 1924 0
-1924 1985 0
-18 -1924 1925 0
-1925 1986 0
-19 -1925 1926 0
-1926 1987 0
-20 -1926 1927 0
-1927 1988 0
-21 -1927 1928 0
-1928 1989 0
-22 -1928 1929 0
-1929 1990 0
-23 -1929 1930 0
-1930 1991 0
-24 -1930 1931 0
-1931 1992 0
-25 -1931 1932 0
-1932 1993 0
-26 -1932 1933 0
-1933 1994 0
-27 -1933 1934 0
-1934 1995 0
-28 -1934 1935 0
-1935 1996 0
-29 -1935 1936 0
-1936 1997 0
-30 -1936 1937 0
-1937 1998 0
-31 -1937 1938 0
-1938 1999 0
-32 -1938 1939 0
-1939 2000 0
-33 -1939 1940 0
-1940 2001 0
-34 -1940 1941 0
-1941 2002 0
-35 -1941 1942 0
-1942 2003 0
-36 -1942 1943 0
-1943 2004 0
-37 -1943 1944 0
-1944 2005 0
-38 -1944 1945 0
-1945 2006 0
-39 -1945 1946 0
-1946 2007 0
-40 -1946 1947 0
-1947 2008 0
-41 -1947 1948 0
-1948 2009 0
-42 -1948 1949 0
-1949 2010 0
-43 -1949 1950 0
-1950 2011 0
-44 -1950 1951 0
-1951 2012 0
-45 -1951 1952 0
-1952 2013 0
-46 -1952 1953 0
-1953 2014 0
-47 -1953 1954 0
-1954 2015 0
-48 -1954 1955 0
-1955 2016 0
-49 -1955 1956 0
-1956 2017 0
-50 -1956 1957 0
-1957 2018 0
-51 -1957 1958 0
-1958 2019 0
-52 -1958 1959 0
-1959 2020 0
-53 -1959 1960 0
-1960 2021 0
-54 -1960 1961 0
-1961 2022 0
-55 -1961 1962 0
-1962 2023 0
-56 -1962 1963 0
-1963 2024 0
-57 -1963 1964 0
-1964 2025 0
-58 -1964 1965 0
-1965 2026 0
-59 -1965 1966 0
-1966 2027 0
-60 -1966 1967 0
-1967 2028 0
-61 -1967 1968 0
-1968 2029 0
-62 -1968 1969 0
-1969 2030 0
-63 -1969 1970 0
-1970 2031 0
-64 -1970 1971 0
-1971 2032 0
-65 -1971 1972 0
-1972 2033 0
-66 -1972 1973 0
-1973 2034 0
-67 -1973 1974 0
-1974 2035 0
-68 -1974 1975 0
-1975 2036 0
-69 -1975 0
-9 1976 0
-1976 2037 0
-10 -1976 1977 0
-1977 2038 0
-11 -1977 1978 0
-1978 2039 0
-12 -1978 1979 0
-1979 2040 0
-13 -1979 1980 0
-1980 2041 0
-14 -1980 1981 0
-1981 2042 0
-15 -1981 1982 0
-1982 2043 0
-16 -1982 1983 0
-1983 2044 0
-17 -1983 1984 0
-1984 2045 0
-18 -1984 1985 0
-1985 2046 0
-19 -1985 1986 0
-1986 2047 0
-20 -1986 1987 0
-1987 2048 0
-21 -1987 1988 0
-1988 2049 0
-22 -1988 1989 0
-1989 2050 0
-23 -1989 1990 0
-1990 2051 0
-24 -1990 1991 0
-1991 2052 0
-25 -1991 1992 0
-1992 2053 0
-26 -1992 1993 0
-1993 2054 0
-27 -1993 1994 0
-1994 2055 0
-28 -1994 1995 0
-1995 2056 0
-29 -1995 1996 0
-1996 2057 0
-30 -1996 1997 0
-1997 2058 0
-31 -1997 1998 0
-1998 2059 0
-32 -1998 1999 0
-1999 2060 0
-33 -1999 2000 0
-2000 2061 0
-34 -2000 2001 0
-2001 2062 0
-35 -2001 2002 0
-2002 2063 0
-36 -2002 2003 0
-2003 2064 0
-37 -2003 2004 0
-2004 2065 0
-38 -2004 2005 0
-2005 2066 0
-39 -2005 2006 0
-2006 2067 0
-40 -2006 2007 0
-2007 2068 0
-41 -2007 2008 0
-2008 2069 0
-42 -2008 2009 0
-2009 2070 0
-43 -2009 2010 0
-2010 2071 0
-44 -2010 2011 0
-2011 2072 0
-45 -2011 2012 0
-2012 2073 0
-46 -2012 2013 0
-2013 2074 0
-47 -2013 2014 0
-2014 2075 0
-48 -2014 2015 0
-2015 2076 0
-49 -2015 2016 0
-2016 2077 0
-50 -2016 2017 0
-2017 2078 0
-51 -2017 2018 0
-2018 2079 0
-52 -2018 2019 0
-2019 2080 0
-53 -2019 2020 0
-2020 2081 0
-54 -2020 2021 0
-2021 2082 0
-55 -2021 2022 0
-2022 2083 0
-56 -2022 2023 0
-2023 2084 0
-57 -2023 2024 0
-2024 2085 0
-58 -2024 2025 0
-2025 2086 0
-59 -2025 2026 0
-2026 2087 0
-60 -2026 2027 0
-2027 2088 0
-61 -2027 2028 0
-2028 2089 0
-62 -2028 2029 0
-2029 2090 0
-63 -2029 2030 0
-2030 2091 0
-64 -2030 2031 0
-2031 2092 0
-65 -2031 2032 0
-2032 2093 0
-66 -2032 2033 0
-2033 2094 0
-67 -2033 2034 0
-2034 2095 0
-68 -2034 2035 0
-2035 2096 0
-69 -2035 2036 0
-2036 2097 0
-70 -2036 0
-10 2037 0
-2037 2098 0
-11 -2037 2038 0
-2038 2099 0
-12 -2038 2039 0
-2039 2100 0
-13 -2039 2040 0
-2040 2101 0
-14 -2040 2041 0
-2041 2102 0
-15 -2041 2042 0
-2042 2103 0
-16 -2042 2043 0
-2043 2104 0
-17 -2043 2044 0
-2044 2105 0
-18 -2044 2045 0
-2045 2106 0
-19 -2045 2046 0
-2046 2107 0
-20 -2046 2047 0
-2047 2108 0
-21 -2047 2048 0
-2048 2109 0
-22 -2048 2049 0
-2049 2110 0
-23 -2049 2050 0
-2050 2111 0
-24 -2050 2051 0
-2051 2112 0
-25 -2051 2052 0
-2052 2113 0
-26 -2052 2053 0
-2053 2114 0
-27 -2053 2054 0
-2054 2115 0
-28 -2054 2055 0
-2055 2116 0
-29 -2055 2056 0
-2056 2117 0
-30 -2056 2057 0
-2057 2118 0
-31 -2057 2058 0
-2058 2119 0
-32 -2058 2059 0
-2059 2120 0
-33 -2059 2060 0
-2060 2121 0
-34 -2060 2061 0
-2061 2122 0
-35 -2061 2062 0
-2062 2123 0
-36 -2062 2063 0
-2063 2124 0
-37 -2063 2064 0
-2064 2125 0
-38 -2064 2065 0
-2065 2126 0
-39 -2065 2066 0
-2066 2127 0
-40 -2066 2067 0
-2067 2128 0
-41 -2067 2068 0
-2068 2129 0
-42 -2068 2069 0
-2069 2130 0
-43 -2069 2070 0
-2070 2131 0
-44 -2070 2071 0
-2071 2132 0
-45 -2071 2072 0
-2072 2133 0
-46 -2072 2073 0
-2073 2134 0
-47 -2073 2074 0
-2074 2135 0
-48 -2074 2075 0
-2075 2136 0
-49 -2075 2076 0
-2076 2137 0
-50 -2076 2077 0
-2077 2138 0
-51 -2077 2078 0
-2078 2139 0
-52 -2078 2079 0
-2079 2140 0
-53 -2079 2080 0
-2080 2141 0
-54 -2080 2081 0
-2081 2142 0
-55 -2081 2082 0
-2082 2143 0
-56 -2082 2083 0
-2083 2144 0
-57 -2083 2084 0
-2084 2145 0
-58 -2084 2085 0
-2085 2146 0
-59 -2085 2086 0
-2086 2147 0
-60 -2086 2087 0
-2087 2148 0
-61 -2087 2088 0
-2088 2149 0
-62 -2088 2089 0
-2089 2150 0
-63 -2089 2090 0
-2090 2151 0
-64 -2090 2091 0
-2091 2152 0
-65 -2091 2092 0
-2092 2153 0
-66 -2092 2093 0
-2093 2154 0
-67 -2093 2094 0
-2094 2155 0
-68 -2094 2095 0
-2095 2156 0
-69 -2095 2096 0
-2096 2157 0
-70 -2096 2097 0
-2097 2158 0
-71 -2097 0
-11 2098 0
-2098 2159 0
-12 -2098 2099 0
-2099 2160 0
-13 -2099 2100 0
-2100 2161 0
-14 -2100 2101 0
-2101 2162 0
-15 -2101 2102 0
-2102 2163 0
-16 -2102 2103 0
-2103 2164 0
-17 -2103 2104 0
-2104 2165 0
-18 -2104 2105 0
-2105 2166 0
-19 -2105 2106 0
-2106 2167 0
-20 -2106 2107 0
-2107 2168 0
-21 -2107 2108 0
-2108 2169 0
-22 -2108 2109 0
-2109 2170 0
-23 -2109 2110 0
-2110 2171 0
-24 -2110 2111 0
-2111 2172 0
-25 -2111 2112 0
-2112 2173 0
-26 -2112 2113 0
-2113 2174 0
-27 -2113 2114 0
-2114 2175 0
-28 -2114 2115 0
-2115 2176 0
-29 -2115 2116 0
-2116 2177 0
-30 -2116 2117 0
-2117 2178 0
-31 -2117 2118 0
-2118 2179 0
-32 -2118 2119 0
-2119 2180 0
-33 -2119 2120 0
-2120 2181 0
-34 -2120 2121 0
-2121 2182 0
-35 -2121 2122 0
-2122 2183 0
-36 -2122 2123 0
-2123 2184 0
-37 -2123 2124 0
-2124 2185 0
-38 -2124 2125 0
-2125 2186 0
-39 -2125 2126 0
-2126 2187 0
-40 -2126 2127 0
-2127 2188 0
-41 -2127 2128 0
-2128 2189 0
-42 -2128 2129 0
-2129 2190 0
-43 -2129 2130 0
-2130 2191 0
-44 -2130 2131 0
-2131 2192 0
-45 -2131 2132 0
-2132 2193 0
-46 -2132 2133 0
-2133 2194 0
-47 -2133 2134 0
-2134 2195 0
-48 -2134 2135 0
-2135 2196 0
-49 -2135 2136 0
-2136 2197 0
-50 -2136 2137 0
-2137 2198 0
-51 -2137 2138 0
-2138 2199 0
-52 -2138 2139 0
-2139 2200 0
-53 -2139 2140 0
-2140 2201 0
-54 -2140 2141 0
-2141 2202 0
-55 -2141 2142 0
-2142 2203 0
-56 -2142 2143 0
-2143 2204 0
-57 -2143 2144 0
-2144 2205 0
-58 -2144 2145 0
-2145 2206 0
-59 -2145 2146 0
-2146 2207 0
-60 -2146 2147 0
-2147 2208 0
-61 -2147 2148 0
-2148 2209 0
-62 -2148 2149 0
-2149 2210 0
-63 -2149 2150 0
-2150 2211 0
-64 -2150 2151 0
-2151 2212 0
-65 -2151 2152 0
-2152 2213 0
-66 -2152 2153 0
-2153 2214 0
-67 -2153 2154 0
-2154 2215 0
-68 -2154 2155 0
-2155 2216 0
-69 -2155 2156 0
-2156 2217 0
-70 -2156 2157 0
-2157 2218 0
-71 -2157 2158 0
-2158 2219 0
-72 -2158 0
-12 2159 0
-2159 2220 0
-13 -2159 2160 0
-2160 2221 0
-14 -2160 2161 0
-2161 2222 0
-15 -2161 2162 0
-2162 2223 0
-16 -2162 2163 0
-2163 2224 0
-17 -2163 2164 0
-2164 2225 0
-18 -2164 2165 0
-2165 2226 0
-19 -2165 2166 0
-2166 2227 0
-20 -2166 2167 0
-2167 2228 0
-21 -2167 2168 0
-2168 2229 0
-22 -2168 2169 0
-2169 2230 0
-23 -2169 2170 0
-2170 2231 0
-24 -2170 2171 0
-2171 2232 0
-25 -2171 2172 0
-2172 2233 0
-26 -2172 2173 0
-2173 2234 0
-27 -2173 2174 0
-2174 2235 0
-28 -2174 2175 0
-2175 2236 0
-29 -2175 2176 0
-2176 2237 0
-30 -2176 2177 0
-2177 2238 0
-31 -2177 2178 0
-2178 2239 0
-32 -2178 2179 0
-2179 2240 0
-33 -2179 2180 0
-2180 2241 0
-34 -2180 2181 0
-2181 2242 0
-35 -2181 2182 0
-2182 2243 0
-36 -2182 2183 0
-2183 2244 0
-37 -2183 2184 0
-2184 2245 0
-38 -2184 2185 0
-2185 2246 0
-39 -2185 2186 0
-2186 2247 0
-40 -2186 2187 0
-2187 2248 0
-41 -2187 2188 0
-2188 2249 0
-42 -2188 2189 0
-2189 2250 0
-43 -2189 2190 0
-2190 2251 0
-44 -2190 2191 0
-2191 2252 0
-45 -2191 2192 0
-2192 2253 0
-46 -2192 2193 0
-2193 2254 0
-47 -2193 2194 0
-2194 2255 0
-48 -2194 2195 0
-2195 2256 0
-49 -2195 2196 0
-2196 2257 0
-50 -2196 2197 0
-2197 2258 0
-51 -2197 2198 0
-2198 2259 0
-52 -2198 2199 0
-2199 2260 0
-53 -2199 2200 0
-2200 2261 0
-54 -2200 2201 0
-2201 2262 0
-55 -2201 2202 0
-2202 2263 0
-56 -2202 2203 0
-2203 2264 0
-57 -2203 2204 0
-2204 2265 0
-58 -2204 2205 0
-2205 2266 0
-59 -2205 2206 0
-2206 2267 0
-60 -2206 2207 0
-2207 2268 0
-61 -2207 2208 0
-2208 2269 0
-62 -2208 2209 0
-2209 2270 0
-63 -2209 2210 0
-2210 2271 0
-64 -2210 2211 0
-2211 2272 0
-65 -2211 2212 0
-2212 2273 0
-66 -2212 2213 0
-2213 2274 0
-67 -2213 2214 0
-2214 2275 0
-68 -2214 2215 0
-2215 2276 0
-69 -2215 2216 0
-2216 2277 0
-70 -2216 2217 0
-2217 2278 0
-71 -2217 2218 0
-2218 2279 0
-72 -2218 2219 0
-2219 2280 0
-73 -2219 0
-13 2220 0
-2220 2281 0
-14 -2220 2221 0
-2221 2282 0
-15 -2221 2222 0
-2222 2283 0
-16 -2222 2223 0
-2223 2284 0
-17 -2223 2224 0
-2224 2285 0
-18 -2224 2225 0
-2225 2286 0
-19 -2225 2226 0
-2226 2287 0
-20 -2226 2227 0
-2227 2288 0
-21 -2227 2228 0
-2228 2289 0
-22 -2228 2229 0
-2229 2290 0
-23 -2229 2230 0
-2230 2291 0
-24 -2230 2231 0
-2231 2292 0
-25 -2231 2232 0
-2232 2293 0
-26 -2232 2233 0
-2233 2294 0
-27 -2233 2234 0
-2234 2295 0
-28 -2234 2235 0
-2235 2296 0
-29 -2235 2236 0
-2236 2297 0
-30 -2236 2237 0
-2237 2298 0
-31 -2237 2238 0
-2238 2299 0
-32 -2238 2239 0
-2239 2300 0
-33 -2239 2240 0
-2240 2301 0
-34 -2240 2241 0
-2241 2302 0
-35 -2241 2242 0
-2242 2303 0
-36 -2242 2243 0
-2243 2304 0
-37 -2243 2244 0
-2244 2305 0
-38 -2244 2245 0
-2245 2306 0
-39 -2245 2246 0
-2246 2307 0
-40 -2246 2247 0
-2247 2308 0
-41 -2247 2248 0
-2248 2309 0
-42 -2248 2249 0
-2249 2310 0
-43 -2249 2250 0
-2250 2311 0
-44 -2250 2251 0
-2251 2312 0
-45 -2251 2252 0
-2252 2313 0
-46 -2252 2253 0
-2253 2314 0
-47 -2253 2254 0
-2254 2315 0
-48 -2254 2255 0
-2255 2316 0
-49 -2255 2256 0
-2256 2317 0
-50 -2256 2257 0
-2257 2318 0
-51 -2257 2258 0
-2258 2319 0
-52 -2258 2259 0
-2259 2320 0
-53 -2259 2260 0
-2260 2321 0
-54 -2260 2261 0
-2261 2322 0
-55 -2261 2262 0
-2262 2323 0
-56 -2262 2263 0
-2263 2324 0
-57 -2263 2264 0
-2264 2325 0
-58 -2264 2265 0
-2265 2326 0
-59 -2265 2266 0
-2266 2327 0
-60 -2266 2267 0
-2267 2328 0
-61 -2267 2268 0
-2268 2329 0
-62 -2268 2269 0
-2269 2330 0
-63 -2269 2270 0
-2270 2331 0
-64 -2270 2271 0
-2271 2332 0
-65 -2271 2272 0
-2272 2333 0
-66 -2272 2273 0
-2273 2334 0
-67 -2273 2274 0
-2274 2335 0
-68 -2274 2275 0
-2275 2336 0
-69 -2275 2276 0
-2276 2337 0
-70 -2276 2277 0
-2277 2338 0
-71 -2277 2278 0
-2278 2339 0
-72 -2278 2279 0
-2279 2340 0
-73 -2279 2280 0
-2280 2341 0
-74 -2280 0
-14 2281 0
-2281 2342 0
-15 -2281 2282 0
-2282 2343 0
-16 -2282 2283 0
-2283 2344 0
-17 -2283 2284 0
-2284 2345 0
-18 -2284 2285 0
-2285 2346 0
-19 -2285 2286 0
-2286 2347 0
-20 -2286 2287 0
-2287 2348 0
-21 -2287 2288 0
-2288 2349 0
-22 -2288 2289 0
-2289 2350 0
-23 -2289 2290 0
-2290 2351 0
-24 -2290 2291 0
-2291 2352 0
-25 -2291 2292 0
-2292 2353 0
-26 -2292 2293 0
-2293 2354 0
-27 -2293 2294 0
-2294 2355 0
-28 -2294 2295 0
-2295 2356 0
-29 -2295 2296 0
-2296 2357 0
-30 -2296 2297 0
-2297 2358 0
-31 -2297 2298 0
-2298 2359 0
-32 -2298 2299 0
-2299 2360 0
-33 -2299 2300 0
-2300 2361 0
-34 -2300 2301 0
-2301 2362 0
-35 -2301 2302 0
-2302 2363 0
-36 -2302 2303 0
-2303 2364 0
-37 -2303 2304 0
-2304 2365 0
-38 -2304 2305 0
-2305 2366 0
-39 -2305 2306 0
-2306 2367 0
-40 -2306 2307 0
-2307 2368 0
-41 -2307 2308 0
-2308 2369 0
-42 -2308 2309 0
-2309 2370 0
-43 -2309 2310 0
-2310 2371 0
-44 -2310 2311 0
-2311 2372 0
-45 -2311 2312 0
-2312 2373 0
-46 -2312 2313 0
-2313 2374 0
-47 -2313 2314 0
-2314 2375 0
-48 -2314 2315 0
-2315 2376 0
-49 -2315 2316 0
-2316 2377 0
-50 -2316 2317 0
-2317 2378 0
-51 -2317 2318 0
-2318 2379 0
-52 -2318 2319 0
-2319 2380 0
-53 -2319 2320 0
-2320 2381 0
-54 -2320 2321 0
-2321 2382 0
-55 -2321 2322 0
-2322 2383 0
-56 -2322 2323 0
-2323 2384 0
-57 -2323 2324 0
-2324 2385 0
-58 -2324 2325 0
-2325 2386 0
-59 -2325 2326 0
-2326 2387 0
-60 -2326 2327 0
-2327 2388 0
-61 -2327 2328 0
-2328 2389 0
-62 -2328 2329 0
-2329 2390 0
-63 -2329 2330 0
-2330 2391 0
-64 -2330 2331 0
-2331 2392 0
-65 -2331 2332 0
-2332 2393 0
-66 -2332 2333 0
-2333 2394 0
-67 -2333 2334 0
-2334 2395 0
-68 -2334 2335 0
-2335 2396 0
-69 -2335 2336 0
-2336 2397 0
-70 -2336 2337 0
-2337 2398 0
-71 -2337 2338 0
-2338 2399 0
-72 -2338 2339 0
-2339 2400 0
-73 -2339 2340 0
-2340 2401 0
-74 -2340 2341 0
-2341 2402 0
-75 -2341 0
-15 2342 0
-2342 2403 0
-16 -2342 2343 0
-2343 2404 0
-17 -2343 2344 0
-2344 2405 0
-18 -2344 2345 0
-2345 2406 0
-19 -2345 2346 0
-2346 2407 0
-20 -2346 2347 0
-2347 2408 0
-21 -2347 2348 0
-2348 2409 0
-22 -2348 2349 0
-2349 2410 0
-23 -2349 2350 0
-2350 2411 0
-24 -2350 2351 0
-2351 2412 0
-25 -2351 2352 0
-2352 2413 0
-26 -2352 2353 0
-2353 2414 0
-27 -2353 2354 0
-2354 2415 0
-28 -2354 2355 0
-2355 2416 0
-29 -2355 2356 0
-2356 2417 0
-30 -2356 2357 0
-2357 2418 0
-31 -2357 2358 0
-2358 2419 0
-32 -2358 2359 0
-2359 2420 0
-33 -2359 2360 0
-2360 2421 0
-34 -2360 2361 0
-2361 2422 0
-35 -2361 2362 0
-2362 2423 0
-36 -2362 2363 0
-2363 2424 0
-37 -2363 2364 0
-2364 2425 0
-38 -2364 2365 0
-2365 2426 0
-39 -2365 2366 0
-2366 2427 0
-40 -2366 2367 0
-2367 2428 0
-41 -2367 2368 0
-2368 2429 0
-42 -2368 2369 0
-2369 2430 0
-43 -2369 2370 0
-2370 2431 0
-44 -2370 2371 0
-2371 2432 0
-45 -2371 2372 0
-2372 2433 0
-46 -2372 2373 0
-2373 2434 0
-47 -2373 2374 0
-2374 2435 0
-48 -2374 2375 0
-2375 2436 0
-49 -2375 2376 0
-2376 2437 0
-50 -2376 2377 0
-2377 2438 0
-51 -2377 2378 0
-2378 2439 0
-52 -2378 2379 0
-2379 2440 0
-53 -2379 2380 0
-2380 2441 0
-54 -2380 2381 0
-2381 2442 0
-55 -2381 2382 0
-2382 2443 0
-56 -2382 2383 0
-2383 2444 0
-57 -2383 2384 0
-2384 2445 0
-58 -2384 2385 0
-2385 2446 0
-59 -2385 2386 0
-2386 2447 0
-60 -2386 2387 0
-2387 2448 0
-61 -2387 2388 0
-2388 2449 0
-62 -2388 2389 0
-2389 2450 0
-63 -2389 2390 0
-2390 2451 0
-64 -2390 2391 0
-2391 2452 0
-65 -2391 2392 0
-2392 2453 0
-66 -2392 2393 0
-2393 2454 0
-67 -2393 2394 0
-2394 2455 0
-68 -2394 2395 0
-2395 2456 0
-69 -2395 2396 0
-2396 2457 0
-70 -2396 2397 0
-2397 2458 0
-71 -2397 2398 0
-2398 2459 0
-72 -2398 2399 0
-2399 2460 0
-73 -2399 2400 0
-2400 2461 0
-74 -2400 2401 0
-2401 2462 0
-75 -2401 2402 0
-2402 2463 0
-76 -2402 0
-16 2403 0
-2403 2464 0
-17 -2403 2404 0
-2404 2465 0
-18 -2404 2405 0
-2405 2466 0
-19 -2405 2406 0
-2406 2467 0
-20 -2406 2407 0
-2407 2468 0
-21 -2407 2408 0
-2408 2469 0
-22 -2408 2409 0
-2409 2470 0
-23 -2409 2410 0
-2410 2471 0
-24 -2410 2411 0
-2411 2472 0
-25 -2411 2412 0
-2412 2473 0
-26 -2412 2413 0
-2413 2474 0
-27 -2413 2414 0
-2414 2475 0
-28 -2414 2415 0
-2415 2476 0
-29 -2415 2416 0
-2416 2477 0
-30 -2416 2417 0
-2417 2478 0
-31 -2417 2418 0
-2418 2479 0
-32 -2418 2419 0
-2419 2480 0
-33 -2419 2420 0
-2420 2481 0
-34 -2420 2421 0
-2421 2482 0
-35 -2421 2422 0
-2422 2483 0
-36 -2422 2423 0
-2423 2484 0
-37 -2423 2424 0
-2424 2485 0
-38 -2424 2425 0
-2425 2486 0
-39 -2425 2426 0
-2426 2487 0
-40 -2426 2427 0
-2427 2488 0
-41 -2427 2428 0
-2428 2489 0
-42 -2428 2429 0
-2429 2490 0
-43 -2429 2430 0
-2430 2491 0
-44 -2430 2431 0
-2431 2492 0
-45 -2431 2432 0
-2432 2493 0
-46 -2432 2433 0
-2433 2494 0
-47 -2433 2434 0
-2434 2495 0
-48 -2434 2435 0
-2435 2496 0
-49 -2435 2436 0
-2436 2497 0
-50 -2436 2437 0
-2437 2498 0
-51 -2437 2438 0
-2438 2499 0
-52 -2438 2439 0
-2439 2500 0
-53 -2439 2440 0
-2440 2501 0
-54 -2440 2441 0
-2441 2502 0
-55 -2441 2442 0
-2442 2503 0
-56 -2442 2443 0
-2443 2504 0
-57 -2443 2444 0
-2444 2505 0
-58 -2444 2445 0
-2445 2506 0
-59 -2445 2446 0
-2446 2507 0
-60 -2446 2447 0
-2447 2508 0
-61 -2447 2448 0
-2448 2509 0
-62 -2448 2449 0
-2449 2510 0
-63 -2449 2450 0
-2450 2511 0
-64 -2450 2451 0
-2451 2512 0
-65 -2451 2452 0
-2452 2513 0
-66 -2452 2453 0
-2453 2514 0
-67 -2453 2454 0
-2454 2515 0
-68 -2454 2455 0
-2455 2516 0
-69 -2455 2456 0
-2456 2517 0
-70 -2456 2457 0
-2457 2518 0
-71 -2457 2458 0
-2458 2519 0
-72 -2458 2459 0
-2459 2520 0
-73 -2459 2460 0
-2460 2521 0
-74 -2460 2461 0
-2461 2522 0
-75 -2461 2462 0
-2462 2523 0
-76 -2462 2463 0
-2463 2524 0
-77 -2463 0
-17 2464 0
-2464 2525 0
-18 -2464 2465 0
-2465 2526 0
-19 -2465 2466 0
-2466 2527 0
-20 -2466 2467 0
-2467 2528 0
-21 -2467 2468 0
-2468 2529 0
-22 -2468 2469 0
-2469 2530 0
-23 -2469 2470 0
-2470 2531 0
-24 -2470 2471 0
-2471 2532 0
-25 -2471 2472 0
-2472 2533 0
-26 -2472 2473 0
-2473 2534 0
-27 -2473 2474 0
-2474 2535 0
-28 -2474 2475 0
-2475 2536 0
-29 -2475 2476 0
-2476 2537 0
-30 -2476 2477 0
-2477 2538 0
-31 -2477 2478 0
-2478 2539 0
-32 -2478 2479 0
-2479 2540 0
-33 -2479 2480 0
-2480 2541 0
-34 -2480 2481 0
-2481 2542 0
-35 -2481 2482 0
-2482 2543 0
-36 -2482 2483 0
-2483 2544 0
-37 -2483 2484 0
-2484 2545 0
-38 -2484 2485 0
-2485 2546 0
-39 -2485 2486 0
-2486 2547 0
-40 -2486 2487 0
-2487 2548 0
-41 -2487 2488 0
-2488 2549 0
-42 -2488 2489 0
-2489 2550 0
-43 -2489 2490 0
-2490 2551 0
-44 -2490 2491 0
-2491 2552 0
-45 -2491 2492 0
-2492 2553 0
-46 -2492 2493 0
-2493 2554 0
-47 -2493 2494 0
-2494 2555 0
-48 -2494 2495 0
-2495 2556 0
-49 -2495 2496 0
-2496 2557 0
-50 -2496 2497 0
-2497 2558 0
-51 -2497 2498 0
-2498 2559 0
-52 -2498 2499 0
-2499 2560 0
-53 -2499 2500 0
-2500 2561 0
-54 -2500 2501 0
-2501 2562 0
-55 -2501 2502 0
-2502 2563 0
-56 -2502 2503 0
-2503 2564 0
-57 -2503 2504 0
-2504 2565 0
-58 -2504 2505 0
-2505 2566 0
-59 -2505 2506 0
-2506 2567 0
-60 -2506 2507 0
-2507 2568 0
-61 -2507 2508 0
-2508 2569 0
-62 -2508 2509 0
-2509 2570 0
-63 -2509 2510 0
-2510 2571 0
-64 -2510 2511 0
-2511 2572 0
-65 -2511 2512 0
-2512 2573 0
-66 -2512 2513 0
-2513 2574 0
-67 -2513 2514 0
-2514 2575 0
-68 -2514 2515 0
-2515 2576 0
-69 -2515 2516 0
-2516 2577 0
-70 -2516 2517 0
-2517 2578 0
-71 -2517 2518 0
-2518 2579 0
-72 -2518 2519 0
-2519 2580 0
-73 -2519 2520 0
-2520 2581 0
-74 -2520 2521 0
-2521 2582 0
-75 -2521 2522 0
-2522 2583 0
-76 -2522 2523 0
-2523 2584 0
-77 -2523 2524 0
-2524 2585 0
-78 -2524 0
-18 2525 0
-2525 2586 0
-19 -2525 2526 0
-2526 2587 0
-20 -2526 2527 0
-2527 2588 0
-21 -2527 2528 0
-2528 2589 0
-22 -2528 2529 0
-2529 2590 0
-23 -2529 2530 0
-2530 2591 0
-24 -2530 2531 0
-2531 2592 0
-25 -2531 2532 0
-2532 2593 0
-26 -2532 2533 0
-2533 2594 0
-27 -2533 2534 0
-2534 2595 0
-28 -2534 2535 0
-2535 2596 0
-29 -2535 2536 0
-2536 2597 0
-30 -2536 2537 0
-2537 2598 0
-31 -2537 2538 0
-2538 2599 0
-32 -2538 2539 0
-2539 2600 0
-33 -2539 2540 0
-2540 2601 0
-34 -2540 2541 0
-2541 2602 0
-35 -2541 2542 0
-2542 2603 0
-36 -2542 2543 0
-2543 2604 0
-37 -2543 2544 0
-2544 2605 0
-38 -2544 2545 0
-2545 2606 0
-39 -2545 2546 0
-2546 2607 0
-40 -2546 2547 0
-2547 2608 0
-41 -2547 2548 0
-2548 2609 0
-42 -2548 2549 0
-2549 2610 0
-43 -2549 2550 0
-2550 2611 0
-44 -2550 2551 0
-2551 2612 0
-45 -2551 2552 0
-2552 2613 0
-46 -2552 2553 0
-2553 2614 0
-47 -2553 2554 0
-2554 2615 0
-48 -2554 2555 0
-2555 2616 0
-49 -2555 2556 0
-2556 2617 0
-50 -2556 2557 0
-2557 2618 0
-51 -2557 2558 0
-2558 2619 0
-52 -2558 2559 0
-2559 2620 0
-53 -2559 2560 0
-2560 2621 0
-54 -2560 2561 0
-2561 2622 0
-55 -2561 2562 0
-2562 2623 0
-56 -2562 2563 0
-2563 2624 0
-57 -2563 2564 0
-2564 2625 0
-58 -2564 2565 0
-2565 2626 0
-59 -2565 2566 0
-2566 2627 0
-60 -2566 2567 0
-2567 2628 0
-61 -2567 2568 0
-2568 2629 0
-62 -2568 2569 0
-2569 2630 0
-63 -2569 2570 0
-2570 2631 0
-64 -2570 2571 0
-2571 2632 0
-65 -2571 2572 0
-2572 2633 0
-66 -2572 2573 0
-2573 2634 0
-67 -2573 2574 0
-2574 2635 0
-68 -2574 2575 0
-2575 2636 0
-69 -2575 2576 0
-2576 2637 0
-70 -2576 2577 0
-2577 2638 0
-71 -2577 2578 0
-2578 2639 0
-72 -2578 2579 0
-2579 2640 0
-73 -2579 2580 0
-2580 2641 0
-74 -2580 2581 0
-2581 2642 0
-75 -2581 2582 0
-2582 2643 0
-76 -2582 2583 0
-2583 2644 0
-77 -2583 2584 0
-2584 2645 0
-78 -2584 2585 0
-2585 2646 0
-79 -2585 0
-19 2586 0
-2586 2647 0
-20 -2586 2587 0
-2587 2648 0
-21 -2587 2588 0
-2588 2649 0
-22 -2588 2589 0
-2589 2650 0
-23 -2589 2590 0
-2590 2651 0
-24 -2590 2591 0
-2591 2652 0
-25 -2591 2592 0
-2592 2653 0
-26 -2592 2593 0
-2593 2654 0
-27 -2593 2594 0
-2594 2655 0
-28 -2594 2595 0
-2595 2656 0
-29 -2595 2596 0
-2596 2657 0
-30 -2596 2597 0
-2597 2658 0
-31 -2597 2598 0
-2598 2659 0
-32 -2598 2599 0
-2599 2660 0
-33 -2599 2600 0
-2600 2661 0
-34 -2600 2601 0
-2601 2662 0
-35 -2601 2602 0
-2602 2663 0
-36 -2602 2603 0
-2603 2664 0
-37 -2603 2604 0
-2604 2665 0
-38 -2604 2605 0
-2605 2666 0
-39 -2605 2606 0
-2606 2667 0
-40 -2606 2607 0
-2607 2668 0
-41 -2607 2608 0
-2608 2669 0
-42 -2608 2609 0
-2609 2670 0
-43 -2609 2610 0
-2610 2671 0
-44 -2610 2611 0
-2611 2672 0
-45 -2611 2612 0
-2612 2673 0
-46 -2612 2613 0
-2613 2674 0
-47 -2613 2614 0
-2614 2675 0
-48 -2614 2615 0
-2615 2676 0
-49 -2615 2616 0
-2616 2677 0
-50 -2616 2617 0
-2617 2678 0
-51 -2617 2618 0
-2618 2679 0
-52 -2618 2619 0
-2619 2680 0
-53 -2619 2620 0
-2620 2681 0
-54 -2620 2621 0
-2621 2682 0
-55 -2621 2622 0
-2622 2683 0
-56 -2622 2623 0
-2623 2684 0
-57 -2623 2624 0
-2624 2685 0
-58 -2624 2625 0
-2625 2686 0
-59 -2625 2626 0
-2626 2687 0
-60 -2626 2627 0
-2627 2688 0
-61 -2627 2628 0
-2628 2689 0
-62 -2628 2629 0
-2629 2690 0
-63 -2629 2630 0
-2630 2691 0
-64 -2630 2631 0
-2631 2692 0
-65 -2631 2632 0
-2632 2693 0
-66 -2632 2633 0
-2633 2694 0
-67 -2633 2634 0
-2634 2695 0
-68 -2634 2635 0
-2635 2696 0
-69 -2635 2636 0
-2636 2697 0
-70 -2636 2637 0
-2637 2698 0
-71 -2637 2638 0
-2638 2699 0
-72 -2638 2639 0
-2639 2700 0
-73 -2639 2640 0
-2640 2701 0
-74 -2640 2641 0
-2641 2702 0
-75 -2641 2642 0
-2642 2703 0
-76 -2642 2643 0
-2643 2704 0
-77 -2643 2644 0
-2644 2705 0
-78 -2644 2645 0
-2645 2706 0
-79 -2645 2646 0
-2646 2707 0
-80 -2646 0
-20 2647 0
-2647 2708 0
-21 -2647 2648 0
-2648 2709 0
-22 -2648 2649 0
-2649 2710 0
-23 -2649 2650 0
-2650 2711 0
-24 -2650 2651 0
-2651 2712 0
-25 -2651 2652 0
-2652 2713 0
-26 -2652 2653 0
-2653 2714 0
-27 -2653 2654 0
-2654 2715 0
-28 -2654 2655 0
-2655 2716 0
-29 -2655 2656 0
-2656 2717 0
-30 -2656 2657 0
-2657 2718 0
-31 -2657 2658 0
-2658 2719 0
-32 -2658 2659 0
-2659 2720 0
-33 -2659 2660 0
-2660 2721 0
-34 -2660 2661 0
-2661 2722 0
-35 -2661 2662 0
-2662 2723 0
-36 -2662 2663 0
-2663 2724 0
-37 -2663 2664 0
-2664 2725 0
-38 -2664 2665 0
-2665 2726 0
-39 -2665 2666 0
-2666 2727 0
-40 -2666 2667 0
-2667 2728 0
-41 -2667 2668 0
-2668 2729 0
-42 -2668 2669 0
-2669 2730 0
-43 -2669 2670 0
-2670 2731 0
-44 -2670 2671 0
-2671 2732 0
-45 -2671 2672 0
-2672 2733 0
-46 -2672 2673 0
-2673 2734 0
-47 -2673 2674 0
-2674 2735 0
-48 -2674 2675 0
-2675 2736 0
-49 -2675 2676 0
-2676 2737 0
-50 -2676 2677 0
-2677 2738 0
-51 -2677 2678 0
-2678 2739 0
-52 -2678 2679 0
-2679 2740 0
-53 -2679 2680 0
-2680 2741 0
-54 -2680 2681 0
-2681 2742 0
-55 -2681 2682 0
-2682 2743 0
-56 -2682 2683 0
-2683 2744 0
-57 -2683 2684 0
-2684 2745 0
-58 -2684 2685 0
-2685 2746 0
-59 -2685 2686 0
-2686 2747 0
-60 -2686 2687 0
-2687 2748 0
-61 -2687 2688 0
-2688 2749 0
-62 -2688 2689 0
-2689 2750 0
-63 -2689 2690 0
-2690 2751 0
-64 -2690 2691 0
-2691 2752 0
-65 -2691 2692 0
-2692 2753 0
-66 -2692 2693 0
-2693 2754 0
-67 -2693 2694 0
-2694 2755 0
-68 -2694 2695 0
-2695 2756 0
-69 -2695 2696 0
-2696 2757 0
-70 -2696 2697 0
-2697 2758 0
-71 -2697 2698 0
-2698 2759 0
-72 -2698 2699 0
-2699 2760 0
-73 -2699 2700 0
-2700 2761 0
-74 -2700 2701 0
-2701 2762 0
-75 -2701 2702 0
-2702 2763 0
-76 -2702 2703 0
-2703 2764 0
-77 -2703 2704 0
-2704 2765 0
-78 -2704 2705 0
-2705 2766 0
-79 -2705 2706 0
-2706 2767 0
-80 -2706 2707 0
-2707 2768 0
-81 -2707 0
-21 2708 0
-2708 2769 0
-22 -2708 2709 0
-2709 2770 0
-23 -2709 2710 0
-2710 2771 0
-24 -2710 2711 0
-2711 2772 0
-25 -2711 2712 0
-2712 2773 0
-26 -2712 2713 0
-2713 2774 0
-27 -2713 2714 0
-2714 2775 0
-28 -2714 2715 0
-2715 2776 0
-29 -2715 2716 0
-2716 2777 0
-30 -2716 2717 0
-2717 2778 0
-31 -2717 2718 0
-2718 2779 0
-32 -2718 2719 0
-2719 2780 0
-33 -2719 2720 0
-2720 2781 0
-34 -2720 2721 0
-2721 2782 0
-35 -2721 2722 0
-2722 2783 0
-36 -2722 2723 0
-2723 2784 0
-37 -2723 2724 0
-2724 2785 0
-38 -2724 2725 0
-2725 2786 0
-39 -2725 2726 0
-2726 2787 0
-40 -2726 2727 0
-2727 2788 0
-41 -2727 2728 0
-2728 2789 0
-42 -2728 2729 0
-2729 2790 0
-43 -2729 2730 0
-2730 2791 0
-44 -2730 2731 0
-2731 2792 0
-45 -2731 2732 0
-2732 2793 0
-46 -2732 2733 0
-2733 2794 0
-47 -2733 2734 0
-2734 2795 0
-48 -2734 2735 0
-2735 2796 0
-49 -2735 2736 0
-2736 2797 0
-50 -2736 2737 0
-2737 2798 0
-51 -2737 2738 0
-2738 2799 0
-52 -2738 2739 0
-2739 2800 0
-53 -2739 2740 0
-2740 2801 0
-54 -2740 2741 0
-2741 2802 0
-55 -2741 2742 0
-2742 2803 0
-56 -2742 2743 0
-2743 2804 0
-57 -2743 2744 0
-2744 2805 0
-58 -2744 2745 0
-2745 2806 0
-59 -2745 2746 0
-2746 2807 0
-60 -2746 2747 0
-2747 2808 0
-61 -2747 2748 0
-2748 2809 0
-62 -2748 2749 0
-2749 2810 0
-63 -2749 2750 0
-2750 2811 0
-64 -2750 2751 0
-2751 2812 0
-65 -2751 2752 0
-2752 2813 0
-66 -2752 2753 0
-2753 2814 0
-67 -2753 2754 0
-2754 2815 0
-68 -2754 2755 0
-2755 2816 0
-69 -2755 2756 0
-2756 2817 0
-70 -2756 2757 0
-2757 2818 0
-71 -2757 2758 0
-2758 2819 0
-72 -2758 2759 0
-2759 2820 0
-73 -2759 2760 0
-2760 2821 0
-74 -2760 2761 0
-2761 2822 0
-75 -2761 2762 0
-2762 2823 0
-76 -2762 2763 0
-2763 2824 0
-77 -2763 2764 0
-2764 2825 0
-78 -2764 2765 0
-2765 2826 0
-79 -2765 2766 0
-2766 2827 0
-80 -2766 2767 0
-2767 2828 0
-81 -2767 2768 0
-2768 2829 0
-82 -2768 0
-22 2769 0
-2769 2830 0
-23 -2769 2770 0
-2770 2831 0
-24 -2770 2771 0
-2771 2832 0
-25 -2771 2772 0
-2772 2833 0
-26 -2772 2773 0
-2773 2834 0
-27 -2773 2774 0
-2774 2835 0
-28 -2774 2775 0
-2775 2836 0
-29 -2775 2776 0
-2776 2837 0
-30 -2776 2777 0
-2777 2838 0
-31 -2777 2778 0
-2778 2839 0
-32 -2778 2779 0
-2779 2840 0
-33 -2779 2780 0
-2780 2841 0
-34 -2780 2781 0
-2781 2842 0
-35 -2781 2782 0
-2782 2843 0
-36 -2782 2783 0
-2783 2844 0
-37 -2783 2784 0
-2784 2845 0
-38 -2784 2785 0
-2785 2846 0
-39 -2785 2786 0
-2786 2847 0
-40 -2786 2787 0
-2787 2848 0
-41 -2787 2788 0
-2788 2849 0
-42 -2788 2789 0
-2789 2850 0
-43 -2789 2790 0
-2790 2851 0
-44 -2790 2791 0
-2791 2852 0
-45 -2791 2792 0
-2792 2853 0
-46 -2792 2793 0
-2793 2854 0
-47 -2793 2794 0
-2794 2855 0
-48 -2794 2795 0
-2795 2856 0
-49 -2795 2796 0
-2796 2857 0
-50 -2796 2797 0
-2797 2858 0
-51 -2797 2798 0
-2798 2859 0
-52 -2798 2799 0
-2799 2860 0
-53 -2799 2800 0
-2800 2861 0
-54 -2800 2801 0
-2801 2862 0
-55 -2801 2802 0
-2802 2863 0
-56 -2802 2803 0
-2803 2864 0
-57 -2803 2804 0
-2804 2865 0
-58 -2804 2805 0
-2805 2866 0
-59 -2805 2806 0
-2806 2867 0
-60 -2806 2807 0
-2807 2868 0
-61 -2807 2808 0
-2808 2869 0
-62 -2808 2809 0
-2809 2870 0
-63 -2809 2810 0
-2810 2871 0
-64 -2810 2811 0
-2811 2872 0
-65 -2811 2812 0
-2812 2873 0
-66 -2812 2813 0
-2813 2874 0
-67 -2813 2814 0
-2814 2875 0
-68 -2814 2815 0
-2815 2876 0
-69 -2815 2816 0
-2816 2877 0
-70 -2816 2817 0
-2817 2878 0
-71 -2817 2818 0
-2818 2879 0
-72 -2818 2819 0
-2819 2880 0
-73 -2819 2820 0
-2820 2881 0
-74 -2820 2821 0
-2821 2882 0
-75 -2821 2822 0
-2822 2883 0
-76 -2822 2823 0
-2823 2884 0
-77 -2823 2824 0
-2824 2885 0
-78 -2824 2825 0
-2825 2886 0
-79 -2825 2826 0
-2826 2887 0
-80 -2826 2827 0
-2827 2888 0
-81 -2827 2828 0
-2828 2889 0
-82 -2828 2829 0
-2829 2890 0
-83 -2829 0
-23 2830 0
-24 -2830 2831 0
-25 -2831 2832 0
-26 -2832 2833 0
-27 -2833 2834 0
-28 -2834 2835 0
-29 -2835 2836 0
-30 -2836 2837 0
-31 -2837 2838 0
-32 -2838 2839 0
-33 -2839 2840 0
-34 -2840 2841 0
-35 -2841 2842 0
-36 -2842 2843 0
-37 -2843 2844 0
-38 -2844 2845 0
-39 -2845 2846 0
-40 -2846 2847 0
-41 -2847 2848 0
-42 -2848 2849 0
-43 -2849 2850 0
-44 -2850 2851 0
-45 -2851 2852 0
-46 -2852 2853 0
-47 -2853 2854 0
-48 -2854 2855 0
-49 -2855 2856 0
-50 -2856 2857 0
-51 -2857 2858 0
-52 -2858 2859 0
-53 -2859 2860 0
-54 -2860 2861 0
-55 -2861 2862 0
-56 -2862 2863 0
-57 -2863 2864 0
-58 -2864 2865 0
-59 -2865 2866 0
-60 -2866 2867 0
-61 -2867 2868 0
-62 -2868 2869 0
-63 -2869 2870 0
-64 -2870 2871 0
-65 -2871 2872 0
-66 -2872 2873 0
-67 -2873 2874 0
-68 -2874 2875 0
-69 -2875 2876 0
-70 -2876 2877 0
-71 -2877 2878 0
-72 -2878 2879 0
-73 -2879 2880 0
-74 -2880 2881 0
-75 -2881 2882 0
-76 -2882 2883 0
-77 -2883 2884 0
-78 -2884 2885 0
-79 -2885 2886 0
-80 -2886 2887 0
-81 -2887 2888 0
-82 -2888 2889 0
-83 -2889 2890 0
-84 -2890 0
