p cnf 3844 13154
-498 0
-499 0
-500 0
-2 501 0
-1 501 0
1 2 -501 0
-1 -2 502 0
1 -502 0
-498 502 0
498 2 -502 0
-498 -2 503 0
498 -503 0
-499 503 0
499 2 -503 0
-499 -2 504 0
499 -504 0
-500 504 0
500 2 -504 0
-3 505 0
-501 505 0
501 3 -505 0
-501 -3 506 0
501 -506 0
-502 506 0
502 3 -506 0
-502 -3 507 0
502 -507 0
-503 507 0
503 3 -507 0
-503 -3 508 0
503 -508 0
-504 508 0
504 3 -508 0
-4 509 0
-505 509 0
505 4 -509 0
-505 -4 510 0
505 -510 0
-506 510 0
506 4 -510 0
-506 -4 511 0
506 -511 0
-507 511 0
507 4 -511 0
-507 -4 512 0
507 -512 0
-508 512 0
508 4 -512 0
-5 513 0
-509 513 0
509 5 -513 0
-509 -5 514 0
509 -514 0
-510 514 0
510 5 -514 0
-510 -5 515 0
510 -515 0
-511 515 0
511 5 -515 0
-511 -5 516 0
511 -516 0
-512 516 0
512 5 -516 0
-6 517 0
-513 517 0
513 6 -517 0
-513 -6 518 0
513 -518 0
-514 518 0
514 6 -518 0
-514 -6 519 0
514 -519 0
-515 519 0
515 6 -519 0
-515 -6 520 0
515 -520 0
-516 520 0
516 6 -520 0
-7 521 0
-517 521 0
517 7 -521 0
-517 -7 522 0
517 -522 0
-518 522 0
518 7 -522 0
-518 -7 523 0
518 -523 0
-519 523 0
519 7 -523 0
-519 -7 524 0
519 -524 0
-520 524 0
520 7 -524 0
-8 525 0
-521 525 0
521 8 -525 0
-521 -8 526 0
521 -526 0
-522 526 0
522 8 -526 0
-522 -8 527 0
522 -527 0
-523 527 0
523 8 -527 0
-523 -8 528 0
523 -528 0
-524 528 0
524 8 -528 0
-9 529 0
-525 529 0
525 9 -529 0
-525 -9 530 0
525 -530 0
-526 530 0
526 9 -530 0
-526 -9 531 0
526 -531 0
-527 531 0
527 9 -531 0
-527 -9 532 0
527 -532 0
-528 532 0
528 9 -532 0
-10 533 0
-529 533 0
529 10 -533 0
-529 -10 534 0
529 -534 0
-530 534 0
530 10 -534 0
-530 -10 535 0
530 -535 0
-531 535 0
531 10 -535 0
-531 -10 536 0
531 -536 0
-532 536 0
532 10 -536 0
-11 537 0
-533 537 0
533 11 -537 0
-533 -11 538 0
533 -538 0
-534 538 0
534 11 -538 0
-534 -11 539 0
534 -539 0
-535 539 0
535 11 -539 0
-535 -11 540 0
535 -540 0
-536 540 0
536 11 -540 0
-12 541 0
-537 541 0
537 12 -541 0
-537 -12 542 0
537 -542 0
-538 542 0
538 12 -542 0
-538 -12 543 0
538 -543 0
-539 543 0
539 12 -543 0
-539 -12 544 0
539 -544 0
-540 544 0
540 12 -544 0
-13 545 0
-541 545 0
541 13 -545 0
-541 -13 546 0
541 -546 0
-542 546 0
542 13 -546 0
-542 -13 547 0
542 -547 0
-543 547 0
543 13 -547 0
-543 -13 548 0
543 -548 0
-544 548 0
544 13 -548 0
-14 549 0
-545 549 0
545 14 -549 0
-545 -14 550 0
545 -550 0
-546 550 0
546 14 -550 0
-546 -14 551 0
546 -551 0
-547 551 0
547 14 -551 0
-547 -14 552 0
547 -552 0
-548 552 0
548 14 -552 0
-15 553 0
-549 553 0
549 15 -553 0
-549 -15 554 0
549 -554 0
-550 554 0
550 15 -554 0
-550 -15 555 0
550 -555 0
-551 555 0
551 15 -555 0
-551 -15 556 0
551 -556 0
-552 556 0
552 15 -556 0
-16 557 0
-553 557 0
553 16 -557 0
-553 -16 558 0
553 -558 0
-554 558 0
554 16 -558 0
-554 -16 559 0
554 -559 0
-555 559 0
555 16 -559 0
-555 -16 560 0
555 -560 0
-556 560 0
556 16 -560 0
-17 561 0
-557 561 0
557 17 -561 0
-557 -17 562 0
557 -562 0
-558 562 0
558 17 -562 0
-558 -17 563 0
558 -563 0
-559 563 0
559 17 -563 0
-559 -17 564 0
559 -564 0
-560 564 0
560 17 -564 0
-18 565 0
-561 565 0
561 18 -565 0
-561 -18 566 0
561 -566 0
-562 566 0
562 18 -566 0
-562 -18 567 0
562 -567 0
-563 567 0
563 18 -567 0
-563 -18 568 0
563 -568 0
-564 568 0
564 18 -568 0
-19 569 0
-565 569 0
565 19 -569 0
-565 -19 570 0
565 -570 0
-566 570 0
566 19 -570 0
-566 -19 571 0
566 -571 0
-567 571 0
567 19 -571 0
-567 -19 572 0
567 -572 0
-568 572 0
568 19 -572 0
-20 573 0
-569 573 0
569 20 -573 0
-569 -20 574 0
569 -574 0
-570 574 0
570 20 -574 0
-570 -20 575 0
570 -575 0
-571 575 0
571 20 -575 0
-571 -20 576 0
571 -576 0
-572 576 0
572 20 -576 0
-21 577 0
-573 577 0
573 21 -577 0
-573 -21 578 0
573 -578 0
-574 578 0
574 21 -578 0
-574 -21 579 0
574 -579 0
-575 579 0
575 21 -579 0
-575 -21 580 0
575 -580 0
-576 580 0
576 21 -580 0
-22 581 0
-577 581 0
577 22 -581 0
-577 -22 582 0
577 -582 0
-578 582 0
578 22 -582 0
-578 -22 583 0
578 -583 0
-579 583 0
579 22 -583 0
-579 -22 584 0
579 -584 0
-580 584 0
580 22 -584 0
-23 585 0
-581 585 0
581 23 -585 0
-581 -23 586 0
581 -586 0
-582 586 0
582 23 -586 0
-582 -23 587 0
582 -587 0
-583 587 0
583 23 -587 0
-583 -23 588 0
583 -588 0
-584 588 0
584 23 -588 0
-24 589 0
-585 589 0
585 24 -589 0
-585 -24 590 0
585 -590 0
-586 590 0
586 24 -590 0
-586 -24 591 0
586 -591 0
-587 591 0
587 24 -591 0
-587 -24 592 0
587 -592 0
-588 592 0
588 24 -592 0
-25 593 0
-589 593 0
589 25 -593 0
-589 -25 594 0
589 -594 0
-590 594 0
590 25 -594 0
-590 -25 595 0
590 -595 0
-591 595 0
591 25 -595 0
-591 -25 596 0
591 -596 0
-592 596 0
592 25 -596 0
-26 597 0
-593 597 0
593 26 -597 0
-593 -26 598 0
593 -598 0
-594 598 0
594 26 -598 0
-594 -26 599 0
594 -599 0
-595 599 0
595 26 -599 0
-595 -26 600 0
595 -600 0
-596 600 0
596 26 -600 0
-27 601 0
-597 601 0
597 27 -601 0
-597 -27 602 0
597 -602 0
-598 602 0
598 27 -602 0
-598 -27 603 0
598 -603 0
-599 603 0
599 27 -603 0
-599 -27 604 0
599 -604 0
-600 604 0
600 27 -604 0
-28 605 0
-601 605 0
601 28 -605 0
-601 -28 606 0
601 -606 0
-602 606 0
602 28 -606 0
-602 -28 607 0
602 -607 0
-603 607 0
603 28 -607 0
-603 -28 608 0
603 -608 0
-604 608 0
604 28 -608 0
-29 609 0
-605 609 0
605 29 -609 0
-605 -29 610 0
605 -610 0
-606 610 0
606 29 -610 0
-606 -29 611 0
606 -611 0
-607 611 0
607 29 -611 0
-607 -29 612 0
607 -612 0
-608 612 0
608 29 -612 0
-30 613 0
-609 613 0
609 30 -613 0
-609 -30 614 0
609 -614 0
-610 614 0
610 30 -614 0
-610 -30 615 0
610 -615 0
-611 615 0
611 30 -615 0
-611 -30 616 0
611 -616 0
-612 616 0
612 30 -616 0
-31 617 0
-613 617 0
613 31 -617 0
-613 -31 618 0
613 -618 0
-614 618 0
614 31 -618 0
-614 -31 619 0
614 -619 0
-615 619 0
615 31 -619 0
-615 -31 620 0
615 -620 0
-616 620 0
616 31 -620 0
-500 -2 0
-504 -3 0
-508 -4 0
-512 -5 0
-516 -6 0
-520 -7 0
-524 -8 0
-528 -9 0
-532 -10 0
-536 -11 0
-540 -12 0
-544 -13 0
-548 -14 0
-552 -15 0
-556 -16 0
-560 -17 0
-564 -18 0
-568 -19 0
-572 -20 0
-576 -21 0
-580 -22 0
-584 -23 0
-588 -24 0
-592 -25 0
-596 -26 0
-600 -27 0
-604 -28 0
-608 -29 0
-612 -30 0
-616 -31 0
620 0
-622 0
-623 0
-624 0
-32 625 0
-1 625 0
1 32 -625 0
-1 -32 626 0
1 -626 0
-622 626 0
622 32 -626 0
-622 -32 627 0
622 -627 0
-623 627 0
623 32 -627 0
-623 -32 628 0
623 -628 0
-624 628 0
624 32 -628 0
-33 629 0
-625 629 0
625 33 -629 0
-625 -33 630 0
625 -630 0
-626 630 0
626 33 -630 0
-626 -33 631 0
626 -631 0
-627 631 0
627 33 -631 0
-627 -33 632 0
627 -632 0
-628 632 0
628 33 -632 0
-34 633 0
-629 633 0
629 34 -633 0
-629 -34 634 0
629 -634 0
-630 634 0
630 34 -634 0
-630 -34 635 0
630 -635 0
-631 635 0
631 34 -635 0
-631 -34 636 0
631 -636 0
-632 636 0
632 34 -636 0
-35 637 0
-633 637 0
633 35 -637 0
-633 -35 638 0
633 -638 0
-634 638 0
634 35 -638 0
-634 -35 639 0
634 -639 0
-635 639 0
635 35 -639 0
-635 -35 640 0
635 -640 0
-636 640 0
636 35 -640 0
-36 641 0
-637 641 0
637 36 -641 0
-637 -36 642 0
637 -642 0
-638 642 0
638 36 -642 0
-638 -36 643 0
638 -643 0
-639 643 0
639 36 -643 0
-639 -36 644 0
639 -644 0
-640 644 0
640 36 -644 0
-37 645 0
-641 645 0
641 37 -645 0
-641 -37 646 0
641 -646 0
-642 646 0
642 37 -646 0
-642 -37 647 0
642 -647 0
-643 647 0
643 37 -647 0
-643 -37 648 0
643 -648 0
-644 648 0
644 37 -648 0
-38 649 0
-645 649 0
645 38 -649 0
-645 -38 650 0
645 -650 0
-646 650 0
646 38 -650 0
-646 -38 651 0
646 -651 0
-647 651 0
647 38 -651 0
-647 -38 652 0
647 -652 0
-648 652 0
648 38 -652 0
-39 653 0
-649 653 0
649 39 -653 0
-649 -39 654 0
649 -654 0
-650 654 0
650 39 -654 0
-650 -39 655 0
650 -655 0
-651 655 0
651 39 -655 0
-651 -39 656 0
651 -656 0
-652 656 0
652 39 -656 0
-40 657 0
-653 657 0
653 40 -657 0
-653 -40 658 0
653 -658 0
-654 658 0
654 40 -658 0
-654 -40 659 0
654 -659 0
-655 659 0
655 40 -659 0
-655 -40 660 0
655 -660 0
-656 660 0
656 40 -660 0
-41 661 0
-657 661 0
657 41 -661 0
-657 -41 662 0
657 -662 0
-658 662 0
658 41 -662 0
-658 -41 663 0
658 -663 0
-659 663 0
659 41 -663 0
-659 -41 664 0
659 -664 0
-660 664 0
660 41 -664 0
-42 665 0
-661 665 0
661 42 -665 0
-661 -42 666 0
661 -666 0
-662 666 0
662 42 -666 0
-662 -42 667 0
662 -667 0
-663 667 0
663 42 -667 0
-663 -42 668 0
663 -668 0
-664 668 0
664 42 -668 0
-43 669 0
-665 669 0
665 43 -669 0
-665 -43 670 0
665 -670 0
-666 670 0
666 43 -670 0
-666 -43 671 0
666 -671 0
-667 671 0
667 43 -671 0
-667 -43 672 0
667 -672 0
-668 672 0
668 43 -672 0
-44 673 0
-669 673 0
669 44 -673 0
-669 -44 674 0
669 -674 0
-670 674 0
670 44 -674 0
-670 -44 675 0
670 -675 0
-671 675 0
671 44 -675 0
-671 -44 676 0
671 -676 0
-672 676 0
672 44 -676 0
-45 677 0
-673 677 0
673 45 -677 0
-673 -45 678 0
673 -678 0
-674 678 0
674 45 -678 0
-674 -45 679 0
674 -679 0
-675 679 0
675 45 -679 0
-675 -45 680 0
675 -680 0
-676 680 0
676 45 -680 0
-46 681 0
-677 681 0
677 46 -681 0
-677 -46 682 0
677 -682 0
-678 682 0
678 46 -682 0
-678 -46 683 0
678 -683 0
-679 683 0
679 46 -683 0
-679 -46 684 0
679 -684 0
-680 684 0
680 46 -684 0
-47 685 0
-681 685 0
681 47 -685 0
-681 -47 686 0
681 -686 0
-682 686 0
682 47 -686 0
-682 -47 687 0
682 -687 0
-683 687 0
683 47 -687 0
-683 -47 688 0
683 -688 0
-684 688 0
684 47 -688 0
-48 689 0
-685 689 0
685 48 -689 0
-685 -48 690 0
685 -690 0
-686 690 0
686 48 -690 0
-686 -48 691 0
686 -691 0
-687 691 0
687 48 -691 0
-687 -48 692 0
687 -692 0
-688 692 0
688 48 -692 0
-49 693 0
-689 693 0
689 49 -693 0
-689 -49 694 0
689 -694 0
-690 694 0
690 49 -694 0
-690 -49 695 0
690 -695 0
-691 695 0
691 49 -695 0
-691 -49 696 0
691 -696 0
-692 696 0
692 49 -696 0
-50 697 0
-693 697 0
693 50 -697 0
-693 -50 698 0
693 -698 0
-694 698 0
694 50 -698 0
-694 -50 699 0
694 -699 0
-695 699 0
695 50 -699 0
-695 -50 700 0
695 -700 0
-696 700 0
696 50 -700 0
-51 701 0
-697 701 0
697 51 -701 0
-697 -51 702 0
697 -702 0
-698 702 0
698 51 -702 0
-698 -51 703 0
698 -703 0
-699 703 0
699 51 -703 0
-699 -51 704 0
699 -704 0
-700 704 0
700 51 -704 0
-52 705 0
-701 705 0
701 52 -705 0
-701 -52 706 0
701 -706 0
-702 706 0
702 52 -706 0
-702 -52 707 0
702 -707 0
-703 707 0
703 52 -707 0
-703 -52 708 0
703 -708 0
-704 708 0
704 52 -708 0
-53 709 0
-705 709 0
705 53 -709 0
-705 -53 710 0
705 -710 0
-706 710 0
706 53 -710 0
-706 -53 711 0
706 -711 0
-707 711 0
707 53 -711 0
-707 -53 712 0
707 -712 0
-708 712 0
708 53 -712 0
-54 713 0
-709 713 0
709 54 -713 0
-709 -54 714 0
709 -714 0
-710 714 0
710 54 -714 0
-710 -54 715 0
710 -715 0
-711 715 0
711 54 -715 0
-711 -54 716 0
711 -716 0
-712 716 0
712 54 -716 0
-55 717 0
-713 717 0
713 55 -717 0
-713 -55 718 0
713 -718 0
-714 718 0
714 55 -718 0
-714 -55 719 0
714 -719 0
-715 719 0
715 55 -719 0
-715 -55 720 0
715 -720 0
-716 720 0
716 55 -720 0
-56 721 0
-717 721 0
717 56 -721 0
-717 -56 722 0
717 -722 0
-718 722 0
718 56 -722 0
-718 -56 723 0
718 -723 0
-719 723 0
719 56 -723 0
-719 -56 724 0
719 -724 0
-720 724 0
720 56 -724 0
-57 725 0
-721 725 0
721 57 -725 0
-721 -57 726 0
721 -726 0
-722 726 0
722 57 -726 0
-722 -57 727 0
722 -727 0
-723 727 0
723 57 -727 0
-723 -57 728 0
723 -728 0
-724 728 0
724 57 -728 0
-58 729 0
-725 729 0
725 58 -729 0
-725 -58 730 0
725 -730 0
-726 730 0
726 58 -730 0
-726 -58 731 0
726 -731 0
-727 731 0
727 58 -731 0
-727 -58 732 0
727 -732 0
-728 732 0
728 58 -732 0
-59 733 0
-729 733 0
729 59 -733 0
-729 -59 734 0
729 -734 0
-730 734 0
730 59 -734 0
-730 -59 735 0
730 -735 0
-731 735 0
731 59 -735 0
-731 -59 736 0
731 -736 0
-732 736 0
732 59 -736 0
-60 737 0
-733 737 0
733 60 -737 0
-733 -60 738 0
733 -738 0
-734 738 0
734 60 -738 0
-734 -60 739 0
734 -739 0
-735 739 0
735 60 -739 0
-735 -60 740 0
735 -740 0
-736 740 0
736 60 -740 0
-61 741 0
-737 741 0
737 61 -741 0
-737 -61 742 0
737 -742 0
-738 742 0
738 61 -742 0
-738 -61 743 0
738 -743 0
-739 743 0
739 61 -743 0
-739 -61 744 0
739 -744 0
-740 744 0
740 61 -744 0
-624 -32 0
-628 -33 0
-632 -34 0
-636 -35 0
-640 -36 0
-644 -37 0
-648 -38 0
-652 -39 0
-656 -40 0
-660 -41 0
-664 -42 0
-668 -43 0
-672 -44 0
-676 -45 0
-680 -46 0
-684 -47 0
-688 -48 0
-692 -49 0
-696 -50 0
-700 -51 0
-704 -52 0
-708 -53 0
-712 -54 0
-716 -55 0
-720 -56 0
-724 -57 0
-728 -58 0
-732 -59 0
-736 -60 0
-740 -61 0
744 0
-746 0
-747 0
-748 0
-32 749 0
-2 749 0
2 32 -749 0
-2 -32 750 0
2 -750 0
-746 750 0
746 32 -750 0
-746 -32 751 0
746 -751 0
-747 751 0
747 32 -751 0
-747 -32 752 0
747 -752 0
-748 752 0
748 32 -752 0
-62 753 0
-749 753 0
749 62 -753 0
-749 -62 754 0
749 -754 0
-750 754 0
750 62 -754 0
-750 -62 755 0
750 -755 0
-751 755 0
751 62 -755 0
-751 -62 756 0
751 -756 0
-752 756 0
752 62 -756 0
-63 757 0
-753 757 0
753 63 -757 0
-753 -63 758 0
753 -758 0
-754 758 0
754 63 -758 0
-754 -63 759 0
754 -759 0
-755 759 0
755 63 -759 0
-755 -63 760 0
755 -760 0
-756 760 0
756 63 -760 0
-64 761 0
-757 761 0
757 64 -761 0
-757 -64 762 0
757 -762 0
-758 762 0
758 64 -762 0
-758 -64 763 0
758 -763 0
-759 763 0
759 64 -763 0
-759 -64 764 0
759 -764 0
-760 764 0
760 64 -764 0
-65 765 0
-761 765 0
761 65 -765 0
-761 -65 766 0
761 -766 0
-762 766 0
762 65 -766 0
-762 -65 767 0
762 -767 0
-763 767 0
763 65 -767 0
-763 -65 768 0
763 -768 0
-764 768 0
764 65 -768 0
-66 769 0
-765 769 0
765 66 -769 0
-765 -66 770 0
765 -770 0
-766 770 0
766 66 -770 0
-766 -66 771 0
766 -771 0
-767 771 0
767 66 -771 0
-767 -66 772 0
767 -772 0
-768 772 0
768 66 -772 0
-67 773 0
-769 773 0
769 67 -773 0
-769 -67 774 0
769 -774 0
-770 774 0
770 67 -774 0
-770 -67 775 0
770 -775 0
-771 775 0
771 67 -775 0
-771 -67 776 0
771 -776 0
-772 776 0
772 67 -776 0
-68 777 0
-773 777 0
773 68 -777 0
-773 -68 778 0
773 -778 0
-774 778 0
774 68 -778 0
-774 -68 779 0
774 -779 0
-775 779 0
775 68 -779 0
-775 -68 780 0
775 -780 0
-776 780 0
776 68 -780 0
-69 781 0
-777 781 0
777 69 -781 0
-777 -69 782 0
777 -782 0
-778 782 0
778 69 -782 0
-778 -69 783 0
778 -783 0
-779 783 0
779 69 -783 0
-779 -69 784 0
779 -784 0
-780 784 0
780 69 -784 0
-70 785 0
-781 785 0
781 70 -785 0
-781 -70 786 0
781 -786 0
-782 786 0
782 70 -786 0
-782 -70 787 0
782 -787 0
-783 787 0
783 70 -787 0
-783 -70 788 0
783 -788 0
-784 788 0
784 70 -788 0
-71 789 0
-785 789 0
785 71 -789 0
-785 -71 790 0
785 -790 0
-786 790 0
786 71 -790 0
-786 -71 791 0
786 -791 0
-787 791 0
787 71 -791 0
-787 -71 792 0
787 -792 0
-788 792 0
788 71 -792 0
-72 793 0
-789 793 0
789 72 -793 0
-789 -72 794 0
789 -794 0
-790 794 0
790 72 -794 0
-790 -72 795 0
790 -795 0
-791 795 0
791 72 -795 0
-791 -72 796 0
791 -796 0
-792 796 0
792 72 -796 0
-73 797 0
-793 797 0
793 73 -797 0
-793 -73 798 0
793 -798 0
-794 798 0
794 73 -798 0
-794 -73 799 0
794 -799 0
-795 799 0
795 73 -799 0
-795 -73 800 0
795 -800 0
-796 800 0
796 73 -800 0
-74 801 0
-797 801 0
797 74 -801 0
-797 -74 802 0
797 -802 0
-798 802 0
798 74 -802 0
-798 -74 803 0
798 -803 0
-799 803 0
799 74 -803 0
-799 -74 804 0
799 -804 0
-800 804 0
800 74 -804 0
-75 805 0
-801 805 0
801 75 -805 0
-801 -75 806 0
801 -806 0
-802 806 0
802 75 -806 0
-802 -75 807 0
802 -807 0
-803 807 0
803 75 -807 0
-803 -75 808 0
803 -808 0
-804 808 0
804 75 -808 0
-76 809 0
-805 809 0
805 76 -809 0
-805 -76 810 0
805 -810 0
-806 810 0
806 76 -810 0
-806 -76 811 0
806 -811 0
-807 811 0
807 76 -811 0
-807 -76 812 0
807 -812 0
-808 812 0
808 76 -812 0
-77 813 0
-809 813 0
809 77 -813 0
-809 -77 814 0
809 -814 0
-810 814 0
810 77 -814 0
-810 -77 815 0
810 -815 0
-811 815 0
811 77 -815 0
-811 -77 816 0
811 -816 0
-812 816 0
812 77 -816 0
-78 817 0
-813 817 0
813 78 -817 0
-813 -78 818 0
813 -818 0
-814 818 0
814 78 -818 0
-814 -78 819 0
814 -819 0
-815 819 0
815 78 -819 0
-815 -78 820 0
815 -820 0
-816 820 0
816 78 -820 0
-79 821 0
-817 821 0
817 79 -821 0
-817 -79 822 0
817 -822 0
-818 822 0
818 79 -822 0
-818 -79 823 0
818 -823 0
-819 823 0
819 79 -823 0
-819 -79 824 0
819 -824 0
-820 824 0
820 79 -824 0
-80 825 0
-821 825 0
821 80 -825 0
-821 -80 826 0
821 -826 0
-822 826 0
822 80 -826 0
-822 -80 827 0
822 -827 0
-823 827 0
823 80 -827 0
-823 -80 828 0
823 -828 0
-824 828 0
824 80 -828 0
-81 829 0
-825 829 0
825 81 -829 0
-825 -81 830 0
825 -830 0
-826 830 0
826 81 -830 0
-826 -81 831 0
826 -831 0
-827 831 0
827 81 -831 0
-827 -81 832 0
827 -832 0
-828 832 0
828 81 -832 0
-82 833 0
-829 833 0
829 82 -833 0
-829 -82 834 0
829 -834 0
-830 834 0
830 82 -834 0
-830 -82 835 0
830 -835 0
-831 835 0
831 82 -835 0
-831 -82 836 0
831 -836 0
-832 836 0
832 82 -836 0
-83 837 0
-833 837 0
833 83 -837 0
-833 -83 838 0
833 -838 0
-834 838 0
834 83 -838 0
-834 -83 839 0
834 -839 0
-835 839 0
835 83 -839 0
-835 -83 840 0
835 -840 0
-836 840 0
836 83 -840 0
-84 841 0
-837 841 0
837 84 -841 0
-837 -84 842 0
837 -842 0
-838 842 0
838 84 -842 0
-838 -84 843 0
838 -843 0
-839 843 0
839 84 -843 0
-839 -84 844 0
839 -844 0
-840 844 0
840 84 -844 0
-85 845 0
-841 845 0
841 85 -845 0
-841 -85 846 0
841 -846 0
-842 846 0
842 85 -846 0
-842 -85 847 0
842 -847 0
-843 847 0
843 85 -847 0
-843 -85 848 0
843 -848 0
-844 848 0
844 85 -848 0
-86 849 0
-845 849 0
845 86 -849 0
-845 -86 850 0
845 -850 0
-846 850 0
846 86 -850 0
-846 -86 851 0
846 -851 0
-847 851 0
847 86 -851 0
-847 -86 852 0
847 -852 0
-848 852 0
848 86 -852 0
-87 853 0
-849 853 0
849 87 -853 0
-849 -87 854 0
849 -854 0
-850 854 0
850 87 -854 0
-850 -87 855 0
850 -855 0
-851 855 0
851 87 -855 0
-851 -87 856 0
851 -856 0
-852 856 0
852 87 -856 0
-88 857 0
-853 857 0
853 88 -857 0
-853 -88 858 0
853 -858 0
-854 858 0
854 88 -858 0
-854 -88 859 0
854 -859 0
-855 859 0
855 88 -859 0
-855 -88 860 0
855 -860 0
-856 860 0
856 88 -860 0
-89 861 0
-857 861 0
857 89 -861 0
-857 -89 862 0
857 -862 0
-858 862 0
858 89 -862 0
-858 -89 863 0
858 -863 0
-859 863 0
859 89 -863 0
-859 -89 864 0
859 -864 0
-860 864 0
860 89 -864 0
-90 865 0
-861 865 0
861 90 -865 0
-861 -90 866 0
861 -866 0
-862 866 0
862 90 -866 0
-862 -90 867 0
862 -867 0
-863 867 0
863 90 -867 0
-863 -90 868 0
863 -868 0
-864 868 0
864 90 -868 0
-748 -32 0
-752 -62 0
-756 -63 0
-760 -64 0
-764 -65 0
-768 -66 0
-772 -67 0
-776 -68 0
-780 -69 0
-784 -70 0
-788 -71 0
-792 -72 0
-796 -73 0
-800 -74 0
-804 -75 0
-808 -76 0
-812 -77 0
-816 -78 0
-820 -79 0
-824 -80 0
-828 -81 0
-832 -82 0
-836 -83 0
-840 -84 0
-844 -85 0
-848 -86 0
-852 -87 0
-856 -88 0
-860 -89 0
-864 -90 0
868 0
-870 0
-871 0
-872 0
-33 873 0
-3 873 0
3 33 -873 0
-3 -33 874 0
3 -874 0
-870 874 0
870 33 -874 0
-870 -33 875 0
870 -875 0
-871 875 0
871 33 -875 0
-871 -33 876 0
871 -876 0
-872 876 0
872 33 -876 0
-62 877 0
-873 877 0
873 62 -877 0
-873 -62 878 0
873 -878 0
-874 878 0
874 62 -878 0
-874 -62 879 0
874 -879 0
-875 879 0
875 62 -879 0
-875 -62 880 0
875 -880 0
-876 880 0
876 62 -880 0
-91 881 0
-877 881 0
877 91 -881 0
-877 -91 882 0
877 -882 0
-878 882 0
878 91 -882 0
-878 -91 883 0
878 -883 0
-879 883 0
879 91 -883 0
-879 -91 884 0
879 -884 0
-880 884 0
880 91 -884 0
-92 885 0
-881 885 0
881 92 -885 0
-881 -92 886 0
881 -886 0
-882 886 0
882 92 -886 0
-882 -92 887 0
882 -887 0
-883 887 0
883 92 -887 0
-883 -92 888 0
883 -888 0
-884 888 0
884 92 -888 0
-93 889 0
-885 889 0
885 93 -889 0
-885 -93 890 0
885 -890 0
-886 890 0
886 93 -890 0
-886 -93 891 0
886 -891 0
-887 891 0
887 93 -891 0
-887 -93 892 0
887 -892 0
-888 892 0
888 93 -892 0
-94 893 0
-889 893 0
889 94 -893 0
-889 -94 894 0
889 -894 0
-890 894 0
890 94 -894 0
-890 -94 895 0
890 -895 0
-891 895 0
891 94 -895 0
-891 -94 896 0
891 -896 0
-892 896 0
892 94 -896 0
-95 897 0
-893 897 0
893 95 -897 0
-893 -95 898 0
893 -898 0
-894 898 0
894 95 -898 0
-894 -95 899 0
894 -899 0
-895 899 0
895 95 -899 0
-895 -95 900 0
895 -900 0
-896 900 0
896 95 -900 0
-96 901 0
-897 901 0
897 96 -901 0
-897 -96 902 0
897 -902 0
-898 902 0
898 96 -902 0
-898 -96 903 0
898 -903 0
-899 903 0
899 96 -903 0
-899 -96 904 0
899 -904 0
-900 904 0
900 96 -904 0
-97 905 0
-901 905 0
901 97 -905 0
-901 -97 906 0
901 -906 0
-902 906 0
902 97 -906 0
-902 -97 907 0
902 -907 0
-903 907 0
903 97 -907 0
-903 -97 908 0
903 -908 0
-904 908 0
904 97 -908 0
-98 909 0
-905 909 0
905 98 -909 0
-905 -98 910 0
905 -910 0
-906 910 0
906 98 -910 0
-906 -98 911 0
906 -911 0
-907 911 0
907 98 -911 0
-907 -98 912 0
907 -912 0
-908 912 0
908 98 -912 0
-99 913 0
-909 913 0
909 99 -913 0
-909 -99 914 0
909 -914 0
-910 914 0
910 99 -914 0
-910 -99 915 0
910 -915 0
-911 915 0
911 99 -915 0
-911 -99 916 0
911 -916 0
-912 916 0
912 99 -916 0
-100 917 0
-913 917 0
913 100 -917 0
-913 -100 918 0
913 -918 0
-914 918 0
914 100 -918 0
-914 -100 919 0
914 -919 0
-915 919 0
915 100 -919 0
-915 -100 920 0
915 -920 0
-916 920 0
916 100 -920 0
-101 921 0
-917 921 0
917 101 -921 0
-917 -101 922 0
917 -922 0
-918 922 0
918 101 -922 0
-918 -101 923 0
918 -923 0
-919 923 0
919 101 -923 0
-919 -101 924 0
919 -924 0
-920 924 0
920 101 -924 0
-102 925 0
-921 925 0
921 102 -925 0
-921 -102 926 0
921 -926 0
-922 926 0
922 102 -926 0
-922 -102 927 0
922 -927 0
-923 927 0
923 102 -927 0
-923 -102 928 0
923 -928 0
-924 928 0
924 102 -928 0
-103 929 0
-925 929 0
925 103 -929 0
-925 -103 930 0
925 -930 0
-926 930 0
926 103 -930 0
-926 -103 931 0
926 -931 0
-927 931 0
927 103 -931 0
-927 -103 932 0
927 -932 0
-928 932 0
928 103 -932 0
-104 933 0
-929 933 0
929 104 -933 0
-929 -104 934 0
929 -934 0
-930 934 0
930 104 -934 0
-930 -104 935 0
930 -935 0
-931 935 0
931 104 -935 0
-931 -104 936 0
931 -936 0
-932 936 0
932 104 -936 0
-105 937 0
-933 937 0
933 105 -937 0
-933 -105 938 0
933 -938 0
-934 938 0
934 105 -938 0
-934 -105 939 0
934 -939 0
-935 939 0
935 105 -939 0
-935 -105 940 0
935 -940 0
-936 940 0
936 105 -940 0
-106 941 0
-937 941 0
937 106 -941 0
-937 -106 942 0
937 -942 0
-938 942 0
938 106 -942 0
-938 -106 943 0
938 -943 0
-939 943 0
939 106 -943 0
-939 -106 944 0
939 -944 0
-940 944 0
940 106 -944 0
-107 945 0
-941 945 0
941 107 -945 0
-941 -107 946 0
941 -946 0
-942 946 0
942 107 -946 0
-942 -107 947 0
942 -947 0
-943 947 0
943 107 -947 0
-943 -107 948 0
943 -948 0
-944 948 0
944 107 -948 0
-108 949 0
-945 949 0
945 108 -949 0
-945 -108 950 0
945 -950 0
-946 950 0
946 108 -950 0
-946 -108 951 0
946 -951 0
-947 951 0
947 108 -951 0
-947 -108 952 0
947 -952 0
-948 952 0
948 108 -952 0
-109 953 0
-949 953 0
949 109 -953 0
-949 -109 954 0
949 -954 0
-950 954 0
950 109 -954 0
-950 -109 955 0
950 -955 0
-951 955 0
951 109 -955 0
-951 -109 956 0
951 -956 0
-952 956 0
952 109 -956 0
-110 957 0
-953 957 0
953 110 -957 0
-953 -110 958 0
953 -958 0
-954 958 0
954 110 -958 0
-954 -110 959 0
954 -959 0
-955 959 0
955 110 -959 0
-955 -110 960 0
955 -960 0
-956 960 0
956 110 -960 0
-111 961 0
-957 961 0
957 111 -961 0
-957 -111 962 0
957 -962 0
-958 962 0
958 111 -962 0
-958 -111 963 0
958 -963 0
-959 963 0
959 111 -963 0
-959 -111 964 0
959 -964 0
-960 964 0
960 111 -964 0
-112 965 0
-961 965 0
961 112 -965 0
-961 -112 966 0
961 -966 0
-962 966 0
962 112 -966 0
-962 -112 967 0
962 -967 0
-963 967 0
963 112 -967 0
-963 -112 968 0
963 -968 0
-964 968 0
964 112 -968 0
-113 969 0
-965 969 0
965 113 -969 0
-965 -113 970 0
965 -970 0
-966 970 0
966 113 -970 0
-966 -113 971 0
966 -971 0
-967 971 0
967 113 -971 0
-967 -113 972 0
967 -972 0
-968 972 0
968 113 -972 0
-114 973 0
-969 973 0
969 114 -973 0
-969 -114 974 0
969 -974 0
-970 974 0
970 114 -974 0
-970 -114 975 0
970 -975 0
-971 975 0
971 114 -975 0
-971 -114 976 0
971 -976 0
-972 976 0
972 114 -976 0
-115 977 0
-973 977 0
973 115 -977 0
-973 -115 978 0
973 -978 0
-974 978 0
974 115 -978 0
-974 -115 979 0
974 -979 0
-975 979 0
975 115 -979 0
-975 -115 980 0
975 -980 0
-976 980 0
976 115 -980 0
-116 981 0
-977 981 0
977 116 -981 0
-977 -116 982 0
977 -982 0
-978 982 0
978 116 -982 0
-978 -116 983 0
978 -983 0
-979 983 0
979 116 -983 0
-979 -116 984 0
979 -984 0
-980 984 0
980 116 -984 0
-117 985 0
-981 985 0
981 117 -985 0
-981 -117 986 0
981 -986 0
-982 986 0
982 117 -986 0
-982 -117 987 0
982 -987 0
-983 987 0
983 117 -987 0
-983 -117 988 0
983 -988 0
-984 988 0
984 117 -988 0
-118 989 0
-985 989 0
985 118 -989 0
-985 -118 990 0
985 -990 0
-986 990 0
986 118 -990 0
-986 -118 991 0
986 -991 0
-987 991 0
987 118 -991 0
-987 -118 992 0
987 -992 0
-988 992 0
988 118 -992 0
-872 -33 0
-876 -62 0
-880 -91 0
-884 -92 0
-888 -93 0
-892 -94 0
-896 -95 0
-900 -96 0
-904 -97 0
-908 -98 0
-912 -99 0
-916 -100 0
-920 -101 0
-924 -102 0
-928 -103 0
-932 -104 0
-936 -105 0
-940 -106 0
-944 -107 0
-948 -108 0
-952 -109 0
-956 -110 0
-960 -111 0
-964 -112 0
-968 -113 0
-972 -114 0
-976 -115 0
-980 -116 0
-984 -117 0
-988 -118 0
992 0
-994 0
-995 0
-996 0
-34 997 0
-4 997 0
4 34 -997 0
-4 -34 998 0
4 -998 0
-994 998 0
994 34 -998 0
-994 -34 999 0
994 -999 0
-995 999 0
995 34 -999 0
-995 -34 1000 0
995 -1000 0
-996 1000 0
996 34 -1000 0
-63 1001 0
-997 1001 0
997 63 -1001 0
-997 -63 1002 0
997 -1002 0
-998 1002 0
998 63 -1002 0
-998 -63 1003 0
998 -1003 0
-999 1003 0
999 63 -1003 0
-999 -63 1004 0
999 -1004 0
-1000 1004 0
1000 63 -1004 0
-91 1005 0
-1001 1005 0
1001 91 -1005 0
-1001 -91 1006 0
1001 -1006 0
-1002 1006 0
1002 91 -1006 0
-1002 -91 1007 0
1002 -1007 0
-1003 1007 0
1003 91 -1007 0
-1003 -91 1008 0
1003 -1008 0
-1004 1008 0
1004 91 -1008 0
-119 1009 0
-1005 1009 0
1005 119 -1009 0
-1005 -119 1010 0
1005 -1010 0
-1006 1010 0
1006 119 -1010 0
-1006 -119 1011 0
1006 -1011 0
-1007 1011 0
1007 119 -1011 0
-1007 -119 1012 0
1007 -1012 0
-1008 1012 0
1008 119 -1012 0
-120 1013 0
-1009 1013 0
1009 120 -1013 0
-1009 -120 1014 0
1009 -1014 0
-1010 1014 0
1010 120 -1014 0
-1010 -120 1015 0
1010 -1015 0
-1011 1015 0
1011 120 -1015 0
-1011 -120 1016 0
1011 -1016 0
-1012 1016 0
1012 120 -1016 0
-121 1017 0
-1013 1017 0
1013 121 -1017 0
-1013 -121 1018 0
1013 -1018 0
-1014 1018 0
1014 121 -1018 0
-1014 -121 1019 0
1014 -1019 0
-1015 1019 0
1015 121 -1019 0
-1015 -121 1020 0
1015 -1020 0
-1016 1020 0
1016 121 -1020 0
-122 1021 0
-1017 1021 0
1017 122 -1021 0
-1017 -122 1022 0
1017 -1022 0
-1018 1022 0
1018 122 -1022 0
-1018 -122 1023 0
1018 -1023 0
-1019 1023 0
1019 122 -1023 0
-1019 -122 1024 0
1019 -1024 0
-1020 1024 0
1020 122 -1024 0
-123 1025 0
-1021 1025 0
1021 123 -1025 0
-1021 -123 1026 0
1021 -1026 0
-1022 1026 0
1022 123 -1026 0
-1022 -123 1027 0
1022 -1027 0
-1023 1027 0
1023 123 -1027 0
-1023 -123 1028 0
1023 -1028 0
-1024 1028 0
1024 123 -1028 0
-124 1029 0
-1025 1029 0
1025 124 -1029 0
-1025 -124 1030 0
1025 -1030 0
-1026 1030 0
1026 124 -1030 0
-1026 -124 1031 0
1026 -1031 0
-1027 1031 0
1027 124 -1031 0
-1027 -124 1032 0
1027 -1032 0
-1028 1032 0
1028 124 -1032 0
-125 1033 0
-1029 1033 0
1029 125 -1033 0
-1029 -125 1034 0
1029 -1034 0
-1030 1034 0
1030 125 -1034 0
-1030 -125 1035 0
1030 -1035 0
-1031 1035 0
1031 125 -1035 0
-1031 -125 1036 0
1031 -1036 0
-1032 1036 0
1032 125 -1036 0
-126 1037 0
-1033 1037 0
1033 126 -1037 0
-1033 -126 1038 0
1033 -1038 0
-1034 1038 0
1034 126 -1038 0
-1034 -126 1039 0
1034 -1039 0
-1035 1039 0
1035 126 -1039 0
-1035 -126 1040 0
1035 -1040 0
-1036 1040 0
1036 126 -1040 0
-127 1041 0
-1037 1041 0
1037 127 -1041 0
-1037 -127 1042 0
1037 -1042 0
-1038 1042 0
1038 127 -1042 0
-1038 -127 1043 0
1038 -1043 0
-1039 1043 0
1039 127 -1043 0
-1039 -127 1044 0
1039 -1044 0
-1040 1044 0
1040 127 -1044 0
-128 1045 0
-1041 1045 0
1041 128 -1045 0
-1041 -128 1046 0
1041 -1046 0
-1042 1046 0
1042 128 -1046 0
-1042 -128 1047 0
1042 -1047 0
-1043 1047 0
1043 128 -1047 0
-1043 -128 1048 0
1043 -1048 0
-1044 1048 0
1044 128 -1048 0
-129 1049 0
-1045 1049 0
1045 129 -1049 0
-1045 -129 1050 0
1045 -1050 0
-1046 1050 0
1046 129 -1050 0
-1046 -129 1051 0
1046 -1051 0
-1047 1051 0
1047 129 -1051 0
-1047 -129 1052 0
1047 -1052 0
-1048 1052 0
1048 129 -1052 0
-130 1053 0
-1049 1053 0
1049 130 -1053 0
-1049 -130 1054 0
1049 -1054 0
-1050 1054 0
1050 130 -1054 0
-1050 -130 1055 0
1050 -1055 0
-1051 1055 0
1051 130 -1055 0
-1051 -130 1056 0
1051 -1056 0
-1052 1056 0
1052 130 -1056 0
-131 1057 0
-1053 1057 0
1053 131 -1057 0
-1053 -131 1058 0
1053 -1058 0
-1054 1058 0
1054 131 -1058 0
-1054 -131 1059 0
1054 -1059 0
-1055 1059 0
1055 131 -1059 0
-1055 -131 1060 0
1055 -1060 0
-1056 1060 0
1056 131 -1060 0
-132 1061 0
-1057 1061 0
1057 132 -1061 0
-1057 -132 1062 0
1057 -1062 0
-1058 1062 0
1058 132 -1062 0
-1058 -132 1063 0
1058 -1063 0
-1059 1063 0
1059 132 -1063 0
-1059 -132 1064 0
1059 -1064 0
-1060 1064 0
1060 132 -1064 0
-133 1065 0
-1061 1065 0
1061 133 -1065 0
-1061 -133 1066 0
1061 -1066 0
-1062 1066 0
1062 133 -1066 0
-1062 -133 1067 0
1062 -1067 0
-1063 1067 0
1063 133 -1067 0
-1063 -133 1068 0
1063 -1068 0
-1064 1068 0
1064 133 -1068 0
-134 1069 0
-1065 1069 0
1065 134 -1069 0
-1065 -134 1070 0
1065 -1070 0
-1066 1070 0
1066 134 -1070 0
-1066 -134 1071 0
1066 -1071 0
-1067 1071 0
1067 134 -1071 0
-1067 -134 1072 0
1067 -1072 0
-1068 1072 0
1068 134 -1072 0
-135 1073 0
-1069 1073 0
1069 135 -1073 0
-1069 -135 1074 0
1069 -1074 0
-1070 1074 0
1070 135 -1074 0
-1070 -135 1075 0
1070 -1075 0
-1071 1075 0
1071 135 -1075 0
-1071 -135 1076 0
1071 -1076 0
-1072 1076 0
1072 135 -1076 0
-136 1077 0
-1073 1077 0
1073 136 -1077 0
-1073 -136 1078 0
1073 -1078 0
-1074 1078 0
1074 136 -1078 0
-1074 -136 1079 0
1074 -1079 0
-1075 1079 0
1075 136 -1079 0
-1075 -136 1080 0
1075 -1080 0
-1076 1080 0
1076 136 -1080 0
-137 1081 0
-1077 1081 0
1077 137 -1081 0
-1077 -137 1082 0
1077 -1082 0
-1078 1082 0
1078 137 -1082 0
-1078 -137 1083 0
1078 -1083 0
-1079 1083 0
1079 137 -1083 0
-1079 -137 1084 0
1079 -1084 0
-1080 1084 0
1080 137 -1084 0
-138 1085 0
-1081 1085 0
1081 138 -1085 0
-1081 -138 1086 0
1081 -1086 0
-1082 1086 0
1082 138 -1086 0
-1082 -138 1087 0
1082 -1087 0
-1083 1087 0
1083 138 -1087 0
-1083 -138 1088 0
1083 -1088 0
-1084 1088 0
1084 138 -1088 0
-139 1089 0
-1085 1089 0
1085 139 -1089 0
-1085 -139 1090 0
1085 -1090 0
-1086 1090 0
1086 139 -1090 0
-1086 -139 1091 0
1086 -1091 0
-1087 1091 0
1087 139 -1091 0
-1087 -139 1092 0
1087 -1092 0
-1088 1092 0
1088 139 -1092 0
-140 1093 0
-1089 1093 0
1089 140 -1093 0
-1089 -140 1094 0
1089 -1094 0
-1090 1094 0
1090 140 -1094 0
-1090 -140 1095 0
1090 -1095 0
-1091 1095 0
1091 140 -1095 0
-1091 -140 1096 0
1091 -1096 0
-1092 1096 0
1092 140 -1096 0
-141 1097 0
-1093 1097 0
1093 141 -1097 0
-1093 -141 1098 0
1093 -1098 0
-1094 1098 0
1094 141 -1098 0
-1094 -141 1099 0
1094 -1099 0
-1095 1099 0
1095 141 -1099 0
-1095 -141 1100 0
1095 -1100 0
-1096 1100 0
1096 141 -1100 0
-142 1101 0
-1097 1101 0
1097 142 -1101 0
-1097 -142 1102 0
1097 -1102 0
-1098 1102 0
1098 142 -1102 0
-1098 -142 1103 0
1098 -1103 0
-1099 1103 0
1099 142 -1103 0
-1099 -142 1104 0
1099 -1104 0
-1100 1104 0
1100 142 -1104 0
-143 1105 0
-1101 1105 0
1101 143 -1105 0
-1101 -143 1106 0
1101 -1106 0
-1102 1106 0
1102 143 -1106 0
-1102 -143 1107 0
1102 -1107 0
-1103 1107 0
1103 143 -1107 0
-1103 -143 1108 0
1103 -1108 0
-1104 1108 0
1104 143 -1108 0
-144 1109 0
-1105 1109 0
1105 144 -1109 0
-1105 -144 1110 0
1105 -1110 0
-1106 1110 0
1106 144 -1110 0
-1106 -144 1111 0
1106 -1111 0
-1107 1111 0
1107 144 -1111 0
-1107 -144 1112 0
1107 -1112 0
-1108 1112 0
1108 144 -1112 0
-145 1113 0
-1109 1113 0
1109 145 -1113 0
-1109 -145 1114 0
1109 -1114 0
-1110 1114 0
1110 145 -1114 0
-1110 -145 1115 0
1110 -1115 0
-1111 1115 0
1111 145 -1115 0
-1111 -145 1116 0
1111 -1116 0
-1112 1116 0
1112 145 -1116 0
-996 -34 0
-1000 -63 0
-1004 -91 0
-1008 -119 0
-1012 -120 0
-1016 -121 0
-1020 -122 0
-1024 -123 0
-1028 -124 0
-1032 -125 0
-1036 -126 0
-1040 -127 0
-1044 -128 0
-1048 -129 0
-1052 -130 0
-1056 -131 0
-1060 -132 0
-1064 -133 0
-1068 -134 0
-1072 -135 0
-1076 -136 0
-1080 -137 0
-1084 -138 0
-1088 -139 0
-1092 -140 0
-1096 -141 0
-1100 -142 0
-1104 -143 0
-1108 -144 0
-1112 -145 0
1116 0
-1118 0
-1119 0
-1120 0
-35 1121 0
-5 1121 0
5 35 -1121 0
-5 -35 1122 0
5 -1122 0
-1118 1122 0
1118 35 -1122 0
-1118 -35 1123 0
1118 -1123 0
-1119 1123 0
1119 35 -1123 0
-1119 -35 1124 0
1119 -1124 0
-1120 1124 0
1120 35 -1124 0
-64 1125 0
-1121 1125 0
1121 64 -1125 0
-1121 -64 1126 0
1121 -1126 0
-1122 1126 0
1122 64 -1126 0
-1122 -64 1127 0
1122 -1127 0
-1123 1127 0
1123 64 -1127 0
-1123 -64 1128 0
1123 -1128 0
-1124 1128 0
1124 64 -1128 0
-92 1129 0
-1125 1129 0
1125 92 -1129 0
-1125 -92 1130 0
1125 -1130 0
-1126 1130 0
1126 92 -1130 0
-1126 -92 1131 0
1126 -1131 0
-1127 1131 0
1127 92 -1131 0
-1127 -92 1132 0
1127 -1132 0
-1128 1132 0
1128 92 -1132 0
-119 1133 0
-1129 1133 0
1129 119 -1133 0
-1129 -119 1134 0
1129 -1134 0
-1130 1134 0
1130 119 -1134 0
-1130 -119 1135 0
1130 -1135 0
-1131 1135 0
1131 119 -1135 0
-1131 -119 1136 0
1131 -1136 0
-1132 1136 0
1132 119 -1136 0
-146 1137 0
-1133 1137 0
1133 146 -1137 0
-1133 -146 1138 0
1133 -1138 0
-1134 1138 0
1134 146 -1138 0
-1134 -146 1139 0
1134 -1139 0
-1135 1139 0
1135 146 -1139 0
-1135 -146 1140 0
1135 -1140 0
-1136 1140 0
1136 146 -1140 0
-147 1141 0
-1137 1141 0
1137 147 -1141 0
-1137 -147 1142 0
1137 -1142 0
-1138 1142 0
1138 147 -1142 0
-1138 -147 1143 0
1138 -1143 0
-1139 1143 0
1139 147 -1143 0
-1139 -147 1144 0
1139 -1144 0
-1140 1144 0
1140 147 -1144 0
-148 1145 0
-1141 1145 0
1141 148 -1145 0
-1141 -148 1146 0
1141 -1146 0
-1142 1146 0
1142 148 -1146 0
-1142 -148 1147 0
1142 -1147 0
-1143 1147 0
1143 148 -1147 0
-1143 -148 1148 0
1143 -1148 0
-1144 1148 0
1144 148 -1148 0
-149 1149 0
-1145 1149 0
1145 149 -1149 0
-1145 -149 1150 0
1145 -1150 0
-1146 1150 0
1146 149 -1150 0
-1146 -149 1151 0
1146 -1151 0
-1147 1151 0
1147 149 -1151 0
-1147 -149 1152 0
1147 -1152 0
-1148 1152 0
1148 149 -1152 0
-150 1153 0
-1149 1153 0
1149 150 -1153 0
-1149 -150 1154 0
1149 -1154 0
-1150 1154 0
1150 150 -1154 0
-1150 -150 1155 0
1150 -1155 0
-1151 1155 0
1151 150 -1155 0
-1151 -150 1156 0
1151 -1156 0
-1152 1156 0
1152 150 -1156 0
-151 1157 0
-1153 1157 0
1153 151 -1157 0
-1153 -151 1158 0
1153 -1158 0
-1154 1158 0
1154 151 -1158 0
-1154 -151 1159 0
1154 -1159 0
-1155 1159 0
1155 151 -1159 0
-1155 -151 1160 0
1155 -1160 0
-1156 1160 0
1156 151 -1160 0
-152 1161 0
-1157 1161 0
1157 152 -1161 0
-1157 -152 1162 0
1157 -1162 0
-1158 1162 0
1158 152 -1162 0
-1158 -152 1163 0
1158 -1163 0
-1159 1163 0
1159 152 -1163 0
-1159 -152 1164 0
1159 -1164 0
-1160 1164 0
1160 152 -1164 0
-153 1165 0
-1161 1165 0
1161 153 -1165 0
-1161 -153 1166 0
1161 -1166 0
-1162 1166 0
1162 153 -1166 0
-1162 -153 1167 0
1162 -1167 0
-1163 1167 0
1163 153 -1167 0
-1163 -153 1168 0
1163 -1168 0
-1164 1168 0
1164 153 -1168 0
-154 1169 0
-1165 1169 0
1165 154 -1169 0
-1165 -154 1170 0
1165 -1170 0
-1166 1170 0
1166 154 -1170 0
-1166 -154 1171 0
1166 -1171 0
-1167 1171 0
1167 154 -1171 0
-1167 -154 1172 0
1167 -1172 0
-1168 1172 0
1168 154 -1172 0
-155 1173 0
-1169 1173 0
1169 155 -1173 0
-1169 -155 1174 0
1169 -1174 0
-1170 1174 0
1170 155 -1174 0
-1170 -155 1175 0
1170 -1175 0
-1171 1175 0
1171 155 -1175 0
-1171 -155 1176 0
1171 -1176 0
-1172 1176 0
1172 155 -1176 0
-156 1177 0
-1173 1177 0
1173 156 -1177 0
-1173 -156 1178 0
1173 -1178 0
-1174 1178 0
1174 156 -1178 0
-1174 -156 1179 0
1174 -1179 0
-1175 1179 0
1175 156 -1179 0
-1175 -156 1180 0
1175 -1180 0
-1176 1180 0
1176 156 -1180 0
-157 1181 0
-1177 1181 0
1177 157 -1181 0
-1177 -157 1182 0
1177 -1182 0
-1178 1182 0
1178 157 -1182 0
-1178 -157 1183 0
1178 -1183 0
-1179 1183 0
1179 157 -1183 0
-1179 -157 1184 0
1179 -1184 0
-1180 1184 0
1180 157 -1184 0
-158 1185 0
-1181 1185 0
1181 158 -1185 0
-1181 -158 1186 0
1181 -1186 0
-1182 1186 0
1182 158 -1186 0
-1182 -158 1187 0
1182 -1187 0
-1183 1187 0
1183 158 -1187 0
-1183 -158 1188 0
1183 -1188 0
-1184 1188 0
1184 158 -1188 0
-159 1189 0
-1185 1189 0
1185 159 -1189 0
-1185 -159 1190 0
1185 -1190 0
-1186 1190 0
1186 159 -1190 0
-1186 -159 1191 0
1186 -1191 0
-1187 1191 0
1187 159 -1191 0
-1187 -159 1192 0
1187 -1192 0
-1188 1192 0
1188 159 -1192 0
-160 1193 0
-1189 1193 0
1189 160 -1193 0
-1189 -160 1194 0
1189 -1194 0
-1190 1194 0
1190 160 -1194 0
-1190 -160 1195 0
1190 -1195 0
-1191 1195 0
1191 160 -1195 0
-1191 -160 1196 0
1191 -1196 0
-1192 1196 0
1192 160 -1196 0
-161 1197 0
-1193 1197 0
1193 161 -1197 0
-1193 -161 1198 0
1193 -1198 0
-1194 1198 0
1194 161 -1198 0
-1194 -161 1199 0
1194 -1199 0
-1195 1199 0
1195 161 -1199 0
-1195 -161 1200 0
1195 -1200 0
-1196 1200 0
1196 161 -1200 0
-162 1201 0
-1197 1201 0
1197 162 -1201 0
-1197 -162 1202 0
1197 -1202 0
-1198 1202 0
1198 162 -1202 0
-1198 -162 1203 0
1198 -1203 0
-1199 1203 0
1199 162 -1203 0
-1199 -162 1204 0
1199 -1204 0
-1200 1204 0
1200 162 -1204 0
-163 1205 0
-1201 1205 0
1201 163 -1205 0
-1201 -163 1206 0
1201 -1206 0
-1202 1206 0
1202 163 -1206 0
-1202 -163 1207 0
1202 -1207 0
-1203 1207 0
1203 163 -1207 0
-1203 -163 1208 0
1203 -1208 0
-1204 1208 0
1204 163 -1208 0
-164 1209 0
-1205 1209 0
1205 164 -1209 0
-1205 -164 1210 0
1205 -1210 0
-1206 1210 0
1206 164 -1210 0
-1206 -164 1211 0
1206 -1211 0
-1207 1211 0
1207 164 -1211 0
-1207 -164 1212 0
1207 -1212 0
-1208 1212 0
1208 164 -1212 0
-165 1213 0
-1209 1213 0
1209 165 -1213 0
-1209 -165 1214 0
1209 -1214 0
-1210 1214 0
1210 165 -1214 0
-1210 -165 1215 0
1210 -1215 0
-1211 1215 0
1211 165 -1215 0
-1211 -165 1216 0
1211 -1216 0
-1212 1216 0
1212 165 -1216 0
-166 1217 0
-1213 1217 0
1213 166 -1217 0
-1213 -166 1218 0
1213 -1218 0
-1214 1218 0
1214 166 -1218 0
-1214 -166 1219 0
1214 -1219 0
-1215 1219 0
1215 166 -1219 0
-1215 -166 1220 0
1215 -1220 0
-1216 1220 0
1216 166 -1220 0
-167 1221 0
-1217 1221 0
1217 167 -1221 0
-1217 -167 1222 0
1217 -1222 0
-1218 1222 0
1218 167 -1222 0
-1218 -167 1223 0
1218 -1223 0
-1219 1223 0
1219 167 -1223 0
-1219 -167 1224 0
1219 -1224 0
-1220 1224 0
1220 167 -1224 0
-168 1225 0
-1221 1225 0
1221 168 -1225 0
-1221 -168 1226 0
1221 -1226 0
-1222 1226 0
1222 168 -1226 0
-1222 -168 1227 0
1222 -1227 0
-1223 1227 0
1223 168 -1227 0
-1223 -168 1228 0
1223 -1228 0
-1224 1228 0
1224 168 -1228 0
-169 1229 0
-1225 1229 0
1225 169 -1229 0
-1225 -169 1230 0
1225 -1230 0
-1226 1230 0
1226 169 -1230 0
-1226 -169 1231 0
1226 -1231 0
-1227 1231 0
1227 169 -1231 0
-1227 -169 1232 0
1227 -1232 0
-1228 1232 0
1228 169 -1232 0
-170 1233 0
-1229 1233 0
1229 170 -1233 0
-1229 -170 1234 0
1229 -1234 0
-1230 1234 0
1230 170 -1234 0
-1230 -170 1235 0
1230 -1235 0
-1231 1235 0
1231 170 -1235 0
-1231 -170 1236 0
1231 -1236 0
-1232 1236 0
1232 170 -1236 0
-171 1237 0
-1233 1237 0
1233 171 -1237 0
-1233 -171 1238 0
1233 -1238 0
-1234 1238 0
1234 171 -1238 0
-1234 -171 1239 0
1234 -1239 0
-1235 1239 0
1235 171 -1239 0
-1235 -171 1240 0
1235 -1240 0
-1236 1240 0
1236 171 -1240 0
-1120 -35 0
-1124 -64 0
-1128 -92 0
-1132 -119 0
-1136 -146 0
-1140 -147 0
-1144 -148 0
-1148 -149 0
-1152 -150 0
-1156 -151 0
-1160 -152 0
-1164 -153 0
-1168 -154 0
-1172 -155 0
-1176 -156 0
-1180 -157 0
-1184 -158 0
-1188 -159 0
-1192 -160 0
-1196 -161 0
-1200 -162 0
-1204 -163 0
-1208 -164 0
-1212 -165 0
-1216 -166 0
-1220 -167 0
-1224 -168 0
-1228 -169 0
-1232 -170 0
-1236 -171 0
1240 0
-1242 0
-1243 0
-1244 0
-36 1245 0
-6 1245 0
6 36 -1245 0
-6 -36 1246 0
6 -1246 0
-1242 1246 0
1242 36 -1246 0
-1242 -36 1247 0
1242 -1247 0
-1243 1247 0
1243 36 -1247 0
-1243 -36 1248 0
1243 -1248 0
-1244 1248 0
1244 36 -1248 0
-65 1249 0
-1245 1249 0
1245 65 -1249 0
-1245 -65 1250 0
1245 -1250 0
-1246 1250 0
1246 65 -1250 0
-1246 -65 1251 0
1246 -1251 0
-1247 1251 0
1247 65 -1251 0
-1247 -65 1252 0
1247 -1252 0
-1248 1252 0
1248 65 -1252 0
-93 1253 0
-1249 1253 0
1249 93 -1253 0
-1249 -93 1254 0
1249 -1254 0
-1250 1254 0
1250 93 -1254 0
-1250 -93 1255 0
1250 -1255 0
-1251 1255 0
1251 93 -1255 0
-1251 -93 1256 0
1251 -1256 0
-1252 1256 0
1252 93 -1256 0
-120 1257 0
-1253 1257 0
1253 120 -1257 0
-1253 -120 1258 0
1253 -1258 0
-1254 1258 0
1254 120 -1258 0
-1254 -120 1259 0
1254 -1259 0
-1255 1259 0
1255 120 -1259 0
-1255 -120 1260 0
1255 -1260 0
-1256 1260 0
1256 120 -1260 0
-146 1261 0
-1257 1261 0
1257 146 -1261 0
-1257 -146 1262 0
1257 -1262 0
-1258 1262 0
1258 146 -1262 0
-1258 -146 1263 0
1258 -1263 0
-1259 1263 0
1259 146 -1263 0
-1259 -146 1264 0
1259 -1264 0
-1260 1264 0
1260 146 -1264 0
-172 1265 0
-1261 1265 0
1261 172 -1265 0
-1261 -172 1266 0
1261 -1266 0
-1262 1266 0
1262 172 -1266 0
-1262 -172 1267 0
1262 -1267 0
-1263 1267 0
1263 172 -1267 0
-1263 -172 1268 0
1263 -1268 0
-1264 1268 0
1264 172 -1268 0
-173 1269 0
-1265 1269 0
1265 173 -1269 0
-1265 -173 1270 0
1265 -1270 0
-1266 1270 0
1266 173 -1270 0
-1266 -173 1271 0
1266 -1271 0
-1267 1271 0
1267 173 -1271 0
-1267 -173 1272 0
1267 -1272 0
-1268 1272 0
1268 173 -1272 0
-174 1273 0
-1269 1273 0
1269 174 -1273 0
-1269 -174 1274 0
1269 -1274 0
-1270 1274 0
1270 174 -1274 0
-1270 -174 1275 0
1270 -1275 0
-1271 1275 0
1271 174 -1275 0
-1271 -174 1276 0
1271 -1276 0
-1272 1276 0
1272 174 -1276 0
-175 1277 0
-1273 1277 0
1273 175 -1277 0
-1273 -175 1278 0
1273 -1278 0
-1274 1278 0
1274 175 -1278 0
-1274 -175 1279 0
1274 -1279 0
-1275 1279 0
1275 175 -1279 0
-1275 -175 1280 0
1275 -1280 0
-1276 1280 0
1276 175 -1280 0
-176 1281 0
-1277 1281 0
1277 176 -1281 0
-1277 -176 1282 0
1277 -1282 0
-1278 1282 0
1278 176 -1282 0
-1278 -176 1283 0
1278 -1283 0
-1279 1283 0
1279 176 -1283 0
-1279 -176 1284 0
1279 -1284 0
-1280 1284 0
1280 176 -1284 0
-177 1285 0
-1281 1285 0
1281 177 -1285 0
-1281 -177 1286 0
1281 -1286 0
-1282 1286 0
1282 177 -1286 0
-1282 -177 1287 0
1282 -1287 0
-1283 1287 0
1283 177 -1287 0
-1283 -177 1288 0
1283 -1288 0
-1284 1288 0
1284 177 -1288 0
-178 1289 0
-1285 1289 0
1285 178 -1289 0
-1285 -178 1290 0
1285 -1290 0
-1286 1290 0
1286 178 -1290 0
-1286 -178 1291 0
1286 -1291 0
-1287 1291 0
1287 178 -1291 0
-1287 -178 1292 0
1287 -1292 0
-1288 1292 0
1288 178 -1292 0
-179 1293 0
-1289 1293 0
1289 179 -1293 0
-1289 -179 1294 0
1289 -1294 0
-1290 1294 0
1290 179 -1294 0
-1290 -179 1295 0
1290 -1295 0
-1291 1295 0
1291 179 -1295 0
-1291 -179 1296 0
1291 -1296 0
-1292 1296 0
1292 179 -1296 0
-180 1297 0
-1293 1297 0
1293 180 -1297 0
-1293 -180 1298 0
1293 -1298 0
-1294 1298 0
1294 180 -1298 0
-1294 -180 1299 0
1294 -1299 0
-1295 1299 0
1295 180 -1299 0
-1295 -180 1300 0
1295 -1300 0
-1296 1300 0
1296 180 -1300 0
-181 1301 0
-1297 1301 0
1297 181 -1301 0
-1297 -181 1302 0
1297 -1302 0
-1298 1302 0
1298 181 -1302 0
-1298 -181 1303 0
1298 -1303 0
-1299 1303 0
1299 181 -1303 0
-1299 -181 1304 0
1299 -1304 0
-1300 1304 0
1300 181 -1304 0
-182 1305 0
-1301 1305 0
1301 182 -1305 0
-1301 -182 1306 0
1301 -1306 0
-1302 1306 0
1302 182 -1306 0
-1302 -182 1307 0
1302 -1307 0
-1303 1307 0
1303 182 -1307 0
-1303 -182 1308 0
1303 -1308 0
-1304 1308 0
1304 182 -1308 0
-183 1309 0
-1305 1309 0
1305 183 -1309 0
-1305 -183 1310 0
1305 -1310 0
-1306 1310 0
1306 183 -1310 0
-1306 -183 1311 0
1306 -1311 0
-1307 1311 0
1307 183 -1311 0
-1307 -183 1312 0
1307 -1312 0
-1308 1312 0
1308 183 -1312 0
-184 1313 0
-1309 1313 0
1309 184 -1313 0
-1309 -184 1314 0
1309 -1314 0
-1310 1314 0
1310 184 -1314 0
-1310 -184 1315 0
1310 -1315 0
-1311 1315 0
1311 184 -1315 0
-1311 -184 1316 0
1311 -1316 0
-1312 1316 0
1312 184 -1316 0
-185 1317 0
-1313 1317 0
1313 185 -1317 0
-1313 -185 1318 0
1313 -1318 0
-1314 1318 0
1314 185 -1318 0
-1314 -185 1319 0
1314 -1319 0
-1315 1319 0
1315 185 -1319 0
-1315 -185 1320 0
1315 -1320 0
-1316 1320 0
1316 185 -1320 0
-186 1321 0
-1317 1321 0
1317 186 -1321 0
-1317 -186 1322 0
1317 -1322 0
-1318 1322 0
1318 186 -1322 0
-1318 -186 1323 0
1318 -1323 0
-1319 1323 0
1319 186 -1323 0
-1319 -186 1324 0
1319 -1324 0
-1320 1324 0
1320 186 -1324 0
-187 1325 0
-1321 1325 0
1321 187 -1325 0
-1321 -187 1326 0
1321 -1326 0
-1322 1326 0
1322 187 -1326 0
-1322 -187 1327 0
1322 -1327 0
-1323 1327 0
1323 187 -1327 0
-1323 -187 1328 0
1323 -1328 0
-1324 1328 0
1324 187 -1328 0
-188 1329 0
-1325 1329 0
1325 188 -1329 0
-1325 -188 1330 0
1325 -1330 0
-1326 1330 0
1326 188 -1330 0
-1326 -188 1331 0
1326 -1331 0
-1327 1331 0
1327 188 -1331 0
-1327 -188 1332 0
1327 -1332 0
-1328 1332 0
1328 188 -1332 0
-189 1333 0
-1329 1333 0
1329 189 -1333 0
-1329 -189 1334 0
1329 -1334 0
-1330 1334 0
1330 189 -1334 0
-1330 -189 1335 0
1330 -1335 0
-1331 1335 0
1331 189 -1335 0
-1331 -189 1336 0
1331 -1336 0
-1332 1336 0
1332 189 -1336 0
-190 1337 0
-1333 1337 0
1333 190 -1337 0
-1333 -190 1338 0
1333 -1338 0
-1334 1338 0
1334 190 -1338 0
-1334 -190 1339 0
1334 -1339 0
-1335 1339 0
1335 190 -1339 0
-1335 -190 1340 0
1335 -1340 0
-1336 1340 0
1336 190 -1340 0
-191 1341 0
-1337 1341 0
1337 191 -1341 0
-1337 -191 1342 0
1337 -1342 0
-1338 1342 0
1338 191 -1342 0
-1338 -191 1343 0
1338 -1343 0
-1339 1343 0
1339 191 -1343 0
-1339 -191 1344 0
1339 -1344 0
-1340 1344 0
1340 191 -1344 0
-192 1345 0
-1341 1345 0
1341 192 -1345 0
-1341 -192 1346 0
1341 -1346 0
-1342 1346 0
1342 192 -1346 0
-1342 -192 1347 0
1342 -1347 0
-1343 1347 0
1343 192 -1347 0
-1343 -192 1348 0
1343 -1348 0
-1344 1348 0
1344 192 -1348 0
-193 1349 0
-1345 1349 0
1345 193 -1349 0
-1345 -193 1350 0
1345 -1350 0
-1346 1350 0
1346 193 -1350 0
-1346 -193 1351 0
1346 -1351 0
-1347 1351 0
1347 193 -1351 0
-1347 -193 1352 0
1347 -1352 0
-1348 1352 0
1348 193 -1352 0
-194 1353 0
-1349 1353 0
1349 194 -1353 0
-1349 -194 1354 0
1349 -1354 0
-1350 1354 0
1350 194 -1354 0
-1350 -194 1355 0
1350 -1355 0
-1351 1355 0
1351 194 -1355 0
-1351 -194 1356 0
1351 -1356 0
-1352 1356 0
1352 194 -1356 0
-195 1357 0
-1353 1357 0
1353 195 -1357 0
-1353 -195 1358 0
1353 -1358 0
-1354 1358 0
1354 195 -1358 0
-1354 -195 1359 0
1354 -1359 0
-1355 1359 0
1355 195 -1359 0
-1355 -195 1360 0
1355 -1360 0
-1356 1360 0
1356 195 -1360 0
-196 1361 0
-1357 1361 0
1357 196 -1361 0
-1357 -196 1362 0
1357 -1362 0
-1358 1362 0
1358 196 -1362 0
-1358 -196 1363 0
1358 -1363 0
-1359 1363 0
1359 196 -1363 0
-1359 -196 1364 0
1359 -1364 0
-1360 1364 0
1360 196 -1364 0
-1244 -36 0
-1248 -65 0
-1252 -93 0
-1256 -120 0
-1260 -146 0
-1264 -172 0
-1268 -173 0
-1272 -174 0
-1276 -175 0
-1280 -176 0
-1284 -177 0
-1288 -178 0
-1292 -179 0
-1296 -180 0
-1300 -181 0
-1304 -182 0
-1308 -183 0
-1312 -184 0
-1316 -185 0
-1320 -186 0
-1324 -187 0
-1328 -188 0
-1332 -189 0
-1336 -190 0
-1340 -191 0
-1344 -192 0
-1348 -193 0
-1352 -194 0
-1356 -195 0
-1360 -196 0
1364 0
-1366 0
-1367 0
-1368 0
-37 1369 0
-7 1369 0
7 37 -1369 0
-7 -37 1370 0
7 -1370 0
-1366 1370 0
1366 37 -1370 0
-1366 -37 1371 0
1366 -1371 0
-1367 1371 0
1367 37 -1371 0
-1367 -37 1372 0
1367 -1372 0
-1368 1372 0
1368 37 -1372 0
-66 1373 0
-1369 1373 0
1369 66 -1373 0
-1369 -66 1374 0
1369 -1374 0
-1370 1374 0
1370 66 -1374 0
-1370 -66 1375 0
1370 -1375 0
-1371 1375 0
1371 66 -1375 0
-1371 -66 1376 0
1371 -1376 0
-1372 1376 0
1372 66 -1376 0
-94 1377 0
-1373 1377 0
1373 94 -1377 0
-1373 -94 1378 0
1373 -1378 0
-1374 1378 0
1374 94 -1378 0
-1374 -94 1379 0
1374 -1379 0
-1375 1379 0
1375 94 -1379 0
-1375 -94 1380 0
1375 -1380 0
-1376 1380 0
1376 94 -1380 0
-121 1381 0
-1377 1381 0
1377 121 -1381 0
-1377 -121 1382 0
1377 -1382 0
-1378 1382 0
1378 121 -1382 0
-1378 -121 1383 0
1378 -1383 0
-1379 1383 0
1379 121 -1383 0
-1379 -121 1384 0
1379 -1384 0
-1380 1384 0
1380 121 -1384 0
-147 1385 0
-1381 1385 0
1381 147 -1385 0
-1381 -147 1386 0
1381 -1386 0
-1382 1386 0
1382 147 -1386 0
-1382 -147 1387 0
1382 -1387 0
-1383 1387 0
1383 147 -1387 0
-1383 -147 1388 0
1383 -1388 0
-1384 1388 0
1384 147 -1388 0
-172 1389 0
-1385 1389 0
1385 172 -1389 0
-1385 -172 1390 0
1385 -1390 0
-1386 1390 0
1386 172 -1390 0
-1386 -172 1391 0
1386 -1391 0
-1387 1391 0
1387 172 -1391 0
-1387 -172 1392 0
1387 -1392 0
-1388 1392 0
1388 172 -1392 0
-197 1393 0
-1389 1393 0
1389 197 -1393 0
-1389 -197 1394 0
1389 -1394 0
-1390 1394 0
1390 197 -1394 0
-1390 -197 1395 0
1390 -1395 0
-1391 1395 0
1391 197 -1395 0
-1391 -197 1396 0
1391 -1396 0
-1392 1396 0
1392 197 -1396 0
-198 1397 0
-1393 1397 0
1393 198 -1397 0
-1393 -198 1398 0
1393 -1398 0
-1394 1398 0
1394 198 -1398 0
-1394 -198 1399 0
1394 -1399 0
-1395 1399 0
1395 198 -1399 0
-1395 -198 1400 0
1395 -1400 0
-1396 1400 0
1396 198 -1400 0
-199 1401 0
-1397 1401 0
1397 199 -1401 0
-1397 -199 1402 0
1397 -1402 0
-1398 1402 0
1398 199 -1402 0
-1398 -199 1403 0
1398 -1403 0
-1399 1403 0
1399 199 -1403 0
-1399 -199 1404 0
1399 -1404 0
-1400 1404 0
1400 199 -1404 0
-200 1405 0
-1401 1405 0
1401 200 -1405 0
-1401 -200 1406 0
1401 -1406 0
-1402 1406 0
1402 200 -1406 0
-1402 -200 1407 0
1402 -1407 0
-1403 1407 0
1403 200 -1407 0
-1403 -200 1408 0
1403 -1408 0
-1404 1408 0
1404 200 -1408 0
-201 1409 0
-1405 1409 0
1405 201 -1409 0
-1405 -201 1410 0
1405 -1410 0
-1406 1410 0
1406 201 -1410 0
-1406 -201 1411 0
1406 -1411 0
-1407 1411 0
1407 201 -1411 0
-1407 -201 1412 0
1407 -1412 0
-1408 1412 0
1408 201 -1412 0
-202 1413 0
-1409 1413 0
1409 202 -1413 0
-1409 -202 1414 0
1409 -1414 0
-1410 1414 0
1410 202 -1414 0
-1410 -202 1415 0
1410 -1415 0
-1411 1415 0
1411 202 -1415 0
-1411 -202 1416 0
1411 -1416 0
-1412 1416 0
1412 202 -1416 0
-203 1417 0
-1413 1417 0
1413 203 -1417 0
-1413 -203 1418 0
1413 -1418 0
-1414 1418 0
1414 203 -1418 0
-1414 -203 1419 0
1414 -1419 0
-1415 1419 0
1415 203 -1419 0
-1415 -203 1420 0
1415 -1420 0
-1416 1420 0
1416 203 -1420 0
-204 1421 0
-1417 1421 0
1417 204 -1421 0
-1417 -204 1422 0
1417 -1422 0
-1418 1422 0
1418 204 -1422 0
-1418 -204 1423 0
1418 -1423 0
-1419 1423 0
1419 204 -1423 0
-1419 -204 1424 0
1419 -1424 0
-1420 1424 0
1420 204 -1424 0
-205 1425 0
-1421 1425 0
1421 205 -1425 0
-1421 -205 1426 0
1421 -1426 0
-1422 1426 0
1422 205 -1426 0
-1422 -205 1427 0
1422 -1427 0
-1423 1427 0
1423 205 -1427 0
-1423 -205 1428 0
1423 -1428 0
-1424 1428 0
1424 205 -1428 0
-206 1429 0
-1425 1429 0
1425 206 -1429 0
-1425 -206 1430 0
1425 -1430 0
-1426 1430 0
1426 206 -1430 0
-1426 -206 1431 0
1426 -1431 0
-1427 1431 0
1427 206 -1431 0
-1427 -206 1432 0
1427 -1432 0
-1428 1432 0
1428 206 -1432 0
-207 1433 0
-1429 1433 0
1429 207 -1433 0
-1429 -207 1434 0
1429 -1434 0
-1430 1434 0
1430 207 -1434 0
-1430 -207 1435 0
1430 -1435 0
-1431 1435 0
1431 207 -1435 0
-1431 -207 1436 0
1431 -1436 0
-1432 1436 0
1432 207 -1436 0
-208 1437 0
-1433 1437 0
1433 208 -1437 0
-1433 -208 1438 0
1433 -1438 0
-1434 1438 0
1434 208 -1438 0
-1434 -208 1439 0
1434 -1439 0
-1435 1439 0
1435 208 -1439 0
-1435 -208 1440 0
1435 -1440 0
-1436 1440 0
1436 208 -1440 0
-209 1441 0
-1437 1441 0
1437 209 -1441 0
-1437 -209 1442 0
1437 -1442 0
-1438 1442 0
1438 209 -1442 0
-1438 -209 1443 0
1438 -1443 0
-1439 1443 0
1439 209 -1443 0
-1439 -209 1444 0
1439 -1444 0
-1440 1444 0
1440 209 -1444 0
-210 1445 0
-1441 1445 0
1441 210 -1445 0
-1441 -210 1446 0
1441 -1446 0
-1442 1446 0
1442 210 -1446 0
-1442 -210 1447 0
1442 -1447 0
-1443 1447 0
1443 210 -1447 0
-1443 -210 1448 0
1443 -1448 0
-1444 1448 0
1444 210 -1448 0
-211 1449 0
-1445 1449 0
1445 211 -1449 0
-1445 -211 1450 0
1445 -1450 0
-1446 1450 0
1446 211 -1450 0
-1446 -211 1451 0
1446 -1451 0
-1447 1451 0
1447 211 -1451 0
-1447 -211 1452 0
1447 -1452 0
-1448 1452 0
1448 211 -1452 0
-212 1453 0
-1449 1453 0
1449 212 -1453 0
-1449 -212 1454 0
1449 -1454 0
-1450 1454 0
1450 212 -1454 0
-1450 -212 1455 0
1450 -1455 0
-1451 1455 0
1451 212 -1455 0
-1451 -212 1456 0
1451 -1456 0
-1452 1456 0
1452 212 -1456 0
-213 1457 0
-1453 1457 0
1453 213 -1457 0
-1453 -213 1458 0
1453 -1458 0
-1454 1458 0
1454 213 -1458 0
-1454 -213 1459 0
1454 -1459 0
-1455 1459 0
1455 213 -1459 0
-1455 -213 1460 0
1455 -1460 0
-1456 1460 0
1456 213 -1460 0
-214 1461 0
-1457 1461 0
1457 214 -1461 0
-1457 -214 1462 0
1457 -1462 0
-1458 1462 0
1458 214 -1462 0
-1458 -214 1463 0
1458 -1463 0
-1459 1463 0
1459 214 -1463 0
-1459 -214 1464 0
1459 -1464 0
-1460 1464 0
1460 214 -1464 0
-215 1465 0
-1461 1465 0
1461 215 -1465 0
-1461 -215 1466 0
1461 -1466 0
-1462 1466 0
1462 215 -1466 0
-1462 -215 1467 0
1462 -1467 0
-1463 1467 0
1463 215 -1467 0
-1463 -215 1468 0
1463 -1468 0
-1464 1468 0
1464 215 -1468 0
-216 1469 0
-1465 1469 0
1465 216 -1469 0
-1465 -216 1470 0
1465 -1470 0
-1466 1470 0
1466 216 -1470 0
-1466 -216 1471 0
1466 -1471 0
-1467 1471 0
1467 216 -1471 0
-1467 -216 1472 0
1467 -1472 0
-1468 1472 0
1468 216 -1472 0
-217 1473 0
-1469 1473 0
1469 217 -1473 0
-1469 -217 1474 0
1469 -1474 0
-1470 1474 0
1470 217 -1474 0
-1470 -217 1475 0
1470 -1475 0
-1471 1475 0
1471 217 -1475 0
-1471 -217 1476 0
1471 -1476 0
-1472 1476 0
1472 217 -1476 0
-218 1477 0
-1473 1477 0
1473 218 -1477 0
-1473 -218 1478 0
1473 -1478 0
-1474 1478 0
1474 218 -1478 0
-1474 -218 1479 0
1474 -1479 0
-1475 1479 0
1475 218 -1479 0
-1475 -218 1480 0
1475 -1480 0
-1476 1480 0
1476 218 -1480 0
-219 1481 0
-1477 1481 0
1477 219 -1481 0
-1477 -219 1482 0
1477 -1482 0
-1478 1482 0
1478 219 -1482 0
-1478 -219 1483 0
1478 -1483 0
-1479 1483 0
1479 219 -1483 0
-1479 -219 1484 0
1479 -1484 0
-1480 1484 0
1480 219 -1484 0
-220 1485 0
-1481 1485 0
1481 220 -1485 0
-1481 -220 1486 0
1481 -1486 0
-1482 1486 0
1482 220 -1486 0
-1482 -220 1487 0
1482 -1487 0
-1483 1487 0
1483 220 -1487 0
-1483 -220 1488 0
1483 -1488 0
-1484 1488 0
1484 220 -1488 0
-1368 -37 0
-1372 -66 0
-1376 -94 0
-1380 -121 0
-1384 -147 0
-1388 -172 0
-1392 -197 0
-1396 -198 0
-1400 -199 0
-1404 -200 0
-1408 -201 0
-1412 -202 0
-1416 -203 0
-1420 -204 0
-1424 -205 0
-1428 -206 0
-1432 -207 0
-1436 -208 0
-1440 -209 0
-1444 -210 0
-1448 -211 0
-1452 -212 0
-1456 -213 0
-1460 -214 0
-1464 -215 0
-1468 -216 0
-1472 -217 0
-1476 -218 0
-1480 -219 0
-1484 -220 0
1488 0
-1490 0
-1491 0
-1492 0
-38 1493 0
-8 1493 0
8 38 -1493 0
-8 -38 1494 0
8 -1494 0
-1490 1494 0
1490 38 -1494 0
-1490 -38 1495 0
1490 -1495 0
-1491 1495 0
1491 38 -1495 0
-1491 -38 1496 0
1491 -1496 0
-1492 1496 0
1492 38 -1496 0
-67 1497 0
-1493 1497 0
1493 67 -1497 0
-1493 -67 1498 0
1493 -1498 0
-1494 1498 0
1494 67 -1498 0
-1494 -67 1499 0
1494 -1499 0
-1495 1499 0
1495 67 -1499 0
-1495 -67 1500 0
1495 -1500 0
-1496 1500 0
1496 67 -1500 0
-95 1501 0
-1497 1501 0
1497 95 -1501 0
-1497 -95 1502 0
1497 -1502 0
-1498 1502 0
1498 95 -1502 0
-1498 -95 1503 0
1498 -1503 0
-1499 1503 0
1499 95 -1503 0
-1499 -95 1504 0
1499 -1504 0
-1500 1504 0
1500 95 -1504 0
-122 1505 0
-1501 1505 0
1501 122 -1505 0
-1501 -122 1506 0
1501 -1506 0
-1502 1506 0
1502 122 -1506 0
-1502 -122 1507 0
1502 -1507 0
-1503 1507 0
1503 122 -1507 0
-1503 -122 1508 0
1503 -1508 0
-1504 1508 0
1504 122 -1508 0
-148 1509 0
-1505 1509 0
1505 148 -1509 0
-1505 -148 1510 0
1505 -1510 0
-1506 1510 0
1506 148 -1510 0
-1506 -148 1511 0
1506 -1511 0
-1507 1511 0
1507 148 -1511 0
-1507 -148 1512 0
1507 -1512 0
-1508 1512 0
1508 148 -1512 0
-173 1513 0
-1509 1513 0
1509 173 -1513 0
-1509 -173 1514 0
1509 -1514 0
-1510 1514 0
1510 173 -1514 0
-1510 -173 1515 0
1510 -1515 0
-1511 1515 0
1511 173 -1515 0
-1511 -173 1516 0
1511 -1516 0
-1512 1516 0
1512 173 -1516 0
-197 1517 0
-1513 1517 0
1513 197 -1517 0
-1513 -197 1518 0
1513 -1518 0
-1514 1518 0
1514 197 -1518 0
-1514 -197 1519 0
1514 -1519 0
-1515 1519 0
1515 197 -1519 0
-1515 -197 1520 0
1515 -1520 0
-1516 1520 0
1516 197 -1520 0
-221 1521 0
-1517 1521 0
1517 221 -1521 0
-1517 -221 1522 0
1517 -1522 0
-1518 1522 0
1518 221 -1522 0
-1518 -221 1523 0
1518 -1523 0
-1519 1523 0
1519 221 -1523 0
-1519 -221 1524 0
1519 -1524 0
-1520 1524 0
1520 221 -1524 0
-222 1525 0
-1521 1525 0
1521 222 -1525 0
-1521 -222 1526 0
1521 -1526 0
-1522 1526 0
1522 222 -1526 0
-1522 -222 1527 0
1522 -1527 0
-1523 1527 0
1523 222 -1527 0
-1523 -222 1528 0
1523 -1528 0
-1524 1528 0
1524 222 -1528 0
-223 1529 0
-1525 1529 0
1525 223 -1529 0
-1525 -223 1530 0
1525 -1530 0
-1526 1530 0
1526 223 -1530 0
-1526 -223 1531 0
1526 -1531 0
-1527 1531 0
1527 223 -1531 0
-1527 -223 1532 0
1527 -1532 0
-1528 1532 0
1528 223 -1532 0
-224 1533 0
-1529 1533 0
1529 224 -1533 0
-1529 -224 1534 0
1529 -1534 0
-1530 1534 0
1530 224 -1534 0
-1530 -224 1535 0
1530 -1535 0
-1531 1535 0
1531 224 -1535 0
-1531 -224 1536 0
1531 -1536 0
-1532 1536 0
1532 224 -1536 0
-225 1537 0
-1533 1537 0
1533 225 -1537 0
-1533 -225 1538 0
1533 -1538 0
-1534 1538 0
1534 225 -1538 0
-1534 -225 1539 0
1534 -1539 0
-1535 1539 0
1535 225 -1539 0
-1535 -225 1540 0
1535 -1540 0
-1536 1540 0
1536 225 -1540 0
-226 1541 0
-1537 1541 0
1537 226 -1541 0
-1537 -226 1542 0
1537 -1542 0
-1538 1542 0
1538 226 -1542 0
-1538 -226 1543 0
1538 -1543 0
-1539 1543 0
1539 226 -1543 0
-1539 -226 1544 0
1539 -1544 0
-1540 1544 0
1540 226 -1544 0
-227 1545 0
-1541 1545 0
1541 227 -1545 0
-1541 -227 1546 0
1541 -1546 0
-1542 1546 0
1542 227 -1546 0
-1542 -227 1547 0
1542 -1547 0
-1543 1547 0
1543 227 -1547 0
-1543 -227 1548 0
1543 -1548 0
-1544 1548 0
1544 227 -1548 0
-228 1549 0
-1545 1549 0
1545 228 -1549 0
-1545 -228 1550 0
1545 -1550 0
-1546 1550 0
1546 228 -1550 0
-1546 -228 1551 0
1546 -1551 0
-1547 1551 0
1547 228 -1551 0
-1547 -228 1552 0
1547 -1552 0
-1548 1552 0
1548 228 -1552 0
-229 1553 0
-1549 1553 0
1549 229 -1553 0
-1549 -229 1554 0
1549 -1554 0
-1550 1554 0
1550 229 -1554 0
-1550 -229 1555 0
1550 -1555 0
-1551 1555 0
1551 229 -1555 0
-1551 -229 1556 0
1551 -1556 0
-1552 1556 0
1552 229 -1556 0
-230 1557 0
-1553 1557 0
1553 230 -1557 0
-1553 -230 1558 0
1553 -1558 0
-1554 1558 0
1554 230 -1558 0
-1554 -230 1559 0
1554 -1559 0
-1555 1559 0
1555 230 -1559 0
-1555 -230 1560 0
1555 -1560 0
-1556 1560 0
1556 230 -1560 0
-231 1561 0
-1557 1561 0
1557 231 -1561 0
-1557 -231 1562 0
1557 -1562 0
-1558 1562 0
1558 231 -1562 0
-1558 -231 1563 0
1558 -1563 0
-1559 1563 0
1559 231 -1563 0
-1559 -231 1564 0
1559 -1564 0
-1560 1564 0
1560 231 -1564 0
-232 1565 0
-1561 1565 0
1561 232 -1565 0
-1561 -232 1566 0
1561 -1566 0
-1562 1566 0
1562 232 -1566 0
-1562 -232 1567 0
1562 -1567 0
-1563 1567 0
1563 232 -1567 0
-1563 -232 1568 0
1563 -1568 0
-1564 1568 0
1564 232 -1568 0
-233 1569 0
-1565 1569 0
1565 233 -1569 0
-1565 -233 1570 0
1565 -1570 0
-1566 1570 0
1566 233 -1570 0
-1566 -233 1571 0
1566 -1571 0
-1567 1571 0
1567 233 -1571 0
-1567 -233 1572 0
1567 -1572 0
-1568 1572 0
1568 233 -1572 0
-234 1573 0
-1569 1573 0
1569 234 -1573 0
-1569 -234 1574 0
1569 -1574 0
-1570 1574 0
1570 234 -1574 0
-1570 -234 1575 0
1570 -1575 0
-1571 1575 0
1571 234 -1575 0
-1571 -234 1576 0
1571 -1576 0
-1572 1576 0
1572 234 -1576 0
-235 1577 0
-1573 1577 0
1573 235 -1577 0
-1573 -235 1578 0
1573 -1578 0
-1574 1578 0
1574 235 -1578 0
-1574 -235 1579 0
1574 -1579 0
-1575 1579 0
1575 235 -1579 0
-1575 -235 1580 0
1575 -1580 0
-1576 1580 0
1576 235 -1580 0
-236 1581 0
-1577 1581 0
1577 236 -1581 0
-1577 -236 1582 0
1577 -1582 0
-1578 1582 0
1578 236 -1582 0
-1578 -236 1583 0
1578 -1583 0
-1579 1583 0
1579 236 -1583 0
-1579 -236 1584 0
1579 -1584 0
-1580 1584 0
1580 236 -1584 0
-237 1585 0
-1581 1585 0
1581 237 -1585 0
-1581 -237 1586 0
1581 -1586 0
-1582 1586 0
1582 237 -1586 0
-1582 -237 1587 0
1582 -1587 0
-1583 1587 0
1583 237 -1587 0
-1583 -237 1588 0
1583 -1588 0
-1584 1588 0
1584 237 -1588 0
-238 1589 0
-1585 1589 0
1585 238 -1589 0
-1585 -238 1590 0
1585 -1590 0
-1586 1590 0
1586 238 -1590 0
-1586 -238 1591 0
1586 -1591 0
-1587 1591 0
1587 238 -1591 0
-1587 -238 1592 0
1587 -1592 0
-1588 1592 0
1588 238 -1592 0
-239 1593 0
-1589 1593 0
1589 239 -1593 0
-1589 -239 1594 0
1589 -1594 0
-1590 1594 0
1590 239 -1594 0
-1590 -239 1595 0
1590 -1595 0
-1591 1595 0
1591 239 -1595 0
-1591 -239 1596 0
1591 -1596 0
-1592 1596 0
1592 239 -1596 0
-240 1597 0
-1593 1597 0
1593 240 -1597 0
-1593 -240 1598 0
1593 -1598 0
-1594 1598 0
1594 240 -1598 0
-1594 -240 1599 0
1594 -1599 0
-1595 1599 0
1595 240 -1599 0
-1595 -240 1600 0
1595 -1600 0
-1596 1600 0
1596 240 -1600 0
-241 1601 0
-1597 1601 0
1597 241 -1601 0
-1597 -241 1602 0
1597 -1602 0
-1598 1602 0
1598 241 -1602 0
-1598 -241 1603 0
1598 -1603 0
-1599 1603 0
1599 241 -1603 0
-1599 -241 1604 0
1599 -1604 0
-1600 1604 0
1600 241 -1604 0
-242 1605 0
-1601 1605 0
1601 242 -1605 0
-1601 -242 1606 0
1601 -1606 0
-1602 1606 0
1602 242 -1606 0
-1602 -242 1607 0
1602 -1607 0
-1603 1607 0
1603 242 -1607 0
-1603 -242 1608 0
1603 -1608 0
-1604 1608 0
1604 242 -1608 0
-243 1609 0
-1605 1609 0
1605 243 -1609 0
-1605 -243 1610 0
1605 -1610 0
-1606 1610 0
1606 243 -1610 0
-1606 -243 1611 0
1606 -1611 0
-1607 1611 0
1607 243 -1611 0
-1607 -243 1612 0
1607 -1612 0
-1608 1612 0
1608 243 -1612 0
-1492 -38 0
-1496 -67 0
-1500 -95 0
-1504 -122 0
-1508 -148 0
-1512 -173 0
-1516 -197 0
-1520 -221 0
-1524 -222 0
-1528 -223 0
-1532 -224 0
-1536 -225 0
-1540 -226 0
-1544 -227 0
-1548 -228 0
-1552 -229 0
-1556 -230 0
-1560 -231 0
-1564 -232 0
-1568 -233 0
-1572 -234 0
-1576 -235 0
-1580 -236 0
-1584 -237 0
-1588 -238 0
-1592 -239 0
-1596 -240 0
-1600 -241 0
-1604 -242 0
-1608 -243 0
1612 0
-1614 0
-1615 0
-1616 0
-39 1617 0
-9 1617 0
9 39 -1617 0
-9 -39 1618 0
9 -1618 0
-1614 1618 0
1614 39 -1618 0
-1614 -39 1619 0
1614 -1619 0
-1615 1619 0
1615 39 -1619 0
-1615 -39 1620 0
1615 -1620 0
-1616 1620 0
1616 39 -1620 0
-68 1621 0
-1617 1621 0
1617 68 -1621 0
-1617 -68 1622 0
1617 -1622 0
-1618 1622 0
1618 68 -1622 0
-1618 -68 1623 0
1618 -1623 0
-1619 1623 0
1619 68 -1623 0
-1619 -68 1624 0
1619 -1624 0
-1620 1624 0
1620 68 -1624 0
-96 1625 0
-1621 1625 0
1621 96 -1625 0
-1621 -96 1626 0
1621 -1626 0
-1622 1626 0
1622 96 -1626 0
-1622 -96 1627 0
1622 -1627 0
-1623 1627 0
1623 96 -1627 0
-1623 -96 1628 0
1623 -1628 0
-1624 1628 0
1624 96 -1628 0
-123 1629 0
-1625 1629 0
1625 123 -1629 0
-1625 -123 1630 0
1625 -1630 0
-1626 1630 0
1626 123 -1630 0
-1626 -123 1631 0
1626 -1631 0
-1627 1631 0
1627 123 -1631 0
-1627 -123 1632 0
1627 -1632 0
-1628 1632 0
1628 123 -1632 0
-149 1633 0
-1629 1633 0
1629 149 -1633 0
-1629 -149 1634 0
1629 -1634 0
-1630 1634 0
1630 149 -1634 0
-1630 -149 1635 0
1630 -1635 0
-1631 1635 0
1631 149 -1635 0
-1631 -149 1636 0
1631 -1636 0
-1632 1636 0
1632 149 -1636 0
-174 1637 0
-1633 1637 0
1633 174 -1637 0
-1633 -174 1638 0
1633 -1638 0
-1634 1638 0
1634 174 -1638 0
-1634 -174 1639 0
1634 -1639 0
-1635 1639 0
1635 174 -1639 0
-1635 -174 1640 0
1635 -1640 0
-1636 1640 0
1636 174 -1640 0
-198 1641 0
-1637 1641 0
1637 198 -1641 0
-1637 -198 1642 0
1637 -1642 0
-1638 1642 0
1638 198 -1642 0
-1638 -198 1643 0
1638 -1643 0
-1639 1643 0
1639 198 -1643 0
-1639 -198 1644 0
1639 -1644 0
-1640 1644 0
1640 198 -1644 0
-221 1645 0
-1641 1645 0
1641 221 -1645 0
-1641 -221 1646 0
1641 -1646 0
-1642 1646 0
1642 221 -1646 0
-1642 -221 1647 0
1642 -1647 0
-1643 1647 0
1643 221 -1647 0
-1643 -221 1648 0
1643 -1648 0
-1644 1648 0
1644 221 -1648 0
-244 1649 0
-1645 1649 0
1645 244 -1649 0
-1645 -244 1650 0
1645 -1650 0
-1646 1650 0
1646 244 -1650 0
-1646 -244 1651 0
1646 -1651 0
-1647 1651 0
1647 244 -1651 0
-1647 -244 1652 0
1647 -1652 0
-1648 1652 0
1648 244 -1652 0
-245 1653 0
-1649 1653 0
1649 245 -1653 0
-1649 -245 1654 0
1649 -1654 0
-1650 1654 0
1650 245 -1654 0
-1650 -245 1655 0
1650 -1655 0
-1651 1655 0
1651 245 -1655 0
-1651 -245 1656 0
1651 -1656 0
-1652 1656 0
1652 245 -1656 0
-246 1657 0
-1653 1657 0
1653 246 -1657 0
-1653 -246 1658 0
1653 -1658 0
-1654 1658 0
1654 246 -1658 0
-1654 -246 1659 0
1654 -1659 0
-1655 1659 0
1655 246 -1659 0
-1655 -246 1660 0
1655 -1660 0
-1656 1660 0
1656 246 -1660 0
-247 1661 0
-1657 1661 0
1657 247 -1661 0
-1657 -247 1662 0
1657 -1662 0
-1658 1662 0
1658 247 -1662 0
-1658 -247 1663 0
1658 -1663 0
-1659 1663 0
1659 247 -1663 0
-1659 -247 1664 0
1659 -1664 0
-1660 1664 0
1660 247 -1664 0
-248 1665 0
-1661 1665 0
1661 248 -1665 0
-1661 -248 1666 0
1661 -1666 0
-1662 1666 0
1662 248 -1666 0
-1662 -248 1667 0
1662 -1667 0
-1663 1667 0
1663 248 -1667 0
-1663 -248 1668 0
1663 -1668 0
-1664 1668 0
1664 248 -1668 0
-249 1669 0
-1665 1669 0
1665 249 -1669 0
-1665 -249 1670 0
1665 -1670 0
-1666 1670 0
1666 249 -1670 0
-1666 -249 1671 0
1666 -1671 0
-1667 1671 0
1667 249 -1671 0
-1667 -249 1672 0
1667 -1672 0
-1668 1672 0
1668 249 -1672 0
-250 1673 0
-1669 1673 0
1669 250 -1673 0
-1669 -250 1674 0
1669 -1674 0
-1670 1674 0
1670 250 -1674 0
-1670 -250 1675 0
1670 -1675 0
-1671 1675 0
1671 250 -1675 0
-1671 -250 1676 0
1671 -1676 0
-1672 1676 0
1672 250 -1676 0
-251 1677 0
-1673 1677 0
1673 251 -1677 0
-1673 -251 1678 0
1673 -1678 0
-1674 1678 0
1674 251 -1678 0
-1674 -251 1679 0
1674 -1679 0
-1675 1679 0
1675 251 -1679 0
-1675 -251 1680 0
1675 -1680 0
-1676 1680 0
1676 251 -1680 0
-252 1681 0
-1677 1681 0
1677 252 -1681 0
-1677 -252 1682 0
1677 -1682 0
-1678 1682 0
1678 252 -1682 0
-1678 -252 1683 0
1678 -1683 0
-1679 1683 0
1679 252 -1683 0
-1679 -252 1684 0
1679 -1684 0
-1680 1684 0
1680 252 -1684 0
-253 1685 0
-1681 1685 0
1681 253 -1685 0
-1681 -253 1686 0
1681 -1686 0
-1682 1686 0
1682 253 -1686 0
-1682 -253 1687 0
1682 -1687 0
-1683 1687 0
1683 253 -1687 0
-1683 -253 1688 0
1683 -1688 0
-1684 1688 0
1684 253 -1688 0
-254 1689 0
-1685 1689 0
1685 254 -1689 0
-1685 -254 1690 0
1685 -1690 0
-1686 1690 0
1686 254 -1690 0
-1686 -254 1691 0
1686 -1691 0
-1687 1691 0
1687 254 -1691 0
-1687 -254 1692 0
1687 -1692 0
-1688 1692 0
1688 254 -1692 0
-255 1693 0
-1689 1693 0
1689 255 -1693 0
-1689 -255 1694 0
1689 -1694 0
-1690 1694 0
1690 255 -1694 0
-1690 -255 1695 0
1690 -1695 0
-1691 1695 0
1691 255 -1695 0
-1691 -255 1696 0
1691 -1696 0
-1692 1696 0
1692 255 -1696 0
-256 1697 0
-1693 1697 0
1693 256 -1697 0
-1693 -256 1698 0
1693 -1698 0
-1694 1698 0
1694 256 -1698 0
-1694 -256 1699 0
1694 -1699 0
-1695 1699 0
1695 256 -1699 0
-1695 -256 1700 0
1695 -1700 0
-1696 1700 0
1696 256 -1700 0
-257 1701 0
-1697 1701 0
1697 257 -1701 0
-1697 -257 1702 0
1697 -1702 0
-1698 1702 0
1698 257 -1702 0
-1698 -257 1703 0
1698 -1703 0
-1699 1703 0
1699 257 -1703 0
-1699 -257 1704 0
1699 -1704 0
-1700 1704 0
1700 257 -1704 0
-258 1705 0
-1701 1705 0
1701 258 -1705 0
-1701 -258 1706 0
1701 -1706 0
-1702 1706 0
1702 258 -1706 0
-1702 -258 1707 0
1702 -1707 0
-1703 1707 0
1703 258 -1707 0
-1703 -258 1708 0
1703 -1708 0
-1704 1708 0
1704 258 -1708 0
-259 1709 0
-1705 1709 0
1705 259 -1709 0
-1705 -259 1710 0
1705 -1710 0
-1706 1710 0
1706 259 -1710 0
-1706 -259 1711 0
1706 -1711 0
-1707 1711 0
1707 259 -1711 0
-1707 -259 1712 0
1707 -1712 0
-1708 1712 0
1708 259 -1712 0
-260 1713 0
-1709 1713 0
1709 260 -1713 0
-1709 -260 1714 0
1709 -1714 0
-1710 1714 0
1710 260 -1714 0
-1710 -260 1715 0
1710 -1715 0
-1711 1715 0
1711 260 -1715 0
-1711 -260 1716 0
1711 -1716 0
-1712 1716 0
1712 260 -1716 0
-261 1717 0
-1713 1717 0
1713 261 -1717 0
-1713 -261 1718 0
1713 -1718 0
-1714 1718 0
1714 261 -1718 0
-1714 -261 1719 0
1714 -1719 0
-1715 1719 0
1715 261 -1719 0
-1715 -261 1720 0
1715 -1720 0
-1716 1720 0
1716 261 -1720 0
-262 1721 0
-1717 1721 0
1717 262 -1721 0
-1717 -262 1722 0
1717 -1722 0
-1718 1722 0
1718 262 -1722 0
-1718 -262 1723 0
1718 -1723 0
-1719 1723 0
1719 262 -1723 0
-1719 -262 1724 0
1719 -1724 0
-1720 1724 0
1720 262 -1724 0
-263 1725 0
-1721 1725 0
1721 263 -1725 0
-1721 -263 1726 0
1721 -1726 0
-1722 1726 0
1722 263 -1726 0
-1722 -263 1727 0
1722 -1727 0
-1723 1727 0
1723 263 -1727 0
-1723 -263 1728 0
1723 -1728 0
-1724 1728 0
1724 263 -1728 0
-264 1729 0
-1725 1729 0
1725 264 -1729 0
-1725 -264 1730 0
1725 -1730 0
-1726 1730 0
1726 264 -1730 0
-1726 -264 1731 0
1726 -1731 0
-1727 1731 0
1727 264 -1731 0
-1727 -264 1732 0
1727 -1732 0
-1728 1732 0
1728 264 -1732 0
-265 1733 0
-1729 1733 0
1729 265 -1733 0
-1729 -265 1734 0
1729 -1734 0
-1730 1734 0
1730 265 -1734 0
-1730 -265 1735 0
1730 -1735 0
-1731 1735 0
1731 265 -1735 0
-1731 -265 1736 0
1731 -1736 0
-1732 1736 0
1732 265 -1736 0
-1616 -39 0
-1620 -68 0
-1624 -96 0
-1628 -123 0
-1632 -149 0
-1636 -174 0
-1640 -198 0
-1644 -221 0
-1648 -244 0
-1652 -245 0
-1656 -246 0
-1660 -247 0
-1664 -248 0
-1668 -249 0
-1672 -250 0
-1676 -251 0
-1680 -252 0
-1684 -253 0
-1688 -254 0
-1692 -255 0
-1696 -256 0
-1700 -257 0
-1704 -258 0
-1708 -259 0
-1712 -260 0
-1716 -261 0
-1720 -262 0
-1724 -263 0
-1728 -264 0
-1732 -265 0
1736 0
-1738 0
-1739 0
-1740 0
-40 1741 0
-10 1741 0
10 40 -1741 0
-10 -40 1742 0
10 -1742 0
-1738 1742 0
1738 40 -1742 0
-1738 -40 1743 0
1738 -1743 0
-1739 1743 0
1739 40 -1743 0
-1739 -40 1744 0
1739 -1744 0
-1740 1744 0
1740 40 -1744 0
-69 1745 0
-1741 1745 0
1741 69 -1745 0
-1741 -69 1746 0
1741 -1746 0
-1742 1746 0
1742 69 -1746 0
-1742 -69 1747 0
1742 -1747 0
-1743 1747 0
1743 69 -1747 0
-1743 -69 1748 0
1743 -1748 0
-1744 1748 0
1744 69 -1748 0
-97 1749 0
-1745 1749 0
1745 97 -1749 0
-1745 -97 1750 0
1745 -1750 0
-1746 1750 0
1746 97 -1750 0
-1746 -97 1751 0
1746 -1751 0
-1747 1751 0
1747 97 -1751 0
-1747 -97 1752 0
1747 -1752 0
-1748 1752 0
1748 97 -1752 0
-124 1753 0
-1749 1753 0
1749 124 -1753 0
-1749 -124 1754 0
1749 -1754 0
-1750 1754 0
1750 124 -1754 0
-1750 -124 1755 0
1750 -1755 0
-1751 1755 0
1751 124 -1755 0
-1751 -124 1756 0
1751 -1756 0
-1752 1756 0
1752 124 -1756 0
-150 1757 0
-1753 1757 0
1753 150 -1757 0
-1753 -150 1758 0
1753 -1758 0
-1754 1758 0
1754 150 -1758 0
-1754 -150 1759 0
1754 -1759 0
-1755 1759 0
1755 150 -1759 0
-1755 -150 1760 0
1755 -1760 0
-1756 1760 0
1756 150 -1760 0
-175 1761 0
-1757 1761 0
1757 175 -1761 0
-1757 -175 1762 0
1757 -1762 0
-1758 1762 0
1758 175 -1762 0
-1758 -175 1763 0
1758 -1763 0
-1759 1763 0
1759 175 -1763 0
-1759 -175 1764 0
1759 -1764 0
-1760 1764 0
1760 175 -1764 0
-199 1765 0
-1761 1765 0
1761 199 -1765 0
-1761 -199 1766 0
1761 -1766 0
-1762 1766 0
1762 199 -1766 0
-1762 -199 1767 0
1762 -1767 0
-1763 1767 0
1763 199 -1767 0
-1763 -199 1768 0
1763 -1768 0
-1764 1768 0
1764 199 -1768 0
-222 1769 0
-1765 1769 0
1765 222 -1769 0
-1765 -222 1770 0
1765 -1770 0
-1766 1770 0
1766 222 -1770 0
-1766 -222 1771 0
1766 -1771 0
-1767 1771 0
1767 222 -1771 0
-1767 -222 1772 0
1767 -1772 0
-1768 1772 0
1768 222 -1772 0
-244 1773 0
-1769 1773 0
1769 244 -1773 0
-1769 -244 1774 0
1769 -1774 0
-1770 1774 0
1770 244 -1774 0
-1770 -244 1775 0
1770 -1775 0
-1771 1775 0
1771 244 -1775 0
-1771 -244 1776 0
1771 -1776 0
-1772 1776 0
1772 244 -1776 0
-266 1777 0
-1773 1777 0
1773 266 -1777 0
-1773 -266 1778 0
1773 -1778 0
-1774 1778 0
1774 266 -1778 0
-1774 -266 1779 0
1774 -1779 0
-1775 1779 0
1775 266 -1779 0
-1775 -266 1780 0
1775 -1780 0
-1776 1780 0
1776 266 -1780 0
-267 1781 0
-1777 1781 0
1777 267 -1781 0
-1777 -267 1782 0
1777 -1782 0
-1778 1782 0
1778 267 -1782 0
-1778 -267 1783 0
1778 -1783 0
-1779 1783 0
1779 267 -1783 0
-1779 -267 1784 0
1779 -1784 0
-1780 1784 0
1780 267 -1784 0
-268 1785 0
-1781 1785 0
1781 268 -1785 0
-1781 -268 1786 0
1781 -1786 0
-1782 1786 0
1782 268 -1786 0
-1782 -268 1787 0
1782 -1787 0
-1783 1787 0
1783 268 -1787 0
-1783 -268 1788 0
1783 -1788 0
-1784 1788 0
1784 268 -1788 0
-269 1789 0
-1785 1789 0
1785 269 -1789 0
-1785 -269 1790 0
1785 -1790 0
-1786 1790 0
1786 269 -1790 0
-1786 -269 1791 0
1786 -1791 0
-1787 1791 0
1787 269 -1791 0
-1787 -269 1792 0
1787 -1792 0
-1788 1792 0
1788 269 -1792 0
-270 1793 0
-1789 1793 0
1789 270 -1793 0
-1789 -270 1794 0
1789 -1794 0
-1790 1794 0
1790 270 -1794 0
-1790 -270 1795 0
1790 -1795 0
-1791 1795 0
1791 270 -1795 0
-1791 -270 1796 0
1791 -1796 0
-1792 1796 0
1792 270 -1796 0
-271 1797 0
-1793 1797 0
1793 271 -1797 0
-1793 -271 1798 0
1793 -1798 0
-1794 1798 0
1794 271 -1798 0
-1794 -271 1799 0
1794 -1799 0
-1795 1799 0
1795 271 -1799 0
-1795 -271 1800 0
1795 -1800 0
-1796 1800 0
1796 271 -1800 0
-272 1801 0
-1797 1801 0
1797 272 -1801 0
-1797 -272 1802 0
1797 -1802 0
-1798 1802 0
1798 272 -1802 0
-1798 -272 1803 0
1798 -1803 0
-1799 1803 0
1799 272 -1803 0
-1799 -272 1804 0
1799 -1804 0
-1800 1804 0
1800 272 -1804 0
-273 1805 0
-1801 1805 0
1801 273 -1805 0
-1801 -273 1806 0
1801 -1806 0
-1802 1806 0
1802 273 -1806 0
-1802 -273 1807 0
1802 -1807 0
-1803 1807 0
1803 273 -1807 0
-1803 -273 1808 0
1803 -1808 0
-1804 1808 0
1804 273 -1808 0
-274 1809 0
-1805 1809 0
1805 274 -1809 0
-1805 -274 1810 0
1805 -1810 0
-1806 1810 0
1806 274 -1810 0
-1806 -274 1811 0
1806 -1811 0
-1807 1811 0
1807 274 -1811 0
-1807 -274 1812 0
1807 -1812 0
-1808 1812 0
1808 274 -1812 0
-275 1813 0
-1809 1813 0
1809 275 -1813 0
-1809 -275 1814 0
1809 -1814 0
-1810 1814 0
1810 275 -1814 0
-1810 -275 1815 0
1810 -1815 0
-1811 1815 0
1811 275 -1815 0
-1811 -275 1816 0
1811 -1816 0
-1812 1816 0
1812 275 -1816 0
-276 1817 0
-1813 1817 0
1813 276 -1817 0
-1813 -276 1818 0
1813 -1818 0
-1814 1818 0
1814 276 -1818 0
-1814 -276 1819 0
1814 -1819 0
-1815 1819 0
1815 276 -1819 0
-1815 -276 1820 0
1815 -1820 0
-1816 1820 0
1816 276 -1820 0
-277 1821 0
-1817 1821 0
1817 277 -1821 0
-1817 -277 1822 0
1817 -1822 0
-1818 1822 0
1818 277 -1822 0
-1818 -277 1823 0
1818 -1823 0
-1819 1823 0
1819 277 -1823 0
-1819 -277 1824 0
1819 -1824 0
-1820 1824 0
1820 277 -1824 0
-278 1825 0
-1821 1825 0
1821 278 -1825 0
-1821 -278 1826 0
1821 -1826 0
-1822 1826 0
1822 278 -1826 0
-1822 -278 1827 0
1822 -1827 0
-1823 1827 0
1823 278 -1827 0
-1823 -278 1828 0
1823 -1828 0
-1824 1828 0
1824 278 -1828 0
-279 1829 0
-1825 1829 0
1825 279 -1829 0
-1825 -279 1830 0
1825 -1830 0
-1826 1830 0
1826 279 -1830 0
-1826 -279 1831 0
1826 -1831 0
-1827 1831 0
1827 279 -1831 0
-1827 -279 1832 0
1827 -1832 0
-1828 1832 0
1828 279 -1832 0
-280 1833 0
-1829 1833 0
1829 280 -1833 0
-1829 -280 1834 0
1829 -1834 0
-1830 1834 0
1830 280 -1834 0
-1830 -280 1835 0
1830 -1835 0
-1831 1835 0
1831 280 -1835 0
-1831 -280 1836 0
1831 -1836 0
-1832 1836 0
1832 280 -1836 0
-281 1837 0
-1833 1837 0
1833 281 -1837 0
-1833 -281 1838 0
1833 -1838 0
-1834 1838 0
1834 281 -1838 0
-1834 -281 1839 0
1834 -1839 0
-1835 1839 0
1835 281 -1839 0
-1835 -281 1840 0
1835 -1840 0
-1836 1840 0
1836 281 -1840 0
-282 1841 0
-1837 1841 0
1837 282 -1841 0
-1837 -282 1842 0
1837 -1842 0
-1838 1842 0
1838 282 -1842 0
-1838 -282 1843 0
1838 -1843 0
-1839 1843 0
1839 282 -1843 0
-1839 -282 1844 0
1839 -1844 0
-1840 1844 0
1840 282 -1844 0
-283 1845 0
-1841 1845 0
1841 283 -1845 0
-1841 -283 1846 0
1841 -1846 0
-1842 1846 0
1842 283 -1846 0
-1842 -283 1847 0
1842 -1847 0
-1843 1847 0
1843 283 -1847 0
-1843 -283 1848 0
1843 -1848 0
-1844 1848 0
1844 283 -1848 0
-284 1849 0
-1845 1849 0
1845 284 -1849 0
-1845 -284 1850 0
1845 -1850 0
-1846 1850 0
1846 284 -1850 0
-1846 -284 1851 0
1846 -1851 0
-1847 1851 0
1847 284 -1851 0
-1847 -284 1852 0
1847 -1852 0
-1848 1852 0
1848 284 -1852 0
-285 1853 0
-1849 1853 0
1849 285 -1853 0
-1849 -285 1854 0
1849 -1854 0
-1850 1854 0
1850 285 -1854 0
-1850 -285 1855 0
1850 -1855 0
-1851 1855 0
1851 285 -1855 0
-1851 -285 1856 0
1851 -1856 0
-1852 1856 0
1852 285 -1856 0
-286 1857 0
-1853 1857 0
1853 286 -1857 0
-1853 -286 1858 0
1853 -1858 0
-1854 1858 0
1854 286 -1858 0
-1854 -286 1859 0
1854 -1859 0
-1855 1859 0
1855 286 -1859 0
-1855 -286 1860 0
1855 -1860 0
-1856 1860 0
1856 286 -1860 0
-1740 -40 0
-1744 -69 0
-1748 -97 0
-1752 -124 0
-1756 -150 0
-1760 -175 0
-1764 -199 0
-1768 -222 0
-1772 -244 0
-1776 -266 0
-1780 -267 0
-1784 -268 0
-1788 -269 0
-1792 -270 0
-1796 -271 0
-1800 -272 0
-1804 -273 0
-1808 -274 0
-1812 -275 0
-1816 -276 0
-1820 -277 0
-1824 -278 0
-1828 -279 0
-1832 -280 0
-1836 -281 0
-1840 -282 0
-1844 -283 0
-1848 -284 0
-1852 -285 0
-1856 -286 0
1860 0
-1862 0
-1863 0
-1864 0
-41 1865 0
-11 1865 0
11 41 -1865 0
-11 -41 1866 0
11 -1866 0
-1862 1866 0
1862 41 -1866 0
-1862 -41 1867 0
1862 -1867 0
-1863 1867 0
1863 41 -1867 0
-1863 -41 1868 0
1863 -1868 0
-1864 1868 0
1864 41 -1868 0
-70 1869 0
-1865 1869 0
1865 70 -1869 0
-1865 -70 1870 0
1865 -1870 0
-1866 1870 0
1866 70 -1870 0
-1866 -70 1871 0
1866 -1871 0
-1867 1871 0
1867 70 -1871 0
-1867 -70 1872 0
1867 -1872 0
-1868 1872 0
1868 70 -1872 0
-98 1873 0
-1869 1873 0
1869 98 -1873 0
-1869 -98 1874 0
1869 -1874 0
-1870 1874 0
1870 98 -1874 0
-1870 -98 1875 0
1870 -1875 0
-1871 1875 0
1871 98 -1875 0
-1871 -98 1876 0
1871 -1876 0
-1872 1876 0
1872 98 -1876 0
-125 1877 0
-1873 1877 0
1873 125 -1877 0
-1873 -125 1878 0
1873 -1878 0
-1874 1878 0
1874 125 -1878 0
-1874 -125 1879 0
1874 -1879 0
-1875 1879 0
1875 125 -1879 0
-1875 -125 1880 0
1875 -1880 0
-1876 1880 0
1876 125 -1880 0
-151 1881 0
-1877 1881 0
1877 151 -1881 0
-1877 -151 1882 0
1877 -1882 0
-1878 1882 0
1878 151 -1882 0
-1878 -151 1883 0
1878 -1883 0
-1879 1883 0
1879 151 -1883 0
-1879 -151 1884 0
1879 -1884 0
-1880 1884 0
1880 151 -1884 0
-176 1885 0
-1881 1885 0
1881 176 -1885 0
-1881 -176 1886 0
1881 -1886 0
-1882 1886 0
1882 176 -1886 0
-1882 -176 1887 0
1882 -1887 0
-1883 1887 0
1883 176 -1887 0
-1883 -176 1888 0
1883 -1888 0
-1884 1888 0
1884 176 -1888 0
-200 1889 0
-1885 1889 0
1885 200 -1889 0
-1885 -200 1890 0
1885 -1890 0
-1886 1890 0
1886 200 -1890 0
-1886 -200 1891 0
1886 -1891 0
-1887 1891 0
1887 200 -1891 0
-1887 -200 1892 0
1887 -1892 0
-1888 1892 0
1888 200 -1892 0
-223 1893 0
-1889 1893 0
1889 223 -1893 0
-1889 -223 1894 0
1889 -1894 0
-1890 1894 0
1890 223 -1894 0
-1890 -223 1895 0
1890 -1895 0
-1891 1895 0
1891 223 -1895 0
-1891 -223 1896 0
1891 -1896 0
-1892 1896 0
1892 223 -1896 0
-245 1897 0
-1893 1897 0
1893 245 -1897 0
-1893 -245 1898 0
1893 -1898 0
-1894 1898 0
1894 245 -1898 0
-1894 -245 1899 0
1894 -1899 0
-1895 1899 0
1895 245 -1899 0
-1895 -245 1900 0
1895 -1900 0
-1896 1900 0
1896 245 -1900 0
-266 1901 0
-1897 1901 0
1897 266 -1901 0
-1897 -266 1902 0
1897 -1902 0
-1898 1902 0
1898 266 -1902 0
-1898 -266 1903 0
1898 -1903 0
-1899 1903 0
1899 266 -1903 0
-1899 -266 1904 0
1899 -1904 0
-1900 1904 0
1900 266 -1904 0
-287 1905 0
-1901 1905 0
1901 287 -1905 0
-1901 -287 1906 0
1901 -1906 0
-1902 1906 0
1902 287 -1906 0
-1902 -287 1907 0
1902 -1907 0
-1903 1907 0
1903 287 -1907 0
-1903 -287 1908 0
1903 -1908 0
-1904 1908 0
1904 287 -1908 0
-288 1909 0
-1905 1909 0
1905 288 -1909 0
-1905 -288 1910 0
1905 -1910 0
-1906 1910 0
1906 288 -1910 0
-1906 -288 1911 0
1906 -1911 0
-1907 1911 0
1907 288 -1911 0
-1907 -288 1912 0
1907 -1912 0
-1908 1912 0
1908 288 -1912 0
-289 1913 0
-1909 1913 0
1909 289 -1913 0
-1909 -289 1914 0
1909 -1914 0
-1910 1914 0
1910 289 -1914 0
-1910 -289 1915 0
1910 -1915 0
-1911 1915 0
1911 289 -1915 0
-1911 -289 1916 0
1911 -1916 0
-1912 1916 0
1912 289 -1916 0
-290 1917 0
-1913 1917 0
1913 290 -1917 0
-1913 -290 1918 0
1913 -1918 0
-1914 1918 0
1914 290 -1918 0
-1914 -290 1919 0
1914 -1919 0
-1915 1919 0
1915 290 -1919 0
-1915 -290 1920 0
1915 -1920 0
-1916 1920 0
1916 290 -1920 0
-291 1921 0
-1917 1921 0
1917 291 -1921 0
-1917 -291 1922 0
1917 -1922 0
-1918 1922 0
1918 291 -1922 0
-1918 -291 1923 0
1918 -1923 0
-1919 1923 0
1919 291 -1923 0
-1919 -291 1924 0
1919 -1924 0
-1920 1924 0
1920 291 -1924 0
-292 1925 0
-1921 1925 0
1921 292 -1925 0
-1921 -292 1926 0
1921 -1926 0
-1922 1926 0
1922 292 -1926 0
-1922 -292 1927 0
1922 -1927 0
-1923 1927 0
1923 292 -1927 0
-1923 -292 1928 0
1923 -1928 0
-1924 1928 0
1924 292 -1928 0
-293 1929 0
-1925 1929 0
1925 293 -1929 0
-1925 -293 1930 0
1925 -1930 0
-1926 1930 0
1926 293 -1930 0
-1926 -293 1931 0
1926 -1931 0
-1927 1931 0
1927 293 -1931 0
-1927 -293 1932 0
1927 -1932 0
-1928 1932 0
1928 293 -1932 0
-294 1933 0
-1929 1933 0
1929 294 -1933 0
-1929 -294 1934 0
1929 -1934 0
-1930 1934 0
1930 294 -1934 0
-1930 -294 1935 0
1930 -1935 0
-1931 1935 0
1931 294 -1935 0
-1931 -294 1936 0
1931 -1936 0
-1932 1936 0
1932 294 -1936 0
-295 1937 0
-1933 1937 0
1933 295 -1937 0
-1933 -295 1938 0
1933 -1938 0
-1934 1938 0
1934 295 -1938 0
-1934 -295 1939 0
1934 -1939 0
-1935 1939 0
1935 295 -1939 0
-1935 -295 1940 0
1935 -1940 0
-1936 1940 0
1936 295 -1940 0
-296 1941 0
-1937 1941 0
1937 296 -1941 0
-1937 -296 1942 0
1937 -1942 0
-1938 1942 0
1938 296 -1942 0
-1938 -296 1943 0
1938 -1943 0
-1939 1943 0
1939 296 -1943 0
-1939 -296 1944 0
1939 -1944 0
-1940 1944 0
1940 296 -1944 0
-297 1945 0
-1941 1945 0
1941 297 -1945 0
-1941 -297 1946 0
1941 -1946 0
-1942 1946 0
1942 297 -1946 0
-1942 -297 1947 0
1942 -1947 0
-1943 1947 0
1943 297 -1947 0
-1943 -297 1948 0
1943 -1948 0
-1944 1948 0
1944 297 -1948 0
-298 1949 0
-1945 1949 0
1945 298 -1949 0
-1945 -298 1950 0
1945 -1950 0
-1946 1950 0
1946 298 -1950 0
-1946 -298 1951 0
1946 -1951 0
-1947 1951 0
1947 298 -1951 0
-1947 -298 1952 0
1947 -1952 0
-1948 1952 0
1948 298 -1952 0
-299 1953 0
-1949 1953 0
1949 299 -1953 0
-1949 -299 1954 0
1949 -1954 0
-1950 1954 0
1950 299 -1954 0
-1950 -299 1955 0
1950 -1955 0
-1951 1955 0
1951 299 -1955 0
-1951 -299 1956 0
1951 -1956 0
-1952 1956 0
1952 299 -1956 0
-300 1957 0
-1953 1957 0
1953 300 -1957 0
-1953 -300 1958 0
1953 -1958 0
-1954 1958 0
1954 300 -1958 0
-1954 -300 1959 0
1954 -1959 0
-1955 1959 0
1955 300 -1959 0
-1955 -300 1960 0
1955 -1960 0
-1956 1960 0
1956 300 -1960 0
-301 1961 0
-1957 1961 0
1957 301 -1961 0
-1957 -301 1962 0
1957 -1962 0
-1958 1962 0
1958 301 -1962 0
-1958 -301 1963 0
1958 -1963 0
-1959 1963 0
1959 301 -1963 0
-1959 -301 1964 0
1959 -1964 0
-1960 1964 0
1960 301 -1964 0
-302 1965 0
-1961 1965 0
1961 302 -1965 0
-1961 -302 1966 0
1961 -1966 0
-1962 1966 0
1962 302 -1966 0
-1962 -302 1967 0
1962 -1967 0
-1963 1967 0
1963 302 -1967 0
-1963 -302 1968 0
1963 -1968 0
-1964 1968 0
1964 302 -1968 0
-303 1969 0
-1965 1969 0
1965 303 -1969 0
-1965 -303 1970 0
1965 -1970 0
-1966 1970 0
1966 303 -1970 0
-1966 -303 1971 0
1966 -1971 0
-1967 1971 0
1967 303 -1971 0
-1967 -303 1972 0
1967 -1972 0
-1968 1972 0
1968 303 -1972 0
-304 1973 0
-1969 1973 0
1969 304 -1973 0
-1969 -304 1974 0
1969 -1974 0
-1970 1974 0
1970 304 -1974 0
-1970 -304 1975 0
1970 -1975 0
-1971 1975 0
1971 304 -1975 0
-1971 -304 1976 0
1971 -1976 0
-1972 1976 0
1972 304 -1976 0
-305 1977 0
-1973 1977 0
1973 305 -1977 0
-1973 -305 1978 0
1973 -1978 0
-1974 1978 0
1974 305 -1978 0
-1974 -305 1979 0
1974 -1979 0
-1975 1979 0
1975 305 -1979 0
-1975 -305 1980 0
1975 -1980 0
-1976 1980 0
1976 305 -1980 0
-306 1981 0
-1977 1981 0
1977 306 -1981 0
-1977 -306 1982 0
1977 -1982 0
-1978 1982 0
1978 306 -1982 0
-1978 -306 1983 0
1978 -1983 0
-1979 1983 0
1979 306 -1983 0
-1979 -306 1984 0
1979 -1984 0
-1980 1984 0
1980 306 -1984 0
-1864 -41 0
-1868 -70 0
-1872 -98 0
-1876 -125 0
-1880 -151 0
-1884 -176 0
-1888 -200 0
-1892 -223 0
-1896 -245 0
-1900 -266 0
-1904 -287 0
-1908 -288 0
-1912 -289 0
-1916 -290 0
-1920 -291 0
-1924 -292 0
-1928 -293 0
-1932 -294 0
-1936 -295 0
-1940 -296 0
-1944 -297 0
-1948 -298 0
-1952 -299 0
-1956 -300 0
-1960 -301 0
-1964 -302 0
-1968 -303 0
-1972 -304 0
-1976 -305 0
-1980 -306 0
1984 0
-1986 0
-1987 0
-42 1988 0
-12 1988 0
12 42 -1988 0
-12 -42 1989 0
12 -1989 0
-1986 1989 0
1986 42 -1989 0
-1986 -42 1990 0
1986 -1990 0
-1987 1990 0
1987 42 -1990 0
-71 1991 0
-1988 1991 0
1988 71 -1991 0
-1988 -71 1992 0
1988 -1992 0
-1989 1992 0
1989 71 -1992 0
-1989 -71 1993 0
1989 -1993 0
-1990 1993 0
1990 71 -1993 0
-99 1994 0
-1991 1994 0
1991 99 -1994 0
-1991 -99 1995 0
1991 -1995 0
-1992 1995 0
1992 99 -1995 0
-1992 -99 1996 0
1992 -1996 0
-1993 1996 0
1993 99 -1996 0
-126 1997 0
-1994 1997 0
1994 126 -1997 0
-1994 -126 1998 0
1994 -1998 0
-1995 1998 0
1995 126 -1998 0
-1995 -126 1999 0
1995 -1999 0
-1996 1999 0
1996 126 -1999 0
-152 2000 0
-1997 2000 0
1997 152 -2000 0
-1997 -152 2001 0
1997 -2001 0
-1998 2001 0
1998 152 -2001 0
-1998 -152 2002 0
1998 -2002 0
-1999 2002 0
1999 152 -2002 0
-177 2003 0
-2000 2003 0
2000 177 -2003 0
-2000 -177 2004 0
2000 -2004 0
-2001 2004 0
2001 177 -2004 0
-2001 -177 2005 0
2001 -2005 0
-2002 2005 0
2002 177 -2005 0
-201 2006 0
-2003 2006 0
2003 201 -2006 0
-2003 -201 2007 0
2003 -2007 0
-2004 2007 0
2004 201 -2007 0
-2004 -201 2008 0
2004 -2008 0
-2005 2008 0
2005 201 -2008 0
-224 2009 0
-2006 2009 0
2006 224 -2009 0
-2006 -224 2010 0
2006 -2010 0
-2007 2010 0
2007 224 -2010 0
-2007 -224 2011 0
2007 -2011 0
-2008 2011 0
2008 224 -2011 0
-246 2012 0
-2009 2012 0
2009 246 -2012 0
-2009 -246 2013 0
2009 -2013 0
-2010 2013 0
2010 246 -2013 0
-2010 -246 2014 0
2010 -2014 0
-2011 2014 0
2011 246 -2014 0
-267 2015 0
-2012 2015 0
2012 267 -2015 0
-2012 -267 2016 0
2012 -2016 0
-2013 2016 0
2013 267 -2016 0
-2013 -267 2017 0
2013 -2017 0
-2014 2017 0
2014 267 -2017 0
-287 2018 0
-2015 2018 0
2015 287 -2018 0
-2015 -287 2019 0
2015 -2019 0
-2016 2019 0
2016 287 -2019 0
-2016 -287 2020 0
2016 -2020 0
-2017 2020 0
2017 287 -2020 0
-307 2021 0
-2018 2021 0
2018 307 -2021 0
-2018 -307 2022 0
2018 -2022 0
-2019 2022 0
2019 307 -2022 0
-2019 -307 2023 0
2019 -2023 0
-2020 2023 0
2020 307 -2023 0
-308 2024 0
-2021 2024 0
2021 308 -2024 0
-2021 -308 2025 0
2021 -2025 0
-2022 2025 0
2022 308 -2025 0
-2022 -308 2026 0
2022 -2026 0
-2023 2026 0
2023 308 -2026 0
-309 2027 0
-2024 2027 0
2024 309 -2027 0
-2024 -309 2028 0
2024 -2028 0
-2025 2028 0
2025 309 -2028 0
-2025 -309 2029 0
2025 -2029 0
-2026 2029 0
2026 309 -2029 0
-310 2030 0
-2027 2030 0
2027 310 -2030 0
-2027 -310 2031 0
2027 -2031 0
-2028 2031 0
2028 310 -2031 0
-2028 -310 2032 0
2028 -2032 0
-2029 2032 0
2029 310 -2032 0
-311 2033 0
-2030 2033 0
2030 311 -2033 0
-2030 -311 2034 0
2030 -2034 0
-2031 2034 0
2031 311 -2034 0
-2031 -311 2035 0
2031 -2035 0
-2032 2035 0
2032 311 -2035 0
-312 2036 0
-2033 2036 0
2033 312 -2036 0
-2033 -312 2037 0
2033 -2037 0
-2034 2037 0
2034 312 -2037 0
-2034 -312 2038 0
2034 -2038 0
-2035 2038 0
2035 312 -2038 0
-313 2039 0
-2036 2039 0
2036 313 -2039 0
-2036 -313 2040 0
2036 -2040 0
-2037 2040 0
2037 313 -2040 0
-2037 -313 2041 0
2037 -2041 0
-2038 2041 0
2038 313 -2041 0
-314 2042 0
-2039 2042 0
2039 314 -2042 0
-2039 -314 2043 0
2039 -2043 0
-2040 2043 0
2040 314 -2043 0
-2040 -314 2044 0
2040 -2044 0
-2041 2044 0
2041 314 -2044 0
-315 2045 0
-2042 2045 0
2042 315 -2045 0
-2042 -315 2046 0
2042 -2046 0
-2043 2046 0
2043 315 -2046 0
-2043 -315 2047 0
2043 -2047 0
-2044 2047 0
2044 315 -2047 0
-316 2048 0
-2045 2048 0
2045 316 -2048 0
-2045 -316 2049 0
2045 -2049 0
-2046 2049 0
2046 316 -2049 0
-2046 -316 2050 0
2046 -2050 0
-2047 2050 0
2047 316 -2050 0
-317 2051 0
-2048 2051 0
2048 317 -2051 0
-2048 -317 2052 0
2048 -2052 0
-2049 2052 0
2049 317 -2052 0
-2049 -317 2053 0
2049 -2053 0
-2050 2053 0
2050 317 -2053 0
-318 2054 0
-2051 2054 0
2051 318 -2054 0
-2051 -318 2055 0
2051 -2055 0
-2052 2055 0
2052 318 -2055 0
-2052 -318 2056 0
2052 -2056 0
-2053 2056 0
2053 318 -2056 0
-319 2057 0
-2054 2057 0
2054 319 -2057 0
-2054 -319 2058 0
2054 -2058 0
-2055 2058 0
2055 319 -2058 0
-2055 -319 2059 0
2055 -2059 0
-2056 2059 0
2056 319 -2059 0
-320 2060 0
-2057 2060 0
2057 320 -2060 0
-2057 -320 2061 0
2057 -2061 0
-2058 2061 0
2058 320 -2061 0
-2058 -320 2062 0
2058 -2062 0
-2059 2062 0
2059 320 -2062 0
-321 2063 0
-2060 2063 0
2060 321 -2063 0
-2060 -321 2064 0
2060 -2064 0
-2061 2064 0
2061 321 -2064 0
-2061 -321 2065 0
2061 -2065 0
-2062 2065 0
2062 321 -2065 0
-322 2066 0
-2063 2066 0
2063 322 -2066 0
-2063 -322 2067 0
2063 -2067 0
-2064 2067 0
2064 322 -2067 0
-2064 -322 2068 0
2064 -2068 0
-2065 2068 0
2065 322 -2068 0
-323 2069 0
-2066 2069 0
2066 323 -2069 0
-2066 -323 2070 0
2066 -2070 0
-2067 2070 0
2067 323 -2070 0
-2067 -323 2071 0
2067 -2071 0
-2068 2071 0
2068 323 -2071 0
-324 2072 0
-2069 2072 0
2069 324 -2072 0
-2069 -324 2073 0
2069 -2073 0
-2070 2073 0
2070 324 -2073 0
-2070 -324 2074 0
2070 -2074 0
-2071 2074 0
2071 324 -2074 0
-325 2075 0
-2072 2075 0
2072 325 -2075 0
-2072 -325 2076 0
2072 -2076 0
-2073 2076 0
2073 325 -2076 0
-2073 -325 2077 0
2073 -2077 0
-2074 2077 0
2074 325 -2077 0
-1987 -42 0
-1990 -71 0
-1993 -99 0
-1996 -126 0
-1999 -152 0
-2002 -177 0
-2005 -201 0
-2008 -224 0
-2011 -246 0
-2014 -267 0
-2017 -287 0
-2020 -307 0
-2023 -308 0
-2026 -309 0
-2029 -310 0
-2032 -311 0
-2035 -312 0
-2038 -313 0
-2041 -314 0
-2044 -315 0
-2047 -316 0
-2050 -317 0
-2053 -318 0
-2056 -319 0
-2059 -320 0
-2062 -321 0
-2065 -322 0
-2068 -323 0
-2071 -324 0
-2074 -325 0
2077 0
-2079 0
-2080 0
-43 2081 0
-13 2081 0
13 43 -2081 0
-13 -43 2082 0
13 -2082 0
-2079 2082 0
2079 43 -2082 0
-2079 -43 2083 0
2079 -2083 0
-2080 2083 0
2080 43 -2083 0
-72 2084 0
-2081 2084 0
2081 72 -2084 0
-2081 -72 2085 0
2081 -2085 0
-2082 2085 0
2082 72 -2085 0
-2082 -72 2086 0
2082 -2086 0
-2083 2086 0
2083 72 -2086 0
-100 2087 0
-2084 2087 0
2084 100 -2087 0
-2084 -100 2088 0
2084 -2088 0
-2085 2088 0
2085 100 -2088 0
-2085 -100 2089 0
2085 -2089 0
-2086 2089 0
2086 100 -2089 0
-127 2090 0
-2087 2090 0
2087 127 -2090 0
-2087 -127 2091 0
2087 -2091 0
-2088 2091 0
2088 127 -2091 0
-2088 -127 2092 0
2088 -2092 0
-2089 2092 0
2089 127 -2092 0
-153 2093 0
-2090 2093 0
2090 153 -2093 0
-2090 -153 2094 0
2090 -2094 0
-2091 2094 0
2091 153 -2094 0
-2091 -153 2095 0
2091 -2095 0
-2092 2095 0
2092 153 -2095 0
-178 2096 0
-2093 2096 0
2093 178 -2096 0
-2093 -178 2097 0
2093 -2097 0
-2094 2097 0
2094 178 -2097 0
-2094 -178 2098 0
2094 -2098 0
-2095 2098 0
2095 178 -2098 0
-202 2099 0
-2096 2099 0
2096 202 -2099 0
-2096 -202 2100 0
2096 -2100 0
-2097 2100 0
2097 202 -2100 0
-2097 -202 2101 0
2097 -2101 0
-2098 2101 0
2098 202 -2101 0
-225 2102 0
-2099 2102 0
2099 225 -2102 0
-2099 -225 2103 0
2099 -2103 0
-2100 2103 0
2100 225 -2103 0
-2100 -225 2104 0
2100 -2104 0
-2101 2104 0
2101 225 -2104 0
-247 2105 0
-2102 2105 0
2102 247 -2105 0
-2102 -247 2106 0
2102 -2106 0
-2103 2106 0
2103 247 -2106 0
-2103 -247 2107 0
2103 -2107 0
-2104 2107 0
2104 247 -2107 0
-268 2108 0
-2105 2108 0
2105 268 -2108 0
-2105 -268 2109 0
2105 -2109 0
-2106 2109 0
2106 268 -2109 0
-2106 -268 2110 0
2106 -2110 0
-2107 2110 0
2107 268 -2110 0
-288 2111 0
-2108 2111 0
2108 288 -2111 0
-2108 -288 2112 0
2108 -2112 0
-2109 2112 0
2109 288 -2112 0
-2109 -288 2113 0
2109 -2113 0
-2110 2113 0
2110 288 -2113 0
-307 2114 0
-2111 2114 0
2111 307 -2114 0
-2111 -307 2115 0
2111 -2115 0
-2112 2115 0
2112 307 -2115 0
-2112 -307 2116 0
2112 -2116 0
-2113 2116 0
2113 307 -2116 0
-326 2117 0
-2114 2117 0
2114 326 -2117 0
-2114 -326 2118 0
2114 -2118 0
-2115 2118 0
2115 326 -2118 0
-2115 -326 2119 0
2115 -2119 0
-2116 2119 0
2116 326 -2119 0
-327 2120 0
-2117 2120 0
2117 327 -2120 0
-2117 -327 2121 0
2117 -2121 0
-2118 2121 0
2118 327 -2121 0
-2118 -327 2122 0
2118 -2122 0
-2119 2122 0
2119 327 -2122 0
-328 2123 0
-2120 2123 0
2120 328 -2123 0
-2120 -328 2124 0
2120 -2124 0
-2121 2124 0
2121 328 -2124 0
-2121 -328 2125 0
2121 -2125 0
-2122 2125 0
2122 328 -2125 0
-329 2126 0
-2123 2126 0
2123 329 -2126 0
-2123 -329 2127 0
2123 -2127 0
-2124 2127 0
2124 329 -2127 0
-2124 -329 2128 0
2124 -2128 0
-2125 2128 0
2125 329 -2128 0
-330 2129 0
-2126 2129 0
2126 330 -2129 0
-2126 -330 2130 0
2126 -2130 0
-2127 2130 0
2127 330 -2130 0
-2127 -330 2131 0
2127 -2131 0
-2128 2131 0
2128 330 -2131 0
-331 2132 0
-2129 2132 0
2129 331 -2132 0
-2129 -331 2133 0
2129 -2133 0
-2130 2133 0
2130 331 -2133 0
-2130 -331 2134 0
2130 -2134 0
-2131 2134 0
2131 331 -2134 0
-332 2135 0
-2132 2135 0
2132 332 -2135 0
-2132 -332 2136 0
2132 -2136 0
-2133 2136 0
2133 332 -2136 0
-2133 -332 2137 0
2133 -2137 0
-2134 2137 0
2134 332 -2137 0
-333 2138 0
-2135 2138 0
2135 333 -2138 0
-2135 -333 2139 0
2135 -2139 0
-2136 2139 0
2136 333 -2139 0
-2136 -333 2140 0
2136 -2140 0
-2137 2140 0
2137 333 -2140 0
-334 2141 0
-2138 2141 0
2138 334 -2141 0
-2138 -334 2142 0
2138 -2142 0
-2139 2142 0
2139 334 -2142 0
-2139 -334 2143 0
2139 -2143 0
-2140 2143 0
2140 334 -2143 0
-335 2144 0
-2141 2144 0
2141 335 -2144 0
-2141 -335 2145 0
2141 -2145 0
-2142 2145 0
2142 335 -2145 0
-2142 -335 2146 0
2142 -2146 0
-2143 2146 0
2143 335 -2146 0
-336 2147 0
-2144 2147 0
2144 336 -2147 0
-2144 -336 2148 0
2144 -2148 0
-2145 2148 0
2145 336 -2148 0
-2145 -336 2149 0
2145 -2149 0
-2146 2149 0
2146 336 -2149 0
-337 2150 0
-2147 2150 0
2147 337 -2150 0
-2147 -337 2151 0
2147 -2151 0
-2148 2151 0
2148 337 -2151 0
-2148 -337 2152 0
2148 -2152 0
-2149 2152 0
2149 337 -2152 0
-338 2153 0
-2150 2153 0
2150 338 -2153 0
-2150 -338 2154 0
2150 -2154 0
-2151 2154 0
2151 338 -2154 0
-2151 -338 2155 0
2151 -2155 0
-2152 2155 0
2152 338 -2155 0
-339 2156 0
-2153 2156 0
2153 339 -2156 0
-2153 -339 2157 0
2153 -2157 0
-2154 2157 0
2154 339 -2157 0
-2154 -339 2158 0
2154 -2158 0
-2155 2158 0
2155 339 -2158 0
-340 2159 0
-2156 2159 0
2156 340 -2159 0
-2156 -340 2160 0
2156 -2160 0
-2157 2160 0
2157 340 -2160 0
-2157 -340 2161 0
2157 -2161 0
-2158 2161 0
2158 340 -2161 0
-341 2162 0
-2159 2162 0
2159 341 -2162 0
-2159 -341 2163 0
2159 -2163 0
-2160 2163 0
2160 341 -2163 0
-2160 -341 2164 0
2160 -2164 0
-2161 2164 0
2161 341 -2164 0
-342 2165 0
-2162 2165 0
2162 342 -2165 0
-2162 -342 2166 0
2162 -2166 0
-2163 2166 0
2163 342 -2166 0
-2163 -342 2167 0
2163 -2167 0
-2164 2167 0
2164 342 -2167 0
-343 2168 0
-2165 2168 0
2165 343 -2168 0
-2165 -343 2169 0
2165 -2169 0
-2166 2169 0
2166 343 -2169 0
-2166 -343 2170 0
2166 -2170 0
-2167 2170 0
2167 343 -2170 0
-2080 -43 0
-2083 -72 0
-2086 -100 0
-2089 -127 0
-2092 -153 0
-2095 -178 0
-2098 -202 0
-2101 -225 0
-2104 -247 0
-2107 -268 0
-2110 -288 0
-2113 -307 0
-2116 -326 0
-2119 -327 0
-2122 -328 0
-2125 -329 0
-2128 -330 0
-2131 -331 0
-2134 -332 0
-2137 -333 0
-2140 -334 0
-2143 -335 0
-2146 -336 0
-2149 -337 0
-2152 -338 0
-2155 -339 0
-2158 -340 0
-2161 -341 0
-2164 -342 0
-2167 -343 0
2170 0
-2172 0
-2173 0
-44 2174 0
-14 2174 0
14 44 -2174 0
-14 -44 2175 0
14 -2175 0
-2172 2175 0
2172 44 -2175 0
-2172 -44 2176 0
2172 -2176 0
-2173 2176 0
2173 44 -2176 0
-73 2177 0
-2174 2177 0
2174 73 -2177 0
-2174 -73 2178 0
2174 -2178 0
-2175 2178 0
2175 73 -2178 0
-2175 -73 2179 0
2175 -2179 0
-2176 2179 0
2176 73 -2179 0
-101 2180 0
-2177 2180 0
2177 101 -2180 0
-2177 -101 2181 0
2177 -2181 0
-2178 2181 0
2178 101 -2181 0
-2178 -101 2182 0
2178 -2182 0
-2179 2182 0
2179 101 -2182 0
-128 2183 0
-2180 2183 0
2180 128 -2183 0
-2180 -128 2184 0
2180 -2184 0
-2181 2184 0
2181 128 -2184 0
-2181 -128 2185 0
2181 -2185 0
-2182 2185 0
2182 128 -2185 0
-154 2186 0
-2183 2186 0
2183 154 -2186 0
-2183 -154 2187 0
2183 -2187 0
-2184 2187 0
2184 154 -2187 0
-2184 -154 2188 0
2184 -2188 0
-2185 2188 0
2185 154 -2188 0
-179 2189 0
-2186 2189 0
2186 179 -2189 0
-2186 -179 2190 0
2186 -2190 0
-2187 2190 0
2187 179 -2190 0
-2187 -179 2191 0
2187 -2191 0
-2188 2191 0
2188 179 -2191 0
-203 2192 0
-2189 2192 0
2189 203 -2192 0
-2189 -203 2193 0
2189 -2193 0
-2190 2193 0
2190 203 -2193 0
-2190 -203 2194 0
2190 -2194 0
-2191 2194 0
2191 203 -2194 0
-226 2195 0
-2192 2195 0
2192 226 -2195 0
-2192 -226 2196 0
2192 -2196 0
-2193 2196 0
2193 226 -2196 0
-2193 -226 2197 0
2193 -2197 0
-2194 2197 0
2194 226 -2197 0
-248 2198 0
-2195 2198 0
2195 248 -2198 0
-2195 -248 2199 0
2195 -2199 0
-2196 2199 0
2196 248 -2199 0
-2196 -248 2200 0
2196 -2200 0
-2197 2200 0
2197 248 -2200 0
-269 2201 0
-2198 2201 0
2198 269 -2201 0
-2198 -269 2202 0
2198 -2202 0
-2199 2202 0
2199 269 -2202 0
-2199 -269 2203 0
2199 -2203 0
-2200 2203 0
2200 269 -2203 0
-289 2204 0
-2201 2204 0
2201 289 -2204 0
-2201 -289 2205 0
2201 -2205 0
-2202 2205 0
2202 289 -2205 0
-2202 -289 2206 0
2202 -2206 0
-2203 2206 0
2203 289 -2206 0
-308 2207 0
-2204 2207 0
2204 308 -2207 0
-2204 -308 2208 0
2204 -2208 0
-2205 2208 0
2205 308 -2208 0
-2205 -308 2209 0
2205 -2209 0
-2206 2209 0
2206 308 -2209 0
-326 2210 0
-2207 2210 0
2207 326 -2210 0
-2207 -326 2211 0
2207 -2211 0
-2208 2211 0
2208 326 -2211 0
-2208 -326 2212 0
2208 -2212 0
-2209 2212 0
2209 326 -2212 0
-344 2213 0
-2210 2213 0
2210 344 -2213 0
-2210 -344 2214 0
2210 -2214 0
-2211 2214 0
2211 344 -2214 0
-2211 -344 2215 0
2211 -2215 0
-2212 2215 0
2212 344 -2215 0
-345 2216 0
-2213 2216 0
2213 345 -2216 0
-2213 -345 2217 0
2213 -2217 0
-2214 2217 0
2214 345 -2217 0
-2214 -345 2218 0
2214 -2218 0
-2215 2218 0
2215 345 -2218 0
-346 2219 0
-2216 2219 0
2216 346 -2219 0
-2216 -346 2220 0
2216 -2220 0
-2217 2220 0
2217 346 -2220 0
-2217 -346 2221 0
2217 -2221 0
-2218 2221 0
2218 346 -2221 0
-347 2222 0
-2219 2222 0
2219 347 -2222 0
-2219 -347 2223 0
2219 -2223 0
-2220 2223 0
2220 347 -2223 0
-2220 -347 2224 0
2220 -2224 0
-2221 2224 0
2221 347 -2224 0
-348 2225 0
-2222 2225 0
2222 348 -2225 0
-2222 -348 2226 0
2222 -2226 0
-2223 2226 0
2223 348 -2226 0
-2223 -348 2227 0
2223 -2227 0
-2224 2227 0
2224 348 -2227 0
-349 2228 0
-2225 2228 0
2225 349 -2228 0
-2225 -349 2229 0
2225 -2229 0
-2226 2229 0
2226 349 -2229 0
-2226 -349 2230 0
2226 -2230 0
-2227 2230 0
2227 349 -2230 0
-350 2231 0
-2228 2231 0
2228 350 -2231 0
-2228 -350 2232 0
2228 -2232 0
-2229 2232 0
2229 350 -2232 0
-2229 -350 2233 0
2229 -2233 0
-2230 2233 0
2230 350 -2233 0
-351 2234 0
-2231 2234 0
2231 351 -2234 0
-2231 -351 2235 0
2231 -2235 0
-2232 2235 0
2232 351 -2235 0
-2232 -351 2236 0
2232 -2236 0
-2233 2236 0
2233 351 -2236 0
-352 2237 0
-2234 2237 0
2234 352 -2237 0
-2234 -352 2238 0
2234 -2238 0
-2235 2238 0
2235 352 -2238 0
-2235 -352 2239 0
2235 -2239 0
-2236 2239 0
2236 352 -2239 0
-353 2240 0
-2237 2240 0
2237 353 -2240 0
-2237 -353 2241 0
2237 -2241 0
-2238 2241 0
2238 353 -2241 0
-2238 -353 2242 0
2238 -2242 0
-2239 2242 0
2239 353 -2242 0
-354 2243 0
-2240 2243 0
2240 354 -2243 0
-2240 -354 2244 0
2240 -2244 0
-2241 2244 0
2241 354 -2244 0
-2241 -354 2245 0
2241 -2245 0
-2242 2245 0
2242 354 -2245 0
-355 2246 0
-2243 2246 0
2243 355 -2246 0
-2243 -355 2247 0
2243 -2247 0
-2244 2247 0
2244 355 -2247 0
-2244 -355 2248 0
2244 -2248 0
-2245 2248 0
2245 355 -2248 0
-356 2249 0
-2246 2249 0
2246 356 -2249 0
-2246 -356 2250 0
2246 -2250 0
-2247 2250 0
2247 356 -2250 0
-2247 -356 2251 0
2247 -2251 0
-2248 2251 0
2248 356 -2251 0
-357 2252 0
-2249 2252 0
2249 357 -2252 0
-2249 -357 2253 0
2249 -2253 0
-2250 2253 0
2250 357 -2253 0
-2250 -357 2254 0
2250 -2254 0
-2251 2254 0
2251 357 -2254 0
-358 2255 0
-2252 2255 0
2252 358 -2255 0
-2252 -358 2256 0
2252 -2256 0
-2253 2256 0
2253 358 -2256 0
-2253 -358 2257 0
2253 -2257 0
-2254 2257 0
2254 358 -2257 0
-359 2258 0
-2255 2258 0
2255 359 -2258 0
-2255 -359 2259 0
2255 -2259 0
-2256 2259 0
2256 359 -2259 0
-2256 -359 2260 0
2256 -2260 0
-2257 2260 0
2257 359 -2260 0
-360 2261 0
-2258 2261 0
2258 360 -2261 0
-2258 -360 2262 0
2258 -2262 0
-2259 2262 0
2259 360 -2262 0
-2259 -360 2263 0
2259 -2263 0
-2260 2263 0
2260 360 -2263 0
-2173 -44 0
-2176 -73 0
-2179 -101 0
-2182 -128 0
-2185 -154 0
-2188 -179 0
-2191 -203 0
-2194 -226 0
-2197 -248 0
-2200 -269 0
-2203 -289 0
-2206 -308 0
-2209 -326 0
-2212 -344 0
-2215 -345 0
-2218 -346 0
-2221 -347 0
-2224 -348 0
-2227 -349 0
-2230 -350 0
-2233 -351 0
-2236 -352 0
-2239 -353 0
-2242 -354 0
-2245 -355 0
-2248 -356 0
-2251 -357 0
-2254 -358 0
-2257 -359 0
-2260 -360 0
2263 0
-2265 0
-2266 0
-45 2267 0
-15 2267 0
15 45 -2267 0
-15 -45 2268 0
15 -2268 0
-2265 2268 0
2265 45 -2268 0
-2265 -45 2269 0
2265 -2269 0
-2266 2269 0
2266 45 -2269 0
-74 2270 0
-2267 2270 0
2267 74 -2270 0
-2267 -74 2271 0
2267 -2271 0
-2268 2271 0
2268 74 -2271 0
-2268 -74 2272 0
2268 -2272 0
-2269 2272 0
2269 74 -2272 0
-102 2273 0
-2270 2273 0
2270 102 -2273 0
-2270 -102 2274 0
2270 -2274 0
-2271 2274 0
2271 102 -2274 0
-2271 -102 2275 0
2271 -2275 0
-2272 2275 0
2272 102 -2275 0
-129 2276 0
-2273 2276 0
2273 129 -2276 0
-2273 -129 2277 0
2273 -2277 0
-2274 2277 0
2274 129 -2277 0
-2274 -129 2278 0
2274 -2278 0
-2275 2278 0
2275 129 -2278 0
-155 2279 0
-2276 2279 0
2276 155 -2279 0
-2276 -155 2280 0
2276 -2280 0
-2277 2280 0
2277 155 -2280 0
-2277 -155 2281 0
2277 -2281 0
-2278 2281 0
2278 155 -2281 0
-180 2282 0
-2279 2282 0
2279 180 -2282 0
-2279 -180 2283 0
2279 -2283 0
-2280 2283 0
2280 180 -2283 0
-2280 -180 2284 0
2280 -2284 0
-2281 2284 0
2281 180 -2284 0
-204 2285 0
-2282 2285 0
2282 204 -2285 0
-2282 -204 2286 0
2282 -2286 0
-2283 2286 0
2283 204 -2286 0
-2283 -204 2287 0
2283 -2287 0
-2284 2287 0
2284 204 -2287 0
-227 2288 0
-2285 2288 0
2285 227 -2288 0
-2285 -227 2289 0
2285 -2289 0
-2286 2289 0
2286 227 -2289 0
-2286 -227 2290 0
2286 -2290 0
-2287 2290 0
2287 227 -2290 0
-249 2291 0
-2288 2291 0
2288 249 -2291 0
-2288 -249 2292 0
2288 -2292 0
-2289 2292 0
2289 249 -2292 0
-2289 -249 2293 0
2289 -2293 0
-2290 2293 0
2290 249 -2293 0
-270 2294 0
-2291 2294 0
2291 270 -2294 0
-2291 -270 2295 0
2291 -2295 0
-2292 2295 0
2292 270 -2295 0
-2292 -270 2296 0
2292 -2296 0
-2293 2296 0
2293 270 -2296 0
-290 2297 0
-2294 2297 0
2294 290 -2297 0
-2294 -290 2298 0
2294 -2298 0
-2295 2298 0
2295 290 -2298 0
-2295 -290 2299 0
2295 -2299 0
-2296 2299 0
2296 290 -2299 0
-309 2300 0
-2297 2300 0
2297 309 -2300 0
-2297 -309 2301 0
2297 -2301 0
-2298 2301 0
2298 309 -2301 0
-2298 -309 2302 0
2298 -2302 0
-2299 2302 0
2299 309 -2302 0
-327 2303 0
-2300 2303 0
2300 327 -2303 0
-2300 -327 2304 0
2300 -2304 0
-2301 2304 0
2301 327 -2304 0
-2301 -327 2305 0
2301 -2305 0
-2302 2305 0
2302 327 -2305 0
-344 2306 0
-2303 2306 0
2303 344 -2306 0
-2303 -344 2307 0
2303 -2307 0
-2304 2307 0
2304 344 -2307 0
-2304 -344 2308 0
2304 -2308 0
-2305 2308 0
2305 344 -2308 0
-361 2309 0
-2306 2309 0
2306 361 -2309 0
-2306 -361 2310 0
2306 -2310 0
-2307 2310 0
2307 361 -2310 0
-2307 -361 2311 0
2307 -2311 0
-2308 2311 0
2308 361 -2311 0
-362 2312 0
-2309 2312 0
2309 362 -2312 0
-2309 -362 2313 0
2309 -2313 0
-2310 2313 0
2310 362 -2313 0
-2310 -362 2314 0
2310 -2314 0
-2311 2314 0
2311 362 -2314 0
-363 2315 0
-2312 2315 0
2312 363 -2315 0
-2312 -363 2316 0
2312 -2316 0
-2313 2316 0
2313 363 -2316 0
-2313 -363 2317 0
2313 -2317 0
-2314 2317 0
2314 363 -2317 0
-364 2318 0
-2315 2318 0
2315 364 -2318 0
-2315 -364 2319 0
2315 -2319 0
-2316 2319 0
2316 364 -2319 0
-2316 -364 2320 0
2316 -2320 0
-2317 2320 0
2317 364 -2320 0
-365 2321 0
-2318 2321 0
2318 365 -2321 0
-2318 -365 2322 0
2318 -2322 0
-2319 2322 0
2319 365 -2322 0
-2319 -365 2323 0
2319 -2323 0
-2320 2323 0
2320 365 -2323 0
-366 2324 0
-2321 2324 0
2321 366 -2324 0
-2321 -366 2325 0
2321 -2325 0
-2322 2325 0
2322 366 -2325 0
-2322 -366 2326 0
2322 -2326 0
-2323 2326 0
2323 366 -2326 0
-367 2327 0
-2324 2327 0
2324 367 -2327 0
-2324 -367 2328 0
2324 -2328 0
-2325 2328 0
2325 367 -2328 0
-2325 -367 2329 0
2325 -2329 0
-2326 2329 0
2326 367 -2329 0
-368 2330 0
-2327 2330 0
2327 368 -2330 0
-2327 -368 2331 0
2327 -2331 0
-2328 2331 0
2328 368 -2331 0
-2328 -368 2332 0
2328 -2332 0
-2329 2332 0
2329 368 -2332 0
-369 2333 0
-2330 2333 0
2330 369 -2333 0
-2330 -369 2334 0
2330 -2334 0
-2331 2334 0
2331 369 -2334 0
-2331 -369 2335 0
2331 -2335 0
-2332 2335 0
2332 369 -2335 0
-370 2336 0
-2333 2336 0
2333 370 -2336 0
-2333 -370 2337 0
2333 -2337 0
-2334 2337 0
2334 370 -2337 0
-2334 -370 2338 0
2334 -2338 0
-2335 2338 0
2335 370 -2338 0
-371 2339 0
-2336 2339 0
2336 371 -2339 0
-2336 -371 2340 0
2336 -2340 0
-2337 2340 0
2337 371 -2340 0
-2337 -371 2341 0
2337 -2341 0
-2338 2341 0
2338 371 -2341 0
-372 2342 0
-2339 2342 0
2339 372 -2342 0
-2339 -372 2343 0
2339 -2343 0
-2340 2343 0
2340 372 -2343 0
-2340 -372 2344 0
2340 -2344 0
-2341 2344 0
2341 372 -2344 0
-373 2345 0
-2342 2345 0
2342 373 -2345 0
-2342 -373 2346 0
2342 -2346 0
-2343 2346 0
2343 373 -2346 0
-2343 -373 2347 0
2343 -2347 0
-2344 2347 0
2344 373 -2347 0
-374 2348 0
-2345 2348 0
2345 374 -2348 0
-2345 -374 2349 0
2345 -2349 0
-2346 2349 0
2346 374 -2349 0
-2346 -374 2350 0
2346 -2350 0
-2347 2350 0
2347 374 -2350 0
-375 2351 0
-2348 2351 0
2348 375 -2351 0
-2348 -375 2352 0
2348 -2352 0
-2349 2352 0
2349 375 -2352 0
-2349 -375 2353 0
2349 -2353 0
-2350 2353 0
2350 375 -2353 0
-376 2354 0
-2351 2354 0
2351 376 -2354 0
-2351 -376 2355 0
2351 -2355 0
-2352 2355 0
2352 376 -2355 0
-2352 -376 2356 0
2352 -2356 0
-2353 2356 0
2353 376 -2356 0
-2266 -45 0
-2269 -74 0
-2272 -102 0
-2275 -129 0
-2278 -155 0
-2281 -180 0
-2284 -204 0
-2287 -227 0
-2290 -249 0
-2293 -270 0
-2296 -290 0
-2299 -309 0
-2302 -327 0
-2305 -344 0
-2308 -361 0
-2311 -362 0
-2314 -363 0
-2317 -364 0
-2320 -365 0
-2323 -366 0
-2326 -367 0
-2329 -368 0
-2332 -369 0
-2335 -370 0
-2338 -371 0
-2341 -372 0
-2344 -373 0
-2347 -374 0
-2350 -375 0
-2353 -376 0
2356 0
-2358 0
-2359 0
-46 2360 0
-16 2360 0
16 46 -2360 0
-16 -46 2361 0
16 -2361 0
-2358 2361 0
2358 46 -2361 0
-2358 -46 2362 0
2358 -2362 0
-2359 2362 0
2359 46 -2362 0
-75 2363 0
-2360 2363 0
2360 75 -2363 0
-2360 -75 2364 0
2360 -2364 0
-2361 2364 0
2361 75 -2364 0
-2361 -75 2365 0
2361 -2365 0
-2362 2365 0
2362 75 -2365 0
-103 2366 0
-2363 2366 0
2363 103 -2366 0
-2363 -103 2367 0
2363 -2367 0
-2364 2367 0
2364 103 -2367 0
-2364 -103 2368 0
2364 -2368 0
-2365 2368 0
2365 103 -2368 0
-130 2369 0
-2366 2369 0
2366 130 -2369 0
-2366 -130 2370 0
2366 -2370 0
-2367 2370 0
2367 130 -2370 0
-2367 -130 2371 0
2367 -2371 0
-2368 2371 0
2368 130 -2371 0
-156 2372 0
-2369 2372 0
2369 156 -2372 0
-2369 -156 2373 0
2369 -2373 0
-2370 2373 0
2370 156 -2373 0
-2370 -156 2374 0
2370 -2374 0
-2371 2374 0
2371 156 -2374 0
-181 2375 0
-2372 2375 0
2372 181 -2375 0
-2372 -181 2376 0
2372 -2376 0
-2373 2376 0
2373 181 -2376 0
-2373 -181 2377 0
2373 -2377 0
-2374 2377 0
2374 181 -2377 0
-205 2378 0
-2375 2378 0
2375 205 -2378 0
-2375 -205 2379 0
2375 -2379 0
-2376 2379 0
2376 205 -2379 0
-2376 -205 2380 0
2376 -2380 0
-2377 2380 0
2377 205 -2380 0
-228 2381 0
-2378 2381 0
2378 228 -2381 0
-2378 -228 2382 0
2378 -2382 0
-2379 2382 0
2379 228 -2382 0
-2379 -228 2383 0
2379 -2383 0
-2380 2383 0
2380 228 -2383 0
-250 2384 0
-2381 2384 0
2381 250 -2384 0
-2381 -250 2385 0
2381 -2385 0
-2382 2385 0
2382 250 -2385 0
-2382 -250 2386 0
2382 -2386 0
-2383 2386 0
2383 250 -2386 0
-271 2387 0
-2384 2387 0
2384 271 -2387 0
-2384 -271 2388 0
2384 -2388 0
-2385 2388 0
2385 271 -2388 0
-2385 -271 2389 0
2385 -2389 0
-2386 2389 0
2386 271 -2389 0
-291 2390 0
-2387 2390 0
2387 291 -2390 0
-2387 -291 2391 0
2387 -2391 0
-2388 2391 0
2388 291 -2391 0
-2388 -291 2392 0
2388 -2392 0
-2389 2392 0
2389 291 -2392 0
-310 2393 0
-2390 2393 0
2390 310 -2393 0
-2390 -310 2394 0
2390 -2394 0
-2391 2394 0
2391 310 -2394 0
-2391 -310 2395 0
2391 -2395 0
-2392 2395 0
2392 310 -2395 0
-328 2396 0
-2393 2396 0
2393 328 -2396 0
-2393 -328 2397 0
2393 -2397 0
-2394 2397 0
2394 328 -2397 0
-2394 -328 2398 0
2394 -2398 0
-2395 2398 0
2395 328 -2398 0
-345 2399 0
-2396 2399 0
2396 345 -2399 0
-2396 -345 2400 0
2396 -2400 0
-2397 2400 0
2397 345 -2400 0
-2397 -345 2401 0
2397 -2401 0
-2398 2401 0
2398 345 -2401 0
-361 2402 0
-2399 2402 0
2399 361 -2402 0
-2399 -361 2403 0
2399 -2403 0
-2400 2403 0
2400 361 -2403 0
-2400 -361 2404 0
2400 -2404 0
-2401 2404 0
2401 361 -2404 0
-377 2405 0
-2402 2405 0
2402 377 -2405 0
-2402 -377 2406 0
2402 -2406 0
-2403 2406 0
2403 377 -2406 0
-2403 -377 2407 0
2403 -2407 0
-2404 2407 0
2404 377 -2407 0
-378 2408 0
-2405 2408 0
2405 378 -2408 0
-2405 -378 2409 0
2405 -2409 0
-2406 2409 0
2406 378 -2409 0
-2406 -378 2410 0
2406 -2410 0
-2407 2410 0
2407 378 -2410 0
-379 2411 0
-2408 2411 0
2408 379 -2411 0
-2408 -379 2412 0
2408 -2412 0
-2409 2412 0
2409 379 -2412 0
-2409 -379 2413 0
2409 -2413 0
-2410 2413 0
2410 379 -2413 0
-380 2414 0
-2411 2414 0
2411 380 -2414 0
-2411 -380 2415 0
2411 -2415 0
-2412 2415 0
2412 380 -2415 0
-2412 -380 2416 0
2412 -2416 0
-2413 2416 0
2413 380 -2416 0
-381 2417 0
-2414 2417 0
2414 381 -2417 0
-2414 -381 2418 0
2414 -2418 0
-2415 2418 0
2415 381 -2418 0
-2415 -381 2419 0
2415 -2419 0
-2416 2419 0
2416 381 -2419 0
-382 2420 0
-2417 2420 0
2417 382 -2420 0
-2417 -382 2421 0
2417 -2421 0
-2418 2421 0
2418 382 -2421 0
-2418 -382 2422 0
2418 -2422 0
-2419 2422 0
2419 382 -2422 0
-383 2423 0
-2420 2423 0
2420 383 -2423 0
-2420 -383 2424 0
2420 -2424 0
-2421 2424 0
2421 383 -2424 0
-2421 -383 2425 0
2421 -2425 0
-2422 2425 0
2422 383 -2425 0
-384 2426 0
-2423 2426 0
2423 384 -2426 0
-2423 -384 2427 0
2423 -2427 0
-2424 2427 0
2424 384 -2427 0
-2424 -384 2428 0
2424 -2428 0
-2425 2428 0
2425 384 -2428 0
-385 2429 0
-2426 2429 0
2426 385 -2429 0
-2426 -385 2430 0
2426 -2430 0
-2427 2430 0
2427 385 -2430 0
-2427 -385 2431 0
2427 -2431 0
-2428 2431 0
2428 385 -2431 0
-386 2432 0
-2429 2432 0
2429 386 -2432 0
-2429 -386 2433 0
2429 -2433 0
-2430 2433 0
2430 386 -2433 0
-2430 -386 2434 0
2430 -2434 0
-2431 2434 0
2431 386 -2434 0
-387 2435 0
-2432 2435 0
2432 387 -2435 0
-2432 -387 2436 0
2432 -2436 0
-2433 2436 0
2433 387 -2436 0
-2433 -387 2437 0
2433 -2437 0
-2434 2437 0
2434 387 -2437 0
-388 2438 0
-2435 2438 0
2435 388 -2438 0
-2435 -388 2439 0
2435 -2439 0
-2436 2439 0
2436 388 -2439 0
-2436 -388 2440 0
2436 -2440 0
-2437 2440 0
2437 388 -2440 0
-389 2441 0
-2438 2441 0
2438 389 -2441 0
-2438 -389 2442 0
2438 -2442 0
-2439 2442 0
2439 389 -2442 0
-2439 -389 2443 0
2439 -2443 0
-2440 2443 0
2440 389 -2443 0
-390 2444 0
-2441 2444 0
2441 390 -2444 0
-2441 -390 2445 0
2441 -2445 0
-2442 2445 0
2442 390 -2445 0
-2442 -390 2446 0
2442 -2446 0
-2443 2446 0
2443 390 -2446 0
-391 2447 0
-2444 2447 0
2444 391 -2447 0
-2444 -391 2448 0
2444 -2448 0
-2445 2448 0
2445 391 -2448 0
-2445 -391 2449 0
2445 -2449 0
-2446 2449 0
2446 391 -2449 0
-2359 -46 0
-2362 -75 0
-2365 -103 0
-2368 -130 0
-2371 -156 0
-2374 -181 0
-2377 -205 0
-2380 -228 0
-2383 -250 0
-2386 -271 0
-2389 -291 0
-2392 -310 0
-2395 -328 0
-2398 -345 0
-2401 -361 0
-2404 -377 0
-2407 -378 0
-2410 -379 0
-2413 -380 0
-2416 -381 0
-2419 -382 0
-2422 -383 0
-2425 -384 0
-2428 -385 0
-2431 -386 0
-2434 -387 0
-2437 -388 0
-2440 -389 0
-2443 -390 0
-2446 -391 0
2449 0
-2451 0
-2452 0
-47 2453 0
-17 2453 0
17 47 -2453 0
-17 -47 2454 0
17 -2454 0
-2451 2454 0
2451 47 -2454 0
-2451 -47 2455 0
2451 -2455 0
-2452 2455 0
2452 47 -2455 0
-76 2456 0
-2453 2456 0
2453 76 -2456 0
-2453 -76 2457 0
2453 -2457 0
-2454 2457 0
2454 76 -2457 0
-2454 -76 2458 0
2454 -2458 0
-2455 2458 0
2455 76 -2458 0
-104 2459 0
-2456 2459 0
2456 104 -2459 0
-2456 -104 2460 0
2456 -2460 0
-2457 2460 0
2457 104 -2460 0
-2457 -104 2461 0
2457 -2461 0
-2458 2461 0
2458 104 -2461 0
-131 2462 0
-2459 2462 0
2459 131 -2462 0
-2459 -131 2463 0
2459 -2463 0
-2460 2463 0
2460 131 -2463 0
-2460 -131 2464 0
2460 -2464 0
-2461 2464 0
2461 131 -2464 0
-157 2465 0
-2462 2465 0
2462 157 -2465 0
-2462 -157 2466 0
2462 -2466 0
-2463 2466 0
2463 157 -2466 0
-2463 -157 2467 0
2463 -2467 0
-2464 2467 0
2464 157 -2467 0
-182 2468 0
-2465 2468 0
2465 182 -2468 0
-2465 -182 2469 0
2465 -2469 0
-2466 2469 0
2466 182 -2469 0
-2466 -182 2470 0
2466 -2470 0
-2467 2470 0
2467 182 -2470 0
-206 2471 0
-2468 2471 0
2468 206 -2471 0
-2468 -206 2472 0
2468 -2472 0
-2469 2472 0
2469 206 -2472 0
-2469 -206 2473 0
2469 -2473 0
-2470 2473 0
2470 206 -2473 0
-229 2474 0
-2471 2474 0
2471 229 -2474 0
-2471 -229 2475 0
2471 -2475 0
-2472 2475 0
2472 229 -2475 0
-2472 -229 2476 0
2472 -2476 0
-2473 2476 0
2473 229 -2476 0
-251 2477 0
-2474 2477 0
2474 251 -2477 0
-2474 -251 2478 0
2474 -2478 0
-2475 2478 0
2475 251 -2478 0
-2475 -251 2479 0
2475 -2479 0
-2476 2479 0
2476 251 -2479 0
-272 2480 0
-2477 2480 0
2477 272 -2480 0
-2477 -272 2481 0
2477 -2481 0
-2478 2481 0
2478 272 -2481 0
-2478 -272 2482 0
2478 -2482 0
-2479 2482 0
2479 272 -2482 0
-292 2483 0
-2480 2483 0
2480 292 -2483 0
-2480 -292 2484 0
2480 -2484 0
-2481 2484 0
2481 292 -2484 0
-2481 -292 2485 0
2481 -2485 0
-2482 2485 0
2482 292 -2485 0
-311 2486 0
-2483 2486 0
2483 311 -2486 0
-2483 -311 2487 0
2483 -2487 0
-2484 2487 0
2484 311 -2487 0
-2484 -311 2488 0
2484 -2488 0
-2485 2488 0
2485 311 -2488 0
-329 2489 0
-2486 2489 0
2486 329 -2489 0
-2486 -329 2490 0
2486 -2490 0
-2487 2490 0
2487 329 -2490 0
-2487 -329 2491 0
2487 -2491 0
-2488 2491 0
2488 329 -2491 0
-346 2492 0
-2489 2492 0
2489 346 -2492 0
-2489 -346 2493 0
2489 -2493 0
-2490 2493 0
2490 346 -2493 0
-2490 -346 2494 0
2490 -2494 0
-2491 2494 0
2491 346 -2494 0
-362 2495 0
-2492 2495 0
2492 362 -2495 0
-2492 -362 2496 0
2492 -2496 0
-2493 2496 0
2493 362 -2496 0
-2493 -362 2497 0
2493 -2497 0
-2494 2497 0
2494 362 -2497 0
-377 2498 0
-2495 2498 0
2495 377 -2498 0
-2495 -377 2499 0
2495 -2499 0
-2496 2499 0
2496 377 -2499 0
-2496 -377 2500 0
2496 -2500 0
-2497 2500 0
2497 377 -2500 0
-392 2501 0
-2498 2501 0
2498 392 -2501 0
-2498 -392 2502 0
2498 -2502 0
-2499 2502 0
2499 392 -2502 0
-2499 -392 2503 0
2499 -2503 0
-2500 2503 0
2500 392 -2503 0
-393 2504 0
-2501 2504 0
2501 393 -2504 0
-2501 -393 2505 0
2501 -2505 0
-2502 2505 0
2502 393 -2505 0
-2502 -393 2506 0
2502 -2506 0
-2503 2506 0
2503 393 -2506 0
-394 2507 0
-2504 2507 0
2504 394 -2507 0
-2504 -394 2508 0
2504 -2508 0
-2505 2508 0
2505 394 -2508 0
-2505 -394 2509 0
2505 -2509 0
-2506 2509 0
2506 394 -2509 0
-395 2510 0
-2507 2510 0
2507 395 -2510 0
-2507 -395 2511 0
2507 -2511 0
-2508 2511 0
2508 395 -2511 0
-2508 -395 2512 0
2508 -2512 0
-2509 2512 0
2509 395 -2512 0
-396 2513 0
-2510 2513 0
2510 396 -2513 0
-2510 -396 2514 0
2510 -2514 0
-2511 2514 0
2511 396 -2514 0
-2511 -396 2515 0
2511 -2515 0
-2512 2515 0
2512 396 -2515 0
-397 2516 0
-2513 2516 0
2513 397 -2516 0
-2513 -397 2517 0
2513 -2517 0
-2514 2517 0
2514 397 -2517 0
-2514 -397 2518 0
2514 -2518 0
-2515 2518 0
2515 397 -2518 0
-398 2519 0
-2516 2519 0
2516 398 -2519 0
-2516 -398 2520 0
2516 -2520 0
-2517 2520 0
2517 398 -2520 0
-2517 -398 2521 0
2517 -2521 0
-2518 2521 0
2518 398 -2521 0
-399 2522 0
-2519 2522 0
2519 399 -2522 0
-2519 -399 2523 0
2519 -2523 0
-2520 2523 0
2520 399 -2523 0
-2520 -399 2524 0
2520 -2524 0
-2521 2524 0
2521 399 -2524 0
-400 2525 0
-2522 2525 0
2522 400 -2525 0
-2522 -400 2526 0
2522 -2526 0
-2523 2526 0
2523 400 -2526 0
-2523 -400 2527 0
2523 -2527 0
-2524 2527 0
2524 400 -2527 0
-401 2528 0
-2525 2528 0
2525 401 -2528 0
-2525 -401 2529 0
2525 -2529 0
-2526 2529 0
2526 401 -2529 0
-2526 -401 2530 0
2526 -2530 0
-2527 2530 0
2527 401 -2530 0
-402 2531 0
-2528 2531 0
2528 402 -2531 0
-2528 -402 2532 0
2528 -2532 0
-2529 2532 0
2529 402 -2532 0
-2529 -402 2533 0
2529 -2533 0
-2530 2533 0
2530 402 -2533 0
-403 2534 0
-2531 2534 0
2531 403 -2534 0
-2531 -403 2535 0
2531 -2535 0
-2532 2535 0
2532 403 -2535 0
-2532 -403 2536 0
2532 -2536 0
-2533 2536 0
2533 403 -2536 0
-404 2537 0
-2534 2537 0
2534 404 -2537 0
-2534 -404 2538 0
2534 -2538 0
-2535 2538 0
2535 404 -2538 0
-2535 -404 2539 0
2535 -2539 0
-2536 2539 0
2536 404 -2539 0
-405 2540 0
-2537 2540 0
2537 405 -2540 0
-2537 -405 2541 0
2537 -2541 0
-2538 2541 0
2538 405 -2541 0
-2538 -405 2542 0
2538 -2542 0
-2539 2542 0
2539 405 -2542 0
-2452 -47 0
-2455 -76 0
-2458 -104 0
-2461 -131 0
-2464 -157 0
-2467 -182 0
-2470 -206 0
-2473 -229 0
-2476 -251 0
-2479 -272 0
-2482 -292 0
-2485 -311 0
-2488 -329 0
-2491 -346 0
-2494 -362 0
-2497 -377 0
-2500 -392 0
-2503 -393 0
-2506 -394 0
-2509 -395 0
-2512 -396 0
-2515 -397 0
-2518 -398 0
-2521 -399 0
-2524 -400 0
-2527 -401 0
-2530 -402 0
-2533 -403 0
-2536 -404 0
-2539 -405 0
2542 0
-2544 0
-2545 0
-48 2546 0
-18 2546 0
18 48 -2546 0
-18 -48 2547 0
18 -2547 0
-2544 2547 0
2544 48 -2547 0
-2544 -48 2548 0
2544 -2548 0
-2545 2548 0
2545 48 -2548 0
-77 2549 0
-2546 2549 0
2546 77 -2549 0
-2546 -77 2550 0
2546 -2550 0
-2547 2550 0
2547 77 -2550 0
-2547 -77 2551 0
2547 -2551 0
-2548 2551 0
2548 77 -2551 0
-105 2552 0
-2549 2552 0
2549 105 -2552 0
-2549 -105 2553 0
2549 -2553 0
-2550 2553 0
2550 105 -2553 0
-2550 -105 2554 0
2550 -2554 0
-2551 2554 0
2551 105 -2554 0
-132 2555 0
-2552 2555 0
2552 132 -2555 0
-2552 -132 2556 0
2552 -2556 0
-2553 2556 0
2553 132 -2556 0
-2553 -132 2557 0
2553 -2557 0
-2554 2557 0
2554 132 -2557 0
-158 2558 0
-2555 2558 0
2555 158 -2558 0
-2555 -158 2559 0
2555 -2559 0
-2556 2559 0
2556 158 -2559 0
-2556 -158 2560 0
2556 -2560 0
-2557 2560 0
2557 158 -2560 0
-183 2561 0
-2558 2561 0
2558 183 -2561 0
-2558 -183 2562 0
2558 -2562 0
-2559 2562 0
2559 183 -2562 0
-2559 -183 2563 0
2559 -2563 0
-2560 2563 0
2560 183 -2563 0
-207 2564 0
-2561 2564 0
2561 207 -2564 0
-2561 -207 2565 0
2561 -2565 0
-2562 2565 0
2562 207 -2565 0
-2562 -207 2566 0
2562 -2566 0
-2563 2566 0
2563 207 -2566 0
-230 2567 0
-2564 2567 0
2564 230 -2567 0
-2564 -230 2568 0
2564 -2568 0
-2565 2568 0
2565 230 -2568 0
-2565 -230 2569 0
2565 -2569 0
-2566 2569 0
2566 230 -2569 0
-252 2570 0
-2567 2570 0
2567 252 -2570 0
-2567 -252 2571 0
2567 -2571 0
-2568 2571 0
2568 252 -2571 0
-2568 -252 2572 0
2568 -2572 0
-2569 2572 0
2569 252 -2572 0
-273 2573 0
-2570 2573 0
2570 273 -2573 0
-2570 -273 2574 0
2570 -2574 0
-2571 2574 0
2571 273 -2574 0
-2571 -273 2575 0
2571 -2575 0
-2572 2575 0
2572 273 -2575 0
-293 2576 0
-2573 2576 0
2573 293 -2576 0
-2573 -293 2577 0
2573 -2577 0
-2574 2577 0
2574 293 -2577 0
-2574 -293 2578 0
2574 -2578 0
-2575 2578 0
2575 293 -2578 0
-312 2579 0
-2576 2579 0
2576 312 -2579 0
-2576 -312 2580 0
2576 -2580 0
-2577 2580 0
2577 312 -2580 0
-2577 -312 2581 0
2577 -2581 0
-2578 2581 0
2578 312 -2581 0
-330 2582 0
-2579 2582 0
2579 330 -2582 0
-2579 -330 2583 0
2579 -2583 0
-2580 2583 0
2580 330 -2583 0
-2580 -330 2584 0
2580 -2584 0
-2581 2584 0
2581 330 -2584 0
-347 2585 0
-2582 2585 0
2582 347 -2585 0
-2582 -347 2586 0
2582 -2586 0
-2583 2586 0
2583 347 -2586 0
-2583 -347 2587 0
2583 -2587 0
-2584 2587 0
2584 347 -2587 0
-363 2588 0
-2585 2588 0
2585 363 -2588 0
-2585 -363 2589 0
2585 -2589 0
-2586 2589 0
2586 363 -2589 0
-2586 -363 2590 0
2586 -2590 0
-2587 2590 0
2587 363 -2590 0
-378 2591 0
-2588 2591 0
2588 378 -2591 0
-2588 -378 2592 0
2588 -2592 0
-2589 2592 0
2589 378 -2592 0
-2589 -378 2593 0
2589 -2593 0
-2590 2593 0
2590 378 -2593 0
-392 2594 0
-2591 2594 0
2591 392 -2594 0
-2591 -392 2595 0
2591 -2595 0
-2592 2595 0
2592 392 -2595 0
-2592 -392 2596 0
2592 -2596 0
-2593 2596 0
2593 392 -2596 0
-406 2597 0
-2594 2597 0
2594 406 -2597 0
-2594 -406 2598 0
2594 -2598 0
-2595 2598 0
2595 406 -2598 0
-2595 -406 2599 0
2595 -2599 0
-2596 2599 0
2596 406 -2599 0
-407 2600 0
-2597 2600 0
2597 407 -2600 0
-2597 -407 2601 0
2597 -2601 0
-2598 2601 0
2598 407 -2601 0
-2598 -407 2602 0
2598 -2602 0
-2599 2602 0
2599 407 -2602 0
-408 2603 0
-2600 2603 0
2600 408 -2603 0
-2600 -408 2604 0
2600 -2604 0
-2601 2604 0
2601 408 -2604 0
-2601 -408 2605 0
2601 -2605 0
-2602 2605 0
2602 408 -2605 0
-409 2606 0
-2603 2606 0
2603 409 -2606 0
-2603 -409 2607 0
2603 -2607 0
-2604 2607 0
2604 409 -2607 0
-2604 -409 2608 0
2604 -2608 0
-2605 2608 0
2605 409 -2608 0
-410 2609 0
-2606 2609 0
2606 410 -2609 0
-2606 -410 2610 0
2606 -2610 0
-2607 2610 0
2607 410 -2610 0
-2607 -410 2611 0
2607 -2611 0
-2608 2611 0
2608 410 -2611 0
-411 2612 0
-2609 2612 0
2609 411 -2612 0
-2609 -411 2613 0
2609 -2613 0
-2610 2613 0
2610 411 -2613 0
-2610 -411 2614 0
2610 -2614 0
-2611 2614 0
2611 411 -2614 0
-412 2615 0
-2612 2615 0
2612 412 -2615 0
-2612 -412 2616 0
2612 -2616 0
-2613 2616 0
2613 412 -2616 0
-2613 -412 2617 0
2613 -2617 0
-2614 2617 0
2614 412 -2617 0
-413 2618 0
-2615 2618 0
2615 413 -2618 0
-2615 -413 2619 0
2615 -2619 0
-2616 2619 0
2616 413 -2619 0
-2616 -413 2620 0
2616 -2620 0
-2617 2620 0
2617 413 -2620 0
-414 2621 0
-2618 2621 0
2618 414 -2621 0
-2618 -414 2622 0
2618 -2622 0
-2619 2622 0
2619 414 -2622 0
-2619 -414 2623 0
2619 -2623 0
-2620 2623 0
2620 414 -2623 0
-415 2624 0
-2621 2624 0
2621 415 -2624 0
-2621 -415 2625 0
2621 -2625 0
-2622 2625 0
2622 415 -2625 0
-2622 -415 2626 0
2622 -2626 0
-2623 2626 0
2623 415 -2626 0
-416 2627 0
-2624 2627 0
2624 416 -2627 0
-2624 -416 2628 0
2624 -2628 0
-2625 2628 0
2625 416 -2628 0
-2625 -416 2629 0
2625 -2629 0
-2626 2629 0
2626 416 -2629 0
-417 2630 0
-2627 2630 0
2627 417 -2630 0
-2627 -417 2631 0
2627 -2631 0
-2628 2631 0
2628 417 -2631 0
-2628 -417 2632 0
2628 -2632 0
-2629 2632 0
2629 417 -2632 0
-418 2633 0
-2630 2633 0
2630 418 -2633 0
-2630 -418 2634 0
2630 -2634 0
-2631 2634 0
2631 418 -2634 0
-2631 -418 2635 0
2631 -2635 0
-2632 2635 0
2632 418 -2635 0
-2545 -48 0
-2548 -77 0
-2551 -105 0
-2554 -132 0
-2557 -158 0
-2560 -183 0
-2563 -207 0
-2566 -230 0
-2569 -252 0
-2572 -273 0
-2575 -293 0
-2578 -312 0
-2581 -330 0
-2584 -347 0
-2587 -363 0
-2590 -378 0
-2593 -392 0
-2596 -406 0
-2599 -407 0
-2602 -408 0
-2605 -409 0
-2608 -410 0
-2611 -411 0
-2614 -412 0
-2617 -413 0
-2620 -414 0
-2623 -415 0
-2626 -416 0
-2629 -417 0
-2632 -418 0
2635 0
-2637 0
-2638 0
-49 2639 0
-19 2639 0
19 49 -2639 0
-19 -49 2640 0
19 -2640 0
-2637 2640 0
2637 49 -2640 0
-2637 -49 2641 0
2637 -2641 0
-2638 2641 0
2638 49 -2641 0
-78 2642 0
-2639 2642 0
2639 78 -2642 0
-2639 -78 2643 0
2639 -2643 0
-2640 2643 0
2640 78 -2643 0
-2640 -78 2644 0
2640 -2644 0
-2641 2644 0
2641 78 -2644 0
-106 2645 0
-2642 2645 0
2642 106 -2645 0
-2642 -106 2646 0
2642 -2646 0
-2643 2646 0
2643 106 -2646 0
-2643 -106 2647 0
2643 -2647 0
-2644 2647 0
2644 106 -2647 0
-133 2648 0
-2645 2648 0
2645 133 -2648 0
-2645 -133 2649 0
2645 -2649 0
-2646 2649 0
2646 133 -2649 0
-2646 -133 2650 0
2646 -2650 0
-2647 2650 0
2647 133 -2650 0
-159 2651 0
-2648 2651 0
2648 159 -2651 0
-2648 -159 2652 0
2648 -2652 0
-2649 2652 0
2649 159 -2652 0
-2649 -159 2653 0
2649 -2653 0
-2650 2653 0
2650 159 -2653 0
-184 2654 0
-2651 2654 0
2651 184 -2654 0
-2651 -184 2655 0
2651 -2655 0
-2652 2655 0
2652 184 -2655 0
-2652 -184 2656 0
2652 -2656 0
-2653 2656 0
2653 184 -2656 0
-208 2657 0
-2654 2657 0
2654 208 -2657 0
-2654 -208 2658 0
2654 -2658 0
-2655 2658 0
2655 208 -2658 0
-2655 -208 2659 0
2655 -2659 0
-2656 2659 0
2656 208 -2659 0
-231 2660 0
-2657 2660 0
2657 231 -2660 0
-2657 -231 2661 0
2657 -2661 0
-2658 2661 0
2658 231 -2661 0
-2658 -231 2662 0
2658 -2662 0
-2659 2662 0
2659 231 -2662 0
-253 2663 0
-2660 2663 0
2660 253 -2663 0
-2660 -253 2664 0
2660 -2664 0
-2661 2664 0
2661 253 -2664 0
-2661 -253 2665 0
2661 -2665 0
-2662 2665 0
2662 253 -2665 0
-274 2666 0
-2663 2666 0
2663 274 -2666 0
-2663 -274 2667 0
2663 -2667 0
-2664 2667 0
2664 274 -2667 0
-2664 -274 2668 0
2664 -2668 0
-2665 2668 0
2665 274 -2668 0
-294 2669 0
-2666 2669 0
2666 294 -2669 0
-2666 -294 2670 0
2666 -2670 0
-2667 2670 0
2667 294 -2670 0
-2667 -294 2671 0
2667 -2671 0
-2668 2671 0
2668 294 -2671 0
-313 2672 0
-2669 2672 0
2669 313 -2672 0
-2669 -313 2673 0
2669 -2673 0
-2670 2673 0
2670 313 -2673 0
-2670 -313 2674 0
2670 -2674 0
-2671 2674 0
2671 313 -2674 0
-331 2675 0
-2672 2675 0
2672 331 -2675 0
-2672 -331 2676 0
2672 -2676 0
-2673 2676 0
2673 331 -2676 0
-2673 -331 2677 0
2673 -2677 0
-2674 2677 0
2674 331 -2677 0
-348 2678 0
-2675 2678 0
2675 348 -2678 0
-2675 -348 2679 0
2675 -2679 0
-2676 2679 0
2676 348 -2679 0
-2676 -348 2680 0
2676 -2680 0
-2677 2680 0
2677 348 -2680 0
-364 2681 0
-2678 2681 0
2678 364 -2681 0
-2678 -364 2682 0
2678 -2682 0
-2679 2682 0
2679 364 -2682 0
-2679 -364 2683 0
2679 -2683 0
-2680 2683 0
2680 364 -2683 0
-379 2684 0
-2681 2684 0
2681 379 -2684 0
-2681 -379 2685 0
2681 -2685 0
-2682 2685 0
2682 379 -2685 0
-2682 -379 2686 0
2682 -2686 0
-2683 2686 0
2683 379 -2686 0
-393 2687 0
-2684 2687 0
2684 393 -2687 0
-2684 -393 2688 0
2684 -2688 0
-2685 2688 0
2685 393 -2688 0
-2685 -393 2689 0
2685 -2689 0
-2686 2689 0
2686 393 -2689 0
-406 2690 0
-2687 2690 0
2687 406 -2690 0
-2687 -406 2691 0
2687 -2691 0
-2688 2691 0
2688 406 -2691 0
-2688 -406 2692 0
2688 -2692 0
-2689 2692 0
2689 406 -2692 0
-419 2693 0
-2690 2693 0
2690 419 -2693 0
-2690 -419 2694 0
2690 -2694 0
-2691 2694 0
2691 419 -2694 0
-2691 -419 2695 0
2691 -2695 0
-2692 2695 0
2692 419 -2695 0
-420 2696 0
-2693 2696 0
2693 420 -2696 0
-2693 -420 2697 0
2693 -2697 0
-2694 2697 0
2694 420 -2697 0
-2694 -420 2698 0
2694 -2698 0
-2695 2698 0
2695 420 -2698 0
-421 2699 0
-2696 2699 0
2696 421 -2699 0
-2696 -421 2700 0
2696 -2700 0
-2697 2700 0
2697 421 -2700 0
-2697 -421 2701 0
2697 -2701 0
-2698 2701 0
2698 421 -2701 0
-422 2702 0
-2699 2702 0
2699 422 -2702 0
-2699 -422 2703 0
2699 -2703 0
-2700 2703 0
2700 422 -2703 0
-2700 -422 2704 0
2700 -2704 0
-2701 2704 0
2701 422 -2704 0
-423 2705 0
-2702 2705 0
2702 423 -2705 0
-2702 -423 2706 0
2702 -2706 0
-2703 2706 0
2703 423 -2706 0
-2703 -423 2707 0
2703 -2707 0
-2704 2707 0
2704 423 -2707 0
-424 2708 0
-2705 2708 0
2705 424 -2708 0
-2705 -424 2709 0
2705 -2709 0
-2706 2709 0
2706 424 -2709 0
-2706 -424 2710 0
2706 -2710 0
-2707 2710 0
2707 424 -2710 0
-425 2711 0
-2708 2711 0
2708 425 -2711 0
-2708 -425 2712 0
2708 -2712 0
-2709 2712 0
2709 425 -2712 0
-2709 -425 2713 0
2709 -2713 0
-2710 2713 0
2710 425 -2713 0
-426 2714 0
-2711 2714 0
2711 426 -2714 0
-2711 -426 2715 0
2711 -2715 0
-2712 2715 0
2712 426 -2715 0
-2712 -426 2716 0
2712 -2716 0
-2713 2716 0
2713 426 -2716 0
-427 2717 0
-2714 2717 0
2714 427 -2717 0
-2714 -427 2718 0
2714 -2718 0
-2715 2718 0
2715 427 -2718 0
-2715 -427 2719 0
2715 -2719 0
-2716 2719 0
2716 427 -2719 0
-428 2720 0
-2717 2720 0
2717 428 -2720 0
-2717 -428 2721 0
2717 -2721 0
-2718 2721 0
2718 428 -2721 0
-2718 -428 2722 0
2718 -2722 0
-2719 2722 0
2719 428 -2722 0
-429 2723 0
-2720 2723 0
2720 429 -2723 0
-2720 -429 2724 0
2720 -2724 0
-2721 2724 0
2721 429 -2724 0
-2721 -429 2725 0
2721 -2725 0
-2722 2725 0
2722 429 -2725 0
-430 2726 0
-2723 2726 0
2723 430 -2726 0
-2723 -430 2727 0
2723 -2727 0
-2724 2727 0
2724 430 -2727 0
-2724 -430 2728 0
2724 -2728 0
-2725 2728 0
2725 430 -2728 0
-2638 -49 0
-2641 -78 0
-2644 -106 0
-2647 -133 0
-2650 -159 0
-2653 -184 0
-2656 -208 0
-2659 -231 0
-2662 -253 0
-2665 -274 0
-2668 -294 0
-2671 -313 0
-2674 -331 0
-2677 -348 0
-2680 -364 0
-2683 -379 0
-2686 -393 0
-2689 -406 0
-2692 -419 0
-2695 -420 0
-2698 -421 0
-2701 -422 0
-2704 -423 0
-2707 -424 0
-2710 -425 0
-2713 -426 0
-2716 -427 0
-2719 -428 0
-2722 -429 0
-2725 -430 0
2728 0
-2730 0
-2731 0
-50 2732 0
-20 2732 0
20 50 -2732 0
-20 -50 2733 0
20 -2733 0
-2730 2733 0
2730 50 -2733 0
-2730 -50 2734 0
2730 -2734 0
-2731 2734 0
2731 50 -2734 0
-79 2735 0
-2732 2735 0
2732 79 -2735 0
-2732 -79 2736 0
2732 -2736 0
-2733 2736 0
2733 79 -2736 0
-2733 -79 2737 0
2733 -2737 0
-2734 2737 0
2734 79 -2737 0
-107 2738 0
-2735 2738 0
2735 107 -2738 0
-2735 -107 2739 0
2735 -2739 0
-2736 2739 0
2736 107 -2739 0
-2736 -107 2740 0
2736 -2740 0
-2737 2740 0
2737 107 -2740 0
-134 2741 0
-2738 2741 0
2738 134 -2741 0
-2738 -134 2742 0
2738 -2742 0
-2739 2742 0
2739 134 -2742 0
-2739 -134 2743 0
2739 -2743 0
-2740 2743 0
2740 134 -2743 0
-160 2744 0
-2741 2744 0
2741 160 -2744 0
-2741 -160 2745 0
2741 -2745 0
-2742 2745 0
2742 160 -2745 0
-2742 -160 2746 0
2742 -2746 0
-2743 2746 0
2743 160 -2746 0
-185 2747 0
-2744 2747 0
2744 185 -2747 0
-2744 -185 2748 0
2744 -2748 0
-2745 2748 0
2745 185 -2748 0
-2745 -185 2749 0
2745 -2749 0
-2746 2749 0
2746 185 -2749 0
-209 2750 0
-2747 2750 0
2747 209 -2750 0
-2747 -209 2751 0
2747 -2751 0
-2748 2751 0
2748 209 -2751 0
-2748 -209 2752 0
2748 -2752 0
-2749 2752 0
2749 209 -2752 0
-232 2753 0
-2750 2753 0
2750 232 -2753 0
-2750 -232 2754 0
2750 -2754 0
-2751 2754 0
2751 232 -2754 0
-2751 -232 2755 0
2751 -2755 0
-2752 2755 0
2752 232 -2755 0
-254 2756 0
-2753 2756 0
2753 254 -2756 0
-2753 -254 2757 0
2753 -2757 0
-2754 2757 0
2754 254 -2757 0
-2754 -254 2758 0
2754 -2758 0
-2755 2758 0
2755 254 -2758 0
-275 2759 0
-2756 2759 0
2756 275 -2759 0
-2756 -275 2760 0
2756 -2760 0
-2757 2760 0
2757 275 -2760 0
-2757 -275 2761 0
2757 -2761 0
-2758 2761 0
2758 275 -2761 0
-295 2762 0
-2759 2762 0
2759 295 -2762 0
-2759 -295 2763 0
2759 -2763 0
-2760 2763 0
2760 295 -2763 0
-2760 -295 2764 0
2760 -2764 0
-2761 2764 0
2761 295 -2764 0
-314 2765 0
-2762 2765 0
2762 314 -2765 0
-2762 -314 2766 0
2762 -2766 0
-2763 2766 0
2763 314 -2766 0
-2763 -314 2767 0
2763 -2767 0
-2764 2767 0
2764 314 -2767 0
-332 2768 0
-2765 2768 0
2765 332 -2768 0
-2765 -332 2769 0
2765 -2769 0
-2766 2769 0
2766 332 -2769 0
-2766 -332 2770 0
2766 -2770 0
-2767 2770 0
2767 332 -2770 0
-349 2771 0
-2768 2771 0
2768 349 -2771 0
-2768 -349 2772 0
2768 -2772 0
-2769 2772 0
2769 349 -2772 0
-2769 -349 2773 0
2769 -2773 0
-2770 2773 0
2770 349 -2773 0
-365 2774 0
-2771 2774 0
2771 365 -2774 0
-2771 -365 2775 0
2771 -2775 0
-2772 2775 0
2772 365 -2775 0
-2772 -365 2776 0
2772 -2776 0
-2773 2776 0
2773 365 -2776 0
-380 2777 0
-2774 2777 0
2774 380 -2777 0
-2774 -380 2778 0
2774 -2778 0
-2775 2778 0
2775 380 -2778 0
-2775 -380 2779 0
2775 -2779 0
-2776 2779 0
2776 380 -2779 0
-394 2780 0
-2777 2780 0
2777 394 -2780 0
-2777 -394 2781 0
2777 -2781 0
-2778 2781 0
2778 394 -2781 0
-2778 -394 2782 0
2778 -2782 0
-2779 2782 0
2779 394 -2782 0
-407 2783 0
-2780 2783 0
2780 407 -2783 0
-2780 -407 2784 0
2780 -2784 0
-2781 2784 0
2781 407 -2784 0
-2781 -407 2785 0
2781 -2785 0
-2782 2785 0
2782 407 -2785 0
-419 2786 0
-2783 2786 0
2783 419 -2786 0
-2783 -419 2787 0
2783 -2787 0
-2784 2787 0
2784 419 -2787 0
-2784 -419 2788 0
2784 -2788 0
-2785 2788 0
2785 419 -2788 0
-431 2789 0
-2786 2789 0
2786 431 -2789 0
-2786 -431 2790 0
2786 -2790 0
-2787 2790 0
2787 431 -2790 0
-2787 -431 2791 0
2787 -2791 0
-2788 2791 0
2788 431 -2791 0
-432 2792 0
-2789 2792 0
2789 432 -2792 0
-2789 -432 2793 0
2789 -2793 0
-2790 2793 0
2790 432 -2793 0
-2790 -432 2794 0
2790 -2794 0
-2791 2794 0
2791 432 -2794 0
-433 2795 0
-2792 2795 0
2792 433 -2795 0
-2792 -433 2796 0
2792 -2796 0
-2793 2796 0
2793 433 -2796 0
-2793 -433 2797 0
2793 -2797 0
-2794 2797 0
2794 433 -2797 0
-434 2798 0
-2795 2798 0
2795 434 -2798 0
-2795 -434 2799 0
2795 -2799 0
-2796 2799 0
2796 434 -2799 0
-2796 -434 2800 0
2796 -2800 0
-2797 2800 0
2797 434 -2800 0
-435 2801 0
-2798 2801 0
2798 435 -2801 0
-2798 -435 2802 0
2798 -2802 0
-2799 2802 0
2799 435 -2802 0
-2799 -435 2803 0
2799 -2803 0
-2800 2803 0
2800 435 -2803 0
-436 2804 0
-2801 2804 0
2801 436 -2804 0
-2801 -436 2805 0
2801 -2805 0
-2802 2805 0
2802 436 -2805 0
-2802 -436 2806 0
2802 -2806 0
-2803 2806 0
2803 436 -2806 0
-437 2807 0
-2804 2807 0
2804 437 -2807 0
-2804 -437 2808 0
2804 -2808 0
-2805 2808 0
2805 437 -2808 0
-2805 -437 2809 0
2805 -2809 0
-2806 2809 0
2806 437 -2809 0
-438 2810 0
-2807 2810 0
2807 438 -2810 0
-2807 -438 2811 0
2807 -2811 0
-2808 2811 0
2808 438 -2811 0
-2808 -438 2812 0
2808 -2812 0
-2809 2812 0
2809 438 -2812 0
-439 2813 0
-2810 2813 0
2810 439 -2813 0
-2810 -439 2814 0
2810 -2814 0
-2811 2814 0
2811 439 -2814 0
-2811 -439 2815 0
2811 -2815 0
-2812 2815 0
2812 439 -2815 0
-440 2816 0
-2813 2816 0
2813 440 -2816 0
-2813 -440 2817 0
2813 -2817 0
-2814 2817 0
2814 440 -2817 0
-2814 -440 2818 0
2814 -2818 0
-2815 2818 0
2815 440 -2818 0
-441 2819 0
-2816 2819 0
2816 441 -2819 0
-2816 -441 2820 0
2816 -2820 0
-2817 2820 0
2817 441 -2820 0
-2817 -441 2821 0
2817 -2821 0
-2818 2821 0
2818 441 -2821 0
-2731 -50 0
-2734 -79 0
-2737 -107 0
-2740 -134 0
-2743 -160 0
-2746 -185 0
-2749 -209 0
-2752 -232 0
-2755 -254 0
-2758 -275 0
-2761 -295 0
-2764 -314 0
-2767 -332 0
-2770 -349 0
-2773 -365 0
-2776 -380 0
-2779 -394 0
-2782 -407 0
-2785 -419 0
-2788 -431 0
-2791 -432 0
-2794 -433 0
-2797 -434 0
-2800 -435 0
-2803 -436 0
-2806 -437 0
-2809 -438 0
-2812 -439 0
-2815 -440 0
-2818 -441 0
2821 0
-2823 0
-2824 0
-51 2825 0
-21 2825 0
21 51 -2825 0
-21 -51 2826 0
21 -2826 0
-2823 2826 0
2823 51 -2826 0
-2823 -51 2827 0
2823 -2827 0
-2824 2827 0
2824 51 -2827 0
-80 2828 0
-2825 2828 0
2825 80 -2828 0
-2825 -80 2829 0
2825 -2829 0
-2826 2829 0
2826 80 -2829 0
-2826 -80 2830 0
2826 -2830 0
-2827 2830 0
2827 80 -2830 0
-108 2831 0
-2828 2831 0
2828 108 -2831 0
-2828 -108 2832 0
2828 -2832 0
-2829 2832 0
2829 108 -2832 0
-2829 -108 2833 0
2829 -2833 0
-2830 2833 0
2830 108 -2833 0
-135 2834 0
-2831 2834 0
2831 135 -2834 0
-2831 -135 2835 0
2831 -2835 0
-2832 2835 0
2832 135 -2835 0
-2832 -135 2836 0
2832 -2836 0
-2833 2836 0
2833 135 -2836 0
-161 2837 0
-2834 2837 0
2834 161 -2837 0
-2834 -161 2838 0
2834 -2838 0
-2835 2838 0
2835 161 -2838 0
-2835 -161 2839 0
2835 -2839 0
-2836 2839 0
2836 161 -2839 0
-186 2840 0
-2837 2840 0
2837 186 -2840 0
-2837 -186 2841 0
2837 -2841 0
-2838 2841 0
2838 186 -2841 0
-2838 -186 2842 0
2838 -2842 0
-2839 2842 0
2839 186 -2842 0
-210 2843 0
-2840 2843 0
2840 210 -2843 0
-2840 -210 2844 0
2840 -2844 0
-2841 2844 0
2841 210 -2844 0
-2841 -210 2845 0
2841 -2845 0
-2842 2845 0
2842 210 -2845 0
-233 2846 0
-2843 2846 0
2843 233 -2846 0
-2843 -233 2847 0
2843 -2847 0
-2844 2847 0
2844 233 -2847 0
-2844 -233 2848 0
2844 -2848 0
-2845 2848 0
2845 233 -2848 0
-255 2849 0
-2846 2849 0
2846 255 -2849 0
-2846 -255 2850 0
2846 -2850 0
-2847 2850 0
2847 255 -2850 0
-2847 -255 2851 0
2847 -2851 0
-2848 2851 0
2848 255 -2851 0
-276 2852 0
-2849 2852 0
2849 276 -2852 0
-2849 -276 2853 0
2849 -2853 0
-2850 2853 0
2850 276 -2853 0
-2850 -276 2854 0
2850 -2854 0
-2851 2854 0
2851 276 -2854 0
-296 2855 0
-2852 2855 0
2852 296 -2855 0
-2852 -296 2856 0
2852 -2856 0
-2853 2856 0
2853 296 -2856 0
-2853 -296 2857 0
2853 -2857 0
-2854 2857 0
2854 296 -2857 0
-315 2858 0
-2855 2858 0
2855 315 -2858 0
-2855 -315 2859 0
2855 -2859 0
-2856 2859 0
2856 315 -2859 0
-2856 -315 2860 0
2856 -2860 0
-2857 2860 0
2857 315 -2860 0
-333 2861 0
-2858 2861 0
2858 333 -2861 0
-2858 -333 2862 0
2858 -2862 0
-2859 2862 0
2859 333 -2862 0
-2859 -333 2863 0
2859 -2863 0
-2860 2863 0
2860 333 -2863 0
-350 2864 0
-2861 2864 0
2861 350 -2864 0
-2861 -350 2865 0
2861 -2865 0
-2862 2865 0
2862 350 -2865 0
-2862 -350 2866 0
2862 -2866 0
-2863 2866 0
2863 350 -2866 0
-366 2867 0
-2864 2867 0
2864 366 -2867 0
-2864 -366 2868 0
2864 -2868 0
-2865 2868 0
2865 366 -2868 0
-2865 -366 2869 0
2865 -2869 0
-2866 2869 0
2866 366 -2869 0
-381 2870 0
-2867 2870 0
2867 381 -2870 0
-2867 -381 2871 0
2867 -2871 0
-2868 2871 0
2868 381 -2871 0
-2868 -381 2872 0
2868 -2872 0
-2869 2872 0
2869 381 -2872 0
-395 2873 0
-2870 2873 0
2870 395 -2873 0
-2870 -395 2874 0
2870 -2874 0
-2871 2874 0
2871 395 -2874 0
-2871 -395 2875 0
2871 -2875 0
-2872 2875 0
2872 395 -2875 0
-408 2876 0
-2873 2876 0
2873 408 -2876 0
-2873 -408 2877 0
2873 -2877 0
-2874 2877 0
2874 408 -2877 0
-2874 -408 2878 0
2874 -2878 0
-2875 2878 0
2875 408 -2878 0
-420 2879 0
-2876 2879 0
2876 420 -2879 0
-2876 -420 2880 0
2876 -2880 0
-2877 2880 0
2877 420 -2880 0
-2877 -420 2881 0
2877 -2881 0
-2878 2881 0
2878 420 -2881 0
-431 2882 0
-2879 2882 0
2879 431 -2882 0
-2879 -431 2883 0
2879 -2883 0
-2880 2883 0
2880 431 -2883 0
-2880 -431 2884 0
2880 -2884 0
-2881 2884 0
2881 431 -2884 0
-442 2885 0
-2882 2885 0
2882 442 -2885 0
-2882 -442 2886 0
2882 -2886 0
-2883 2886 0
2883 442 -2886 0
-2883 -442 2887 0
2883 -2887 0
-2884 2887 0
2884 442 -2887 0
-443 2888 0
-2885 2888 0
2885 443 -2888 0
-2885 -443 2889 0
2885 -2889 0
-2886 2889 0
2886 443 -2889 0
-2886 -443 2890 0
2886 -2890 0
-2887 2890 0
2887 443 -2890 0
-444 2891 0
-2888 2891 0
2888 444 -2891 0
-2888 -444 2892 0
2888 -2892 0
-2889 2892 0
2889 444 -2892 0
-2889 -444 2893 0
2889 -2893 0
-2890 2893 0
2890 444 -2893 0
-445 2894 0
-2891 2894 0
2891 445 -2894 0
-2891 -445 2895 0
2891 -2895 0
-2892 2895 0
2892 445 -2895 0
-2892 -445 2896 0
2892 -2896 0
-2893 2896 0
2893 445 -2896 0
-446 2897 0
-2894 2897 0
2894 446 -2897 0
-2894 -446 2898 0
2894 -2898 0
-2895 2898 0
2895 446 -2898 0
-2895 -446 2899 0
2895 -2899 0
-2896 2899 0
2896 446 -2899 0
-447 2900 0
-2897 2900 0
2897 447 -2900 0
-2897 -447 2901 0
2897 -2901 0
-2898 2901 0
2898 447 -2901 0
-2898 -447 2902 0
2898 -2902 0
-2899 2902 0
2899 447 -2902 0
-448 2903 0
-2900 2903 0
2900 448 -2903 0
-2900 -448 2904 0
2900 -2904 0
-2901 2904 0
2901 448 -2904 0
-2901 -448 2905 0
2901 -2905 0
-2902 2905 0
2902 448 -2905 0
-449 2906 0
-2903 2906 0
2903 449 -2906 0
-2903 -449 2907 0
2903 -2907 0
-2904 2907 0
2904 449 -2907 0
-2904 -449 2908 0
2904 -2908 0
-2905 2908 0
2905 449 -2908 0
-450 2909 0
-2906 2909 0
2906 450 -2909 0
-2906 -450 2910 0
2906 -2910 0
-2907 2910 0
2907 450 -2910 0
-2907 -450 2911 0
2907 -2911 0
-2908 2911 0
2908 450 -2911 0
-451 2912 0
-2909 2912 0
2909 451 -2912 0
-2909 -451 2913 0
2909 -2913 0
-2910 2913 0
2910 451 -2913 0
-2910 -451 2914 0
2910 -2914 0
-2911 2914 0
2911 451 -2914 0
-2824 -51 0
-2827 -80 0
-2830 -108 0
-2833 -135 0
-2836 -161 0
-2839 -186 0
-2842 -210 0
-2845 -233 0
-2848 -255 0
-2851 -276 0
-2854 -296 0
-2857 -315 0
-2860 -333 0
-2863 -350 0
-2866 -366 0
-2869 -381 0
-2872 -395 0
-2875 -408 0
-2878 -420 0
-2881 -431 0
-2884 -442 0
-2887 -443 0
-2890 -444 0
-2893 -445 0
-2896 -446 0
-2899 -447 0
-2902 -448 0
-2905 -449 0
-2908 -450 0
-2911 -451 0
2914 0
-2916 0
-2917 0
-52 2918 0
-22 2918 0
22 52 -2918 0
-22 -52 2919 0
22 -2919 0
-2916 2919 0
2916 52 -2919 0
-2916 -52 2920 0
2916 -2920 0
-2917 2920 0
2917 52 -2920 0
-81 2921 0
-2918 2921 0
2918 81 -2921 0
-2918 -81 2922 0
2918 -2922 0
-2919 2922 0
2919 81 -2922 0
-2919 -81 2923 0
2919 -2923 0
-2920 2923 0
2920 81 -2923 0
-109 2924 0
-2921 2924 0
2921 109 -2924 0
-2921 -109 2925 0
2921 -2925 0
-2922 2925 0
2922 109 -2925 0
-2922 -109 2926 0
2922 -2926 0
-2923 2926 0
2923 109 -2926 0
-136 2927 0
-2924 2927 0
2924 136 -2927 0
-2924 -136 2928 0
2924 -2928 0
-2925 2928 0
2925 136 -2928 0
-2925 -136 2929 0
2925 -2929 0
-2926 2929 0
2926 136 -2929 0
-162 2930 0
-2927 2930 0
2927 162 -2930 0
-2927 -162 2931 0
2927 -2931 0
-2928 2931 0
2928 162 -2931 0
-2928 -162 2932 0
2928 -2932 0
-2929 2932 0
2929 162 -2932 0
-187 2933 0
-2930 2933 0
2930 187 -2933 0
-2930 -187 2934 0
2930 -2934 0
-2931 2934 0
2931 187 -2934 0
-2931 -187 2935 0
2931 -2935 0
-2932 2935 0
2932 187 -2935 0
-211 2936 0
-2933 2936 0
2933 211 -2936 0
-2933 -211 2937 0
2933 -2937 0
-2934 2937 0
2934 211 -2937 0
-2934 -211 2938 0
2934 -2938 0
-2935 2938 0
2935 211 -2938 0
-234 2939 0
-2936 2939 0
2936 234 -2939 0
-2936 -234 2940 0
2936 -2940 0
-2937 2940 0
2937 234 -2940 0
-2937 -234 2941 0
2937 -2941 0
-2938 2941 0
2938 234 -2941 0
-256 2942 0
-2939 2942 0
2939 256 -2942 0
-2939 -256 2943 0
2939 -2943 0
-2940 2943 0
2940 256 -2943 0
-2940 -256 2944 0
2940 -2944 0
-2941 2944 0
2941 256 -2944 0
-277 2945 0
-2942 2945 0
2942 277 -2945 0
-2942 -277 2946 0
2942 -2946 0
-2943 2946 0
2943 277 -2946 0
-2943 -277 2947 0
2943 -2947 0
-2944 2947 0
2944 277 -2947 0
-297 2948 0
-2945 2948 0
2945 297 -2948 0
-2945 -297 2949 0
2945 -2949 0
-2946 2949 0
2946 297 -2949 0
-2946 -297 2950 0
2946 -2950 0
-2947 2950 0
2947 297 -2950 0
-316 2951 0
-2948 2951 0
2948 316 -2951 0
-2948 -316 2952 0
2948 -2952 0
-2949 2952 0
2949 316 -2952 0
-2949 -316 2953 0
2949 -2953 0
-2950 2953 0
2950 316 -2953 0
-334 2954 0
-2951 2954 0
2951 334 -2954 0
-2951 -334 2955 0
2951 -2955 0
-2952 2955 0
2952 334 -2955 0
-2952 -334 2956 0
2952 -2956 0
-2953 2956 0
2953 334 -2956 0
-351 2957 0
-2954 2957 0
2954 351 -2957 0
-2954 -351 2958 0
2954 -2958 0
-2955 2958 0
2955 351 -2958 0
-2955 -351 2959 0
2955 -2959 0
-2956 2959 0
2956 351 -2959 0
-367 2960 0
-2957 2960 0
2957 367 -2960 0
-2957 -367 2961 0
2957 -2961 0
-2958 2961 0
2958 367 -2961 0
-2958 -367 2962 0
2958 -2962 0
-2959 2962 0
2959 367 -2962 0
-382 2963 0
-2960 2963 0
2960 382 -2963 0
-2960 -382 2964 0
2960 -2964 0
-2961 2964 0
2961 382 -2964 0
-2961 -382 2965 0
2961 -2965 0
-2962 2965 0
2962 382 -2965 0
-396 2966 0
-2963 2966 0
2963 396 -2966 0
-2963 -396 2967 0
2963 -2967 0
-2964 2967 0
2964 396 -2967 0
-2964 -396 2968 0
2964 -2968 0
-2965 2968 0
2965 396 -2968 0
-409 2969 0
-2966 2969 0
2966 409 -2969 0
-2966 -409 2970 0
2966 -2970 0
-2967 2970 0
2967 409 -2970 0
-2967 -409 2971 0
2967 -2971 0
-2968 2971 0
2968 409 -2971 0
-421 2972 0
-2969 2972 0
2969 421 -2972 0
-2969 -421 2973 0
2969 -2973 0
-2970 2973 0
2970 421 -2973 0
-2970 -421 2974 0
2970 -2974 0
-2971 2974 0
2971 421 -2974 0
-432 2975 0
-2972 2975 0
2972 432 -2975 0
-2972 -432 2976 0
2972 -2976 0
-2973 2976 0
2973 432 -2976 0
-2973 -432 2977 0
2973 -2977 0
-2974 2977 0
2974 432 -2977 0
-442 2978 0
-2975 2978 0
2975 442 -2978 0
-2975 -442 2979 0
2975 -2979 0
-2976 2979 0
2976 442 -2979 0
-2976 -442 2980 0
2976 -2980 0
-2977 2980 0
2977 442 -2980 0
-452 2981 0
-2978 2981 0
2978 452 -2981 0
-2978 -452 2982 0
2978 -2982 0
-2979 2982 0
2979 452 -2982 0
-2979 -452 2983 0
2979 -2983 0
-2980 2983 0
2980 452 -2983 0
-453 2984 0
-2981 2984 0
2981 453 -2984 0
-2981 -453 2985 0
2981 -2985 0
-2982 2985 0
2982 453 -2985 0
-2982 -453 2986 0
2982 -2986 0
-2983 2986 0
2983 453 -2986 0
-454 2987 0
-2984 2987 0
2984 454 -2987 0
-2984 -454 2988 0
2984 -2988 0
-2985 2988 0
2985 454 -2988 0
-2985 -454 2989 0
2985 -2989 0
-2986 2989 0
2986 454 -2989 0
-455 2990 0
-2987 2990 0
2987 455 -2990 0
-2987 -455 2991 0
2987 -2991 0
-2988 2991 0
2988 455 -2991 0
-2988 -455 2992 0
2988 -2992 0
-2989 2992 0
2989 455 -2992 0
-456 2993 0
-2990 2993 0
2990 456 -2993 0
-2990 -456 2994 0
2990 -2994 0
-2991 2994 0
2991 456 -2994 0
-2991 -456 2995 0
2991 -2995 0
-2992 2995 0
2992 456 -2995 0
-457 2996 0
-2993 2996 0
2993 457 -2996 0
-2993 -457 2997 0
2993 -2997 0
-2994 2997 0
2994 457 -2997 0
-2994 -457 2998 0
2994 -2998 0
-2995 2998 0
2995 457 -2998 0
-458 2999 0
-2996 2999 0
2996 458 -2999 0
-2996 -458 3000 0
2996 -3000 0
-2997 3000 0
2997 458 -3000 0
-2997 -458 3001 0
2997 -3001 0
-2998 3001 0
2998 458 -3001 0
-459 3002 0
-2999 3002 0
2999 459 -3002 0
-2999 -459 3003 0
2999 -3003 0
-3000 3003 0
3000 459 -3003 0
-3000 -459 3004 0
3000 -3004 0
-3001 3004 0
3001 459 -3004 0
-460 3005 0
-3002 3005 0
3002 460 -3005 0
-3002 -460 3006 0
3002 -3006 0
-3003 3006 0
3003 460 -3006 0
-3003 -460 3007 0
3003 -3007 0
-3004 3007 0
3004 460 -3007 0
-2917 -52 0
-2920 -81 0
-2923 -109 0
-2926 -136 0
-2929 -162 0
-2932 -187 0
-2935 -211 0
-2938 -234 0
-2941 -256 0
-2944 -277 0
-2947 -297 0
-2950 -316 0
-2953 -334 0
-2956 -351 0
-2959 -367 0
-2962 -382 0
-2965 -396 0
-2968 -409 0
-2971 -421 0
-2974 -432 0
-2977 -442 0
-2980 -452 0
-2983 -453 0
-2986 -454 0
-2989 -455 0
-2992 -456 0
-2995 -457 0
-2998 -458 0
-3001 -459 0
-3004 -460 0
3007 0
-3009 0
-3010 0
-53 3011 0
-23 3011 0
23 53 -3011 0
-23 -53 3012 0
23 -3012 0
-3009 3012 0
3009 53 -3012 0
-3009 -53 3013 0
3009 -3013 0
-3010 3013 0
3010 53 -3013 0
-82 3014 0
-3011 3014 0
3011 82 -3014 0
-3011 -82 3015 0
3011 -3015 0
-3012 3015 0
3012 82 -3015 0
-3012 -82 3016 0
3012 -3016 0
-3013 3016 0
3013 82 -3016 0
-110 3017 0
-3014 3017 0
3014 110 -3017 0
-3014 -110 3018 0
3014 -3018 0
-3015 3018 0
3015 110 -3018 0
-3015 -110 3019 0
3015 -3019 0
-3016 3019 0
3016 110 -3019 0
-137 3020 0
-3017 3020 0
3017 137 -3020 0
-3017 -137 3021 0
3017 -3021 0
-3018 3021 0
3018 137 -3021 0
-3018 -137 3022 0
3018 -3022 0
-3019 3022 0
3019 137 -3022 0
-163 3023 0
-3020 3023 0
3020 163 -3023 0
-3020 -163 3024 0
3020 -3024 0
-3021 3024 0
3021 163 -3024 0
-3021 -163 3025 0
3021 -3025 0
-3022 3025 0
3022 163 -3025 0
-188 3026 0
-3023 3026 0
3023 188 -3026 0
-3023 -188 3027 0
3023 -3027 0
-3024 3027 0
3024 188 -3027 0
-3024 -188 3028 0
3024 -3028 0
-3025 3028 0
3025 188 -3028 0
-212 3029 0
-3026 3029 0
3026 212 -3029 0
-3026 -212 3030 0
3026 -3030 0
-3027 3030 0
3027 212 -3030 0
-3027 -212 3031 0
3027 -3031 0
-3028 3031 0
3028 212 -3031 0
-235 3032 0
-3029 3032 0
3029 235 -3032 0
-3029 -235 3033 0
3029 -3033 0
-3030 3033 0
3030 235 -3033 0
-3030 -235 3034 0
3030 -3034 0
-3031 3034 0
3031 235 -3034 0
-257 3035 0
-3032 3035 0
3032 257 -3035 0
-3032 -257 3036 0
3032 -3036 0
-3033 3036 0
3033 257 -3036 0
-3033 -257 3037 0
3033 -3037 0
-3034 3037 0
3034 257 -3037 0
-278 3038 0
-3035 3038 0
3035 278 -3038 0
-3035 -278 3039 0
3035 -3039 0
-3036 3039 0
3036 278 -3039 0
-3036 -278 3040 0
3036 -3040 0
-3037 3040 0
3037 278 -3040 0
-298 3041 0
-3038 3041 0
3038 298 -3041 0
-3038 -298 3042 0
3038 -3042 0
-3039 3042 0
3039 298 -3042 0
-3039 -298 3043 0
3039 -3043 0
-3040 3043 0
3040 298 -3043 0
-317 3044 0
-3041 3044 0
3041 317 -3044 0
-3041 -317 3045 0
3041 -3045 0
-3042 3045 0
3042 317 -3045 0
-3042 -317 3046 0
3042 -3046 0
-3043 3046 0
3043 317 -3046 0
-335 3047 0
-3044 3047 0
3044 335 -3047 0
-3044 -335 3048 0
3044 -3048 0
-3045 3048 0
3045 335 -3048 0
-3045 -335 3049 0
3045 -3049 0
-3046 3049 0
3046 335 -3049 0
-352 3050 0
-3047 3050 0
3047 352 -3050 0
-3047 -352 3051 0
3047 -3051 0
-3048 3051 0
3048 352 -3051 0
-3048 -352 3052 0
3048 -3052 0
-3049 3052 0
3049 352 -3052 0
-368 3053 0
-3050 3053 0
3050 368 -3053 0
-3050 -368 3054 0
3050 -3054 0
-3051 3054 0
3051 368 -3054 0
-3051 -368 3055 0
3051 -3055 0
-3052 3055 0
3052 368 -3055 0
-383 3056 0
-3053 3056 0
3053 383 -3056 0
-3053 -383 3057 0
3053 -3057 0
-3054 3057 0
3054 383 -3057 0
-3054 -383 3058 0
3054 -3058 0
-3055 3058 0
3055 383 -3058 0
-397 3059 0
-3056 3059 0
3056 397 -3059 0
-3056 -397 3060 0
3056 -3060 0
-3057 3060 0
3057 397 -3060 0
-3057 -397 3061 0
3057 -3061 0
-3058 3061 0
3058 397 -3061 0
-410 3062 0
-3059 3062 0
3059 410 -3062 0
-3059 -410 3063 0
3059 -3063 0
-3060 3063 0
3060 410 -3063 0
-3060 -410 3064 0
3060 -3064 0
-3061 3064 0
3061 410 -3064 0
-422 3065 0
-3062 3065 0
3062 422 -3065 0
-3062 -422 3066 0
3062 -3066 0
-3063 3066 0
3063 422 -3066 0
-3063 -422 3067 0
3063 -3067 0
-3064 3067 0
3064 422 -3067 0
-433 3068 0
-3065 3068 0
3065 433 -3068 0
-3065 -433 3069 0
3065 -3069 0
-3066 3069 0
3066 433 -3069 0
-3066 -433 3070 0
3066 -3070 0
-3067 3070 0
3067 433 -3070 0
-443 3071 0
-3068 3071 0
3068 443 -3071 0
-3068 -443 3072 0
3068 -3072 0
-3069 3072 0
3069 443 -3072 0
-3069 -443 3073 0
3069 -3073 0
-3070 3073 0
3070 443 -3073 0
-452 3074 0
-3071 3074 0
3071 452 -3074 0
-3071 -452 3075 0
3071 -3075 0
-3072 3075 0
3072 452 -3075 0
-3072 -452 3076 0
3072 -3076 0
-3073 3076 0
3073 452 -3076 0
-461 3077 0
-3074 3077 0
3074 461 -3077 0
-3074 -461 3078 0
3074 -3078 0
-3075 3078 0
3075 461 -3078 0
-3075 -461 3079 0
3075 -3079 0
-3076 3079 0
3076 461 -3079 0
-462 3080 0
-3077 3080 0
3077 462 -3080 0
-3077 -462 3081 0
3077 -3081 0
-3078 3081 0
3078 462 -3081 0
-3078 -462 3082 0
3078 -3082 0
-3079 3082 0
3079 462 -3082 0
-463 3083 0
-3080 3083 0
3080 463 -3083 0
-3080 -463 3084 0
3080 -3084 0
-3081 3084 0
3081 463 -3084 0
-3081 -463 3085 0
3081 -3085 0
-3082 3085 0
3082 463 -3085 0
-464 3086 0
-3083 3086 0
3083 464 -3086 0
-3083 -464 3087 0
3083 -3087 0
-3084 3087 0
3084 464 -3087 0
-3084 -464 3088 0
3084 -3088 0
-3085 3088 0
3085 464 -3088 0
-465 3089 0
-3086 3089 0
3086 465 -3089 0
-3086 -465 3090 0
3086 -3090 0
-3087 3090 0
3087 465 -3090 0
-3087 -465 3091 0
3087 -3091 0
-3088 3091 0
3088 465 -3091 0
-466 3092 0
-3089 3092 0
3089 466 -3092 0
-3089 -466 3093 0
3089 -3093 0
-3090 3093 0
3090 466 -3093 0
-3090 -466 3094 0
3090 -3094 0
-3091 3094 0
3091 466 -3094 0
-467 3095 0
-3092 3095 0
3092 467 -3095 0
-3092 -467 3096 0
3092 -3096 0
-3093 3096 0
3093 467 -3096 0
-3093 -467 3097 0
3093 -3097 0
-3094 3097 0
3094 467 -3097 0
-468 3098 0
-3095 3098 0
3095 468 -3098 0
-3095 -468 3099 0
3095 -3099 0
-3096 3099 0
3096 468 -3099 0
-3096 -468 3100 0
3096 -3100 0
-3097 3100 0
3097 468 -3100 0
-3010 -53 0
-3013 -82 0
-3016 -110 0
-3019 -137 0
-3022 -163 0
-3025 -188 0
-3028 -212 0
-3031 -235 0
-3034 -257 0
-3037 -278 0
-3040 -298 0
-3043 -317 0
-3046 -335 0
-3049 -352 0
-3052 -368 0
-3055 -383 0
-3058 -397 0
-3061 -410 0
-3064 -422 0
-3067 -433 0
-3070 -443 0
-3073 -452 0
-3076 -461 0
-3079 -462 0
-3082 -463 0
-3085 -464 0
-3088 -465 0
-3091 -466 0
-3094 -467 0
-3097 -468 0
3100 0
-3102 0
-3103 0
-54 3104 0
-24 3104 0
24 54 -3104 0
-24 -54 3105 0
24 -3105 0
-3102 3105 0
3102 54 -3105 0
-3102 -54 3106 0
3102 -3106 0
-3103 3106 0
3103 54 -3106 0
-83 3107 0
-3104 3107 0
3104 83 -3107 0
-3104 -83 3108 0
3104 -3108 0
-3105 3108 0
3105 83 -3108 0
-3105 -83 3109 0
3105 -3109 0
-3106 3109 0
3106 83 -3109 0
-111 3110 0
-3107 3110 0
3107 111 -3110 0
-3107 -111 3111 0
3107 -3111 0
-3108 3111 0
3108 111 -3111 0
-3108 -111 3112 0
3108 -3112 0
-3109 3112 0
3109 111 -3112 0
-138 3113 0
-3110 3113 0
3110 138 -3113 0
-3110 -138 3114 0
3110 -3114 0
-3111 3114 0
3111 138 -3114 0
-3111 -138 3115 0
3111 -3115 0
-3112 3115 0
3112 138 -3115 0
-164 3116 0
-3113 3116 0
3113 164 -3116 0
-3113 -164 3117 0
3113 -3117 0
-3114 3117 0
3114 164 -3117 0
-3114 -164 3118 0
3114 -3118 0
-3115 3118 0
3115 164 -3118 0
-189 3119 0
-3116 3119 0
3116 189 -3119 0
-3116 -189 3120 0
3116 -3120 0
-3117 3120 0
3117 189 -3120 0
-3117 -189 3121 0
3117 -3121 0
-3118 3121 0
3118 189 -3121 0
-213 3122 0
-3119 3122 0
3119 213 -3122 0
-3119 -213 3123 0
3119 -3123 0
-3120 3123 0
3120 213 -3123 0
-3120 -213 3124 0
3120 -3124 0
-3121 3124 0
3121 213 -3124 0
-236 3125 0
-3122 3125 0
3122 236 -3125 0
-3122 -236 3126 0
3122 -3126 0
-3123 3126 0
3123 236 -3126 0
-3123 -236 3127 0
3123 -3127 0
-3124 3127 0
3124 236 -3127 0
-258 3128 0
-3125 3128 0
3125 258 -3128 0
-3125 -258 3129 0
3125 -3129 0
-3126 3129 0
3126 258 -3129 0
-3126 -258 3130 0
3126 -3130 0
-3127 3130 0
3127 258 -3130 0
-279 3131 0
-3128 3131 0
3128 279 -3131 0
-3128 -279 3132 0
3128 -3132 0
-3129 3132 0
3129 279 -3132 0
-3129 -279 3133 0
3129 -3133 0
-3130 3133 0
3130 279 -3133 0
-299 3134 0
-3131 3134 0
3131 299 -3134 0
-3131 -299 3135 0
3131 -3135 0
-3132 3135 0
3132 299 -3135 0
-3132 -299 3136 0
3132 -3136 0
-3133 3136 0
3133 299 -3136 0
-318 3137 0
-3134 3137 0
3134 318 -3137 0
-3134 -318 3138 0
3134 -3138 0
-3135 3138 0
3135 318 -3138 0
-3135 -318 3139 0
3135 -3139 0
-3136 3139 0
3136 318 -3139 0
-336 3140 0
-3137 3140 0
3137 336 -3140 0
-3137 -336 3141 0
3137 -3141 0
-3138 3141 0
3138 336 -3141 0
-3138 -336 3142 0
3138 -3142 0
-3139 3142 0
3139 336 -3142 0
-353 3143 0
-3140 3143 0
3140 353 -3143 0
-3140 -353 3144 0
3140 -3144 0
-3141 3144 0
3141 353 -3144 0
-3141 -353 3145 0
3141 -3145 0
-3142 3145 0
3142 353 -3145 0
-369 3146 0
-3143 3146 0
3143 369 -3146 0
-3143 -369 3147 0
3143 -3147 0
-3144 3147 0
3144 369 -3147 0
-3144 -369 3148 0
3144 -3148 0
-3145 3148 0
3145 369 -3148 0
-384 3149 0
-3146 3149 0
3146 384 -3149 0
-3146 -384 3150 0
3146 -3150 0
-3147 3150 0
3147 384 -3150 0
-3147 -384 3151 0
3147 -3151 0
-3148 3151 0
3148 384 -3151 0
-398 3152 0
-3149 3152 0
3149 398 -3152 0
-3149 -398 3153 0
3149 -3153 0
-3150 3153 0
3150 398 -3153 0
-3150 -398 3154 0
3150 -3154 0
-3151 3154 0
3151 398 -3154 0
-411 3155 0
-3152 3155 0
3152 411 -3155 0
-3152 -411 3156 0
3152 -3156 0
-3153 3156 0
3153 411 -3156 0
-3153 -411 3157 0
3153 -3157 0
-3154 3157 0
3154 411 -3157 0
-423 3158 0
-3155 3158 0
3155 423 -3158 0
-3155 -423 3159 0
3155 -3159 0
-3156 3159 0
3156 423 -3159 0
-3156 -423 3160 0
3156 -3160 0
-3157 3160 0
3157 423 -3160 0
-434 3161 0
-3158 3161 0
3158 434 -3161 0
-3158 -434 3162 0
3158 -3162 0
-3159 3162 0
3159 434 -3162 0
-3159 -434 3163 0
3159 -3163 0
-3160 3163 0
3160 434 -3163 0
-444 3164 0
-3161 3164 0
3161 444 -3164 0
-3161 -444 3165 0
3161 -3165 0
-3162 3165 0
3162 444 -3165 0
-3162 -444 3166 0
3162 -3166 0
-3163 3166 0
3163 444 -3166 0
-453 3167 0
-3164 3167 0
3164 453 -3167 0
-3164 -453 3168 0
3164 -3168 0
-3165 3168 0
3165 453 -3168 0
-3165 -453 3169 0
3165 -3169 0
-3166 3169 0
3166 453 -3169 0
-461 3170 0
-3167 3170 0
3167 461 -3170 0
-3167 -461 3171 0
3167 -3171 0
-3168 3171 0
3168 461 -3171 0
-3168 -461 3172 0
3168 -3172 0
-3169 3172 0
3169 461 -3172 0
-469 3173 0
-3170 3173 0
3170 469 -3173 0
-3170 -469 3174 0
3170 -3174 0
-3171 3174 0
3171 469 -3174 0
-3171 -469 3175 0
3171 -3175 0
-3172 3175 0
3172 469 -3175 0
-470 3176 0
-3173 3176 0
3173 470 -3176 0
-3173 -470 3177 0
3173 -3177 0
-3174 3177 0
3174 470 -3177 0
-3174 -470 3178 0
3174 -3178 0
-3175 3178 0
3175 470 -3178 0
-471 3179 0
-3176 3179 0
3176 471 -3179 0
-3176 -471 3180 0
3176 -3180 0
-3177 3180 0
3177 471 -3180 0
-3177 -471 3181 0
3177 -3181 0
-3178 3181 0
3178 471 -3181 0
-472 3182 0
-3179 3182 0
3179 472 -3182 0
-3179 -472 3183 0
3179 -3183 0
-3180 3183 0
3180 472 -3183 0
-3180 -472 3184 0
3180 -3184 0
-3181 3184 0
3181 472 -3184 0
-473 3185 0
-3182 3185 0
3182 473 -3185 0
-3182 -473 3186 0
3182 -3186 0
-3183 3186 0
3183 473 -3186 0
-3183 -473 3187 0
3183 -3187 0
-3184 3187 0
3184 473 -3187 0
-474 3188 0
-3185 3188 0
3185 474 -3188 0
-3185 -474 3189 0
3185 -3189 0
-3186 3189 0
3186 474 -3189 0
-3186 -474 3190 0
3186 -3190 0
-3187 3190 0
3187 474 -3190 0
-475 3191 0
-3188 3191 0
3188 475 -3191 0
-3188 -475 3192 0
3188 -3192 0
-3189 3192 0
3189 475 -3192 0
-3189 -475 3193 0
3189 -3193 0
-3190 3193 0
3190 475 -3193 0
-3103 -54 0
-3106 -83 0
-3109 -111 0
-3112 -138 0
-3115 -164 0
-3118 -189 0
-3121 -213 0
-3124 -236 0
-3127 -258 0
-3130 -279 0
-3133 -299 0
-3136 -318 0
-3139 -336 0
-3142 -353 0
-3145 -369 0
-3148 -384 0
-3151 -398 0
-3154 -411 0
-3157 -423 0
-3160 -434 0
-3163 -444 0
-3166 -453 0
-3169 -461 0
-3172 -469 0
-3175 -470 0
-3178 -471 0
-3181 -472 0
-3184 -473 0
-3187 -474 0
-3190 -475 0
3193 0
-3195 0
-3196 0
-55 3197 0
-25 3197 0
25 55 -3197 0
-25 -55 3198 0
25 -3198 0
-3195 3198 0
3195 55 -3198 0
-3195 -55 3199 0
3195 -3199 0
-3196 3199 0
3196 55 -3199 0
-84 3200 0
-3197 3200 0
3197 84 -3200 0
-3197 -84 3201 0
3197 -3201 0
-3198 3201 0
3198 84 -3201 0
-3198 -84 3202 0
3198 -3202 0
-3199 3202 0
3199 84 -3202 0
-112 3203 0
-3200 3203 0
3200 112 -3203 0
-3200 -112 3204 0
3200 -3204 0
-3201 3204 0
3201 112 -3204 0
-3201 -112 3205 0
3201 -3205 0
-3202 3205 0
3202 112 -3205 0
-139 3206 0
-3203 3206 0
3203 139 -3206 0
-3203 -139 3207 0
3203 -3207 0
-3204 3207 0
3204 139 -3207 0
-3204 -139 3208 0
3204 -3208 0
-3205 3208 0
3205 139 -3208 0
-165 3209 0
-3206 3209 0
3206 165 -3209 0
-3206 -165 3210 0
3206 -3210 0
-3207 3210 0
3207 165 -3210 0
-3207 -165 3211 0
3207 -3211 0
-3208 3211 0
3208 165 -3211 0
-190 3212 0
-3209 3212 0
3209 190 -3212 0
-3209 -190 3213 0
3209 -3213 0
-3210 3213 0
3210 190 -3213 0
-3210 -190 3214 0
3210 -3214 0
-3211 3214 0
3211 190 -3214 0
-214 3215 0
-3212 3215 0
3212 214 -3215 0
-3212 -214 3216 0
3212 -3216 0
-3213 3216 0
3213 214 -3216 0
-3213 -214 3217 0
3213 -3217 0
-3214 3217 0
3214 214 -3217 0
-237 3218 0
-3215 3218 0
3215 237 -3218 0
-3215 -237 3219 0
3215 -3219 0
-3216 3219 0
3216 237 -3219 0
-3216 -237 3220 0
3216 -3220 0
-3217 3220 0
3217 237 -3220 0
-259 3221 0
-3218 3221 0
3218 259 -3221 0
-3218 -259 3222 0
3218 -3222 0
-3219 3222 0
3219 259 -3222 0
-3219 -259 3223 0
3219 -3223 0
-3220 3223 0
3220 259 -3223 0
-280 3224 0
-3221 3224 0
3221 280 -3224 0
-3221 -280 3225 0
3221 -3225 0
-3222 3225 0
3222 280 -3225 0
-3222 -280 3226 0
3222 -3226 0
-3223 3226 0
3223 280 -3226 0
-300 3227 0
-3224 3227 0
3224 300 -3227 0
-3224 -300 3228 0
3224 -3228 0
-3225 3228 0
3225 300 -3228 0
-3225 -300 3229 0
3225 -3229 0
-3226 3229 0
3226 300 -3229 0
-319 3230 0
-3227 3230 0
3227 319 -3230 0
-3227 -319 3231 0
3227 -3231 0
-3228 3231 0
3228 319 -3231 0
-3228 -319 3232 0
3228 -3232 0
-3229 3232 0
3229 319 -3232 0
-337 3233 0
-3230 3233 0
3230 337 -3233 0
-3230 -337 3234 0
3230 -3234 0
-3231 3234 0
3231 337 -3234 0
-3231 -337 3235 0
3231 -3235 0
-3232 3235 0
3232 337 -3235 0
-354 3236 0
-3233 3236 0
3233 354 -3236 0
-3233 -354 3237 0
3233 -3237 0
-3234 3237 0
3234 354 -3237 0
-3234 -354 3238 0
3234 -3238 0
-3235 3238 0
3235 354 -3238 0
-370 3239 0
-3236 3239 0
3236 370 -3239 0
-3236 -370 3240 0
3236 -3240 0
-3237 3240 0
3237 370 -3240 0
-3237 -370 3241 0
3237 -3241 0
-3238 3241 0
3238 370 -3241 0
-385 3242 0
-3239 3242 0
3239 385 -3242 0
-3239 -385 3243 0
3239 -3243 0
-3240 3243 0
3240 385 -3243 0
-3240 -385 3244 0
3240 -3244 0
-3241 3244 0
3241 385 -3244 0
-399 3245 0
-3242 3245 0
3242 399 -3245 0
-3242 -399 3246 0
3242 -3246 0
-3243 3246 0
3243 399 -3246 0
-3243 -399 3247 0
3243 -3247 0
-3244 3247 0
3244 399 -3247 0
-412 3248 0
-3245 3248 0
3245 412 -3248 0
-3245 -412 3249 0
3245 -3249 0
-3246 3249 0
3246 412 -3249 0
-3246 -412 3250 0
3246 -3250 0
-3247 3250 0
3247 412 -3250 0
-424 3251 0
-3248 3251 0
3248 424 -3251 0
-3248 -424 3252 0
3248 -3252 0
-3249 3252 0
3249 424 -3252 0
-3249 -424 3253 0
3249 -3253 0
-3250 3253 0
3250 424 -3253 0
-435 3254 0
-3251 3254 0
3251 435 -3254 0
-3251 -435 3255 0
3251 -3255 0
-3252 3255 0
3252 435 -3255 0
-3252 -435 3256 0
3252 -3256 0
-3253 3256 0
3253 435 -3256 0
-445 3257 0
-3254 3257 0
3254 445 -3257 0
-3254 -445 3258 0
3254 -3258 0
-3255 3258 0
3255 445 -3258 0
-3255 -445 3259 0
3255 -3259 0
-3256 3259 0
3256 445 -3259 0
-454 3260 0
-3257 3260 0
3257 454 -3260 0
-3257 -454 3261 0
3257 -3261 0
-3258 3261 0
3258 454 -3261 0
-3258 -454 3262 0
3258 -3262 0
-3259 3262 0
3259 454 -3262 0
-462 3263 0
-3260 3263 0
3260 462 -3263 0
-3260 -462 3264 0
3260 -3264 0
-3261 3264 0
3261 462 -3264 0
-3261 -462 3265 0
3261 -3265 0
-3262 3265 0
3262 462 -3265 0
-469 3266 0
-3263 3266 0
3263 469 -3266 0
-3263 -469 3267 0
3263 -3267 0
-3264 3267 0
3264 469 -3267 0
-3264 -469 3268 0
3264 -3268 0
-3265 3268 0
3265 469 -3268 0
-476 3269 0
-3266 3269 0
3266 476 -3269 0
-3266 -476 3270 0
3266 -3270 0
-3267 3270 0
3267 476 -3270 0
-3267 -476 3271 0
3267 -3271 0
-3268 3271 0
3268 476 -3271 0
-477 3272 0
-3269 3272 0
3269 477 -3272 0
-3269 -477 3273 0
3269 -3273 0
-3270 3273 0
3270 477 -3273 0
-3270 -477 3274 0
3270 -3274 0
-3271 3274 0
3271 477 -3274 0
-478 3275 0
-3272 3275 0
3272 478 -3275 0
-3272 -478 3276 0
3272 -3276 0
-3273 3276 0
3273 478 -3276 0
-3273 -478 3277 0
3273 -3277 0
-3274 3277 0
3274 478 -3277 0
-479 3278 0
-3275 3278 0
3275 479 -3278 0
-3275 -479 3279 0
3275 -3279 0
-3276 3279 0
3276 479 -3279 0
-3276 -479 3280 0
3276 -3280 0
-3277 3280 0
3277 479 -3280 0
-480 3281 0
-3278 3281 0
3278 480 -3281 0
-3278 -480 3282 0
3278 -3282 0
-3279 3282 0
3279 480 -3282 0
-3279 -480 3283 0
3279 -3283 0
-3280 3283 0
3280 480 -3283 0
-481 3284 0
-3281 3284 0
3281 481 -3284 0
-3281 -481 3285 0
3281 -3285 0
-3282 3285 0
3282 481 -3285 0
-3282 -481 3286 0
3282 -3286 0
-3283 3286 0
3283 481 -3286 0
-3196 -55 0
-3199 -84 0
-3202 -112 0
-3205 -139 0
-3208 -165 0
-3211 -190 0
-3214 -214 0
-3217 -237 0
-3220 -259 0
-3223 -280 0
-3226 -300 0
-3229 -319 0
-3232 -337 0
-3235 -354 0
-3238 -370 0
-3241 -385 0
-3244 -399 0
-3247 -412 0
-3250 -424 0
-3253 -435 0
-3256 -445 0
-3259 -454 0
-3262 -462 0
-3265 -469 0
-3268 -476 0
-3271 -477 0
-3274 -478 0
-3277 -479 0
-3280 -480 0
-3283 -481 0
3286 0
-3288 0
-3289 0
-56 3290 0
-26 3290 0
26 56 -3290 0
-26 -56 3291 0
26 -3291 0
-3288 3291 0
3288 56 -3291 0
-3288 -56 3292 0
3288 -3292 0
-3289 3292 0
3289 56 -3292 0
-85 3293 0
-3290 3293 0
3290 85 -3293 0
-3290 -85 3294 0
3290 -3294 0
-3291 3294 0
3291 85 -3294 0
-3291 -85 3295 0
3291 -3295 0
-3292 3295 0
3292 85 -3295 0
-113 3296 0
-3293 3296 0
3293 113 -3296 0
-3293 -113 3297 0
3293 -3297 0
-3294 3297 0
3294 113 -3297 0
-3294 -113 3298 0
3294 -3298 0
-3295 3298 0
3295 113 -3298 0
-140 3299 0
-3296 3299 0
3296 140 -3299 0
-3296 -140 3300 0
3296 -3300 0
-3297 3300 0
3297 140 -3300 0
-3297 -140 3301 0
3297 -3301 0
-3298 3301 0
3298 140 -3301 0
-166 3302 0
-3299 3302 0
3299 166 -3302 0
-3299 -166 3303 0
3299 -3303 0
-3300 3303 0
3300 166 -3303 0
-3300 -166 3304 0
3300 -3304 0
-3301 3304 0
3301 166 -3304 0
-191 3305 0
-3302 3305 0
3302 191 -3305 0
-3302 -191 3306 0
3302 -3306 0
-3303 3306 0
3303 191 -3306 0
-3303 -191 3307 0
3303 -3307 0
-3304 3307 0
3304 191 -3307 0
-215 3308 0
-3305 3308 0
3305 215 -3308 0
-3305 -215 3309 0
3305 -3309 0
-3306 3309 0
3306 215 -3309 0
-3306 -215 3310 0
3306 -3310 0
-3307 3310 0
3307 215 -3310 0
-238 3311 0
-3308 3311 0
3308 238 -3311 0
-3308 -238 3312 0
3308 -3312 0
-3309 3312 0
3309 238 -3312 0
-3309 -238 3313 0
3309 -3313 0
-3310 3313 0
3310 238 -3313 0
-260 3314 0
-3311 3314 0
3311 260 -3314 0
-3311 -260 3315 0
3311 -3315 0
-3312 3315 0
3312 260 -3315 0
-3312 -260 3316 0
3312 -3316 0
-3313 3316 0
3313 260 -3316 0
-281 3317 0
-3314 3317 0
3314 281 -3317 0
-3314 -281 3318 0
3314 -3318 0
-3315 3318 0
3315 281 -3318 0
-3315 -281 3319 0
3315 -3319 0
-3316 3319 0
3316 281 -3319 0
-301 3320 0
-3317 3320 0
3317 301 -3320 0
-3317 -301 3321 0
3317 -3321 0
-3318 3321 0
3318 301 -3321 0
-3318 -301 3322 0
3318 -3322 0
-3319 3322 0
3319 301 -3322 0
-320 3323 0
-3320 3323 0
3320 320 -3323 0
-3320 -320 3324 0
3320 -3324 0
-3321 3324 0
3321 320 -3324 0
-3321 -320 3325 0
3321 -3325 0
-3322 3325 0
3322 320 -3325 0
-338 3326 0
-3323 3326 0
3323 338 -3326 0
-3323 -338 3327 0
3323 -3327 0
-3324 3327 0
3324 338 -3327 0
-3324 -338 3328 0
3324 -3328 0
-3325 3328 0
3325 338 -3328 0
-355 3329 0
-3326 3329 0
3326 355 -3329 0
-3326 -355 3330 0
3326 -3330 0
-3327 3330 0
3327 355 -3330 0
-3327 -355 3331 0
3327 -3331 0
-3328 3331 0
3328 355 -3331 0
-371 3332 0
-3329 3332 0
3329 371 -3332 0
-3329 -371 3333 0
3329 -3333 0
-3330 3333 0
3330 371 -3333 0
-3330 -371 3334 0
3330 -3334 0
-3331 3334 0
3331 371 -3334 0
-386 3335 0
-3332 3335 0
3332 386 -3335 0
-3332 -386 3336 0
3332 -3336 0
-3333 3336 0
3333 386 -3336 0
-3333 -386 3337 0
3333 -3337 0
-3334 3337 0
3334 386 -3337 0
-400 3338 0
-3335 3338 0
3335 400 -3338 0
-3335 -400 3339 0
3335 -3339 0
-3336 3339 0
3336 400 -3339 0
-3336 -400 3340 0
3336 -3340 0
-3337 3340 0
3337 400 -3340 0
-413 3341 0
-3338 3341 0
3338 413 -3341 0
-3338 -413 3342 0
3338 -3342 0
-3339 3342 0
3339 413 -3342 0
-3339 -413 3343 0
3339 -3343 0
-3340 3343 0
3340 413 -3343 0
-425 3344 0
-3341 3344 0
3341 425 -3344 0
-3341 -425 3345 0
3341 -3345 0
-3342 3345 0
3342 425 -3345 0
-3342 -425 3346 0
3342 -3346 0
-3343 3346 0
3343 425 -3346 0
-436 3347 0
-3344 3347 0
3344 436 -3347 0
-3344 -436 3348 0
3344 -3348 0
-3345 3348 0
3345 436 -3348 0
-3345 -436 3349 0
3345 -3349 0
-3346 3349 0
3346 436 -3349 0
-446 3350 0
-3347 3350 0
3347 446 -3350 0
-3347 -446 3351 0
3347 -3351 0
-3348 3351 0
3348 446 -3351 0
-3348 -446 3352 0
3348 -3352 0
-3349 3352 0
3349 446 -3352 0
-455 3353 0
-3350 3353 0
3350 455 -3353 0
-3350 -455 3354 0
3350 -3354 0
-3351 3354 0
3351 455 -3354 0
-3351 -455 3355 0
3351 -3355 0
-3352 3355 0
3352 455 -3355 0
-463 3356 0
-3353 3356 0
3353 463 -3356 0
-3353 -463 3357 0
3353 -3357 0
-3354 3357 0
3354 463 -3357 0
-3354 -463 3358 0
3354 -3358 0
-3355 3358 0
3355 463 -3358 0
-470 3359 0
-3356 3359 0
3356 470 -3359 0
-3356 -470 3360 0
3356 -3360 0
-3357 3360 0
3357 470 -3360 0
-3357 -470 3361 0
3357 -3361 0
-3358 3361 0
3358 470 -3361 0
-476 3362 0
-3359 3362 0
3359 476 -3362 0
-3359 -476 3363 0
3359 -3363 0
-3360 3363 0
3360 476 -3363 0
-3360 -476 3364 0
3360 -3364 0
-3361 3364 0
3361 476 -3364 0
-482 3365 0
-3362 3365 0
3362 482 -3365 0
-3362 -482 3366 0
3362 -3366 0
-3363 3366 0
3363 482 -3366 0
-3363 -482 3367 0
3363 -3367 0
-3364 3367 0
3364 482 -3367 0
-483 3368 0
-3365 3368 0
3365 483 -3368 0
-3365 -483 3369 0
3365 -3369 0
-3366 3369 0
3366 483 -3369 0
-3366 -483 3370 0
3366 -3370 0
-3367 3370 0
3367 483 -3370 0
-484 3371 0
-3368 3371 0
3368 484 -3371 0
-3368 -484 3372 0
3368 -3372 0
-3369 3372 0
3369 484 -3372 0
-3369 -484 3373 0
3369 -3373 0
-3370 3373 0
3370 484 -3373 0
-485 3374 0
-3371 3374 0
3371 485 -3374 0
-3371 -485 3375 0
3371 -3375 0
-3372 3375 0
3372 485 -3375 0
-3372 -485 3376 0
3372 -3376 0
-3373 3376 0
3373 485 -3376 0
-486 3377 0
-3374 3377 0
3374 486 -3377 0
-3374 -486 3378 0
3374 -3378 0
-3375 3378 0
3375 486 -3378 0
-3375 -486 3379 0
3375 -3379 0
-3376 3379 0
3376 486 -3379 0
-3289 -56 0
-3292 -85 0
-3295 -113 0
-3298 -140 0
-3301 -166 0
-3304 -191 0
-3307 -215 0
-3310 -238 0
-3313 -260 0
-3316 -281 0
-3319 -301 0
-3322 -320 0
-3325 -338 0
-3328 -355 0
-3331 -371 0
-3334 -386 0
-3337 -400 0
-3340 -413 0
-3343 -425 0
-3346 -436 0
-3349 -446 0
-3352 -455 0
-3355 -463 0
-3358 -470 0
-3361 -476 0
-3364 -482 0
-3367 -483 0
-3370 -484 0
-3373 -485 0
-3376 -486 0
3379 0
-3381 0
-3382 0
-57 3383 0
-27 3383 0
27 57 -3383 0
-27 -57 3384 0
27 -3384 0
-3381 3384 0
3381 57 -3384 0
-3381 -57 3385 0
3381 -3385 0
-3382 3385 0
3382 57 -3385 0
-86 3386 0
-3383 3386 0
3383 86 -3386 0
-3383 -86 3387 0
3383 -3387 0
-3384 3387 0
3384 86 -3387 0
-3384 -86 3388 0
3384 -3388 0
-3385 3388 0
3385 86 -3388 0
-114 3389 0
-3386 3389 0
3386 114 -3389 0
-3386 -114 3390 0
3386 -3390 0
-3387 3390 0
3387 114 -3390 0
-3387 -114 3391 0
3387 -3391 0
-3388 3391 0
3388 114 -3391 0
-141 3392 0
-3389 3392 0
3389 141 -3392 0
-3389 -141 3393 0
3389 -3393 0
-3390 3393 0
3390 141 -3393 0
-3390 -141 3394 0
3390 -3394 0
-3391 3394 0
3391 141 -3394 0
-167 3395 0
-3392 3395 0
3392 167 -3395 0
-3392 -167 3396 0
3392 -3396 0
-3393 3396 0
3393 167 -3396 0
-3393 -167 3397 0
3393 -3397 0
-3394 3397 0
3394 167 -3397 0
-192 3398 0
-3395 3398 0
3395 192 -3398 0
-3395 -192 3399 0
3395 -3399 0
-3396 3399 0
3396 192 -3399 0
-3396 -192 3400 0
3396 -3400 0
-3397 3400 0
3397 192 -3400 0
-216 3401 0
-3398 3401 0
3398 216 -3401 0
-3398 -216 3402 0
3398 -3402 0
-3399 3402 0
3399 216 -3402 0
-3399 -216 3403 0
3399 -3403 0
-3400 3403 0
3400 216 -3403 0
-239 3404 0
-3401 3404 0
3401 239 -3404 0
-3401 -239 3405 0
3401 -3405 0
-3402 3405 0
3402 239 -3405 0
-3402 -239 3406 0
3402 -3406 0
-3403 3406 0
3403 239 -3406 0
-261 3407 0
-3404 3407 0
3404 261 -3407 0
-3404 -261 3408 0
3404 -3408 0
-3405 3408 0
3405 261 -3408 0
-3405 -261 3409 0
3405 -3409 0
-3406 3409 0
3406 261 -3409 0
-282 3410 0
-3407 3410 0
3407 282 -3410 0
-3407 -282 3411 0
3407 -3411 0
-3408 3411 0
3408 282 -3411 0
-3408 -282 3412 0
3408 -3412 0
-3409 3412 0
3409 282 -3412 0
-302 3413 0
-3410 3413 0
3410 302 -3413 0
-3410 -302 3414 0
3410 -3414 0
-3411 3414 0
3411 302 -3414 0
-3411 -302 3415 0
3411 -3415 0
-3412 3415 0
3412 302 -3415 0
-321 3416 0
-3413 3416 0
3413 321 -3416 0
-3413 -321 3417 0
3413 -3417 0
-3414 3417 0
3414 321 -3417 0
-3414 -321 3418 0
3414 -3418 0
-3415 3418 0
3415 321 -3418 0
-339 3419 0
-3416 3419 0
3416 339 -3419 0
-3416 -339 3420 0
3416 -3420 0
-3417 3420 0
3417 339 -3420 0
-3417 -339 3421 0
3417 -3421 0
-3418 3421 0
3418 339 -3421 0
-356 3422 0
-3419 3422 0
3419 356 -3422 0
-3419 -356 3423 0
3419 -3423 0
-3420 3423 0
3420 356 -3423 0
-3420 -356 3424 0
3420 -3424 0
-3421 3424 0
3421 356 -3424 0
-372 3425 0
-3422 3425 0
3422 372 -3425 0
-3422 -372 3426 0
3422 -3426 0
-3423 3426 0
3423 372 -3426 0
-3423 -372 3427 0
3423 -3427 0
-3424 3427 0
3424 372 -3427 0
-387 3428 0
-3425 3428 0
3425 387 -3428 0
-3425 -387 3429 0
3425 -3429 0
-3426 3429 0
3426 387 -3429 0
-3426 -387 3430 0
3426 -3430 0
-3427 3430 0
3427 387 -3430 0
-401 3431 0
-3428 3431 0
3428 401 -3431 0
-3428 -401 3432 0
3428 -3432 0
-3429 3432 0
3429 401 -3432 0
-3429 -401 3433 0
3429 -3433 0
-3430 3433 0
3430 401 -3433 0
-414 3434 0
-3431 3434 0
3431 414 -3434 0
-3431 -414 3435 0
3431 -3435 0
-3432 3435 0
3432 414 -3435 0
-3432 -414 3436 0
3432 -3436 0
-3433 3436 0
3433 414 -3436 0
-426 3437 0
-3434 3437 0
3434 426 -3437 0
-3434 -426 3438 0
3434 -3438 0
-3435 3438 0
3435 426 -3438 0
-3435 -426 3439 0
3435 -3439 0
-3436 3439 0
3436 426 -3439 0
-437 3440 0
-3437 3440 0
3437 437 -3440 0
-3437 -437 3441 0
3437 -3441 0
-3438 3441 0
3438 437 -3441 0
-3438 -437 3442 0
3438 -3442 0
-3439 3442 0
3439 437 -3442 0
-447 3443 0
-3440 3443 0
3440 447 -3443 0
-3440 -447 3444 0
3440 -3444 0
-3441 3444 0
3441 447 -3444 0
-3441 -447 3445 0
3441 -3445 0
-3442 3445 0
3442 447 -3445 0
-456 3446 0
-3443 3446 0
3443 456 -3446 0
-3443 -456 3447 0
3443 -3447 0
-3444 3447 0
3444 456 -3447 0
-3444 -456 3448 0
3444 -3448 0
-3445 3448 0
3445 456 -3448 0
-464 3449 0
-3446 3449 0
3446 464 -3449 0
-3446 -464 3450 0
3446 -3450 0
-3447 3450 0
3447 464 -3450 0
-3447 -464 3451 0
3447 -3451 0
-3448 3451 0
3448 464 -3451 0
-471 3452 0
-3449 3452 0
3449 471 -3452 0
-3449 -471 3453 0
3449 -3453 0
-3450 3453 0
3450 471 -3453 0
-3450 -471 3454 0
3450 -3454 0
-3451 3454 0
3451 471 -3454 0
-477 3455 0
-3452 3455 0
3452 477 -3455 0
-3452 -477 3456 0
3452 -3456 0
-3453 3456 0
3453 477 -3456 0
-3453 -477 3457 0
3453 -3457 0
-3454 3457 0
3454 477 -3457 0
-482 3458 0
-3455 3458 0
3455 482 -3458 0
-3455 -482 3459 0
3455 -3459 0
-3456 3459 0
3456 482 -3459 0
-3456 -482 3460 0
3456 -3460 0
-3457 3460 0
3457 482 -3460 0
-487 3461 0
-3458 3461 0
3458 487 -3461 0
-3458 -487 3462 0
3458 -3462 0
-3459 3462 0
3459 487 -3462 0
-3459 -487 3463 0
3459 -3463 0
-3460 3463 0
3460 487 -3463 0
-488 3464 0
-3461 3464 0
3461 488 -3464 0
-3461 -488 3465 0
3461 -3465 0
-3462 3465 0
3462 488 -3465 0
-3462 -488 3466 0
3462 -3466 0
-3463 3466 0
3463 488 -3466 0
-489 3467 0
-3464 3467 0
3464 489 -3467 0
-3464 -489 3468 0
3464 -3468 0
-3465 3468 0
3465 489 -3468 0
-3465 -489 3469 0
3465 -3469 0
-3466 3469 0
3466 489 -3469 0
-490 3470 0
-3467 3470 0
3467 490 -3470 0
-3467 -490 3471 0
3467 -3471 0
-3468 3471 0
3468 490 -3471 0
-3468 -490 3472 0
3468 -3472 0
-3469 3472 0
3469 490 -3472 0
-3382 -57 0
-3385 -86 0
-3388 -114 0
-3391 -141 0
-3394 -167 0
-3397 -192 0
-3400 -216 0
-3403 -239 0
-3406 -261 0
-3409 -282 0
-3412 -302 0
-3415 -321 0
-3418 -339 0
-3421 -356 0
-3424 -372 0
-3427 -387 0
-3430 -401 0
-3433 -414 0
-3436 -426 0
-3439 -437 0
-3442 -447 0
-3445 -456 0
-3448 -464 0
-3451 -471 0
-3454 -477 0
-3457 -482 0
-3460 -487 0
-3463 -488 0
-3466 -489 0
-3469 -490 0
3472 0
-3474 0
-3475 0
-58 3476 0
-28 3476 0
28 58 -3476 0
-28 -58 3477 0
28 -3477 0
-3474 3477 0
3474 58 -3477 0
-3474 -58 3478 0
3474 -3478 0
-3475 3478 0
3475 58 -3478 0
-87 3479 0
-3476 3479 0
3476 87 -3479 0
-3476 -87 3480 0
3476 -3480 0
-3477 3480 0
3477 87 -3480 0
-3477 -87 3481 0
3477 -3481 0
-3478 3481 0
3478 87 -3481 0
-115 3482 0
-3479 3482 0
3479 115 -3482 0
-3479 -115 3483 0
3479 -3483 0
-3480 3483 0
3480 115 -3483 0
-3480 -115 3484 0
3480 -3484 0
-3481 3484 0
3481 115 -3484 0
-142 3485 0
-3482 3485 0
3482 142 -3485 0
-3482 -142 3486 0
3482 -3486 0
-3483 3486 0
3483 142 -3486 0
-3483 -142 3487 0
3483 -3487 0
-3484 3487 0
3484 142 -3487 0
-168 3488 0
-3485 3488 0
3485 168 -3488 0
-3485 -168 3489 0
3485 -3489 0
-3486 3489 0
3486 168 -3489 0
-3486 -168 3490 0
3486 -3490 0
-3487 3490 0
3487 168 -3490 0
-193 3491 0
-3488 3491 0
3488 193 -3491 0
-3488 -193 3492 0
3488 -3492 0
-3489 3492 0
3489 193 -3492 0
-3489 -193 3493 0
3489 -3493 0
-3490 3493 0
3490 193 -3493 0
-217 3494 0
-3491 3494 0
3491 217 -3494 0
-3491 -217 3495 0
3491 -3495 0
-3492 3495 0
3492 217 -3495 0
-3492 -217 3496 0
3492 -3496 0
-3493 3496 0
3493 217 -3496 0
-240 3497 0
-3494 3497 0
3494 240 -3497 0
-3494 -240 3498 0
3494 -3498 0
-3495 3498 0
3495 240 -3498 0
-3495 -240 3499 0
3495 -3499 0
-3496 3499 0
3496 240 -3499 0
-262 3500 0
-3497 3500 0
3497 262 -3500 0
-3497 -262 3501 0
3497 -3501 0
-3498 3501 0
3498 262 -3501 0
-3498 -262 3502 0
3498 -3502 0
-3499 3502 0
3499 262 -3502 0
-283 3503 0
-3500 3503 0
3500 283 -3503 0
-3500 -283 3504 0
3500 -3504 0
-3501 3504 0
3501 283 -3504 0
-3501 -283 3505 0
3501 -3505 0
-3502 3505 0
3502 283 -3505 0
-303 3506 0
-3503 3506 0
3503 303 -3506 0
-3503 -303 3507 0
3503 -3507 0
-3504 3507 0
3504 303 -3507 0
-3504 -303 3508 0
3504 -3508 0
-3505 3508 0
3505 303 -3508 0
-322 3509 0
-3506 3509 0
3506 322 -3509 0
-3506 -322 3510 0
3506 -3510 0
-3507 3510 0
3507 322 -3510 0
-3507 -322 3511 0
3507 -3511 0
-3508 3511 0
3508 322 -3511 0
-340 3512 0
-3509 3512 0
3509 340 -3512 0
-3509 -340 3513 0
3509 -3513 0
-3510 3513 0
3510 340 -3513 0
-3510 -340 3514 0
3510 -3514 0
-3511 3514 0
3511 340 -3514 0
-357 3515 0
-3512 3515 0
3512 357 -3515 0
-3512 -357 3516 0
3512 -3516 0
-3513 3516 0
3513 357 -3516 0
-3513 -357 3517 0
3513 -3517 0
-3514 3517 0
3514 357 -3517 0
-373 3518 0
-3515 3518 0
3515 373 -3518 0
-3515 -373 3519 0
3515 -3519 0
-3516 3519 0
3516 373 -3519 0
-3516 -373 3520 0
3516 -3520 0
-3517 3520 0
3517 373 -3520 0
-388 3521 0
-3518 3521 0
3518 388 -3521 0
-3518 -388 3522 0
3518 -3522 0
-3519 3522 0
3519 388 -3522 0
-3519 -388 3523 0
3519 -3523 0
-3520 3523 0
3520 388 -3523 0
-402 3524 0
-3521 3524 0
3521 402 -3524 0
-3521 -402 3525 0
3521 -3525 0
-3522 3525 0
3522 402 -3525 0
-3522 -402 3526 0
3522 -3526 0
-3523 3526 0
3523 402 -3526 0
-415 3527 0
-3524 3527 0
3524 415 -3527 0
-3524 -415 3528 0
3524 -3528 0
-3525 3528 0
3525 415 -3528 0
-3525 -415 3529 0
3525 -3529 0
-3526 3529 0
3526 415 -3529 0
-427 3530 0
-3527 3530 0
3527 427 -3530 0
-3527 -427 3531 0
3527 -3531 0
-3528 3531 0
3528 427 -3531 0
-3528 -427 3532 0
3528 -3532 0
-3529 3532 0
3529 427 -3532 0
-438 3533 0
-3530 3533 0
3530 438 -3533 0
-3530 -438 3534 0
3530 -3534 0
-3531 3534 0
3531 438 -3534 0
-3531 -438 3535 0
3531 -3535 0
-3532 3535 0
3532 438 -3535 0
-448 3536 0
-3533 3536 0
3533 448 -3536 0
-3533 -448 3537 0
3533 -3537 0
-3534 3537 0
3534 448 -3537 0
-3534 -448 3538 0
3534 -3538 0
-3535 3538 0
3535 448 -3538 0
-457 3539 0
-3536 3539 0
3536 457 -3539 0
-3536 -457 3540 0
3536 -3540 0
-3537 3540 0
3537 457 -3540 0
-3537 -457 3541 0
3537 -3541 0
-3538 3541 0
3538 457 -3541 0
-465 3542 0
-3539 3542 0
3539 465 -3542 0
-3539 -465 3543 0
3539 -3543 0
-3540 3543 0
3540 465 -3543 0
-3540 -465 3544 0
3540 -3544 0
-3541 3544 0
3541 465 -3544 0
-472 3545 0
-3542 3545 0
3542 472 -3545 0
-3542 -472 3546 0
3542 -3546 0
-3543 3546 0
3543 472 -3546 0
-3543 -472 3547 0
3543 -3547 0
-3544 3547 0
3544 472 -3547 0
-478 3548 0
-3545 3548 0
3545 478 -3548 0
-3545 -478 3549 0
3545 -3549 0
-3546 3549 0
3546 478 -3549 0
-3546 -478 3550 0
3546 -3550 0
-3547 3550 0
3547 478 -3550 0
-483 3551 0
-3548 3551 0
3548 483 -3551 0
-3548 -483 3552 0
3548 -3552 0
-3549 3552 0
3549 483 -3552 0
-3549 -483 3553 0
3549 -3553 0
-3550 3553 0
3550 483 -3553 0
-487 3554 0
-3551 3554 0
3551 487 -3554 0
-3551 -487 3555 0
3551 -3555 0
-3552 3555 0
3552 487 -3555 0
-3552 -487 3556 0
3552 -3556 0
-3553 3556 0
3553 487 -3556 0
-491 3557 0
-3554 3557 0
3554 491 -3557 0
-3554 -491 3558 0
3554 -3558 0
-3555 3558 0
3555 491 -3558 0
-3555 -491 3559 0
3555 -3559 0
-3556 3559 0
3556 491 -3559 0
-492 3560 0
-3557 3560 0
3557 492 -3560 0
-3557 -492 3561 0
3557 -3561 0
-3558 3561 0
3558 492 -3561 0
-3558 -492 3562 0
3558 -3562 0
-3559 3562 0
3559 492 -3562 0
-493 3563 0
-3560 3563 0
3560 493 -3563 0
-3560 -493 3564 0
3560 -3564 0
-3561 3564 0
3561 493 -3564 0
-3561 -493 3565 0
3561 -3565 0
-3562 3565 0
3562 493 -3565 0
-3475 -58 0
-3478 -87 0
-3481 -115 0
-3484 -142 0
-3487 -168 0
-3490 -193 0
-3493 -217 0
-3496 -240 0
-3499 -262 0
-3502 -283 0
-3505 -303 0
-3508 -322 0
-3511 -340 0
-3514 -357 0
-3517 -373 0
-3520 -388 0
-3523 -402 0
-3526 -415 0
-3529 -427 0
-3532 -438 0
-3535 -448 0
-3538 -457 0
-3541 -465 0
-3544 -472 0
-3547 -478 0
-3550 -483 0
-3553 -487 0
-3556 -491 0
-3559 -492 0
-3562 -493 0
3565 0
-3567 0
-3568 0
-59 3569 0
-29 3569 0
29 59 -3569 0
-29 -59 3570 0
29 -3570 0
-3567 3570 0
3567 59 -3570 0
-3567 -59 3571 0
3567 -3571 0
-3568 3571 0
3568 59 -3571 0
-88 3572 0
-3569 3572 0
3569 88 -3572 0
-3569 -88 3573 0
3569 -3573 0
-3570 3573 0
3570 88 -3573 0
-3570 -88 3574 0
3570 -3574 0
-3571 3574 0
3571 88 -3574 0
-116 3575 0
-3572 3575 0
3572 116 -3575 0
-3572 -116 3576 0
3572 -3576 0
-3573 3576 0
3573 116 -3576 0
-3573 -116 3577 0
3573 -3577 0
-3574 3577 0
3574 116 -3577 0
-143 3578 0
-3575 3578 0
3575 143 -3578 0
-3575 -143 3579 0
3575 -3579 0
-3576 3579 0
3576 143 -3579 0
-3576 -143 3580 0
3576 -3580 0
-3577 3580 0
3577 143 -3580 0
-169 3581 0
-3578 3581 0
3578 169 -3581 0
-3578 -169 3582 0
3578 -3582 0
-3579 3582 0
3579 169 -3582 0
-3579 -169 3583 0
3579 -3583 0
-3580 3583 0
3580 169 -3583 0
-194 3584 0
-3581 3584 0
3581 194 -3584 0
-3581 -194 3585 0
3581 -3585 0
-3582 3585 0
3582 194 -3585 0
-3582 -194 3586 0
3582 -3586 0
-3583 3586 0
3583 194 -3586 0
-218 3587 0
-3584 3587 0
3584 218 -3587 0
-3584 -218 3588 0
3584 -3588 0
-3585 3588 0
3585 218 -3588 0
-3585 -218 3589 0
3585 -3589 0
-3586 3589 0
3586 218 -3589 0
-241 3590 0
-3587 3590 0
3587 241 -3590 0
-3587 -241 3591 0
3587 -3591 0
-3588 3591 0
3588 241 -3591 0
-3588 -241 3592 0
3588 -3592 0
-3589 3592 0
3589 241 -3592 0
-263 3593 0
-3590 3593 0
3590 263 -3593 0
-3590 -263 3594 0
3590 -3594 0
-3591 3594 0
3591 263 -3594 0
-3591 -263 3595 0
3591 -3595 0
-3592 3595 0
3592 263 -3595 0
-284 3596 0
-3593 3596 0
3593 284 -3596 0
-3593 -284 3597 0
3593 -3597 0
-3594 3597 0
3594 284 -3597 0
-3594 -284 3598 0
3594 -3598 0
-3595 3598 0
3595 284 -3598 0
-304 3599 0
-3596 3599 0
3596 304 -3599 0
-3596 -304 3600 0
3596 -3600 0
-3597 3600 0
3597 304 -3600 0
-3597 -304 3601 0
3597 -3601 0
-3598 3601 0
3598 304 -3601 0
-323 3602 0
-3599 3602 0
3599 323 -3602 0
-3599 -323 3603 0
3599 -3603 0
-3600 3603 0
3600 323 -3603 0
-3600 -323 3604 0
3600 -3604 0
-3601 3604 0
3601 323 -3604 0
-341 3605 0
-3602 3605 0
3602 341 -3605 0
-3602 -341 3606 0
3602 -3606 0
-3603 3606 0
3603 341 -3606 0
-3603 -341 3607 0
3603 -3607 0
-3604 3607 0
3604 341 -3607 0
-358 3608 0
-3605 3608 0
3605 358 -3608 0
-3605 -358 3609 0
3605 -3609 0
-3606 3609 0
3606 358 -3609 0
-3606 -358 3610 0
3606 -3610 0
-3607 3610 0
3607 358 -3610 0
-374 3611 0
-3608 3611 0
3608 374 -3611 0
-3608 -374 3612 0
3608 -3612 0
-3609 3612 0
3609 374 -3612 0
-3609 -374 3613 0
3609 -3613 0
-3610 3613 0
3610 374 -3613 0
-389 3614 0
-3611 3614 0
3611 389 -3614 0
-3611 -389 3615 0
3611 -3615 0
-3612 3615 0
3612 389 -3615 0
-3612 -389 3616 0
3612 -3616 0
-3613 3616 0
3613 389 -3616 0
-403 3617 0
-3614 3617 0
3614 403 -3617 0
-3614 -403 3618 0
3614 -3618 0
-3615 3618 0
3615 403 -3618 0
-3615 -403 3619 0
3615 -3619 0
-3616 3619 0
3616 403 -3619 0
-416 3620 0
-3617 3620 0
3617 416 -3620 0
-3617 -416 3621 0
3617 -3621 0
-3618 3621 0
3618 416 -3621 0
-3618 -416 3622 0
3618 -3622 0
-3619 3622 0
3619 416 -3622 0
-428 3623 0
-3620 3623 0
3620 428 -3623 0
-3620 -428 3624 0
3620 -3624 0
-3621 3624 0
3621 428 -3624 0
-3621 -428 3625 0
3621 -3625 0
-3622 3625 0
3622 428 -3625 0
-439 3626 0
-3623 3626 0
3623 439 -3626 0
-3623 -439 3627 0
3623 -3627 0
-3624 3627 0
3624 439 -3627 0
-3624 -439 3628 0
3624 -3628 0
-3625 3628 0
3625 439 -3628 0
-449 3629 0
-3626 3629 0
3626 449 -3629 0
-3626 -449 3630 0
3626 -3630 0
-3627 3630 0
3627 449 -3630 0
-3627 -449 3631 0
3627 -3631 0
-3628 3631 0
3628 449 -3631 0
-458 3632 0
-3629 3632 0
3629 458 -3632 0
-3629 -458 3633 0
3629 -3633 0
-3630 3633 0
3630 458 -3633 0
-3630 -458 3634 0
3630 -3634 0
-3631 3634 0
3631 458 -3634 0
-466 3635 0
-3632 3635 0
3632 466 -3635 0
-3632 -466 3636 0
3632 -3636 0
-3633 3636 0
3633 466 -3636 0
-3633 -466 3637 0
3633 -3637 0
-3634 3637 0
3634 466 -3637 0
-473 3638 0
-3635 3638 0
3635 473 -3638 0
-3635 -473 3639 0
3635 -3639 0
-3636 3639 0
3636 473 -3639 0
-3636 -473 3640 0
3636 -3640 0
-3637 3640 0
3637 473 -3640 0
-479 3641 0
-3638 3641 0
3638 479 -3641 0
-3638 -479 3642 0
3638 -3642 0
-3639 3642 0
3639 479 -3642 0
-3639 -479 3643 0
3639 -3643 0
-3640 3643 0
3640 479 -3643 0
-484 3644 0
-3641 3644 0
3641 484 -3644 0
-3641 -484 3645 0
3641 -3645 0
-3642 3645 0
3642 484 -3645 0
-3642 -484 3646 0
3642 -3646 0
-3643 3646 0
3643 484 -3646 0
-488 3647 0
-3644 3647 0
3644 488 -3647 0
-3644 -488 3648 0
3644 -3648 0
-3645 3648 0
3645 488 -3648 0
-3645 -488 3649 0
3645 -3649 0
-3646 3649 0
3646 488 -3649 0
-491 3650 0
-3647 3650 0
3647 491 -3650 0
-3647 -491 3651 0
3647 -3651 0
-3648 3651 0
3648 491 -3651 0
-3648 -491 3652 0
3648 -3652 0
-3649 3652 0
3649 491 -3652 0
-494 3653 0
-3650 3653 0
3650 494 -3653 0
-3650 -494 3654 0
3650 -3654 0
-3651 3654 0
3651 494 -3654 0
-3651 -494 3655 0
3651 -3655 0
-3652 3655 0
3652 494 -3655 0
-495 3656 0
-3653 3656 0
3653 495 -3656 0
-3653 -495 3657 0
3653 -3657 0
-3654 3657 0
3654 495 -3657 0
-3654 -495 3658 0
3654 -3658 0
-3655 3658 0
3655 495 -3658 0
-3568 -59 0
-3571 -88 0
-3574 -116 0
-3577 -143 0
-3580 -169 0
-3583 -194 0
-3586 -218 0
-3589 -241 0
-3592 -263 0
-3595 -284 0
-3598 -304 0
-3601 -323 0
-3604 -341 0
-3607 -358 0
-3610 -374 0
-3613 -389 0
-3616 -403 0
-3619 -416 0
-3622 -428 0
-3625 -439 0
-3628 -449 0
-3631 -458 0
-3634 -466 0
-3637 -473 0
-3640 -479 0
-3643 -484 0
-3646 -488 0
-3649 -491 0
-3652 -494 0
-3655 -495 0
3658 0
-3660 0
-3661 0
-60 3662 0
-30 3662 0
30 60 -3662 0
-30 -60 3663 0
30 -3663 0
-3660 3663 0
3660 60 -3663 0
-3660 -60 3664 0
3660 -3664 0
-3661 3664 0
3661 60 -3664 0
-89 3665 0
-3662 3665 0
3662 89 -3665 0
-3662 -89 3666 0
3662 -3666 0
-3663 3666 0
3663 89 -3666 0
-3663 -89 3667 0
3663 -3667 0
-3664 3667 0
3664 89 -3667 0
-117 3668 0
-3665 3668 0
3665 117 -3668 0
-3665 -117 3669 0
3665 -3669 0
-3666 3669 0
3666 117 -3669 0
-3666 -117 3670 0
3666 -3670 0
-3667 3670 0
3667 117 -3670 0
-144 3671 0
-3668 3671 0
3668 144 -3671 0
-3668 -144 3672 0
3668 -3672 0
-3669 3672 0
3669 144 -3672 0
-3669 -144 3673 0
3669 -3673 0
-3670 3673 0
3670 144 -3673 0
-170 3674 0
-3671 3674 0
3671 170 -3674 0
-3671 -170 3675 0
3671 -3675 0
-3672 3675 0
3672 170 -3675 0
-3672 -170 3676 0
3672 -3676 0
-3673 3676 0
3673 170 -3676 0
-195 3677 0
-3674 3677 0
3674 195 -3677 0
-3674 -195 3678 0
3674 -3678 0
-3675 3678 0
3675 195 -3678 0
-3675 -195 3679 0
3675 -3679 0
-3676 3679 0
3676 195 -3679 0
-219 3680 0
-3677 3680 0
3677 219 -3680 0
-3677 -219 3681 0
3677 -3681 0
-3678 3681 0
3678 219 -3681 0
-3678 -219 3682 0
3678 -3682 0
-3679 3682 0
3679 219 -3682 0
-242 3683 0
-3680 3683 0
3680 242 -3683 0
-3680 -242 3684 0
3680 -3684 0
-3681 3684 0
3681 242 -3684 0
-3681 -242 3685 0
3681 -3685 0
-3682 3685 0
3682 242 -3685 0
-264 3686 0
-3683 3686 0
3683 264 -3686 0
-3683 -264 3687 0
3683 -3687 0
-3684 3687 0
3684 264 -3687 0
-3684 -264 3688 0
3684 -3688 0
-3685 3688 0
3685 264 -3688 0
-285 3689 0
-3686 3689 0
3686 285 -3689 0
-3686 -285 3690 0
3686 -3690 0
-3687 3690 0
3687 285 -3690 0
-3687 -285 3691 0
3687 -3691 0
-3688 3691 0
3688 285 -3691 0
-305 3692 0
-3689 3692 0
3689 305 -3692 0
-3689 -305 3693 0
3689 -3693 0
-3690 3693 0
3690 305 -3693 0
-3690 -305 3694 0
3690 -3694 0
-3691 3694 0
3691 305 -3694 0
-324 3695 0
-3692 3695 0
3692 324 -3695 0
-3692 -324 3696 0
3692 -3696 0
-3693 3696 0
3693 324 -3696 0
-3693 -324 3697 0
3693 -3697 0
-3694 3697 0
3694 324 -3697 0
-342 3698 0
-3695 3698 0
3695 342 -3698 0
-3695 -342 3699 0
3695 -3699 0
-3696 3699 0
3696 342 -3699 0
-3696 -342 3700 0
3696 -3700 0
-3697 3700 0
3697 342 -3700 0
-359 3701 0
-3698 3701 0
3698 359 -3701 0
-3698 -359 3702 0
3698 -3702 0
-3699 3702 0
3699 359 -3702 0
-3699 -359 3703 0
3699 -3703 0
-3700 3703 0
3700 359 -3703 0
-375 3704 0
-3701 3704 0
3701 375 -3704 0
-3701 -375 3705 0
3701 -3705 0
-3702 3705 0
3702 375 -3705 0
-3702 -375 3706 0
3702 -3706 0
-3703 3706 0
3703 375 -3706 0
-390 3707 0
-3704 3707 0
3704 390 -3707 0
-3704 -390 3708 0
3704 -3708 0
-3705 3708 0
3705 390 -3708 0
-3705 -390 3709 0
3705 -3709 0
-3706 3709 0
3706 390 -3709 0
-404 3710 0
-3707 3710 0
3707 404 -3710 0
-3707 -404 3711 0
3707 -3711 0
-3708 3711 0
3708 404 -3711 0
-3708 -404 3712 0
3708 -3712 0
-3709 3712 0
3709 404 -3712 0
-417 3713 0
-3710 3713 0
3710 417 -3713 0
-3710 -417 3714 0
3710 -3714 0
-3711 3714 0
3711 417 -3714 0
-3711 -417 3715 0
3711 -3715 0
-3712 3715 0
3712 417 -3715 0
-429 3716 0
-3713 3716 0
3713 429 -3716 0
-3713 -429 3717 0
3713 -3717 0
-3714 3717 0
3714 429 -3717 0
-3714 -429 3718 0
3714 -3718 0
-3715 3718 0
3715 429 -3718 0
-440 3719 0
-3716 3719 0
3716 440 -3719 0
-3716 -440 3720 0
3716 -3720 0
-3717 3720 0
3717 440 -3720 0
-3717 -440 3721 0
3717 -3721 0
-3718 3721 0
3718 440 -3721 0
-450 3722 0
-3719 3722 0
3719 450 -3722 0
-3719 -450 3723 0
3719 -3723 0
-3720 3723 0
3720 450 -3723 0
-3720 -450 3724 0
3720 -3724 0
-3721 3724 0
3721 450 -3724 0
-459 3725 0
-3722 3725 0
3722 459 -3725 0
-3722 -459 3726 0
3722 -3726 0
-3723 3726 0
3723 459 -3726 0
-3723 -459 3727 0
3723 -3727 0
-3724 3727 0
3724 459 -3727 0
-467 3728 0
-3725 3728 0
3725 467 -3728 0
-3725 -467 3729 0
3725 -3729 0
-3726 3729 0
3726 467 -3729 0
-3726 -467 3730 0
3726 -3730 0
-3727 3730 0
3727 467 -3730 0
-474 3731 0
-3728 3731 0
3728 474 -3731 0
-3728 -474 3732 0
3728 -3732 0
-3729 3732 0
3729 474 -3732 0
-3729 -474 3733 0
3729 -3733 0
-3730 3733 0
3730 474 -3733 0
-480 3734 0
-3731 3734 0
3731 480 -3734 0
-3731 -480 3735 0
3731 -3735 0
-3732 3735 0
3732 480 -3735 0
-3732 -480 3736 0
3732 -3736 0
-3733 3736 0
3733 480 -3736 0
-485 3737 0
-3734 3737 0
3734 485 -3737 0
-3734 -485 3738 0
3734 -3738 0
-3735 3738 0
3735 485 -3738 0
-3735 -485 3739 0
3735 -3739 0
-3736 3739 0
3736 485 -3739 0
-489 3740 0
-3737 3740 0
3737 489 -3740 0
-3737 -489 3741 0
3737 -3741 0
-3738 3741 0
3738 489 -3741 0
-3738 -489 3742 0
3738 -3742 0
-3739 3742 0
3739 489 -3742 0
-492 3743 0
-3740 3743 0
3740 492 -3743 0
-3740 -492 3744 0
3740 -3744 0
-3741 3744 0
3741 492 -3744 0
-3741 -492 3745 0
3741 -3745 0
-3742 3745 0
3742 492 -3745 0
-494 3746 0
-3743 3746 0
3743 494 -3746 0
-3743 -494 3747 0
3743 -3747 0
-3744 3747 0
3744 494 -3747 0
-3744 -494 3748 0
3744 -3748 0
-3745 3748 0
3745 494 -3748 0
-496 3749 0
-3746 3749 0
3746 496 -3749 0
-3746 -496 3750 0
3746 -3750 0
-3747 3750 0
3747 496 -3750 0
-3747 -496 3751 0
3747 -3751 0
-3748 3751 0
3748 496 -3751 0
-3661 -60 0
-3664 -89 0
-3667 -117 0
-3670 -144 0
-3673 -170 0
-3676 -195 0
-3679 -219 0
-3682 -242 0
-3685 -264 0
-3688 -285 0
-3691 -305 0
-3694 -324 0
-3697 -342 0
-3700 -359 0
-3703 -375 0
-3706 -390 0
-3709 -404 0
-3712 -417 0
-3715 -429 0
-3718 -440 0
-3721 -450 0
-3724 -459 0
-3727 -467 0
-3730 -474 0
-3733 -480 0
-3736 -485 0
-3739 -489 0
-3742 -492 0
-3745 -494 0
-3748 -496 0
3751 0
-3753 0
-3754 0
-61 3755 0
-31 3755 0
31 61 -3755 0
-31 -61 3756 0
31 -3756 0
-3753 3756 0
3753 61 -3756 0
-3753 -61 3757 0
3753 -3757 0
-3754 3757 0
3754 61 -3757 0
-90 3758 0
-3755 3758 0
3755 90 -3758 0
-3755 -90 3759 0
3755 -3759 0
-3756 3759 0
3756 90 -3759 0
-3756 -90 3760 0
3756 -3760 0
-3757 3760 0
3757 90 -3760 0
-118 3761 0
-3758 3761 0
3758 118 -3761 0
-3758 -118 3762 0
3758 -3762 0
-3759 3762 0
3759 118 -3762 0
-3759 -118 3763 0
3759 -3763 0
-3760 3763 0
3760 118 -3763 0
-145 3764 0
-3761 3764 0
3761 145 -3764 0
-3761 -145 3765 0
3761 -3765 0
-3762 3765 0
3762 145 -3765 0
-3762 -145 3766 0
3762 -3766 0
-3763 3766 0
3763 145 -3766 0
-171 3767 0
-3764 3767 0
3764 171 -3767 0
-3764 -171 3768 0
3764 -3768 0
-3765 3768 0
3765 171 -3768 0
-3765 -171 3769 0
3765 -3769 0
-3766 3769 0
3766 171 -3769 0
-196 3770 0
-3767 3770 0
3767 196 -3770 0
-3767 -196 3771 0
3767 -3771 0
-3768 3771 0
3768 196 -3771 0
-3768 -196 3772 0
3768 -3772 0
-3769 3772 0
3769 196 -3772 0
-220 3773 0
-3770 3773 0
3770 220 -3773 0
-3770 -220 3774 0
3770 -3774 0
-3771 3774 0
3771 220 -3774 0
-3771 -220 3775 0
3771 -3775 0
-3772 3775 0
3772 220 -3775 0
-243 3776 0
-3773 3776 0
3773 243 -3776 0
-3773 -243 3777 0
3773 -3777 0
-3774 3777 0
3774 243 -3777 0
-3774 -243 3778 0
3774 -3778 0
-3775 3778 0
3775 243 -3778 0
-265 3779 0
-3776 3779 0
3776 265 -3779 0
-3776 -265 3780 0
3776 -3780 0
-3777 3780 0
3777 265 -3780 0
-3777 -265 3781 0
3777 -3781 0
-3778 3781 0
3778 265 -3781 0
-286 3782 0
-3779 3782 0
3779 286 -3782 0
-3779 -286 3783 0
3779 -3783 0
-3780 3783 0
3780 286 -3783 0
-3780 -286 3784 0
3780 -3784 0
-3781 3784 0
3781 286 -3784 0
-306 3785 0
-3782 3785 0
3782 306 -3785 0
-3782 -306 3786 0
3782 -3786 0
-3783 3786 0
3783 306 -3786 0
-3783 -306 3787 0
3783 -3787 0
-3784 3787 0
3784 306 -3787 0
-325 3788 0
-3785 3788 0
3785 325 -3788 0
-3785 -325 3789 0
3785 -3789 0
-3786 3789 0
3786 325 -3789 0
-3786 -325 3790 0
3786 -3790 0
-3787 3790 0
3787 325 -3790 0
-343 3791 0
-3788 3791 0
3788 343 -3791 0
-3788 -343 3792 0
3788 -3792 0
-3789 3792 0
3789 343 -3792 0
-3789 -343 3793 0
3789 -3793 0
-3790 3793 0
3790 343 -3793 0
-360 3794 0
-3791 3794 0
3791 360 -3794 0
-3791 -360 3795 0
3791 -3795 0
-3792 3795 0
3792 360 -3795 0
-3792 -360 3796 0
3792 -3796 0
-3793 3796 0
3793 360 -3796 0
-376 3797 0
-3794 3797 0
3794 376 -3797 0
-3794 -376 3798 0
3794 -3798 0
-3795 3798 0
3795 376 -3798 0
-3795 -376 3799 0
3795 -3799 0
-3796 3799 0
3796 376 -3799 0
-391 3800 0
-3797 3800 0
3797 391 -3800 0
-3797 -391 3801 0
3797 -3801 0
-3798 3801 0
3798 391 -3801 0
-3798 -391 3802 0
3798 -3802 0
-3799 3802 0
3799 391 -3802 0
-405 3803 0
-3800 3803 0
3800 405 -3803 0
-3800 -405 3804 0
3800 -3804 0
-3801 3804 0
3801 405 -3804 0
-3801 -405 3805 0
3801 -3805 0
-3802 3805 0
3802 405 -3805 0
-418 3806 0
-3803 3806 0
3803 418 -3806 0
-3803 -418 3807 0
3803 -3807 0
-3804 3807 0
3804 418 -3807 0
-3804 -418 3808 0
3804 -3808 0
-3805 3808 0
3805 418 -3808 0
-430 3809 0
-3806 3809 0
3806 430 -3809 0
-3806 -430 3810 0
3806 -3810 0
-3807 3810 0
3807 430 -3810 0
-3807 -430 3811 0
3807 -3811 0
-3808 3811 0
3808 430 -3811 0
-441 3812 0
-3809 3812 0
3809 441 -3812 0
-3809 -441 3813 0
3809 -3813 0
-3810 3813 0
3810 441 -3813 0
-3810 -441 3814 0
3810 -3814 0
-3811 3814 0
3811 441 -3814 0
-451 3815 0
-3812 3815 0
3812 451 -3815 0
-3812 -451 3816 0
3812 -3816 0
-3813 3816 0
3813 451 -3816 0
-3813 -451 3817 0
3813 -3817 0
-3814 3817 0
3814 451 -3817 0
-460 3818 0
-3815 3818 0
3815 460 -3818 0
-3815 -460 3819 0
3815 -3819 0
-3816 3819 0
3816 460 -3819 0
-3816 -460 3820 0
3816 -3820 0
-3817 3820 0
3817 460 -3820 0
-468 3821 0
-3818 3821 0
3818 468 -3821 0
-3818 -468 3822 0
3818 -3822 0
-3819 3822 0
3819 468 -3822 0
-3819 -468 3823 0
3819 -3823 0
-3820 3823 0
3820 468 -3823 0
-475 3824 0
-3821 3824 0
3821 475 -3824 0
-3821 -475 3825 0
3821 -3825 0
-3822 3825 0
3822 475 -3825 0
-3822 -475 3826 0
3822 -3826 0
-3823 3826 0
3823 475 -3826 0
-481 3827 0
-3824 3827 0
3824 481 -3827 0
-3824 -481 3828 0
3824 -3828 0
-3825 3828 0
3825 481 -3828 0
-3825 -481 3829 0
3825 -3829 0
-3826 3829 0
3826 481 -3829 0
-486 3830 0
-3827 3830 0
3827 486 -3830 0
-3827 -486 3831 0
3827 -3831 0
-3828 3831 0
3828 486 -3831 0
-3828 -486 3832 0
3828 -3832 0
-3829 3832 0
3829 486 -3832 0
-490 3833 0
-3830 3833 0
3830 490 -3833 0
-3830 -490 3834 0
3830 -3834 0
-3831 3834 0
3831 490 -3834 0
-3831 -490 3835 0
3831 -3835 0
-3832 3835 0
3832 490 -3835 0
-493 3836 0
-3833 3836 0
3833 493 -3836 0
-3833 -493 3837 0
3833 -3837 0
-3834 3837 0
3834 493 -3837 0
-3834 -493 3838 0
3834 -3838 0
-3835 3838 0
3835 493 -3838 0
-495 3839 0
-3836 3839 0
3836 495 -3839 0
-3836 -495 3840 0
3836 -3840 0
-3837 3840 0
3837 495 -3840 0
-3837 -495 3841 0
3837 -3841 0
-3838 3841 0
3838 495 -3841 0
-496 3842 0
-3839 3842 0
3839 496 -3842 0
-3839 -496 3843 0
3839 -3843 0
-3840 3843 0
3840 496 -3843 0
-3840 -496 3844 0
3840 -3844 0
-3841 3844 0
3841 496 -3844 0
-3754 -61 0
-3757 -90 0
-3760 -118 0
-3763 -145 0
-3766 -171 0
-3769 -196 0
-3772 -220 0
-3775 -243 0
-3778 -265 0
-3781 -286 0
-3784 -306 0
-3787 -325 0
-3790 -343 0
-3793 -360 0
-3796 -376 0
-3799 -391 0
-3802 -405 0
-3805 -418 0
-3808 -430 0
-3811 -441 0
-3814 -451 0
-3817 -460 0
-3820 -468 0
-3823 -475 0
-3826 -481 0
-3829 -486 0
-3832 -490 0
-3835 -493 0
-3838 -495 0
-3841 -496 0
3844 0
-1 0
-2 0
-3 0
-4 0
-5 0
-6 0
-7 0
-8 0
-9 0
-10 0
-11 0
-32 0
-33 0
-34 0
-35 0
-36 0
-37 0
-38 0
-39 0
-40 0
-41 0
-62 0
-63 0
-64 0
-65 0
-66 0
-67 0
-68 0
-69 0
-70 0
-91 0
-92 0
-93 0
-94 0
-95 0
-96 0
-97 0
-98 0
-119 0
-120 0
-121 0
-122 0
-123 0
-124 0
-125 0
-146 0
-147 0
-148 0
-149 0
-150 0
-151 0
-172 0
-173 0
-174 0
-175 0
-176 0
-197 0
-198 0
-199 0
-200 0
-221 0
-222 0
-223 0
-244 0
-245 0
-266 0
307 308 309 310 311 312 313 314 315 316 317 318 319 320 321 322 323 324 325 0
307 326 327 328 329 330 331 332 333 334 335 336 337 338 339 340 341 342 343 0
308 326 344 345 346 347 348 349 350 351 352 353 354 355 356 357 358 359 360 0
309 327 344 361 362 363 364 365 366 367 368 369 370 371 372 373 374 375 376 0
310 328 345 361 377 378 379 380 381 382 383 384 385 386 387 388 389 390 391 0
311 329 346 362 377 392 393 394 395 396 397 398 399 400 401 402 403 404 405 0
312 330 347 363 378 392 406 407 408 409 410 411 412 413 414 415 416 417 418 0
313 331 348 364 379 393 406 419 420 421 422 423 424 425 426 427 428 429 430 0
314 332 349 365 380 394 407 419 431 432 433 434 435 436 437 438 439 440 441 0
315 333 350 366 381 395 408 420 431 442 443 444 445 446 447 448 449 450 451 0
316 334 351 367 382 396 409 421 432 442 452 453 454 455 456 457 458 459 460 0
317 335 352 368 383 397 410 422 433 443 452 461 462 463 464 465 466 467 468 0
318 336 353 369 384 398 411 423 434 444 453 461 469 470 471 472 473 474 475 0
319 337 354 370 385 399 412 424 435 445 454 462 469 476 477 478 479 480 481 0
320 338 355 371 386 400 413 425 436 446 455 463 470 476 482 483 484 485 486 0
321 339 356 372 387 401 414 426 437 447 456 464 471 477 482 487 488 489 490 0
322 340 357 373 388 402 415 427 438 448 457 465 472 478 483 487 491 492 493 0
323 341 358 374 389 403 416 428 439 449 458 466 473 479 484 488 491 494 495 0
324 342 359 375 390 404 417 429 440 450 459 467 474 480 485 489 492 494 496 0
325 343 360 376 391 405 418 430 441 451 460 468 475 481 486 490 493 495 496 0
